 <VTKFile type="UnstructuredGrid"  version="0.1"   >
 <UnstructuredGrid>
 <Piece  NumberOfPoints="          1600 "  NumberOfCells="         1024 ">
 <Points>
 <DataArray  type="Float64" NumberOfComponents="3"  format="ascii" >
   0.0000000000000000        0.0000000000000000        0.0000000000000000     
   3.1250000000000000E-002   0.0000000000000000        0.0000000000000000     
   6.2500000000000000E-002   0.0000000000000000        0.0000000000000000     
   9.3750000000000000E-002   0.0000000000000000        0.0000000000000000     
  0.12500000000000000        0.0000000000000000        0.0000000000000000     
   0.0000000000000000        3.1250000000000000E-002   0.0000000000000000     
   3.1250000000000000E-002   3.1250000000000000E-002   0.0000000000000000     
   6.2500000000000000E-002   3.1250000000000000E-002   0.0000000000000000     
   9.3750000000000000E-002   3.1250000000000000E-002   0.0000000000000000     
  0.12500000000000000        3.1250000000000000E-002   0.0000000000000000     
   0.0000000000000000        6.2500000000000000E-002   0.0000000000000000     
   3.1250000000000000E-002   6.2500000000000000E-002   0.0000000000000000     
   6.2500000000000000E-002   6.2500000000000000E-002   0.0000000000000000     
   9.3750000000000000E-002   6.2500000000000000E-002   0.0000000000000000     
  0.12500000000000000        6.2500000000000000E-002   0.0000000000000000     
   0.0000000000000000        9.3750000000000000E-002   0.0000000000000000     
   3.1250000000000000E-002   9.3750000000000000E-002   0.0000000000000000     
   6.2500000000000000E-002   9.3750000000000000E-002   0.0000000000000000     
   9.3750000000000000E-002   9.3750000000000000E-002   0.0000000000000000     
  0.12500000000000000        9.3750000000000000E-002   0.0000000000000000     
   0.0000000000000000       0.12500000000000000        0.0000000000000000     
   3.1250000000000000E-002  0.12500000000000000        0.0000000000000000     
   6.2500000000000000E-002  0.12500000000000000        0.0000000000000000     
   9.3750000000000000E-002  0.12500000000000000        0.0000000000000000     
  0.12500000000000000       0.12500000000000000        0.0000000000000000     
  0.12500000000000000        0.0000000000000000        0.0000000000000000     
  0.15625000000000000        0.0000000000000000        0.0000000000000000     
  0.18750000000000000        0.0000000000000000        0.0000000000000000     
  0.21875000000000000        0.0000000000000000        0.0000000000000000     
  0.25000000000000000        0.0000000000000000        0.0000000000000000     
  0.12500000000000000        3.1250000000000000E-002   0.0000000000000000     
  0.15625000000000000        3.1250000000000000E-002   0.0000000000000000     
  0.18750000000000000        3.1250000000000000E-002   0.0000000000000000     
  0.21875000000000000        3.1250000000000000E-002   0.0000000000000000     
  0.25000000000000000        3.1250000000000000E-002   0.0000000000000000     
  0.12500000000000000        6.2500000000000000E-002   0.0000000000000000     
  0.15625000000000000        6.2500000000000000E-002   0.0000000000000000     
  0.18750000000000000        6.2500000000000000E-002   0.0000000000000000     
  0.21875000000000000        6.2500000000000000E-002   0.0000000000000000     
  0.25000000000000000        6.2500000000000000E-002   0.0000000000000000     
  0.12500000000000000        9.3750000000000000E-002   0.0000000000000000     
  0.15625000000000000        9.3750000000000000E-002   0.0000000000000000     
  0.18750000000000000        9.3750000000000000E-002   0.0000000000000000     
  0.21875000000000000        9.3750000000000000E-002   0.0000000000000000     
  0.25000000000000000        9.3750000000000000E-002   0.0000000000000000     
  0.12500000000000000       0.12500000000000000        0.0000000000000000     
  0.15625000000000000       0.12500000000000000        0.0000000000000000     
  0.18750000000000000       0.12500000000000000        0.0000000000000000     
  0.21875000000000000       0.12500000000000000        0.0000000000000000     
  0.25000000000000000       0.12500000000000000        0.0000000000000000     
  0.25000000000000000        0.0000000000000000        0.0000000000000000     
  0.28125000000000000        0.0000000000000000        0.0000000000000000     
  0.31250000000000000        0.0000000000000000        0.0000000000000000     
  0.34375000000000000        0.0000000000000000        0.0000000000000000     
  0.37500000000000000        0.0000000000000000        0.0000000000000000     
  0.25000000000000000        3.1250000000000000E-002   0.0000000000000000     
  0.28125000000000000        3.1250000000000000E-002   0.0000000000000000     
  0.31250000000000000        3.1250000000000000E-002   0.0000000000000000     
  0.34375000000000000        3.1250000000000000E-002   0.0000000000000000     
  0.37500000000000000        3.1250000000000000E-002   0.0000000000000000     
  0.25000000000000000        6.2500000000000000E-002   0.0000000000000000     
  0.28125000000000000        6.2500000000000000E-002   0.0000000000000000     
  0.31250000000000000        6.2500000000000000E-002   0.0000000000000000     
  0.34375000000000000        6.2500000000000000E-002   0.0000000000000000     
  0.37500000000000000        6.2500000000000000E-002   0.0000000000000000     
  0.25000000000000000        9.3750000000000000E-002   0.0000000000000000     
  0.28125000000000000        9.3750000000000000E-002   0.0000000000000000     
  0.31250000000000000        9.3750000000000000E-002   0.0000000000000000     
  0.34375000000000000        9.3750000000000000E-002   0.0000000000000000     
  0.37500000000000000        9.3750000000000000E-002   0.0000000000000000     
  0.25000000000000000       0.12500000000000000        0.0000000000000000     
  0.28125000000000000       0.12500000000000000        0.0000000000000000     
  0.31250000000000000       0.12500000000000000        0.0000000000000000     
  0.34375000000000000       0.12500000000000000        0.0000000000000000     
  0.37500000000000000       0.12500000000000000        0.0000000000000000     
  0.37500000000000000        0.0000000000000000        0.0000000000000000     
  0.40625000000000000        0.0000000000000000        0.0000000000000000     
  0.43750000000000000        0.0000000000000000        0.0000000000000000     
  0.46875000000000000        0.0000000000000000        0.0000000000000000     
  0.50000000000000000        0.0000000000000000        0.0000000000000000     
  0.37500000000000000        3.1250000000000000E-002   0.0000000000000000     
  0.40625000000000000        3.1250000000000000E-002   0.0000000000000000     
  0.43750000000000000        3.1250000000000000E-002   0.0000000000000000     
  0.46875000000000000        3.1250000000000000E-002   0.0000000000000000     
  0.50000000000000000        3.1250000000000000E-002   0.0000000000000000     
  0.37500000000000000        6.2500000000000000E-002   0.0000000000000000     
  0.40625000000000000        6.2500000000000000E-002   0.0000000000000000     
  0.43750000000000000        6.2500000000000000E-002   0.0000000000000000     
  0.46875000000000000        6.2500000000000000E-002   0.0000000000000000     
  0.50000000000000000        6.2500000000000000E-002   0.0000000000000000     
  0.37500000000000000        9.3750000000000000E-002   0.0000000000000000     
  0.40625000000000000        9.3750000000000000E-002   0.0000000000000000     
  0.43750000000000000        9.3750000000000000E-002   0.0000000000000000     
  0.46875000000000000        9.3750000000000000E-002   0.0000000000000000     
  0.50000000000000000        9.3750000000000000E-002   0.0000000000000000     
  0.37500000000000000       0.12500000000000000        0.0000000000000000     
  0.40625000000000000       0.12500000000000000        0.0000000000000000     
  0.43750000000000000       0.12500000000000000        0.0000000000000000     
  0.46875000000000000       0.12500000000000000        0.0000000000000000     
  0.50000000000000000       0.12500000000000000        0.0000000000000000     
  0.50000000000000000        0.0000000000000000        0.0000000000000000     
  0.53125000000000000        0.0000000000000000        0.0000000000000000     
  0.56250000000000000        0.0000000000000000        0.0000000000000000     
  0.59375000000000000        0.0000000000000000        0.0000000000000000     
  0.62500000000000000        0.0000000000000000        0.0000000000000000     
  0.50000000000000000        3.1250000000000000E-002   0.0000000000000000     
  0.53125000000000000        3.1250000000000000E-002   0.0000000000000000     
  0.56250000000000000        3.1250000000000000E-002   0.0000000000000000     
  0.59375000000000000        3.1250000000000000E-002   0.0000000000000000     
  0.62500000000000000        3.1250000000000000E-002   0.0000000000000000     
  0.50000000000000000        6.2500000000000000E-002   0.0000000000000000     
  0.53125000000000000        6.2500000000000000E-002   0.0000000000000000     
  0.56250000000000000        6.2500000000000000E-002   0.0000000000000000     
  0.59375000000000000        6.2500000000000000E-002   0.0000000000000000     
  0.62500000000000000        6.2500000000000000E-002   0.0000000000000000     
  0.50000000000000000        9.3750000000000000E-002   0.0000000000000000     
  0.53125000000000000        9.3750000000000000E-002   0.0000000000000000     
  0.56250000000000000        9.3750000000000000E-002   0.0000000000000000     
  0.59375000000000000        9.3750000000000000E-002   0.0000000000000000     
  0.62500000000000000        9.3750000000000000E-002   0.0000000000000000     
  0.50000000000000000       0.12500000000000000        0.0000000000000000     
  0.53125000000000000       0.12500000000000000        0.0000000000000000     
  0.56250000000000000       0.12500000000000000        0.0000000000000000     
  0.59375000000000000       0.12500000000000000        0.0000000000000000     
  0.62500000000000000       0.12500000000000000        0.0000000000000000     
  0.62500000000000000        0.0000000000000000        0.0000000000000000     
  0.65625000000000000        0.0000000000000000        0.0000000000000000     
  0.68750000000000000        0.0000000000000000        0.0000000000000000     
  0.71875000000000000        0.0000000000000000        0.0000000000000000     
  0.75000000000000000        0.0000000000000000        0.0000000000000000     
  0.62500000000000000        3.1250000000000000E-002   0.0000000000000000     
  0.65625000000000000        3.1250000000000000E-002   0.0000000000000000     
  0.68750000000000000        3.1250000000000000E-002   0.0000000000000000     
  0.71875000000000000        3.1250000000000000E-002   0.0000000000000000     
  0.75000000000000000        3.1250000000000000E-002   0.0000000000000000     
  0.62500000000000000        6.2500000000000000E-002   0.0000000000000000     
  0.65625000000000000        6.2500000000000000E-002   0.0000000000000000     
  0.68750000000000000        6.2500000000000000E-002   0.0000000000000000     
  0.71875000000000000        6.2500000000000000E-002   0.0000000000000000     
  0.75000000000000000        6.2500000000000000E-002   0.0000000000000000     
  0.62500000000000000        9.3750000000000000E-002   0.0000000000000000     
  0.65625000000000000        9.3750000000000000E-002   0.0000000000000000     
  0.68750000000000000        9.3750000000000000E-002   0.0000000000000000     
  0.71875000000000000        9.3750000000000000E-002   0.0000000000000000     
  0.75000000000000000        9.3750000000000000E-002   0.0000000000000000     
  0.62500000000000000       0.12500000000000000        0.0000000000000000     
  0.65625000000000000       0.12500000000000000        0.0000000000000000     
  0.68750000000000000       0.12500000000000000        0.0000000000000000     
  0.71875000000000000       0.12500000000000000        0.0000000000000000     
  0.75000000000000000       0.12500000000000000        0.0000000000000000     
  0.75000000000000000        0.0000000000000000        0.0000000000000000     
  0.78125000000000000        0.0000000000000000        0.0000000000000000     
  0.81250000000000000        0.0000000000000000        0.0000000000000000     
  0.84375000000000000        0.0000000000000000        0.0000000000000000     
  0.87500000000000000        0.0000000000000000        0.0000000000000000     
  0.75000000000000000        3.1250000000000000E-002   0.0000000000000000     
  0.78125000000000000        3.1250000000000000E-002   0.0000000000000000     
  0.81250000000000000        3.1250000000000000E-002   0.0000000000000000     
  0.84375000000000000        3.1250000000000000E-002   0.0000000000000000     
  0.87500000000000000        3.1250000000000000E-002   0.0000000000000000     
  0.75000000000000000        6.2500000000000000E-002   0.0000000000000000     
  0.78125000000000000        6.2500000000000000E-002   0.0000000000000000     
  0.81250000000000000        6.2500000000000000E-002   0.0000000000000000     
  0.84375000000000000        6.2500000000000000E-002   0.0000000000000000     
  0.87500000000000000        6.2500000000000000E-002   0.0000000000000000     
  0.75000000000000000        9.3750000000000000E-002   0.0000000000000000     
  0.78125000000000000        9.3750000000000000E-002   0.0000000000000000     
  0.81250000000000000        9.3750000000000000E-002   0.0000000000000000     
  0.84375000000000000        9.3750000000000000E-002   0.0000000000000000     
  0.87500000000000000        9.3750000000000000E-002   0.0000000000000000     
  0.75000000000000000       0.12500000000000000        0.0000000000000000     
  0.78125000000000000       0.12500000000000000        0.0000000000000000     
  0.81250000000000000       0.12500000000000000        0.0000000000000000     
  0.84375000000000000       0.12500000000000000        0.0000000000000000     
  0.87500000000000000       0.12500000000000000        0.0000000000000000     
  0.87500000000000000        0.0000000000000000        0.0000000000000000     
  0.90625000000000000        0.0000000000000000        0.0000000000000000     
  0.93750000000000000        0.0000000000000000        0.0000000000000000     
  0.96875000000000000        0.0000000000000000        0.0000000000000000     
   1.0000000000000000        0.0000000000000000        0.0000000000000000     
  0.87500000000000000        3.1250000000000000E-002   0.0000000000000000     
  0.90625000000000000        3.1250000000000000E-002   0.0000000000000000     
  0.93750000000000000        3.1250000000000000E-002   0.0000000000000000     
  0.96875000000000000        3.1250000000000000E-002   0.0000000000000000     
   1.0000000000000000        3.1250000000000000E-002   0.0000000000000000     
  0.87500000000000000        6.2500000000000000E-002   0.0000000000000000     
  0.90625000000000000        6.2500000000000000E-002   0.0000000000000000     
  0.93750000000000000        6.2500000000000000E-002   0.0000000000000000     
  0.96875000000000000        6.2500000000000000E-002   0.0000000000000000     
   1.0000000000000000        6.2500000000000000E-002   0.0000000000000000     
  0.87500000000000000        9.3750000000000000E-002   0.0000000000000000     
  0.90625000000000000        9.3750000000000000E-002   0.0000000000000000     
  0.93750000000000000        9.3750000000000000E-002   0.0000000000000000     
  0.96875000000000000        9.3750000000000000E-002   0.0000000000000000     
   1.0000000000000000        9.3750000000000000E-002   0.0000000000000000     
  0.87500000000000000       0.12500000000000000        0.0000000000000000     
  0.90625000000000000       0.12500000000000000        0.0000000000000000     
  0.93750000000000000       0.12500000000000000        0.0000000000000000     
  0.96875000000000000       0.12500000000000000        0.0000000000000000     
   1.0000000000000000       0.12500000000000000        0.0000000000000000     
   0.0000000000000000       0.12500000000000000        0.0000000000000000     
   3.1250000000000000E-002  0.12500000000000000        0.0000000000000000     
   6.2500000000000000E-002  0.12500000000000000        0.0000000000000000     
   9.3750000000000000E-002  0.12500000000000000        0.0000000000000000     
  0.12500000000000000       0.12500000000000000        0.0000000000000000     
   0.0000000000000000       0.15625000000000000        0.0000000000000000     
   3.1250000000000000E-002  0.15625000000000000        0.0000000000000000     
   6.2500000000000000E-002  0.15625000000000000        0.0000000000000000     
   9.3750000000000000E-002  0.15625000000000000        0.0000000000000000     
  0.12500000000000000       0.15625000000000000        0.0000000000000000     
   0.0000000000000000       0.18750000000000000        0.0000000000000000     
   3.1250000000000000E-002  0.18750000000000000        0.0000000000000000     
   6.2500000000000000E-002  0.18750000000000000        0.0000000000000000     
   9.3750000000000000E-002  0.18750000000000000        0.0000000000000000     
  0.12500000000000000       0.18750000000000000        0.0000000000000000     
   0.0000000000000000       0.21875000000000000        0.0000000000000000     
   3.1250000000000000E-002  0.21875000000000000        0.0000000000000000     
   6.2500000000000000E-002  0.21875000000000000        0.0000000000000000     
   9.3750000000000000E-002  0.21875000000000000        0.0000000000000000     
  0.12500000000000000       0.21875000000000000        0.0000000000000000     
   0.0000000000000000       0.25000000000000000        0.0000000000000000     
   3.1250000000000000E-002  0.25000000000000000        0.0000000000000000     
   6.2500000000000000E-002  0.25000000000000000        0.0000000000000000     
   9.3750000000000000E-002  0.25000000000000000        0.0000000000000000     
  0.12500000000000000       0.25000000000000000        0.0000000000000000     
  0.12500000000000000       0.12500000000000000        0.0000000000000000     
  0.15625000000000000       0.12500000000000000        0.0000000000000000     
  0.18750000000000000       0.12500000000000000        0.0000000000000000     
  0.21875000000000000       0.12500000000000000        0.0000000000000000     
  0.25000000000000000       0.12500000000000000        0.0000000000000000     
  0.12500000000000000       0.15625000000000000        0.0000000000000000     
  0.15625000000000000       0.15625000000000000        0.0000000000000000     
  0.18750000000000000       0.15625000000000000        0.0000000000000000     
  0.21875000000000000       0.15625000000000000        0.0000000000000000     
  0.25000000000000000       0.15625000000000000        0.0000000000000000     
  0.12500000000000000       0.18750000000000000        0.0000000000000000     
  0.15625000000000000       0.18750000000000000        0.0000000000000000     
  0.18750000000000000       0.18750000000000000        0.0000000000000000     
  0.21875000000000000       0.18750000000000000        0.0000000000000000     
  0.25000000000000000       0.18750000000000000        0.0000000000000000     
  0.12500000000000000       0.21875000000000000        0.0000000000000000     
  0.15625000000000000       0.21875000000000000        0.0000000000000000     
  0.18750000000000000       0.21875000000000000        0.0000000000000000     
  0.21875000000000000       0.21875000000000000        0.0000000000000000     
  0.25000000000000000       0.21875000000000000        0.0000000000000000     
  0.12500000000000000       0.25000000000000000        0.0000000000000000     
  0.15625000000000000       0.25000000000000000        0.0000000000000000     
  0.18750000000000000       0.25000000000000000        0.0000000000000000     
  0.21875000000000000       0.25000000000000000        0.0000000000000000     
  0.25000000000000000       0.25000000000000000        0.0000000000000000     
  0.25000000000000000       0.12500000000000000        0.0000000000000000     
  0.28125000000000000       0.12500000000000000        0.0000000000000000     
  0.31250000000000000       0.12500000000000000        0.0000000000000000     
  0.34375000000000000       0.12500000000000000        0.0000000000000000     
  0.37500000000000000       0.12500000000000000        0.0000000000000000     
  0.25000000000000000       0.15625000000000000        0.0000000000000000     
  0.28125000000000000       0.15625000000000000        0.0000000000000000     
  0.31250000000000000       0.15625000000000000        0.0000000000000000     
  0.34375000000000000       0.15625000000000000        0.0000000000000000     
  0.37500000000000000       0.15625000000000000        0.0000000000000000     
  0.25000000000000000       0.18750000000000000        0.0000000000000000     
  0.28125000000000000       0.18750000000000000        0.0000000000000000     
  0.31250000000000000       0.18750000000000000        0.0000000000000000     
  0.34375000000000000       0.18750000000000000        0.0000000000000000     
  0.37500000000000000       0.18750000000000000        0.0000000000000000     
  0.25000000000000000       0.21875000000000000        0.0000000000000000     
  0.28125000000000000       0.21875000000000000        0.0000000000000000     
  0.31250000000000000       0.21875000000000000        0.0000000000000000     
  0.34375000000000000       0.21875000000000000        0.0000000000000000     
  0.37500000000000000       0.21875000000000000        0.0000000000000000     
  0.25000000000000000       0.25000000000000000        0.0000000000000000     
  0.28125000000000000       0.25000000000000000        0.0000000000000000     
  0.31250000000000000       0.25000000000000000        0.0000000000000000     
  0.34375000000000000       0.25000000000000000        0.0000000000000000     
  0.37500000000000000       0.25000000000000000        0.0000000000000000     
  0.37500000000000000       0.12500000000000000        0.0000000000000000     
  0.40625000000000000       0.12500000000000000        0.0000000000000000     
  0.43750000000000000       0.12500000000000000        0.0000000000000000     
  0.46875000000000000       0.12500000000000000        0.0000000000000000     
  0.50000000000000000       0.12500000000000000        0.0000000000000000     
  0.37500000000000000       0.15625000000000000        0.0000000000000000     
  0.40625000000000000       0.15625000000000000        0.0000000000000000     
  0.43750000000000000       0.15625000000000000        0.0000000000000000     
  0.46875000000000000       0.15625000000000000        0.0000000000000000     
  0.50000000000000000       0.15625000000000000        0.0000000000000000     
  0.37500000000000000       0.18750000000000000        0.0000000000000000     
  0.40625000000000000       0.18750000000000000        0.0000000000000000     
  0.43750000000000000       0.18750000000000000        0.0000000000000000     
  0.46875000000000000       0.18750000000000000        0.0000000000000000     
  0.50000000000000000       0.18750000000000000        0.0000000000000000     
  0.37500000000000000       0.21875000000000000        0.0000000000000000     
  0.40625000000000000       0.21875000000000000        0.0000000000000000     
  0.43750000000000000       0.21875000000000000        0.0000000000000000     
  0.46875000000000000       0.21875000000000000        0.0000000000000000     
  0.50000000000000000       0.21875000000000000        0.0000000000000000     
  0.37500000000000000       0.25000000000000000        0.0000000000000000     
  0.40625000000000000       0.25000000000000000        0.0000000000000000     
  0.43750000000000000       0.25000000000000000        0.0000000000000000     
  0.46875000000000000       0.25000000000000000        0.0000000000000000     
  0.50000000000000000       0.25000000000000000        0.0000000000000000     
  0.50000000000000000       0.12500000000000000        0.0000000000000000     
  0.53125000000000000       0.12500000000000000        0.0000000000000000     
  0.56250000000000000       0.12500000000000000        0.0000000000000000     
  0.59375000000000000       0.12500000000000000        0.0000000000000000     
  0.62500000000000000       0.12500000000000000        0.0000000000000000     
  0.50000000000000000       0.15625000000000000        0.0000000000000000     
  0.53125000000000000       0.15625000000000000        0.0000000000000000     
  0.56250000000000000       0.15625000000000000        0.0000000000000000     
  0.59375000000000000       0.15625000000000000        0.0000000000000000     
  0.62500000000000000       0.15625000000000000        0.0000000000000000     
  0.50000000000000000       0.18750000000000000        0.0000000000000000     
  0.53125000000000000       0.18750000000000000        0.0000000000000000     
  0.56250000000000000       0.18750000000000000        0.0000000000000000     
  0.59375000000000000       0.18750000000000000        0.0000000000000000     
  0.62500000000000000       0.18750000000000000        0.0000000000000000     
  0.50000000000000000       0.21875000000000000        0.0000000000000000     
  0.53125000000000000       0.21875000000000000        0.0000000000000000     
  0.56250000000000000       0.21875000000000000        0.0000000000000000     
  0.59375000000000000       0.21875000000000000        0.0000000000000000     
  0.62500000000000000       0.21875000000000000        0.0000000000000000     
  0.50000000000000000       0.25000000000000000        0.0000000000000000     
  0.53125000000000000       0.25000000000000000        0.0000000000000000     
  0.56250000000000000       0.25000000000000000        0.0000000000000000     
  0.59375000000000000       0.25000000000000000        0.0000000000000000     
  0.62500000000000000       0.25000000000000000        0.0000000000000000     
  0.62500000000000000       0.12500000000000000        0.0000000000000000     
  0.65625000000000000       0.12500000000000000        0.0000000000000000     
  0.68750000000000000       0.12500000000000000        0.0000000000000000     
  0.71875000000000000       0.12500000000000000        0.0000000000000000     
  0.75000000000000000       0.12500000000000000        0.0000000000000000     
  0.62500000000000000       0.15625000000000000        0.0000000000000000     
  0.65625000000000000       0.15625000000000000        0.0000000000000000     
  0.68750000000000000       0.15625000000000000        0.0000000000000000     
  0.71875000000000000       0.15625000000000000        0.0000000000000000     
  0.75000000000000000       0.15625000000000000        0.0000000000000000     
  0.62500000000000000       0.18750000000000000        0.0000000000000000     
  0.65625000000000000       0.18750000000000000        0.0000000000000000     
  0.68750000000000000       0.18750000000000000        0.0000000000000000     
  0.71875000000000000       0.18750000000000000        0.0000000000000000     
  0.75000000000000000       0.18750000000000000        0.0000000000000000     
  0.62500000000000000       0.21875000000000000        0.0000000000000000     
  0.65625000000000000       0.21875000000000000        0.0000000000000000     
  0.68750000000000000       0.21875000000000000        0.0000000000000000     
  0.71875000000000000       0.21875000000000000        0.0000000000000000     
  0.75000000000000000       0.21875000000000000        0.0000000000000000     
  0.62500000000000000       0.25000000000000000        0.0000000000000000     
  0.65625000000000000       0.25000000000000000        0.0000000000000000     
  0.68750000000000000       0.25000000000000000        0.0000000000000000     
  0.71875000000000000       0.25000000000000000        0.0000000000000000     
  0.75000000000000000       0.25000000000000000        0.0000000000000000     
  0.75000000000000000       0.12500000000000000        0.0000000000000000     
  0.78125000000000000       0.12500000000000000        0.0000000000000000     
  0.81250000000000000       0.12500000000000000        0.0000000000000000     
  0.84375000000000000       0.12500000000000000        0.0000000000000000     
  0.87500000000000000       0.12500000000000000        0.0000000000000000     
  0.75000000000000000       0.15625000000000000        0.0000000000000000     
  0.78125000000000000       0.15625000000000000        0.0000000000000000     
  0.81250000000000000       0.15625000000000000        0.0000000000000000     
  0.84375000000000000       0.15625000000000000        0.0000000000000000     
  0.87500000000000000       0.15625000000000000        0.0000000000000000     
  0.75000000000000000       0.18750000000000000        0.0000000000000000     
  0.78125000000000000       0.18750000000000000        0.0000000000000000     
  0.81250000000000000       0.18750000000000000        0.0000000000000000     
  0.84375000000000000       0.18750000000000000        0.0000000000000000     
  0.87500000000000000       0.18750000000000000        0.0000000000000000     
  0.75000000000000000       0.21875000000000000        0.0000000000000000     
  0.78125000000000000       0.21875000000000000        0.0000000000000000     
  0.81250000000000000       0.21875000000000000        0.0000000000000000     
  0.84375000000000000       0.21875000000000000        0.0000000000000000     
  0.87500000000000000       0.21875000000000000        0.0000000000000000     
  0.75000000000000000       0.25000000000000000        0.0000000000000000     
  0.78125000000000000       0.25000000000000000        0.0000000000000000     
  0.81250000000000000       0.25000000000000000        0.0000000000000000     
  0.84375000000000000       0.25000000000000000        0.0000000000000000     
  0.87500000000000000       0.25000000000000000        0.0000000000000000     
  0.87500000000000000       0.12500000000000000        0.0000000000000000     
  0.90625000000000000       0.12500000000000000        0.0000000000000000     
  0.93750000000000000       0.12500000000000000        0.0000000000000000     
  0.96875000000000000       0.12500000000000000        0.0000000000000000     
   1.0000000000000000       0.12500000000000000        0.0000000000000000     
  0.87500000000000000       0.15625000000000000        0.0000000000000000     
  0.90625000000000000       0.15625000000000000        0.0000000000000000     
  0.93750000000000000       0.15625000000000000        0.0000000000000000     
  0.96875000000000000       0.15625000000000000        0.0000000000000000     
   1.0000000000000000       0.15625000000000000        0.0000000000000000     
  0.87500000000000000       0.18750000000000000        0.0000000000000000     
  0.90625000000000000       0.18750000000000000        0.0000000000000000     
  0.93750000000000000       0.18750000000000000        0.0000000000000000     
  0.96875000000000000       0.18750000000000000        0.0000000000000000     
   1.0000000000000000       0.18750000000000000        0.0000000000000000     
  0.87500000000000000       0.21875000000000000        0.0000000000000000     
  0.90625000000000000       0.21875000000000000        0.0000000000000000     
  0.93750000000000000       0.21875000000000000        0.0000000000000000     
  0.96875000000000000       0.21875000000000000        0.0000000000000000     
   1.0000000000000000       0.21875000000000000        0.0000000000000000     
  0.87500000000000000       0.25000000000000000        0.0000000000000000     
  0.90625000000000000       0.25000000000000000        0.0000000000000000     
  0.93750000000000000       0.25000000000000000        0.0000000000000000     
  0.96875000000000000       0.25000000000000000        0.0000000000000000     
   1.0000000000000000       0.25000000000000000        0.0000000000000000     
   0.0000000000000000       0.25000000000000000        0.0000000000000000     
   3.1250000000000000E-002  0.25000000000000000        0.0000000000000000     
   6.2500000000000000E-002  0.25000000000000000        0.0000000000000000     
   9.3750000000000000E-002  0.25000000000000000        0.0000000000000000     
  0.12500000000000000       0.25000000000000000        0.0000000000000000     
   0.0000000000000000       0.28125000000000000        0.0000000000000000     
   3.1250000000000000E-002  0.28125000000000000        0.0000000000000000     
   6.2500000000000000E-002  0.28125000000000000        0.0000000000000000     
   9.3750000000000000E-002  0.28125000000000000        0.0000000000000000     
  0.12500000000000000       0.28125000000000000        0.0000000000000000     
   0.0000000000000000       0.31250000000000000        0.0000000000000000     
   3.1250000000000000E-002  0.31250000000000000        0.0000000000000000     
   6.2500000000000000E-002  0.31250000000000000        0.0000000000000000     
   9.3750000000000000E-002  0.31250000000000000        0.0000000000000000     
  0.12500000000000000       0.31250000000000000        0.0000000000000000     
   0.0000000000000000       0.34375000000000000        0.0000000000000000     
   3.1250000000000000E-002  0.34375000000000000        0.0000000000000000     
   6.2500000000000000E-002  0.34375000000000000        0.0000000000000000     
   9.3750000000000000E-002  0.34375000000000000        0.0000000000000000     
  0.12500000000000000       0.34375000000000000        0.0000000000000000     
   0.0000000000000000       0.37500000000000000        0.0000000000000000     
   3.1250000000000000E-002  0.37500000000000000        0.0000000000000000     
   6.2500000000000000E-002  0.37500000000000000        0.0000000000000000     
   9.3750000000000000E-002  0.37500000000000000        0.0000000000000000     
  0.12500000000000000       0.37500000000000000        0.0000000000000000     
  0.12500000000000000       0.25000000000000000        0.0000000000000000     
  0.15625000000000000       0.25000000000000000        0.0000000000000000     
  0.18750000000000000       0.25000000000000000        0.0000000000000000     
  0.21875000000000000       0.25000000000000000        0.0000000000000000     
  0.25000000000000000       0.25000000000000000        0.0000000000000000     
  0.12500000000000000       0.28125000000000000        0.0000000000000000     
  0.15625000000000000       0.28125000000000000        0.0000000000000000     
  0.18750000000000000       0.28125000000000000        0.0000000000000000     
  0.21875000000000000       0.28125000000000000        0.0000000000000000     
  0.25000000000000000       0.28125000000000000        0.0000000000000000     
  0.12500000000000000       0.31250000000000000        0.0000000000000000     
  0.15625000000000000       0.31250000000000000        0.0000000000000000     
  0.18750000000000000       0.31250000000000000        0.0000000000000000     
  0.21875000000000000       0.31250000000000000        0.0000000000000000     
  0.25000000000000000       0.31250000000000000        0.0000000000000000     
  0.12500000000000000       0.34375000000000000        0.0000000000000000     
  0.15625000000000000       0.34375000000000000        0.0000000000000000     
  0.18750000000000000       0.34375000000000000        0.0000000000000000     
  0.21875000000000000       0.34375000000000000        0.0000000000000000     
  0.25000000000000000       0.34375000000000000        0.0000000000000000     
  0.12500000000000000       0.37500000000000000        0.0000000000000000     
  0.15625000000000000       0.37500000000000000        0.0000000000000000     
  0.18750000000000000       0.37500000000000000        0.0000000000000000     
  0.21875000000000000       0.37500000000000000        0.0000000000000000     
  0.25000000000000000       0.37500000000000000        0.0000000000000000     
  0.25000000000000000       0.25000000000000000        0.0000000000000000     
  0.28125000000000000       0.25000000000000000        0.0000000000000000     
  0.31250000000000000       0.25000000000000000        0.0000000000000000     
  0.34375000000000000       0.25000000000000000        0.0000000000000000     
  0.37500000000000000       0.25000000000000000        0.0000000000000000     
  0.25000000000000000       0.28125000000000000        0.0000000000000000     
  0.28125000000000000       0.28125000000000000        0.0000000000000000     
  0.31250000000000000       0.28125000000000000        0.0000000000000000     
  0.34375000000000000       0.28125000000000000        0.0000000000000000     
  0.37500000000000000       0.28125000000000000        0.0000000000000000     
  0.25000000000000000       0.31250000000000000        0.0000000000000000     
  0.28125000000000000       0.31250000000000000        0.0000000000000000     
  0.31250000000000000       0.31250000000000000        0.0000000000000000     
  0.34375000000000000       0.31250000000000000        0.0000000000000000     
  0.37500000000000000       0.31250000000000000        0.0000000000000000     
  0.25000000000000000       0.34375000000000000        0.0000000000000000     
  0.28125000000000000       0.34375000000000000        0.0000000000000000     
  0.31250000000000000       0.34375000000000000        0.0000000000000000     
  0.34375000000000000       0.34375000000000000        0.0000000000000000     
  0.37500000000000000       0.34375000000000000        0.0000000000000000     
  0.25000000000000000       0.37500000000000000        0.0000000000000000     
  0.28125000000000000       0.37500000000000000        0.0000000000000000     
  0.31250000000000000       0.37500000000000000        0.0000000000000000     
  0.34375000000000000       0.37500000000000000        0.0000000000000000     
  0.37500000000000000       0.37500000000000000        0.0000000000000000     
  0.37500000000000000       0.25000000000000000        0.0000000000000000     
  0.40625000000000000       0.25000000000000000        0.0000000000000000     
  0.43750000000000000       0.25000000000000000        0.0000000000000000     
  0.46875000000000000       0.25000000000000000        0.0000000000000000     
  0.50000000000000000       0.25000000000000000        0.0000000000000000     
  0.37500000000000000       0.28125000000000000        0.0000000000000000     
  0.40625000000000000       0.28125000000000000        0.0000000000000000     
  0.43750000000000000       0.28125000000000000        0.0000000000000000     
  0.46875000000000000       0.28125000000000000        0.0000000000000000     
  0.50000000000000000       0.28125000000000000        0.0000000000000000     
  0.37500000000000000       0.31250000000000000        0.0000000000000000     
  0.40625000000000000       0.31250000000000000        0.0000000000000000     
  0.43750000000000000       0.31250000000000000        0.0000000000000000     
  0.46875000000000000       0.31250000000000000        0.0000000000000000     
  0.50000000000000000       0.31250000000000000        0.0000000000000000     
  0.37500000000000000       0.34375000000000000        0.0000000000000000     
  0.40625000000000000       0.34375000000000000        0.0000000000000000     
  0.43750000000000000       0.34375000000000000        0.0000000000000000     
  0.46875000000000000       0.34375000000000000        0.0000000000000000     
  0.50000000000000000       0.34375000000000000        0.0000000000000000     
  0.37500000000000000       0.37500000000000000        0.0000000000000000     
  0.40625000000000000       0.37500000000000000        0.0000000000000000     
  0.43750000000000000       0.37500000000000000        0.0000000000000000     
  0.46875000000000000       0.37500000000000000        0.0000000000000000     
  0.50000000000000000       0.37500000000000000        0.0000000000000000     
  0.50000000000000000       0.25000000000000000        0.0000000000000000     
  0.53125000000000000       0.25000000000000000        0.0000000000000000     
  0.56250000000000000       0.25000000000000000        0.0000000000000000     
  0.59375000000000000       0.25000000000000000        0.0000000000000000     
  0.62500000000000000       0.25000000000000000        0.0000000000000000     
  0.50000000000000000       0.28125000000000000        0.0000000000000000     
  0.53125000000000000       0.28125000000000000        0.0000000000000000     
  0.56250000000000000       0.28125000000000000        0.0000000000000000     
  0.59375000000000000       0.28125000000000000        0.0000000000000000     
  0.62500000000000000       0.28125000000000000        0.0000000000000000     
  0.50000000000000000       0.31250000000000000        0.0000000000000000     
  0.53125000000000000       0.31250000000000000        0.0000000000000000     
  0.56250000000000000       0.31250000000000000        0.0000000000000000     
  0.59375000000000000       0.31250000000000000        0.0000000000000000     
  0.62500000000000000       0.31250000000000000        0.0000000000000000     
  0.50000000000000000       0.34375000000000000        0.0000000000000000     
  0.53125000000000000       0.34375000000000000        0.0000000000000000     
  0.56250000000000000       0.34375000000000000        0.0000000000000000     
  0.59375000000000000       0.34375000000000000        0.0000000000000000     
  0.62500000000000000       0.34375000000000000        0.0000000000000000     
  0.50000000000000000       0.37500000000000000        0.0000000000000000     
  0.53125000000000000       0.37500000000000000        0.0000000000000000     
  0.56250000000000000       0.37500000000000000        0.0000000000000000     
  0.59375000000000000       0.37500000000000000        0.0000000000000000     
  0.62500000000000000       0.37500000000000000        0.0000000000000000     
  0.62500000000000000       0.25000000000000000        0.0000000000000000     
  0.65625000000000000       0.25000000000000000        0.0000000000000000     
  0.68750000000000000       0.25000000000000000        0.0000000000000000     
  0.71875000000000000       0.25000000000000000        0.0000000000000000     
  0.75000000000000000       0.25000000000000000        0.0000000000000000     
  0.62500000000000000       0.28125000000000000        0.0000000000000000     
  0.65625000000000000       0.28125000000000000        0.0000000000000000     
  0.68750000000000000       0.28125000000000000        0.0000000000000000     
  0.71875000000000000       0.28125000000000000        0.0000000000000000     
  0.75000000000000000       0.28125000000000000        0.0000000000000000     
  0.62500000000000000       0.31250000000000000        0.0000000000000000     
  0.65625000000000000       0.31250000000000000        0.0000000000000000     
  0.68750000000000000       0.31250000000000000        0.0000000000000000     
  0.71875000000000000       0.31250000000000000        0.0000000000000000     
  0.75000000000000000       0.31250000000000000        0.0000000000000000     
  0.62500000000000000       0.34375000000000000        0.0000000000000000     
  0.65625000000000000       0.34375000000000000        0.0000000000000000     
  0.68750000000000000       0.34375000000000000        0.0000000000000000     
  0.71875000000000000       0.34375000000000000        0.0000000000000000     
  0.75000000000000000       0.34375000000000000        0.0000000000000000     
  0.62500000000000000       0.37500000000000000        0.0000000000000000     
  0.65625000000000000       0.37500000000000000        0.0000000000000000     
  0.68750000000000000       0.37500000000000000        0.0000000000000000     
  0.71875000000000000       0.37500000000000000        0.0000000000000000     
  0.75000000000000000       0.37500000000000000        0.0000000000000000     
  0.75000000000000000       0.25000000000000000        0.0000000000000000     
  0.78125000000000000       0.25000000000000000        0.0000000000000000     
  0.81250000000000000       0.25000000000000000        0.0000000000000000     
  0.84375000000000000       0.25000000000000000        0.0000000000000000     
  0.87500000000000000       0.25000000000000000        0.0000000000000000     
  0.75000000000000000       0.28125000000000000        0.0000000000000000     
  0.78125000000000000       0.28125000000000000        0.0000000000000000     
  0.81250000000000000       0.28125000000000000        0.0000000000000000     
  0.84375000000000000       0.28125000000000000        0.0000000000000000     
  0.87500000000000000       0.28125000000000000        0.0000000000000000     
  0.75000000000000000       0.31250000000000000        0.0000000000000000     
  0.78125000000000000       0.31250000000000000        0.0000000000000000     
  0.81250000000000000       0.31250000000000000        0.0000000000000000     
  0.84375000000000000       0.31250000000000000        0.0000000000000000     
  0.87500000000000000       0.31250000000000000        0.0000000000000000     
  0.75000000000000000       0.34375000000000000        0.0000000000000000     
  0.78125000000000000       0.34375000000000000        0.0000000000000000     
  0.81250000000000000       0.34375000000000000        0.0000000000000000     
  0.84375000000000000       0.34375000000000000        0.0000000000000000     
  0.87500000000000000       0.34375000000000000        0.0000000000000000     
  0.75000000000000000       0.37500000000000000        0.0000000000000000     
  0.78125000000000000       0.37500000000000000        0.0000000000000000     
  0.81250000000000000       0.37500000000000000        0.0000000000000000     
  0.84375000000000000       0.37500000000000000        0.0000000000000000     
  0.87500000000000000       0.37500000000000000        0.0000000000000000     
  0.87500000000000000       0.25000000000000000        0.0000000000000000     
  0.90625000000000000       0.25000000000000000        0.0000000000000000     
  0.93750000000000000       0.25000000000000000        0.0000000000000000     
  0.96875000000000000       0.25000000000000000        0.0000000000000000     
   1.0000000000000000       0.25000000000000000        0.0000000000000000     
  0.87500000000000000       0.28125000000000000        0.0000000000000000     
  0.90625000000000000       0.28125000000000000        0.0000000000000000     
  0.93750000000000000       0.28125000000000000        0.0000000000000000     
  0.96875000000000000       0.28125000000000000        0.0000000000000000     
   1.0000000000000000       0.28125000000000000        0.0000000000000000     
  0.87500000000000000       0.31250000000000000        0.0000000000000000     
  0.90625000000000000       0.31250000000000000        0.0000000000000000     
  0.93750000000000000       0.31250000000000000        0.0000000000000000     
  0.96875000000000000       0.31250000000000000        0.0000000000000000     
   1.0000000000000000       0.31250000000000000        0.0000000000000000     
  0.87500000000000000       0.34375000000000000        0.0000000000000000     
  0.90625000000000000       0.34375000000000000        0.0000000000000000     
  0.93750000000000000       0.34375000000000000        0.0000000000000000     
  0.96875000000000000       0.34375000000000000        0.0000000000000000     
   1.0000000000000000       0.34375000000000000        0.0000000000000000     
  0.87500000000000000       0.37500000000000000        0.0000000000000000     
  0.90625000000000000       0.37500000000000000        0.0000000000000000     
  0.93750000000000000       0.37500000000000000        0.0000000000000000     
  0.96875000000000000       0.37500000000000000        0.0000000000000000     
   1.0000000000000000       0.37500000000000000        0.0000000000000000     
   0.0000000000000000       0.37500000000000000        0.0000000000000000     
   3.1250000000000000E-002  0.37500000000000000        0.0000000000000000     
   6.2500000000000000E-002  0.37500000000000000        0.0000000000000000     
   9.3750000000000000E-002  0.37500000000000000        0.0000000000000000     
  0.12500000000000000       0.37500000000000000        0.0000000000000000     
   0.0000000000000000       0.40625000000000000        0.0000000000000000     
   3.1250000000000000E-002  0.40625000000000000        0.0000000000000000     
   6.2500000000000000E-002  0.40625000000000000        0.0000000000000000     
   9.3750000000000000E-002  0.40625000000000000        0.0000000000000000     
  0.12500000000000000       0.40625000000000000        0.0000000000000000     
   0.0000000000000000       0.43750000000000000        0.0000000000000000     
   3.1250000000000000E-002  0.43750000000000000        0.0000000000000000     
   6.2500000000000000E-002  0.43750000000000000        0.0000000000000000     
   9.3750000000000000E-002  0.43750000000000000        0.0000000000000000     
  0.12500000000000000       0.43750000000000000        0.0000000000000000     
   0.0000000000000000       0.46875000000000000        0.0000000000000000     
   3.1250000000000000E-002  0.46875000000000000        0.0000000000000000     
   6.2500000000000000E-002  0.46875000000000000        0.0000000000000000     
   9.3750000000000000E-002  0.46875000000000000        0.0000000000000000     
  0.12500000000000000       0.46875000000000000        0.0000000000000000     
   0.0000000000000000       0.50000000000000000        0.0000000000000000     
   3.1250000000000000E-002  0.50000000000000000        0.0000000000000000     
   6.2500000000000000E-002  0.50000000000000000        0.0000000000000000     
   9.3750000000000000E-002  0.50000000000000000        0.0000000000000000     
  0.12500000000000000       0.50000000000000000        0.0000000000000000     
  0.12500000000000000       0.37500000000000000        0.0000000000000000     
  0.15625000000000000       0.37500000000000000        0.0000000000000000     
  0.18750000000000000       0.37500000000000000        0.0000000000000000     
  0.21875000000000000       0.37500000000000000        0.0000000000000000     
  0.25000000000000000       0.37500000000000000        0.0000000000000000     
  0.12500000000000000       0.40625000000000000        0.0000000000000000     
  0.15625000000000000       0.40625000000000000        0.0000000000000000     
  0.18750000000000000       0.40625000000000000        0.0000000000000000     
  0.21875000000000000       0.40625000000000000        0.0000000000000000     
  0.25000000000000000       0.40625000000000000        0.0000000000000000     
  0.12500000000000000       0.43750000000000000        0.0000000000000000     
  0.15625000000000000       0.43750000000000000        0.0000000000000000     
  0.18750000000000000       0.43750000000000000        0.0000000000000000     
  0.21875000000000000       0.43750000000000000        0.0000000000000000     
  0.25000000000000000       0.43750000000000000        0.0000000000000000     
  0.12500000000000000       0.46875000000000000        0.0000000000000000     
  0.15625000000000000       0.46875000000000000        0.0000000000000000     
  0.18750000000000000       0.46875000000000000        0.0000000000000000     
  0.21875000000000000       0.46875000000000000        0.0000000000000000     
  0.25000000000000000       0.46875000000000000        0.0000000000000000     
  0.12500000000000000       0.50000000000000000        0.0000000000000000     
  0.15625000000000000       0.50000000000000000        0.0000000000000000     
  0.18750000000000000       0.50000000000000000        0.0000000000000000     
  0.21875000000000000       0.50000000000000000        0.0000000000000000     
  0.25000000000000000       0.50000000000000000        0.0000000000000000     
  0.25000000000000000       0.37500000000000000        0.0000000000000000     
  0.28125000000000000       0.37500000000000000        0.0000000000000000     
  0.31250000000000000       0.37500000000000000        0.0000000000000000     
  0.34375000000000000       0.37500000000000000        0.0000000000000000     
  0.37500000000000000       0.37500000000000000        0.0000000000000000     
  0.25000000000000000       0.40625000000000000        0.0000000000000000     
  0.28125000000000000       0.40625000000000000        0.0000000000000000     
  0.31250000000000000       0.40625000000000000        0.0000000000000000     
  0.34375000000000000       0.40625000000000000        0.0000000000000000     
  0.37500000000000000       0.40625000000000000        0.0000000000000000     
  0.25000000000000000       0.43750000000000000        0.0000000000000000     
  0.28125000000000000       0.43750000000000000        0.0000000000000000     
  0.31250000000000000       0.43750000000000000        0.0000000000000000     
  0.34375000000000000       0.43750000000000000        0.0000000000000000     
  0.37500000000000000       0.43750000000000000        0.0000000000000000     
  0.25000000000000000       0.46875000000000000        0.0000000000000000     
  0.28125000000000000       0.46875000000000000        0.0000000000000000     
  0.31250000000000000       0.46875000000000000        0.0000000000000000     
  0.34375000000000000       0.46875000000000000        0.0000000000000000     
  0.37500000000000000       0.46875000000000000        0.0000000000000000     
  0.25000000000000000       0.50000000000000000        0.0000000000000000     
  0.28125000000000000       0.50000000000000000        0.0000000000000000     
  0.31250000000000000       0.50000000000000000        0.0000000000000000     
  0.34375000000000000       0.50000000000000000        0.0000000000000000     
  0.37500000000000000       0.50000000000000000        0.0000000000000000     
  0.37500000000000000       0.37500000000000000        0.0000000000000000     
  0.40625000000000000       0.37500000000000000        0.0000000000000000     
  0.43750000000000000       0.37500000000000000        0.0000000000000000     
  0.46875000000000000       0.37500000000000000        0.0000000000000000     
  0.50000000000000000       0.37500000000000000        0.0000000000000000     
  0.37500000000000000       0.40625000000000000        0.0000000000000000     
  0.40625000000000000       0.40625000000000000        0.0000000000000000     
  0.43750000000000000       0.40625000000000000        0.0000000000000000     
  0.46875000000000000       0.40625000000000000        0.0000000000000000     
  0.50000000000000000       0.40625000000000000        0.0000000000000000     
  0.37500000000000000       0.43750000000000000        0.0000000000000000     
  0.40625000000000000       0.43750000000000000        0.0000000000000000     
  0.43750000000000000       0.43750000000000000        0.0000000000000000     
  0.46875000000000000       0.43750000000000000        0.0000000000000000     
  0.50000000000000000       0.43750000000000000        0.0000000000000000     
  0.37500000000000000       0.46875000000000000        0.0000000000000000     
  0.40625000000000000       0.46875000000000000        0.0000000000000000     
  0.43750000000000000       0.46875000000000000        0.0000000000000000     
  0.46875000000000000       0.46875000000000000        0.0000000000000000     
  0.50000000000000000       0.46875000000000000        0.0000000000000000     
  0.37500000000000000       0.50000000000000000        0.0000000000000000     
  0.40625000000000000       0.50000000000000000        0.0000000000000000     
  0.43750000000000000       0.50000000000000000        0.0000000000000000     
  0.46875000000000000       0.50000000000000000        0.0000000000000000     
  0.50000000000000000       0.50000000000000000        0.0000000000000000     
  0.50000000000000000       0.37500000000000000        0.0000000000000000     
  0.53125000000000000       0.37500000000000000        0.0000000000000000     
  0.56250000000000000       0.37500000000000000        0.0000000000000000     
  0.59375000000000000       0.37500000000000000        0.0000000000000000     
  0.62500000000000000       0.37500000000000000        0.0000000000000000     
  0.50000000000000000       0.40625000000000000        0.0000000000000000     
  0.53125000000000000       0.40625000000000000        0.0000000000000000     
  0.56250000000000000       0.40625000000000000        0.0000000000000000     
  0.59375000000000000       0.40625000000000000        0.0000000000000000     
  0.62500000000000000       0.40625000000000000        0.0000000000000000     
  0.50000000000000000       0.43750000000000000        0.0000000000000000     
  0.53125000000000000       0.43750000000000000        0.0000000000000000     
  0.56250000000000000       0.43750000000000000        0.0000000000000000     
  0.59375000000000000       0.43750000000000000        0.0000000000000000     
  0.62500000000000000       0.43750000000000000        0.0000000000000000     
  0.50000000000000000       0.46875000000000000        0.0000000000000000     
  0.53125000000000000       0.46875000000000000        0.0000000000000000     
  0.56250000000000000       0.46875000000000000        0.0000000000000000     
  0.59375000000000000       0.46875000000000000        0.0000000000000000     
  0.62500000000000000       0.46875000000000000        0.0000000000000000     
  0.50000000000000000       0.50000000000000000        0.0000000000000000     
  0.53125000000000000       0.50000000000000000        0.0000000000000000     
  0.56250000000000000       0.50000000000000000        0.0000000000000000     
  0.59375000000000000       0.50000000000000000        0.0000000000000000     
  0.62500000000000000       0.50000000000000000        0.0000000000000000     
  0.62500000000000000       0.37500000000000000        0.0000000000000000     
  0.65625000000000000       0.37500000000000000        0.0000000000000000     
  0.68750000000000000       0.37500000000000000        0.0000000000000000     
  0.71875000000000000       0.37500000000000000        0.0000000000000000     
  0.75000000000000000       0.37500000000000000        0.0000000000000000     
  0.62500000000000000       0.40625000000000000        0.0000000000000000     
  0.65625000000000000       0.40625000000000000        0.0000000000000000     
  0.68750000000000000       0.40625000000000000        0.0000000000000000     
  0.71875000000000000       0.40625000000000000        0.0000000000000000     
  0.75000000000000000       0.40625000000000000        0.0000000000000000     
  0.62500000000000000       0.43750000000000000        0.0000000000000000     
  0.65625000000000000       0.43750000000000000        0.0000000000000000     
  0.68750000000000000       0.43750000000000000        0.0000000000000000     
  0.71875000000000000       0.43750000000000000        0.0000000000000000     
  0.75000000000000000       0.43750000000000000        0.0000000000000000     
  0.62500000000000000       0.46875000000000000        0.0000000000000000     
  0.65625000000000000       0.46875000000000000        0.0000000000000000     
  0.68750000000000000       0.46875000000000000        0.0000000000000000     
  0.71875000000000000       0.46875000000000000        0.0000000000000000     
  0.75000000000000000       0.46875000000000000        0.0000000000000000     
  0.62500000000000000       0.50000000000000000        0.0000000000000000     
  0.65625000000000000       0.50000000000000000        0.0000000000000000     
  0.68750000000000000       0.50000000000000000        0.0000000000000000     
  0.71875000000000000       0.50000000000000000        0.0000000000000000     
  0.75000000000000000       0.50000000000000000        0.0000000000000000     
  0.75000000000000000       0.37500000000000000        0.0000000000000000     
  0.78125000000000000       0.37500000000000000        0.0000000000000000     
  0.81250000000000000       0.37500000000000000        0.0000000000000000     
  0.84375000000000000       0.37500000000000000        0.0000000000000000     
  0.87500000000000000       0.37500000000000000        0.0000000000000000     
  0.75000000000000000       0.40625000000000000        0.0000000000000000     
  0.78125000000000000       0.40625000000000000        0.0000000000000000     
  0.81250000000000000       0.40625000000000000        0.0000000000000000     
  0.84375000000000000       0.40625000000000000        0.0000000000000000     
  0.87500000000000000       0.40625000000000000        0.0000000000000000     
  0.75000000000000000       0.43750000000000000        0.0000000000000000     
  0.78125000000000000       0.43750000000000000        0.0000000000000000     
  0.81250000000000000       0.43750000000000000        0.0000000000000000     
  0.84375000000000000       0.43750000000000000        0.0000000000000000     
  0.87500000000000000       0.43750000000000000        0.0000000000000000     
  0.75000000000000000       0.46875000000000000        0.0000000000000000     
  0.78125000000000000       0.46875000000000000        0.0000000000000000     
  0.81250000000000000       0.46875000000000000        0.0000000000000000     
  0.84375000000000000       0.46875000000000000        0.0000000000000000     
  0.87500000000000000       0.46875000000000000        0.0000000000000000     
  0.75000000000000000       0.50000000000000000        0.0000000000000000     
  0.78125000000000000       0.50000000000000000        0.0000000000000000     
  0.81250000000000000       0.50000000000000000        0.0000000000000000     
  0.84375000000000000       0.50000000000000000        0.0000000000000000     
  0.87500000000000000       0.50000000000000000        0.0000000000000000     
  0.87500000000000000       0.37500000000000000        0.0000000000000000     
  0.90625000000000000       0.37500000000000000        0.0000000000000000     
  0.93750000000000000       0.37500000000000000        0.0000000000000000     
  0.96875000000000000       0.37500000000000000        0.0000000000000000     
   1.0000000000000000       0.37500000000000000        0.0000000000000000     
  0.87500000000000000       0.40625000000000000        0.0000000000000000     
  0.90625000000000000       0.40625000000000000        0.0000000000000000     
  0.93750000000000000       0.40625000000000000        0.0000000000000000     
  0.96875000000000000       0.40625000000000000        0.0000000000000000     
   1.0000000000000000       0.40625000000000000        0.0000000000000000     
  0.87500000000000000       0.43750000000000000        0.0000000000000000     
  0.90625000000000000       0.43750000000000000        0.0000000000000000     
  0.93750000000000000       0.43750000000000000        0.0000000000000000     
  0.96875000000000000       0.43750000000000000        0.0000000000000000     
   1.0000000000000000       0.43750000000000000        0.0000000000000000     
  0.87500000000000000       0.46875000000000000        0.0000000000000000     
  0.90625000000000000       0.46875000000000000        0.0000000000000000     
  0.93750000000000000       0.46875000000000000        0.0000000000000000     
  0.96875000000000000       0.46875000000000000        0.0000000000000000     
   1.0000000000000000       0.46875000000000000        0.0000000000000000     
  0.87500000000000000       0.50000000000000000        0.0000000000000000     
  0.90625000000000000       0.50000000000000000        0.0000000000000000     
  0.93750000000000000       0.50000000000000000        0.0000000000000000     
  0.96875000000000000       0.50000000000000000        0.0000000000000000     
   1.0000000000000000       0.50000000000000000        0.0000000000000000     
   0.0000000000000000       0.50000000000000000        0.0000000000000000     
   3.1250000000000000E-002  0.50000000000000000        0.0000000000000000     
   6.2500000000000000E-002  0.50000000000000000        0.0000000000000000     
   9.3750000000000000E-002  0.50000000000000000        0.0000000000000000     
  0.12500000000000000       0.50000000000000000        0.0000000000000000     
   0.0000000000000000       0.53125000000000000        0.0000000000000000     
   3.1250000000000000E-002  0.53125000000000000        0.0000000000000000     
   6.2500000000000000E-002  0.53125000000000000        0.0000000000000000     
   9.3750000000000000E-002  0.53125000000000000        0.0000000000000000     
  0.12500000000000000       0.53125000000000000        0.0000000000000000     
   0.0000000000000000       0.56250000000000000        0.0000000000000000     
   3.1250000000000000E-002  0.56250000000000000        0.0000000000000000     
   6.2500000000000000E-002  0.56250000000000000        0.0000000000000000     
   9.3750000000000000E-002  0.56250000000000000        0.0000000000000000     
  0.12500000000000000       0.56250000000000000        0.0000000000000000     
   0.0000000000000000       0.59375000000000000        0.0000000000000000     
   3.1250000000000000E-002  0.59375000000000000        0.0000000000000000     
   6.2500000000000000E-002  0.59375000000000000        0.0000000000000000     
   9.3750000000000000E-002  0.59375000000000000        0.0000000000000000     
  0.12500000000000000       0.59375000000000000        0.0000000000000000     
   0.0000000000000000       0.62500000000000000        0.0000000000000000     
   3.1250000000000000E-002  0.62500000000000000        0.0000000000000000     
   6.2500000000000000E-002  0.62500000000000000        0.0000000000000000     
   9.3750000000000000E-002  0.62500000000000000        0.0000000000000000     
  0.12500000000000000       0.62500000000000000        0.0000000000000000     
  0.12500000000000000       0.50000000000000000        0.0000000000000000     
  0.15625000000000000       0.50000000000000000        0.0000000000000000     
  0.18750000000000000       0.50000000000000000        0.0000000000000000     
  0.21875000000000000       0.50000000000000000        0.0000000000000000     
  0.25000000000000000       0.50000000000000000        0.0000000000000000     
  0.12500000000000000       0.53125000000000000        0.0000000000000000     
  0.15625000000000000       0.53125000000000000        0.0000000000000000     
  0.18750000000000000       0.53125000000000000        0.0000000000000000     
  0.21875000000000000       0.53125000000000000        0.0000000000000000     
  0.25000000000000000       0.53125000000000000        0.0000000000000000     
  0.12500000000000000       0.56250000000000000        0.0000000000000000     
  0.15625000000000000       0.56250000000000000        0.0000000000000000     
  0.18750000000000000       0.56250000000000000        0.0000000000000000     
  0.21875000000000000       0.56250000000000000        0.0000000000000000     
  0.25000000000000000       0.56250000000000000        0.0000000000000000     
  0.12500000000000000       0.59375000000000000        0.0000000000000000     
  0.15625000000000000       0.59375000000000000        0.0000000000000000     
  0.18750000000000000       0.59375000000000000        0.0000000000000000     
  0.21875000000000000       0.59375000000000000        0.0000000000000000     
  0.25000000000000000       0.59375000000000000        0.0000000000000000     
  0.12500000000000000       0.62500000000000000        0.0000000000000000     
  0.15625000000000000       0.62500000000000000        0.0000000000000000     
  0.18750000000000000       0.62500000000000000        0.0000000000000000     
  0.21875000000000000       0.62500000000000000        0.0000000000000000     
  0.25000000000000000       0.62500000000000000        0.0000000000000000     
  0.25000000000000000       0.50000000000000000        0.0000000000000000     
  0.28125000000000000       0.50000000000000000        0.0000000000000000     
  0.31250000000000000       0.50000000000000000        0.0000000000000000     
  0.34375000000000000       0.50000000000000000        0.0000000000000000     
  0.37500000000000000       0.50000000000000000        0.0000000000000000     
  0.25000000000000000       0.53125000000000000        0.0000000000000000     
  0.28125000000000000       0.53125000000000000        0.0000000000000000     
  0.31250000000000000       0.53125000000000000        0.0000000000000000     
  0.34375000000000000       0.53125000000000000        0.0000000000000000     
  0.37500000000000000       0.53125000000000000        0.0000000000000000     
  0.25000000000000000       0.56250000000000000        0.0000000000000000     
  0.28125000000000000       0.56250000000000000        0.0000000000000000     
  0.31250000000000000       0.56250000000000000        0.0000000000000000     
  0.34375000000000000       0.56250000000000000        0.0000000000000000     
  0.37500000000000000       0.56250000000000000        0.0000000000000000     
  0.25000000000000000       0.59375000000000000        0.0000000000000000     
  0.28125000000000000       0.59375000000000000        0.0000000000000000     
  0.31250000000000000       0.59375000000000000        0.0000000000000000     
  0.34375000000000000       0.59375000000000000        0.0000000000000000     
  0.37500000000000000       0.59375000000000000        0.0000000000000000     
  0.25000000000000000       0.62500000000000000        0.0000000000000000     
  0.28125000000000000       0.62500000000000000        0.0000000000000000     
  0.31250000000000000       0.62500000000000000        0.0000000000000000     
  0.34375000000000000       0.62500000000000000        0.0000000000000000     
  0.37500000000000000       0.62500000000000000        0.0000000000000000     
  0.37500000000000000       0.50000000000000000        0.0000000000000000     
  0.40625000000000000       0.50000000000000000        0.0000000000000000     
  0.43750000000000000       0.50000000000000000        0.0000000000000000     
  0.46875000000000000       0.50000000000000000        0.0000000000000000     
  0.50000000000000000       0.50000000000000000        0.0000000000000000     
  0.37500000000000000       0.53125000000000000        0.0000000000000000     
  0.40625000000000000       0.53125000000000000        0.0000000000000000     
  0.43750000000000000       0.53125000000000000        0.0000000000000000     
  0.46875000000000000       0.53125000000000000        0.0000000000000000     
  0.50000000000000000       0.53125000000000000        0.0000000000000000     
  0.37500000000000000       0.56250000000000000        0.0000000000000000     
  0.40625000000000000       0.56250000000000000        0.0000000000000000     
  0.43750000000000000       0.56250000000000000        0.0000000000000000     
  0.46875000000000000       0.56250000000000000        0.0000000000000000     
  0.50000000000000000       0.56250000000000000        0.0000000000000000     
  0.37500000000000000       0.59375000000000000        0.0000000000000000     
  0.40625000000000000       0.59375000000000000        0.0000000000000000     
  0.43750000000000000       0.59375000000000000        0.0000000000000000     
  0.46875000000000000       0.59375000000000000        0.0000000000000000     
  0.50000000000000000       0.59375000000000000        0.0000000000000000     
  0.37500000000000000       0.62500000000000000        0.0000000000000000     
  0.40625000000000000       0.62500000000000000        0.0000000000000000     
  0.43750000000000000       0.62500000000000000        0.0000000000000000     
  0.46875000000000000       0.62500000000000000        0.0000000000000000     
  0.50000000000000000       0.62500000000000000        0.0000000000000000     
  0.50000000000000000       0.50000000000000000        0.0000000000000000     
  0.53125000000000000       0.50000000000000000        0.0000000000000000     
  0.56250000000000000       0.50000000000000000        0.0000000000000000     
  0.59375000000000000       0.50000000000000000        0.0000000000000000     
  0.62500000000000000       0.50000000000000000        0.0000000000000000     
  0.50000000000000000       0.53125000000000000        0.0000000000000000     
  0.53125000000000000       0.53125000000000000        0.0000000000000000     
  0.56250000000000000       0.53125000000000000        0.0000000000000000     
  0.59375000000000000       0.53125000000000000        0.0000000000000000     
  0.62500000000000000       0.53125000000000000        0.0000000000000000     
  0.50000000000000000       0.56250000000000000        0.0000000000000000     
  0.53125000000000000       0.56250000000000000        0.0000000000000000     
  0.56250000000000000       0.56250000000000000        0.0000000000000000     
  0.59375000000000000       0.56250000000000000        0.0000000000000000     
  0.62500000000000000       0.56250000000000000        0.0000000000000000     
  0.50000000000000000       0.59375000000000000        0.0000000000000000     
  0.53125000000000000       0.59375000000000000        0.0000000000000000     
  0.56250000000000000       0.59375000000000000        0.0000000000000000     
  0.59375000000000000       0.59375000000000000        0.0000000000000000     
  0.62500000000000000       0.59375000000000000        0.0000000000000000     
  0.50000000000000000       0.62500000000000000        0.0000000000000000     
  0.53125000000000000       0.62500000000000000        0.0000000000000000     
  0.56250000000000000       0.62500000000000000        0.0000000000000000     
  0.59375000000000000       0.62500000000000000        0.0000000000000000     
  0.62500000000000000       0.62500000000000000        0.0000000000000000     
  0.62500000000000000       0.50000000000000000        0.0000000000000000     
  0.65625000000000000       0.50000000000000000        0.0000000000000000     
  0.68750000000000000       0.50000000000000000        0.0000000000000000     
  0.71875000000000000       0.50000000000000000        0.0000000000000000     
  0.75000000000000000       0.50000000000000000        0.0000000000000000     
  0.62500000000000000       0.53125000000000000        0.0000000000000000     
  0.65625000000000000       0.53125000000000000        0.0000000000000000     
  0.68750000000000000       0.53125000000000000        0.0000000000000000     
  0.71875000000000000       0.53125000000000000        0.0000000000000000     
  0.75000000000000000       0.53125000000000000        0.0000000000000000     
  0.62500000000000000       0.56250000000000000        0.0000000000000000     
  0.65625000000000000       0.56250000000000000        0.0000000000000000     
  0.68750000000000000       0.56250000000000000        0.0000000000000000     
  0.71875000000000000       0.56250000000000000        0.0000000000000000     
  0.75000000000000000       0.56250000000000000        0.0000000000000000     
  0.62500000000000000       0.59375000000000000        0.0000000000000000     
  0.65625000000000000       0.59375000000000000        0.0000000000000000     
  0.68750000000000000       0.59375000000000000        0.0000000000000000     
  0.71875000000000000       0.59375000000000000        0.0000000000000000     
  0.75000000000000000       0.59375000000000000        0.0000000000000000     
  0.62500000000000000       0.62500000000000000        0.0000000000000000     
  0.65625000000000000       0.62500000000000000        0.0000000000000000     
  0.68750000000000000       0.62500000000000000        0.0000000000000000     
  0.71875000000000000       0.62500000000000000        0.0000000000000000     
  0.75000000000000000       0.62500000000000000        0.0000000000000000     
  0.75000000000000000       0.50000000000000000        0.0000000000000000     
  0.78125000000000000       0.50000000000000000        0.0000000000000000     
  0.81250000000000000       0.50000000000000000        0.0000000000000000     
  0.84375000000000000       0.50000000000000000        0.0000000000000000     
  0.87500000000000000       0.50000000000000000        0.0000000000000000     
  0.75000000000000000       0.53125000000000000        0.0000000000000000     
  0.78125000000000000       0.53125000000000000        0.0000000000000000     
  0.81250000000000000       0.53125000000000000        0.0000000000000000     
  0.84375000000000000       0.53125000000000000        0.0000000000000000     
  0.87500000000000000       0.53125000000000000        0.0000000000000000     
  0.75000000000000000       0.56250000000000000        0.0000000000000000     
  0.78125000000000000       0.56250000000000000        0.0000000000000000     
  0.81250000000000000       0.56250000000000000        0.0000000000000000     
  0.84375000000000000       0.56250000000000000        0.0000000000000000     
  0.87500000000000000       0.56250000000000000        0.0000000000000000     
  0.75000000000000000       0.59375000000000000        0.0000000000000000     
  0.78125000000000000       0.59375000000000000        0.0000000000000000     
  0.81250000000000000       0.59375000000000000        0.0000000000000000     
  0.84375000000000000       0.59375000000000000        0.0000000000000000     
  0.87500000000000000       0.59375000000000000        0.0000000000000000     
  0.75000000000000000       0.62500000000000000        0.0000000000000000     
  0.78125000000000000       0.62500000000000000        0.0000000000000000     
  0.81250000000000000       0.62500000000000000        0.0000000000000000     
  0.84375000000000000       0.62500000000000000        0.0000000000000000     
  0.87500000000000000       0.62500000000000000        0.0000000000000000     
  0.87500000000000000       0.50000000000000000        0.0000000000000000     
  0.90625000000000000       0.50000000000000000        0.0000000000000000     
  0.93750000000000000       0.50000000000000000        0.0000000000000000     
  0.96875000000000000       0.50000000000000000        0.0000000000000000     
   1.0000000000000000       0.50000000000000000        0.0000000000000000     
  0.87500000000000000       0.53125000000000000        0.0000000000000000     
  0.90625000000000000       0.53125000000000000        0.0000000000000000     
  0.93750000000000000       0.53125000000000000        0.0000000000000000     
  0.96875000000000000       0.53125000000000000        0.0000000000000000     
   1.0000000000000000       0.53125000000000000        0.0000000000000000     
  0.87500000000000000       0.56250000000000000        0.0000000000000000     
  0.90625000000000000       0.56250000000000000        0.0000000000000000     
  0.93750000000000000       0.56250000000000000        0.0000000000000000     
  0.96875000000000000       0.56250000000000000        0.0000000000000000     
   1.0000000000000000       0.56250000000000000        0.0000000000000000     
  0.87500000000000000       0.59375000000000000        0.0000000000000000     
  0.90625000000000000       0.59375000000000000        0.0000000000000000     
  0.93750000000000000       0.59375000000000000        0.0000000000000000     
  0.96875000000000000       0.59375000000000000        0.0000000000000000     
   1.0000000000000000       0.59375000000000000        0.0000000000000000     
  0.87500000000000000       0.62500000000000000        0.0000000000000000     
  0.90625000000000000       0.62500000000000000        0.0000000000000000     
  0.93750000000000000       0.62500000000000000        0.0000000000000000     
  0.96875000000000000       0.62500000000000000        0.0000000000000000     
   1.0000000000000000       0.62500000000000000        0.0000000000000000     
   0.0000000000000000       0.62500000000000000        0.0000000000000000     
   3.1250000000000000E-002  0.62500000000000000        0.0000000000000000     
   6.2500000000000000E-002  0.62500000000000000        0.0000000000000000     
   9.3750000000000000E-002  0.62500000000000000        0.0000000000000000     
  0.12500000000000000       0.62500000000000000        0.0000000000000000     
   0.0000000000000000       0.65625000000000000        0.0000000000000000     
   3.1250000000000000E-002  0.65625000000000000        0.0000000000000000     
   6.2500000000000000E-002  0.65625000000000000        0.0000000000000000     
   9.3750000000000000E-002  0.65625000000000000        0.0000000000000000     
  0.12500000000000000       0.65625000000000000        0.0000000000000000     
   0.0000000000000000       0.68750000000000000        0.0000000000000000     
   3.1250000000000000E-002  0.68750000000000000        0.0000000000000000     
   6.2500000000000000E-002  0.68750000000000000        0.0000000000000000     
   9.3750000000000000E-002  0.68750000000000000        0.0000000000000000     
  0.12500000000000000       0.68750000000000000        0.0000000000000000     
   0.0000000000000000       0.71875000000000000        0.0000000000000000     
   3.1250000000000000E-002  0.71875000000000000        0.0000000000000000     
   6.2500000000000000E-002  0.71875000000000000        0.0000000000000000     
   9.3750000000000000E-002  0.71875000000000000        0.0000000000000000     
  0.12500000000000000       0.71875000000000000        0.0000000000000000     
   0.0000000000000000       0.75000000000000000        0.0000000000000000     
   3.1250000000000000E-002  0.75000000000000000        0.0000000000000000     
   6.2500000000000000E-002  0.75000000000000000        0.0000000000000000     
   9.3750000000000000E-002  0.75000000000000000        0.0000000000000000     
  0.12500000000000000       0.75000000000000000        0.0000000000000000     
  0.12500000000000000       0.62500000000000000        0.0000000000000000     
  0.15625000000000000       0.62500000000000000        0.0000000000000000     
  0.18750000000000000       0.62500000000000000        0.0000000000000000     
  0.21875000000000000       0.62500000000000000        0.0000000000000000     
  0.25000000000000000       0.62500000000000000        0.0000000000000000     
  0.12500000000000000       0.65625000000000000        0.0000000000000000     
  0.15625000000000000       0.65625000000000000        0.0000000000000000     
  0.18750000000000000       0.65625000000000000        0.0000000000000000     
  0.21875000000000000       0.65625000000000000        0.0000000000000000     
  0.25000000000000000       0.65625000000000000        0.0000000000000000     
  0.12500000000000000       0.68750000000000000        0.0000000000000000     
  0.15625000000000000       0.68750000000000000        0.0000000000000000     
  0.18750000000000000       0.68750000000000000        0.0000000000000000     
  0.21875000000000000       0.68750000000000000        0.0000000000000000     
  0.25000000000000000       0.68750000000000000        0.0000000000000000     
  0.12500000000000000       0.71875000000000000        0.0000000000000000     
  0.15625000000000000       0.71875000000000000        0.0000000000000000     
  0.18750000000000000       0.71875000000000000        0.0000000000000000     
  0.21875000000000000       0.71875000000000000        0.0000000000000000     
  0.25000000000000000       0.71875000000000000        0.0000000000000000     
  0.12500000000000000       0.75000000000000000        0.0000000000000000     
  0.15625000000000000       0.75000000000000000        0.0000000000000000     
  0.18750000000000000       0.75000000000000000        0.0000000000000000     
  0.21875000000000000       0.75000000000000000        0.0000000000000000     
  0.25000000000000000       0.75000000000000000        0.0000000000000000     
  0.25000000000000000       0.62500000000000000        0.0000000000000000     
  0.28125000000000000       0.62500000000000000        0.0000000000000000     
  0.31250000000000000       0.62500000000000000        0.0000000000000000     
  0.34375000000000000       0.62500000000000000        0.0000000000000000     
  0.37500000000000000       0.62500000000000000        0.0000000000000000     
  0.25000000000000000       0.65625000000000000        0.0000000000000000     
  0.28125000000000000       0.65625000000000000        0.0000000000000000     
  0.31250000000000000       0.65625000000000000        0.0000000000000000     
  0.34375000000000000       0.65625000000000000        0.0000000000000000     
  0.37500000000000000       0.65625000000000000        0.0000000000000000     
  0.25000000000000000       0.68750000000000000        0.0000000000000000     
  0.28125000000000000       0.68750000000000000        0.0000000000000000     
  0.31250000000000000       0.68750000000000000        0.0000000000000000     
  0.34375000000000000       0.68750000000000000        0.0000000000000000     
  0.37500000000000000       0.68750000000000000        0.0000000000000000     
  0.25000000000000000       0.71875000000000000        0.0000000000000000     
  0.28125000000000000       0.71875000000000000        0.0000000000000000     
  0.31250000000000000       0.71875000000000000        0.0000000000000000     
  0.34375000000000000       0.71875000000000000        0.0000000000000000     
  0.37500000000000000       0.71875000000000000        0.0000000000000000     
  0.25000000000000000       0.75000000000000000        0.0000000000000000     
  0.28125000000000000       0.75000000000000000        0.0000000000000000     
  0.31250000000000000       0.75000000000000000        0.0000000000000000     
  0.34375000000000000       0.75000000000000000        0.0000000000000000     
  0.37500000000000000       0.75000000000000000        0.0000000000000000     
  0.37500000000000000       0.62500000000000000        0.0000000000000000     
  0.40625000000000000       0.62500000000000000        0.0000000000000000     
  0.43750000000000000       0.62500000000000000        0.0000000000000000     
  0.46875000000000000       0.62500000000000000        0.0000000000000000     
  0.50000000000000000       0.62500000000000000        0.0000000000000000     
  0.37500000000000000       0.65625000000000000        0.0000000000000000     
  0.40625000000000000       0.65625000000000000        0.0000000000000000     
  0.43750000000000000       0.65625000000000000        0.0000000000000000     
  0.46875000000000000       0.65625000000000000        0.0000000000000000     
  0.50000000000000000       0.65625000000000000        0.0000000000000000     
  0.37500000000000000       0.68750000000000000        0.0000000000000000     
  0.40625000000000000       0.68750000000000000        0.0000000000000000     
  0.43750000000000000       0.68750000000000000        0.0000000000000000     
  0.46875000000000000       0.68750000000000000        0.0000000000000000     
  0.50000000000000000       0.68750000000000000        0.0000000000000000     
  0.37500000000000000       0.71875000000000000        0.0000000000000000     
  0.40625000000000000       0.71875000000000000        0.0000000000000000     
  0.43750000000000000       0.71875000000000000        0.0000000000000000     
  0.46875000000000000       0.71875000000000000        0.0000000000000000     
  0.50000000000000000       0.71875000000000000        0.0000000000000000     
  0.37500000000000000       0.75000000000000000        0.0000000000000000     
  0.40625000000000000       0.75000000000000000        0.0000000000000000     
  0.43750000000000000       0.75000000000000000        0.0000000000000000     
  0.46875000000000000       0.75000000000000000        0.0000000000000000     
  0.50000000000000000       0.75000000000000000        0.0000000000000000     
  0.50000000000000000       0.62500000000000000        0.0000000000000000     
  0.53125000000000000       0.62500000000000000        0.0000000000000000     
  0.56250000000000000       0.62500000000000000        0.0000000000000000     
  0.59375000000000000       0.62500000000000000        0.0000000000000000     
  0.62500000000000000       0.62500000000000000        0.0000000000000000     
  0.50000000000000000       0.65625000000000000        0.0000000000000000     
  0.53125000000000000       0.65625000000000000        0.0000000000000000     
  0.56250000000000000       0.65625000000000000        0.0000000000000000     
  0.59375000000000000       0.65625000000000000        0.0000000000000000     
  0.62500000000000000       0.65625000000000000        0.0000000000000000     
  0.50000000000000000       0.68750000000000000        0.0000000000000000     
  0.53125000000000000       0.68750000000000000        0.0000000000000000     
  0.56250000000000000       0.68750000000000000        0.0000000000000000     
  0.59375000000000000       0.68750000000000000        0.0000000000000000     
  0.62500000000000000       0.68750000000000000        0.0000000000000000     
  0.50000000000000000       0.71875000000000000        0.0000000000000000     
  0.53125000000000000       0.71875000000000000        0.0000000000000000     
  0.56250000000000000       0.71875000000000000        0.0000000000000000     
  0.59375000000000000       0.71875000000000000        0.0000000000000000     
  0.62500000000000000       0.71875000000000000        0.0000000000000000     
  0.50000000000000000       0.75000000000000000        0.0000000000000000     
  0.53125000000000000       0.75000000000000000        0.0000000000000000     
  0.56250000000000000       0.75000000000000000        0.0000000000000000     
  0.59375000000000000       0.75000000000000000        0.0000000000000000     
  0.62500000000000000       0.75000000000000000        0.0000000000000000     
  0.62500000000000000       0.62500000000000000        0.0000000000000000     
  0.65625000000000000       0.62500000000000000        0.0000000000000000     
  0.68750000000000000       0.62500000000000000        0.0000000000000000     
  0.71875000000000000       0.62500000000000000        0.0000000000000000     
  0.75000000000000000       0.62500000000000000        0.0000000000000000     
  0.62500000000000000       0.65625000000000000        0.0000000000000000     
  0.65625000000000000       0.65625000000000000        0.0000000000000000     
  0.68750000000000000       0.65625000000000000        0.0000000000000000     
  0.71875000000000000       0.65625000000000000        0.0000000000000000     
  0.75000000000000000       0.65625000000000000        0.0000000000000000     
  0.62500000000000000       0.68750000000000000        0.0000000000000000     
  0.65625000000000000       0.68750000000000000        0.0000000000000000     
  0.68750000000000000       0.68750000000000000        0.0000000000000000     
  0.71875000000000000       0.68750000000000000        0.0000000000000000     
  0.75000000000000000       0.68750000000000000        0.0000000000000000     
  0.62500000000000000       0.71875000000000000        0.0000000000000000     
  0.65625000000000000       0.71875000000000000        0.0000000000000000     
  0.68750000000000000       0.71875000000000000        0.0000000000000000     
  0.71875000000000000       0.71875000000000000        0.0000000000000000     
  0.75000000000000000       0.71875000000000000        0.0000000000000000     
  0.62500000000000000       0.75000000000000000        0.0000000000000000     
  0.65625000000000000       0.75000000000000000        0.0000000000000000     
  0.68750000000000000       0.75000000000000000        0.0000000000000000     
  0.71875000000000000       0.75000000000000000        0.0000000000000000     
  0.75000000000000000       0.75000000000000000        0.0000000000000000     
  0.75000000000000000       0.62500000000000000        0.0000000000000000     
  0.78125000000000000       0.62500000000000000        0.0000000000000000     
  0.81250000000000000       0.62500000000000000        0.0000000000000000     
  0.84375000000000000       0.62500000000000000        0.0000000000000000     
  0.87500000000000000       0.62500000000000000        0.0000000000000000     
  0.75000000000000000       0.65625000000000000        0.0000000000000000     
  0.78125000000000000       0.65625000000000000        0.0000000000000000     
  0.81250000000000000       0.65625000000000000        0.0000000000000000     
  0.84375000000000000       0.65625000000000000        0.0000000000000000     
  0.87500000000000000       0.65625000000000000        0.0000000000000000     
  0.75000000000000000       0.68750000000000000        0.0000000000000000     
  0.78125000000000000       0.68750000000000000        0.0000000000000000     
  0.81250000000000000       0.68750000000000000        0.0000000000000000     
  0.84375000000000000       0.68750000000000000        0.0000000000000000     
  0.87500000000000000       0.68750000000000000        0.0000000000000000     
  0.75000000000000000       0.71875000000000000        0.0000000000000000     
  0.78125000000000000       0.71875000000000000        0.0000000000000000     
  0.81250000000000000       0.71875000000000000        0.0000000000000000     
  0.84375000000000000       0.71875000000000000        0.0000000000000000     
  0.87500000000000000       0.71875000000000000        0.0000000000000000     
  0.75000000000000000       0.75000000000000000        0.0000000000000000     
  0.78125000000000000       0.75000000000000000        0.0000000000000000     
  0.81250000000000000       0.75000000000000000        0.0000000000000000     
  0.84375000000000000       0.75000000000000000        0.0000000000000000     
  0.87500000000000000       0.75000000000000000        0.0000000000000000     
  0.87500000000000000       0.62500000000000000        0.0000000000000000     
  0.90625000000000000       0.62500000000000000        0.0000000000000000     
  0.93750000000000000       0.62500000000000000        0.0000000000000000     
  0.96875000000000000       0.62500000000000000        0.0000000000000000     
   1.0000000000000000       0.62500000000000000        0.0000000000000000     
  0.87500000000000000       0.65625000000000000        0.0000000000000000     
  0.90625000000000000       0.65625000000000000        0.0000000000000000     
  0.93750000000000000       0.65625000000000000        0.0000000000000000     
  0.96875000000000000       0.65625000000000000        0.0000000000000000     
   1.0000000000000000       0.65625000000000000        0.0000000000000000     
  0.87500000000000000       0.68750000000000000        0.0000000000000000     
  0.90625000000000000       0.68750000000000000        0.0000000000000000     
  0.93750000000000000       0.68750000000000000        0.0000000000000000     
  0.96875000000000000       0.68750000000000000        0.0000000000000000     
   1.0000000000000000       0.68750000000000000        0.0000000000000000     
  0.87500000000000000       0.71875000000000000        0.0000000000000000     
  0.90625000000000000       0.71875000000000000        0.0000000000000000     
  0.93750000000000000       0.71875000000000000        0.0000000000000000     
  0.96875000000000000       0.71875000000000000        0.0000000000000000     
   1.0000000000000000       0.71875000000000000        0.0000000000000000     
  0.87500000000000000       0.75000000000000000        0.0000000000000000     
  0.90625000000000000       0.75000000000000000        0.0000000000000000     
  0.93750000000000000       0.75000000000000000        0.0000000000000000     
  0.96875000000000000       0.75000000000000000        0.0000000000000000     
   1.0000000000000000       0.75000000000000000        0.0000000000000000     
   0.0000000000000000       0.75000000000000000        0.0000000000000000     
   3.1250000000000000E-002  0.75000000000000000        0.0000000000000000     
   6.2500000000000000E-002  0.75000000000000000        0.0000000000000000     
   9.3750000000000000E-002  0.75000000000000000        0.0000000000000000     
  0.12500000000000000       0.75000000000000000        0.0000000000000000     
   0.0000000000000000       0.78125000000000000        0.0000000000000000     
   3.1250000000000000E-002  0.78125000000000000        0.0000000000000000     
   6.2500000000000000E-002  0.78125000000000000        0.0000000000000000     
   9.3750000000000000E-002  0.78125000000000000        0.0000000000000000     
  0.12500000000000000       0.78125000000000000        0.0000000000000000     
   0.0000000000000000       0.81250000000000000        0.0000000000000000     
   3.1250000000000000E-002  0.81250000000000000        0.0000000000000000     
   6.2500000000000000E-002  0.81250000000000000        0.0000000000000000     
   9.3750000000000000E-002  0.81250000000000000        0.0000000000000000     
  0.12500000000000000       0.81250000000000000        0.0000000000000000     
   0.0000000000000000       0.84375000000000000        0.0000000000000000     
   3.1250000000000000E-002  0.84375000000000000        0.0000000000000000     
   6.2500000000000000E-002  0.84375000000000000        0.0000000000000000     
   9.3750000000000000E-002  0.84375000000000000        0.0000000000000000     
  0.12500000000000000       0.84375000000000000        0.0000000000000000     
   0.0000000000000000       0.87500000000000000        0.0000000000000000     
   3.1250000000000000E-002  0.87500000000000000        0.0000000000000000     
   6.2500000000000000E-002  0.87500000000000000        0.0000000000000000     
   9.3750000000000000E-002  0.87500000000000000        0.0000000000000000     
  0.12500000000000000       0.87500000000000000        0.0000000000000000     
  0.12500000000000000       0.75000000000000000        0.0000000000000000     
  0.15625000000000000       0.75000000000000000        0.0000000000000000     
  0.18750000000000000       0.75000000000000000        0.0000000000000000     
  0.21875000000000000       0.75000000000000000        0.0000000000000000     
  0.25000000000000000       0.75000000000000000        0.0000000000000000     
  0.12500000000000000       0.78125000000000000        0.0000000000000000     
  0.15625000000000000       0.78125000000000000        0.0000000000000000     
  0.18750000000000000       0.78125000000000000        0.0000000000000000     
  0.21875000000000000       0.78125000000000000        0.0000000000000000     
  0.25000000000000000       0.78125000000000000        0.0000000000000000     
  0.12500000000000000       0.81250000000000000        0.0000000000000000     
  0.15625000000000000       0.81250000000000000        0.0000000000000000     
  0.18750000000000000       0.81250000000000000        0.0000000000000000     
  0.21875000000000000       0.81250000000000000        0.0000000000000000     
  0.25000000000000000       0.81250000000000000        0.0000000000000000     
  0.12500000000000000       0.84375000000000000        0.0000000000000000     
  0.15625000000000000       0.84375000000000000        0.0000000000000000     
  0.18750000000000000       0.84375000000000000        0.0000000000000000     
  0.21875000000000000       0.84375000000000000        0.0000000000000000     
  0.25000000000000000       0.84375000000000000        0.0000000000000000     
  0.12500000000000000       0.87500000000000000        0.0000000000000000     
  0.15625000000000000       0.87500000000000000        0.0000000000000000     
  0.18750000000000000       0.87500000000000000        0.0000000000000000     
  0.21875000000000000       0.87500000000000000        0.0000000000000000     
  0.25000000000000000       0.87500000000000000        0.0000000000000000     
  0.25000000000000000       0.75000000000000000        0.0000000000000000     
  0.28125000000000000       0.75000000000000000        0.0000000000000000     
  0.31250000000000000       0.75000000000000000        0.0000000000000000     
  0.34375000000000000       0.75000000000000000        0.0000000000000000     
  0.37500000000000000       0.75000000000000000        0.0000000000000000     
  0.25000000000000000       0.78125000000000000        0.0000000000000000     
  0.28125000000000000       0.78125000000000000        0.0000000000000000     
  0.31250000000000000       0.78125000000000000        0.0000000000000000     
  0.34375000000000000       0.78125000000000000        0.0000000000000000     
  0.37500000000000000       0.78125000000000000        0.0000000000000000     
  0.25000000000000000       0.81250000000000000        0.0000000000000000     
  0.28125000000000000       0.81250000000000000        0.0000000000000000     
  0.31250000000000000       0.81250000000000000        0.0000000000000000     
  0.34375000000000000       0.81250000000000000        0.0000000000000000     
  0.37500000000000000       0.81250000000000000        0.0000000000000000     
  0.25000000000000000       0.84375000000000000        0.0000000000000000     
  0.28125000000000000       0.84375000000000000        0.0000000000000000     
  0.31250000000000000       0.84375000000000000        0.0000000000000000     
  0.34375000000000000       0.84375000000000000        0.0000000000000000     
  0.37500000000000000       0.84375000000000000        0.0000000000000000     
  0.25000000000000000       0.87500000000000000        0.0000000000000000     
  0.28125000000000000       0.87500000000000000        0.0000000000000000     
  0.31250000000000000       0.87500000000000000        0.0000000000000000     
  0.34375000000000000       0.87500000000000000        0.0000000000000000     
  0.37500000000000000       0.87500000000000000        0.0000000000000000     
  0.37500000000000000       0.75000000000000000        0.0000000000000000     
  0.40625000000000000       0.75000000000000000        0.0000000000000000     
  0.43750000000000000       0.75000000000000000        0.0000000000000000     
  0.46875000000000000       0.75000000000000000        0.0000000000000000     
  0.50000000000000000       0.75000000000000000        0.0000000000000000     
  0.37500000000000000       0.78125000000000000        0.0000000000000000     
  0.40625000000000000       0.78125000000000000        0.0000000000000000     
  0.43750000000000000       0.78125000000000000        0.0000000000000000     
  0.46875000000000000       0.78125000000000000        0.0000000000000000     
  0.50000000000000000       0.78125000000000000        0.0000000000000000     
  0.37500000000000000       0.81250000000000000        0.0000000000000000     
  0.40625000000000000       0.81250000000000000        0.0000000000000000     
  0.43750000000000000       0.81250000000000000        0.0000000000000000     
  0.46875000000000000       0.81250000000000000        0.0000000000000000     
  0.50000000000000000       0.81250000000000000        0.0000000000000000     
  0.37500000000000000       0.84375000000000000        0.0000000000000000     
  0.40625000000000000       0.84375000000000000        0.0000000000000000     
  0.43750000000000000       0.84375000000000000        0.0000000000000000     
  0.46875000000000000       0.84375000000000000        0.0000000000000000     
  0.50000000000000000       0.84375000000000000        0.0000000000000000     
  0.37500000000000000       0.87500000000000000        0.0000000000000000     
  0.40625000000000000       0.87500000000000000        0.0000000000000000     
  0.43750000000000000       0.87500000000000000        0.0000000000000000     
  0.46875000000000000       0.87500000000000000        0.0000000000000000     
  0.50000000000000000       0.87500000000000000        0.0000000000000000     
  0.50000000000000000       0.75000000000000000        0.0000000000000000     
  0.53125000000000000       0.75000000000000000        0.0000000000000000     
  0.56250000000000000       0.75000000000000000        0.0000000000000000     
  0.59375000000000000       0.75000000000000000        0.0000000000000000     
  0.62500000000000000       0.75000000000000000        0.0000000000000000     
  0.50000000000000000       0.78125000000000000        0.0000000000000000     
  0.53125000000000000       0.78125000000000000        0.0000000000000000     
  0.56250000000000000       0.78125000000000000        0.0000000000000000     
  0.59375000000000000       0.78125000000000000        0.0000000000000000     
  0.62500000000000000       0.78125000000000000        0.0000000000000000     
  0.50000000000000000       0.81250000000000000        0.0000000000000000     
  0.53125000000000000       0.81250000000000000        0.0000000000000000     
  0.56250000000000000       0.81250000000000000        0.0000000000000000     
  0.59375000000000000       0.81250000000000000        0.0000000000000000     
  0.62500000000000000       0.81250000000000000        0.0000000000000000     
  0.50000000000000000       0.84375000000000000        0.0000000000000000     
  0.53125000000000000       0.84375000000000000        0.0000000000000000     
  0.56250000000000000       0.84375000000000000        0.0000000000000000     
  0.59375000000000000       0.84375000000000000        0.0000000000000000     
  0.62500000000000000       0.84375000000000000        0.0000000000000000     
  0.50000000000000000       0.87500000000000000        0.0000000000000000     
  0.53125000000000000       0.87500000000000000        0.0000000000000000     
  0.56250000000000000       0.87500000000000000        0.0000000000000000     
  0.59375000000000000       0.87500000000000000        0.0000000000000000     
  0.62500000000000000       0.87500000000000000        0.0000000000000000     
  0.62500000000000000       0.75000000000000000        0.0000000000000000     
  0.65625000000000000       0.75000000000000000        0.0000000000000000     
  0.68750000000000000       0.75000000000000000        0.0000000000000000     
  0.71875000000000000       0.75000000000000000        0.0000000000000000     
  0.75000000000000000       0.75000000000000000        0.0000000000000000     
  0.62500000000000000       0.78125000000000000        0.0000000000000000     
  0.65625000000000000       0.78125000000000000        0.0000000000000000     
  0.68750000000000000       0.78125000000000000        0.0000000000000000     
  0.71875000000000000       0.78125000000000000        0.0000000000000000     
  0.75000000000000000       0.78125000000000000        0.0000000000000000     
  0.62500000000000000       0.81250000000000000        0.0000000000000000     
  0.65625000000000000       0.81250000000000000        0.0000000000000000     
  0.68750000000000000       0.81250000000000000        0.0000000000000000     
  0.71875000000000000       0.81250000000000000        0.0000000000000000     
  0.75000000000000000       0.81250000000000000        0.0000000000000000     
  0.62500000000000000       0.84375000000000000        0.0000000000000000     
  0.65625000000000000       0.84375000000000000        0.0000000000000000     
  0.68750000000000000       0.84375000000000000        0.0000000000000000     
  0.71875000000000000       0.84375000000000000        0.0000000000000000     
  0.75000000000000000       0.84375000000000000        0.0000000000000000     
  0.62500000000000000       0.87500000000000000        0.0000000000000000     
  0.65625000000000000       0.87500000000000000        0.0000000000000000     
  0.68750000000000000       0.87500000000000000        0.0000000000000000     
  0.71875000000000000       0.87500000000000000        0.0000000000000000     
  0.75000000000000000       0.87500000000000000        0.0000000000000000     
  0.75000000000000000       0.75000000000000000        0.0000000000000000     
  0.78125000000000000       0.75000000000000000        0.0000000000000000     
  0.81250000000000000       0.75000000000000000        0.0000000000000000     
  0.84375000000000000       0.75000000000000000        0.0000000000000000     
  0.87500000000000000       0.75000000000000000        0.0000000000000000     
  0.75000000000000000       0.78125000000000000        0.0000000000000000     
  0.78125000000000000       0.78125000000000000        0.0000000000000000     
  0.81250000000000000       0.78125000000000000        0.0000000000000000     
  0.84375000000000000       0.78125000000000000        0.0000000000000000     
  0.87500000000000000       0.78125000000000000        0.0000000000000000     
  0.75000000000000000       0.81250000000000000        0.0000000000000000     
  0.78125000000000000       0.81250000000000000        0.0000000000000000     
  0.81250000000000000       0.81250000000000000        0.0000000000000000     
  0.84375000000000000       0.81250000000000000        0.0000000000000000     
  0.87500000000000000       0.81250000000000000        0.0000000000000000     
  0.75000000000000000       0.84375000000000000        0.0000000000000000     
  0.78125000000000000       0.84375000000000000        0.0000000000000000     
  0.81250000000000000       0.84375000000000000        0.0000000000000000     
  0.84375000000000000       0.84375000000000000        0.0000000000000000     
  0.87500000000000000       0.84375000000000000        0.0000000000000000     
  0.75000000000000000       0.87500000000000000        0.0000000000000000     
  0.78125000000000000       0.87500000000000000        0.0000000000000000     
  0.81250000000000000       0.87500000000000000        0.0000000000000000     
  0.84375000000000000       0.87500000000000000        0.0000000000000000     
  0.87500000000000000       0.87500000000000000        0.0000000000000000     
  0.87500000000000000       0.75000000000000000        0.0000000000000000     
  0.90625000000000000       0.75000000000000000        0.0000000000000000     
  0.93750000000000000       0.75000000000000000        0.0000000000000000     
  0.96875000000000000       0.75000000000000000        0.0000000000000000     
   1.0000000000000000       0.75000000000000000        0.0000000000000000     
  0.87500000000000000       0.78125000000000000        0.0000000000000000     
  0.90625000000000000       0.78125000000000000        0.0000000000000000     
  0.93750000000000000       0.78125000000000000        0.0000000000000000     
  0.96875000000000000       0.78125000000000000        0.0000000000000000     
   1.0000000000000000       0.78125000000000000        0.0000000000000000     
  0.87500000000000000       0.81250000000000000        0.0000000000000000     
  0.90625000000000000       0.81250000000000000        0.0000000000000000     
  0.93750000000000000       0.81250000000000000        0.0000000000000000     
  0.96875000000000000       0.81250000000000000        0.0000000000000000     
   1.0000000000000000       0.81250000000000000        0.0000000000000000     
  0.87500000000000000       0.84375000000000000        0.0000000000000000     
  0.90625000000000000       0.84375000000000000        0.0000000000000000     
  0.93750000000000000       0.84375000000000000        0.0000000000000000     
  0.96875000000000000       0.84375000000000000        0.0000000000000000     
   1.0000000000000000       0.84375000000000000        0.0000000000000000     
  0.87500000000000000       0.87500000000000000        0.0000000000000000     
  0.90625000000000000       0.87500000000000000        0.0000000000000000     
  0.93750000000000000       0.87500000000000000        0.0000000000000000     
  0.96875000000000000       0.87500000000000000        0.0000000000000000     
   1.0000000000000000       0.87500000000000000        0.0000000000000000     
   0.0000000000000000       0.87500000000000000        0.0000000000000000     
   3.1250000000000000E-002  0.87500000000000000        0.0000000000000000     
   6.2500000000000000E-002  0.87500000000000000        0.0000000000000000     
   9.3750000000000000E-002  0.87500000000000000        0.0000000000000000     
  0.12500000000000000       0.87500000000000000        0.0000000000000000     
   0.0000000000000000       0.90625000000000000        0.0000000000000000     
   3.1250000000000000E-002  0.90625000000000000        0.0000000000000000     
   6.2500000000000000E-002  0.90625000000000000        0.0000000000000000     
   9.3750000000000000E-002  0.90625000000000000        0.0000000000000000     
  0.12500000000000000       0.90625000000000000        0.0000000000000000     
   0.0000000000000000       0.93750000000000000        0.0000000000000000     
   3.1250000000000000E-002  0.93750000000000000        0.0000000000000000     
   6.2500000000000000E-002  0.93750000000000000        0.0000000000000000     
   9.3750000000000000E-002  0.93750000000000000        0.0000000000000000     
  0.12500000000000000       0.93750000000000000        0.0000000000000000     
   0.0000000000000000       0.96875000000000000        0.0000000000000000     
   3.1250000000000000E-002  0.96875000000000000        0.0000000000000000     
   6.2500000000000000E-002  0.96875000000000000        0.0000000000000000     
   9.3750000000000000E-002  0.96875000000000000        0.0000000000000000     
  0.12500000000000000       0.96875000000000000        0.0000000000000000     
   0.0000000000000000        1.0000000000000000        0.0000000000000000     
   3.1250000000000000E-002   1.0000000000000000        0.0000000000000000     
   6.2500000000000000E-002   1.0000000000000000        0.0000000000000000     
   9.3750000000000000E-002   1.0000000000000000        0.0000000000000000     
  0.12500000000000000        1.0000000000000000        0.0000000000000000     
  0.12500000000000000       0.87500000000000000        0.0000000000000000     
  0.15625000000000000       0.87500000000000000        0.0000000000000000     
  0.18750000000000000       0.87500000000000000        0.0000000000000000     
  0.21875000000000000       0.87500000000000000        0.0000000000000000     
  0.25000000000000000       0.87500000000000000        0.0000000000000000     
  0.12500000000000000       0.90625000000000000        0.0000000000000000     
  0.15625000000000000       0.90625000000000000        0.0000000000000000     
  0.18750000000000000       0.90625000000000000        0.0000000000000000     
  0.21875000000000000       0.90625000000000000        0.0000000000000000     
  0.25000000000000000       0.90625000000000000        0.0000000000000000     
  0.12500000000000000       0.93750000000000000        0.0000000000000000     
  0.15625000000000000       0.93750000000000000        0.0000000000000000     
  0.18750000000000000       0.93750000000000000        0.0000000000000000     
  0.21875000000000000       0.93750000000000000        0.0000000000000000     
  0.25000000000000000       0.93750000000000000        0.0000000000000000     
  0.12500000000000000       0.96875000000000000        0.0000000000000000     
  0.15625000000000000       0.96875000000000000        0.0000000000000000     
  0.18750000000000000       0.96875000000000000        0.0000000000000000     
  0.21875000000000000       0.96875000000000000        0.0000000000000000     
  0.25000000000000000       0.96875000000000000        0.0000000000000000     
  0.12500000000000000        1.0000000000000000        0.0000000000000000     
  0.15625000000000000        1.0000000000000000        0.0000000000000000     
  0.18750000000000000        1.0000000000000000        0.0000000000000000     
  0.21875000000000000        1.0000000000000000        0.0000000000000000     
  0.25000000000000000        1.0000000000000000        0.0000000000000000     
  0.25000000000000000       0.87500000000000000        0.0000000000000000     
  0.28125000000000000       0.87500000000000000        0.0000000000000000     
  0.31250000000000000       0.87500000000000000        0.0000000000000000     
  0.34375000000000000       0.87500000000000000        0.0000000000000000     
  0.37500000000000000       0.87500000000000000        0.0000000000000000     
  0.25000000000000000       0.90625000000000000        0.0000000000000000     
  0.28125000000000000       0.90625000000000000        0.0000000000000000     
  0.31250000000000000       0.90625000000000000        0.0000000000000000     
  0.34375000000000000       0.90625000000000000        0.0000000000000000     
  0.37500000000000000       0.90625000000000000        0.0000000000000000     
  0.25000000000000000       0.93750000000000000        0.0000000000000000     
  0.28125000000000000       0.93750000000000000        0.0000000000000000     
  0.31250000000000000       0.93750000000000000        0.0000000000000000     
  0.34375000000000000       0.93750000000000000        0.0000000000000000     
  0.37500000000000000       0.93750000000000000        0.0000000000000000     
  0.25000000000000000       0.96875000000000000        0.0000000000000000     
  0.28125000000000000       0.96875000000000000        0.0000000000000000     
  0.31250000000000000       0.96875000000000000        0.0000000000000000     
  0.34375000000000000       0.96875000000000000        0.0000000000000000     
  0.37500000000000000       0.96875000000000000        0.0000000000000000     
  0.25000000000000000        1.0000000000000000        0.0000000000000000     
  0.28125000000000000        1.0000000000000000        0.0000000000000000     
  0.31250000000000000        1.0000000000000000        0.0000000000000000     
  0.34375000000000000        1.0000000000000000        0.0000000000000000     
  0.37500000000000000        1.0000000000000000        0.0000000000000000     
  0.37500000000000000       0.87500000000000000        0.0000000000000000     
  0.40625000000000000       0.87500000000000000        0.0000000000000000     
  0.43750000000000000       0.87500000000000000        0.0000000000000000     
  0.46875000000000000       0.87500000000000000        0.0000000000000000     
  0.50000000000000000       0.87500000000000000        0.0000000000000000     
  0.37500000000000000       0.90625000000000000        0.0000000000000000     
  0.40625000000000000       0.90625000000000000        0.0000000000000000     
  0.43750000000000000       0.90625000000000000        0.0000000000000000     
  0.46875000000000000       0.90625000000000000        0.0000000000000000     
  0.50000000000000000       0.90625000000000000        0.0000000000000000     
  0.37500000000000000       0.93750000000000000        0.0000000000000000     
  0.40625000000000000       0.93750000000000000        0.0000000000000000     
  0.43750000000000000       0.93750000000000000        0.0000000000000000     
  0.46875000000000000       0.93750000000000000        0.0000000000000000     
  0.50000000000000000       0.93750000000000000        0.0000000000000000     
  0.37500000000000000       0.96875000000000000        0.0000000000000000     
  0.40625000000000000       0.96875000000000000        0.0000000000000000     
  0.43750000000000000       0.96875000000000000        0.0000000000000000     
  0.46875000000000000       0.96875000000000000        0.0000000000000000     
  0.50000000000000000       0.96875000000000000        0.0000000000000000     
  0.37500000000000000        1.0000000000000000        0.0000000000000000     
  0.40625000000000000        1.0000000000000000        0.0000000000000000     
  0.43750000000000000        1.0000000000000000        0.0000000000000000     
  0.46875000000000000        1.0000000000000000        0.0000000000000000     
  0.50000000000000000        1.0000000000000000        0.0000000000000000     
  0.50000000000000000       0.87500000000000000        0.0000000000000000     
  0.53125000000000000       0.87500000000000000        0.0000000000000000     
  0.56250000000000000       0.87500000000000000        0.0000000000000000     
  0.59375000000000000       0.87500000000000000        0.0000000000000000     
  0.62500000000000000       0.87500000000000000        0.0000000000000000     
  0.50000000000000000       0.90625000000000000        0.0000000000000000     
  0.53125000000000000       0.90625000000000000        0.0000000000000000     
  0.56250000000000000       0.90625000000000000        0.0000000000000000     
  0.59375000000000000       0.90625000000000000        0.0000000000000000     
  0.62500000000000000       0.90625000000000000        0.0000000000000000     
  0.50000000000000000       0.93750000000000000        0.0000000000000000     
  0.53125000000000000       0.93750000000000000        0.0000000000000000     
  0.56250000000000000       0.93750000000000000        0.0000000000000000     
  0.59375000000000000       0.93750000000000000        0.0000000000000000     
  0.62500000000000000       0.93750000000000000        0.0000000000000000     
  0.50000000000000000       0.96875000000000000        0.0000000000000000     
  0.53125000000000000       0.96875000000000000        0.0000000000000000     
  0.56250000000000000       0.96875000000000000        0.0000000000000000     
  0.59375000000000000       0.96875000000000000        0.0000000000000000     
  0.62500000000000000       0.96875000000000000        0.0000000000000000     
  0.50000000000000000        1.0000000000000000        0.0000000000000000     
  0.53125000000000000        1.0000000000000000        0.0000000000000000     
  0.56250000000000000        1.0000000000000000        0.0000000000000000     
  0.59375000000000000        1.0000000000000000        0.0000000000000000     
  0.62500000000000000        1.0000000000000000        0.0000000000000000     
  0.62500000000000000       0.87500000000000000        0.0000000000000000     
  0.65625000000000000       0.87500000000000000        0.0000000000000000     
  0.68750000000000000       0.87500000000000000        0.0000000000000000     
  0.71875000000000000       0.87500000000000000        0.0000000000000000     
  0.75000000000000000       0.87500000000000000        0.0000000000000000     
  0.62500000000000000       0.90625000000000000        0.0000000000000000     
  0.65625000000000000       0.90625000000000000        0.0000000000000000     
  0.68750000000000000       0.90625000000000000        0.0000000000000000     
  0.71875000000000000       0.90625000000000000        0.0000000000000000     
  0.75000000000000000       0.90625000000000000        0.0000000000000000     
  0.62500000000000000       0.93750000000000000        0.0000000000000000     
  0.65625000000000000       0.93750000000000000        0.0000000000000000     
  0.68750000000000000       0.93750000000000000        0.0000000000000000     
  0.71875000000000000       0.93750000000000000        0.0000000000000000     
  0.75000000000000000       0.93750000000000000        0.0000000000000000     
  0.62500000000000000       0.96875000000000000        0.0000000000000000     
  0.65625000000000000       0.96875000000000000        0.0000000000000000     
  0.68750000000000000       0.96875000000000000        0.0000000000000000     
  0.71875000000000000       0.96875000000000000        0.0000000000000000     
  0.75000000000000000       0.96875000000000000        0.0000000000000000     
  0.62500000000000000        1.0000000000000000        0.0000000000000000     
  0.65625000000000000        1.0000000000000000        0.0000000000000000     
  0.68750000000000000        1.0000000000000000        0.0000000000000000     
  0.71875000000000000        1.0000000000000000        0.0000000000000000     
  0.75000000000000000        1.0000000000000000        0.0000000000000000     
  0.75000000000000000       0.87500000000000000        0.0000000000000000     
  0.78125000000000000       0.87500000000000000        0.0000000000000000     
  0.81250000000000000       0.87500000000000000        0.0000000000000000     
  0.84375000000000000       0.87500000000000000        0.0000000000000000     
  0.87500000000000000       0.87500000000000000        0.0000000000000000     
  0.75000000000000000       0.90625000000000000        0.0000000000000000     
  0.78125000000000000       0.90625000000000000        0.0000000000000000     
  0.81250000000000000       0.90625000000000000        0.0000000000000000     
  0.84375000000000000       0.90625000000000000        0.0000000000000000     
  0.87500000000000000       0.90625000000000000        0.0000000000000000     
  0.75000000000000000       0.93750000000000000        0.0000000000000000     
  0.78125000000000000       0.93750000000000000        0.0000000000000000     
  0.81250000000000000       0.93750000000000000        0.0000000000000000     
  0.84375000000000000       0.93750000000000000        0.0000000000000000     
  0.87500000000000000       0.93750000000000000        0.0000000000000000     
  0.75000000000000000       0.96875000000000000        0.0000000000000000     
  0.78125000000000000       0.96875000000000000        0.0000000000000000     
  0.81250000000000000       0.96875000000000000        0.0000000000000000     
  0.84375000000000000       0.96875000000000000        0.0000000000000000     
  0.87500000000000000       0.96875000000000000        0.0000000000000000     
  0.75000000000000000        1.0000000000000000        0.0000000000000000     
  0.78125000000000000        1.0000000000000000        0.0000000000000000     
  0.81250000000000000        1.0000000000000000        0.0000000000000000     
  0.84375000000000000        1.0000000000000000        0.0000000000000000     
  0.87500000000000000        1.0000000000000000        0.0000000000000000     
  0.87500000000000000       0.87500000000000000        0.0000000000000000     
  0.90625000000000000       0.87500000000000000        0.0000000000000000     
  0.93750000000000000       0.87500000000000000        0.0000000000000000     
  0.96875000000000000       0.87500000000000000        0.0000000000000000     
   1.0000000000000000       0.87500000000000000        0.0000000000000000     
  0.87500000000000000       0.90625000000000000        0.0000000000000000     
  0.90625000000000000       0.90625000000000000        0.0000000000000000     
  0.93750000000000000       0.90625000000000000        0.0000000000000000     
  0.96875000000000000       0.90625000000000000        0.0000000000000000     
   1.0000000000000000       0.90625000000000000        0.0000000000000000     
  0.87500000000000000       0.93750000000000000        0.0000000000000000     
  0.90625000000000000       0.93750000000000000        0.0000000000000000     
  0.93750000000000000       0.93750000000000000        0.0000000000000000     
  0.96875000000000000       0.93750000000000000        0.0000000000000000     
   1.0000000000000000       0.93750000000000000        0.0000000000000000     
  0.87500000000000000       0.96875000000000000        0.0000000000000000     
  0.90625000000000000       0.96875000000000000        0.0000000000000000     
  0.93750000000000000       0.96875000000000000        0.0000000000000000     
  0.96875000000000000       0.96875000000000000        0.0000000000000000     
   1.0000000000000000       0.96875000000000000        0.0000000000000000     
  0.87500000000000000        1.0000000000000000        0.0000000000000000     
  0.90625000000000000        1.0000000000000000        0.0000000000000000     
  0.93750000000000000        1.0000000000000000        0.0000000000000000     
  0.96875000000000000        1.0000000000000000        0.0000000000000000     
   1.0000000000000000        1.0000000000000000        0.0000000000000000     
 </DataArray>
 </Points>
 <Cells>
 <DataArray  type="Int32"  Name="connectivity"  format="ascii">
           0           1           6           5
           1           2           7           6
           2           3           8           7
           3           4           9           8
           5           6          11          10
           6           7          12          11
           7           8          13          12
           8           9          14          13
          10          11          16          15
          11          12          17          16
          12          13          18          17
          13          14          19          18
          15          16          21          20
          16          17          22          21
          17          18          23          22
          18          19          24          23
          25          26          31          30
          26          27          32          31
          27          28          33          32
          28          29          34          33
          30          31          36          35
          31          32          37          36
          32          33          38          37
          33          34          39          38
          35          36          41          40
          36          37          42          41
          37          38          43          42
          38          39          44          43
          40          41          46          45
          41          42          47          46
          42          43          48          47
          43          44          49          48
          50          51          56          55
          51          52          57          56
          52          53          58          57
          53          54          59          58
          55          56          61          60
          56          57          62          61
          57          58          63          62
          58          59          64          63
          60          61          66          65
          61          62          67          66
          62          63          68          67
          63          64          69          68
          65          66          71          70
          66          67          72          71
          67          68          73          72
          68          69          74          73
          75          76          81          80
          76          77          82          81
          77          78          83          82
          78          79          84          83
          80          81          86          85
          81          82          87          86
          82          83          88          87
          83          84          89          88
          85          86          91          90
          86          87          92          91
          87          88          93          92
          88          89          94          93
          90          91          96          95
          91          92          97          96
          92          93          98          97
          93          94          99          98
         100         101         106         105
         101         102         107         106
         102         103         108         107
         103         104         109         108
         105         106         111         110
         106         107         112         111
         107         108         113         112
         108         109         114         113
         110         111         116         115
         111         112         117         116
         112         113         118         117
         113         114         119         118
         115         116         121         120
         116         117         122         121
         117         118         123         122
         118         119         124         123
         125         126         131         130
         126         127         132         131
         127         128         133         132
         128         129         134         133
         130         131         136         135
         131         132         137         136
         132         133         138         137
         133         134         139         138
         135         136         141         140
         136         137         142         141
         137         138         143         142
         138         139         144         143
         140         141         146         145
         141         142         147         146
         142         143         148         147
         143         144         149         148
         150         151         156         155
         151         152         157         156
         152         153         158         157
         153         154         159         158
         155         156         161         160
         156         157         162         161
         157         158         163         162
         158         159         164         163
         160         161         166         165
         161         162         167         166
         162         163         168         167
         163         164         169         168
         165         166         171         170
         166         167         172         171
         167         168         173         172
         168         169         174         173
         175         176         181         180
         176         177         182         181
         177         178         183         182
         178         179         184         183
         180         181         186         185
         181         182         187         186
         182         183         188         187
         183         184         189         188
         185         186         191         190
         186         187         192         191
         187         188         193         192
         188         189         194         193
         190         191         196         195
         191         192         197         196
         192         193         198         197
         193         194         199         198
         200         201         206         205
         201         202         207         206
         202         203         208         207
         203         204         209         208
         205         206         211         210
         206         207         212         211
         207         208         213         212
         208         209         214         213
         210         211         216         215
         211         212         217         216
         212         213         218         217
         213         214         219         218
         215         216         221         220
         216         217         222         221
         217         218         223         222
         218         219         224         223
         225         226         231         230
         226         227         232         231
         227         228         233         232
         228         229         234         233
         230         231         236         235
         231         232         237         236
         232         233         238         237
         233         234         239         238
         235         236         241         240
         236         237         242         241
         237         238         243         242
         238         239         244         243
         240         241         246         245
         241         242         247         246
         242         243         248         247
         243         244         249         248
         250         251         256         255
         251         252         257         256
         252         253         258         257
         253         254         259         258
         255         256         261         260
         256         257         262         261
         257         258         263         262
         258         259         264         263
         260         261         266         265
         261         262         267         266
         262         263         268         267
         263         264         269         268
         265         266         271         270
         266         267         272         271
         267         268         273         272
         268         269         274         273
         275         276         281         280
         276         277         282         281
         277         278         283         282
         278         279         284         283
         280         281         286         285
         281         282         287         286
         282         283         288         287
         283         284         289         288
         285         286         291         290
         286         287         292         291
         287         288         293         292
         288         289         294         293
         290         291         296         295
         291         292         297         296
         292         293         298         297
         293         294         299         298
         300         301         306         305
         301         302         307         306
         302         303         308         307
         303         304         309         308
         305         306         311         310
         306         307         312         311
         307         308         313         312
         308         309         314         313
         310         311         316         315
         311         312         317         316
         312         313         318         317
         313         314         319         318
         315         316         321         320
         316         317         322         321
         317         318         323         322
         318         319         324         323
         325         326         331         330
         326         327         332         331
         327         328         333         332
         328         329         334         333
         330         331         336         335
         331         332         337         336
         332         333         338         337
         333         334         339         338
         335         336         341         340
         336         337         342         341
         337         338         343         342
         338         339         344         343
         340         341         346         345
         341         342         347         346
         342         343         348         347
         343         344         349         348
         350         351         356         355
         351         352         357         356
         352         353         358         357
         353         354         359         358
         355         356         361         360
         356         357         362         361
         357         358         363         362
         358         359         364         363
         360         361         366         365
         361         362         367         366
         362         363         368         367
         363         364         369         368
         365         366         371         370
         366         367         372         371
         367         368         373         372
         368         369         374         373
         375         376         381         380
         376         377         382         381
         377         378         383         382
         378         379         384         383
         380         381         386         385
         381         382         387         386
         382         383         388         387
         383         384         389         388
         385         386         391         390
         386         387         392         391
         387         388         393         392
         388         389         394         393
         390         391         396         395
         391         392         397         396
         392         393         398         397
         393         394         399         398
         400         401         406         405
         401         402         407         406
         402         403         408         407
         403         404         409         408
         405         406         411         410
         406         407         412         411
         407         408         413         412
         408         409         414         413
         410         411         416         415
         411         412         417         416
         412         413         418         417
         413         414         419         418
         415         416         421         420
         416         417         422         421
         417         418         423         422
         418         419         424         423
         425         426         431         430
         426         427         432         431
         427         428         433         432
         428         429         434         433
         430         431         436         435
         431         432         437         436
         432         433         438         437
         433         434         439         438
         435         436         441         440
         436         437         442         441
         437         438         443         442
         438         439         444         443
         440         441         446         445
         441         442         447         446
         442         443         448         447
         443         444         449         448
         450         451         456         455
         451         452         457         456
         452         453         458         457
         453         454         459         458
         455         456         461         460
         456         457         462         461
         457         458         463         462
         458         459         464         463
         460         461         466         465
         461         462         467         466
         462         463         468         467
         463         464         469         468
         465         466         471         470
         466         467         472         471
         467         468         473         472
         468         469         474         473
         475         476         481         480
         476         477         482         481
         477         478         483         482
         478         479         484         483
         480         481         486         485
         481         482         487         486
         482         483         488         487
         483         484         489         488
         485         486         491         490
         486         487         492         491
         487         488         493         492
         488         489         494         493
         490         491         496         495
         491         492         497         496
         492         493         498         497
         493         494         499         498
         500         501         506         505
         501         502         507         506
         502         503         508         507
         503         504         509         508
         505         506         511         510
         506         507         512         511
         507         508         513         512
         508         509         514         513
         510         511         516         515
         511         512         517         516
         512         513         518         517
         513         514         519         518
         515         516         521         520
         516         517         522         521
         517         518         523         522
         518         519         524         523
         525         526         531         530
         526         527         532         531
         527         528         533         532
         528         529         534         533
         530         531         536         535
         531         532         537         536
         532         533         538         537
         533         534         539         538
         535         536         541         540
         536         537         542         541
         537         538         543         542
         538         539         544         543
         540         541         546         545
         541         542         547         546
         542         543         548         547
         543         544         549         548
         550         551         556         555
         551         552         557         556
         552         553         558         557
         553         554         559         558
         555         556         561         560
         556         557         562         561
         557         558         563         562
         558         559         564         563
         560         561         566         565
         561         562         567         566
         562         563         568         567
         563         564         569         568
         565         566         571         570
         566         567         572         571
         567         568         573         572
         568         569         574         573
         575         576         581         580
         576         577         582         581
         577         578         583         582
         578         579         584         583
         580         581         586         585
         581         582         587         586
         582         583         588         587
         583         584         589         588
         585         586         591         590
         586         587         592         591
         587         588         593         592
         588         589         594         593
         590         591         596         595
         591         592         597         596
         592         593         598         597
         593         594         599         598
         600         601         606         605
         601         602         607         606
         602         603         608         607
         603         604         609         608
         605         606         611         610
         606         607         612         611
         607         608         613         612
         608         609         614         613
         610         611         616         615
         611         612         617         616
         612         613         618         617
         613         614         619         618
         615         616         621         620
         616         617         622         621
         617         618         623         622
         618         619         624         623
         625         626         631         630
         626         627         632         631
         627         628         633         632
         628         629         634         633
         630         631         636         635
         631         632         637         636
         632         633         638         637
         633         634         639         638
         635         636         641         640
         636         637         642         641
         637         638         643         642
         638         639         644         643
         640         641         646         645
         641         642         647         646
         642         643         648         647
         643         644         649         648
         650         651         656         655
         651         652         657         656
         652         653         658         657
         653         654         659         658
         655         656         661         660
         656         657         662         661
         657         658         663         662
         658         659         664         663
         660         661         666         665
         661         662         667         666
         662         663         668         667
         663         664         669         668
         665         666         671         670
         666         667         672         671
         667         668         673         672
         668         669         674         673
         675         676         681         680
         676         677         682         681
         677         678         683         682
         678         679         684         683
         680         681         686         685
         681         682         687         686
         682         683         688         687
         683         684         689         688
         685         686         691         690
         686         687         692         691
         687         688         693         692
         688         689         694         693
         690         691         696         695
         691         692         697         696
         692         693         698         697
         693         694         699         698
         700         701         706         705
         701         702         707         706
         702         703         708         707
         703         704         709         708
         705         706         711         710
         706         707         712         711
         707         708         713         712
         708         709         714         713
         710         711         716         715
         711         712         717         716
         712         713         718         717
         713         714         719         718
         715         716         721         720
         716         717         722         721
         717         718         723         722
         718         719         724         723
         725         726         731         730
         726         727         732         731
         727         728         733         732
         728         729         734         733
         730         731         736         735
         731         732         737         736
         732         733         738         737
         733         734         739         738
         735         736         741         740
         736         737         742         741
         737         738         743         742
         738         739         744         743
         740         741         746         745
         741         742         747         746
         742         743         748         747
         743         744         749         748
         750         751         756         755
         751         752         757         756
         752         753         758         757
         753         754         759         758
         755         756         761         760
         756         757         762         761
         757         758         763         762
         758         759         764         763
         760         761         766         765
         761         762         767         766
         762         763         768         767
         763         764         769         768
         765         766         771         770
         766         767         772         771
         767         768         773         772
         768         769         774         773
         775         776         781         780
         776         777         782         781
         777         778         783         782
         778         779         784         783
         780         781         786         785
         781         782         787         786
         782         783         788         787
         783         784         789         788
         785         786         791         790
         786         787         792         791
         787         788         793         792
         788         789         794         793
         790         791         796         795
         791         792         797         796
         792         793         798         797
         793         794         799         798
         800         801         806         805
         801         802         807         806
         802         803         808         807
         803         804         809         808
         805         806         811         810
         806         807         812         811
         807         808         813         812
         808         809         814         813
         810         811         816         815
         811         812         817         816
         812         813         818         817
         813         814         819         818
         815         816         821         820
         816         817         822         821
         817         818         823         822
         818         819         824         823
         825         826         831         830
         826         827         832         831
         827         828         833         832
         828         829         834         833
         830         831         836         835
         831         832         837         836
         832         833         838         837
         833         834         839         838
         835         836         841         840
         836         837         842         841
         837         838         843         842
         838         839         844         843
         840         841         846         845
         841         842         847         846
         842         843         848         847
         843         844         849         848
         850         851         856         855
         851         852         857         856
         852         853         858         857
         853         854         859         858
         855         856         861         860
         856         857         862         861
         857         858         863         862
         858         859         864         863
         860         861         866         865
         861         862         867         866
         862         863         868         867
         863         864         869         868
         865         866         871         870
         866         867         872         871
         867         868         873         872
         868         869         874         873
         875         876         881         880
         876         877         882         881
         877         878         883         882
         878         879         884         883
         880         881         886         885
         881         882         887         886
         882         883         888         887
         883         884         889         888
         885         886         891         890
         886         887         892         891
         887         888         893         892
         888         889         894         893
         890         891         896         895
         891         892         897         896
         892         893         898         897
         893         894         899         898
         900         901         906         905
         901         902         907         906
         902         903         908         907
         903         904         909         908
         905         906         911         910
         906         907         912         911
         907         908         913         912
         908         909         914         913
         910         911         916         915
         911         912         917         916
         912         913         918         917
         913         914         919         918
         915         916         921         920
         916         917         922         921
         917         918         923         922
         918         919         924         923
         925         926         931         930
         926         927         932         931
         927         928         933         932
         928         929         934         933
         930         931         936         935
         931         932         937         936
         932         933         938         937
         933         934         939         938
         935         936         941         940
         936         937         942         941
         937         938         943         942
         938         939         944         943
         940         941         946         945
         941         942         947         946
         942         943         948         947
         943         944         949         948
         950         951         956         955
         951         952         957         956
         952         953         958         957
         953         954         959         958
         955         956         961         960
         956         957         962         961
         957         958         963         962
         958         959         964         963
         960         961         966         965
         961         962         967         966
         962         963         968         967
         963         964         969         968
         965         966         971         970
         966         967         972         971
         967         968         973         972
         968         969         974         973
         975         976         981         980
         976         977         982         981
         977         978         983         982
         978         979         984         983
         980         981         986         985
         981         982         987         986
         982         983         988         987
         983         984         989         988
         985         986         991         990
         986         987         992         991
         987         988         993         992
         988         989         994         993
         990         991         996         995
         991         992         997         996
         992         993         998         997
         993         994         999         998
        1000        1001        1006        1005
        1001        1002        1007        1006
        1002        1003        1008        1007
        1003        1004        1009        1008
        1005        1006        1011        1010
        1006        1007        1012        1011
        1007        1008        1013        1012
        1008        1009        1014        1013
        1010        1011        1016        1015
        1011        1012        1017        1016
        1012        1013        1018        1017
        1013        1014        1019        1018
        1015        1016        1021        1020
        1016        1017        1022        1021
        1017        1018        1023        1022
        1018        1019        1024        1023
        1025        1026        1031        1030
        1026        1027        1032        1031
        1027        1028        1033        1032
        1028        1029        1034        1033
        1030        1031        1036        1035
        1031        1032        1037        1036
        1032        1033        1038        1037
        1033        1034        1039        1038
        1035        1036        1041        1040
        1036        1037        1042        1041
        1037        1038        1043        1042
        1038        1039        1044        1043
        1040        1041        1046        1045
        1041        1042        1047        1046
        1042        1043        1048        1047
        1043        1044        1049        1048
        1050        1051        1056        1055
        1051        1052        1057        1056
        1052        1053        1058        1057
        1053        1054        1059        1058
        1055        1056        1061        1060
        1056        1057        1062        1061
        1057        1058        1063        1062
        1058        1059        1064        1063
        1060        1061        1066        1065
        1061        1062        1067        1066
        1062        1063        1068        1067
        1063        1064        1069        1068
        1065        1066        1071        1070
        1066        1067        1072        1071
        1067        1068        1073        1072
        1068        1069        1074        1073
        1075        1076        1081        1080
        1076        1077        1082        1081
        1077        1078        1083        1082
        1078        1079        1084        1083
        1080        1081        1086        1085
        1081        1082        1087        1086
        1082        1083        1088        1087
        1083        1084        1089        1088
        1085        1086        1091        1090
        1086        1087        1092        1091
        1087        1088        1093        1092
        1088        1089        1094        1093
        1090        1091        1096        1095
        1091        1092        1097        1096
        1092        1093        1098        1097
        1093        1094        1099        1098
        1100        1101        1106        1105
        1101        1102        1107        1106
        1102        1103        1108        1107
        1103        1104        1109        1108
        1105        1106        1111        1110
        1106        1107        1112        1111
        1107        1108        1113        1112
        1108        1109        1114        1113
        1110        1111        1116        1115
        1111        1112        1117        1116
        1112        1113        1118        1117
        1113        1114        1119        1118
        1115        1116        1121        1120
        1116        1117        1122        1121
        1117        1118        1123        1122
        1118        1119        1124        1123
        1125        1126        1131        1130
        1126        1127        1132        1131
        1127        1128        1133        1132
        1128        1129        1134        1133
        1130        1131        1136        1135
        1131        1132        1137        1136
        1132        1133        1138        1137
        1133        1134        1139        1138
        1135        1136        1141        1140
        1136        1137        1142        1141
        1137        1138        1143        1142
        1138        1139        1144        1143
        1140        1141        1146        1145
        1141        1142        1147        1146
        1142        1143        1148        1147
        1143        1144        1149        1148
        1150        1151        1156        1155
        1151        1152        1157        1156
        1152        1153        1158        1157
        1153        1154        1159        1158
        1155        1156        1161        1160
        1156        1157        1162        1161
        1157        1158        1163        1162
        1158        1159        1164        1163
        1160        1161        1166        1165
        1161        1162        1167        1166
        1162        1163        1168        1167
        1163        1164        1169        1168
        1165        1166        1171        1170
        1166        1167        1172        1171
        1167        1168        1173        1172
        1168        1169        1174        1173
        1175        1176        1181        1180
        1176        1177        1182        1181
        1177        1178        1183        1182
        1178        1179        1184        1183
        1180        1181        1186        1185
        1181        1182        1187        1186
        1182        1183        1188        1187
        1183        1184        1189        1188
        1185        1186        1191        1190
        1186        1187        1192        1191
        1187        1188        1193        1192
        1188        1189        1194        1193
        1190        1191        1196        1195
        1191        1192        1197        1196
        1192        1193        1198        1197
        1193        1194        1199        1198
        1200        1201        1206        1205
        1201        1202        1207        1206
        1202        1203        1208        1207
        1203        1204        1209        1208
        1205        1206        1211        1210
        1206        1207        1212        1211
        1207        1208        1213        1212
        1208        1209        1214        1213
        1210        1211        1216        1215
        1211        1212        1217        1216
        1212        1213        1218        1217
        1213        1214        1219        1218
        1215        1216        1221        1220
        1216        1217        1222        1221
        1217        1218        1223        1222
        1218        1219        1224        1223
        1225        1226        1231        1230
        1226        1227        1232        1231
        1227        1228        1233        1232
        1228        1229        1234        1233
        1230        1231        1236        1235
        1231        1232        1237        1236
        1232        1233        1238        1237
        1233        1234        1239        1238
        1235        1236        1241        1240
        1236        1237        1242        1241
        1237        1238        1243        1242
        1238        1239        1244        1243
        1240        1241        1246        1245
        1241        1242        1247        1246
        1242        1243        1248        1247
        1243        1244        1249        1248
        1250        1251        1256        1255
        1251        1252        1257        1256
        1252        1253        1258        1257
        1253        1254        1259        1258
        1255        1256        1261        1260
        1256        1257        1262        1261
        1257        1258        1263        1262
        1258        1259        1264        1263
        1260        1261        1266        1265
        1261        1262        1267        1266
        1262        1263        1268        1267
        1263        1264        1269        1268
        1265        1266        1271        1270
        1266        1267        1272        1271
        1267        1268        1273        1272
        1268        1269        1274        1273
        1275        1276        1281        1280
        1276        1277        1282        1281
        1277        1278        1283        1282
        1278        1279        1284        1283
        1280        1281        1286        1285
        1281        1282        1287        1286
        1282        1283        1288        1287
        1283        1284        1289        1288
        1285        1286        1291        1290
        1286        1287        1292        1291
        1287        1288        1293        1292
        1288        1289        1294        1293
        1290        1291        1296        1295
        1291        1292        1297        1296
        1292        1293        1298        1297
        1293        1294        1299        1298
        1300        1301        1306        1305
        1301        1302        1307        1306
        1302        1303        1308        1307
        1303        1304        1309        1308
        1305        1306        1311        1310
        1306        1307        1312        1311
        1307        1308        1313        1312
        1308        1309        1314        1313
        1310        1311        1316        1315
        1311        1312        1317        1316
        1312        1313        1318        1317
        1313        1314        1319        1318
        1315        1316        1321        1320
        1316        1317        1322        1321
        1317        1318        1323        1322
        1318        1319        1324        1323
        1325        1326        1331        1330
        1326        1327        1332        1331
        1327        1328        1333        1332
        1328        1329        1334        1333
        1330        1331        1336        1335
        1331        1332        1337        1336
        1332        1333        1338        1337
        1333        1334        1339        1338
        1335        1336        1341        1340
        1336        1337        1342        1341
        1337        1338        1343        1342
        1338        1339        1344        1343
        1340        1341        1346        1345
        1341        1342        1347        1346
        1342        1343        1348        1347
        1343        1344        1349        1348
        1350        1351        1356        1355
        1351        1352        1357        1356
        1352        1353        1358        1357
        1353        1354        1359        1358
        1355        1356        1361        1360
        1356        1357        1362        1361
        1357        1358        1363        1362
        1358        1359        1364        1363
        1360        1361        1366        1365
        1361        1362        1367        1366
        1362        1363        1368        1367
        1363        1364        1369        1368
        1365        1366        1371        1370
        1366        1367        1372        1371
        1367        1368        1373        1372
        1368        1369        1374        1373
        1375        1376        1381        1380
        1376        1377        1382        1381
        1377        1378        1383        1382
        1378        1379        1384        1383
        1380        1381        1386        1385
        1381        1382        1387        1386
        1382        1383        1388        1387
        1383        1384        1389        1388
        1385        1386        1391        1390
        1386        1387        1392        1391
        1387        1388        1393        1392
        1388        1389        1394        1393
        1390        1391        1396        1395
        1391        1392        1397        1396
        1392        1393        1398        1397
        1393        1394        1399        1398
        1400        1401        1406        1405
        1401        1402        1407        1406
        1402        1403        1408        1407
        1403        1404        1409        1408
        1405        1406        1411        1410
        1406        1407        1412        1411
        1407        1408        1413        1412
        1408        1409        1414        1413
        1410        1411        1416        1415
        1411        1412        1417        1416
        1412        1413        1418        1417
        1413        1414        1419        1418
        1415        1416        1421        1420
        1416        1417        1422        1421
        1417        1418        1423        1422
        1418        1419        1424        1423
        1425        1426        1431        1430
        1426        1427        1432        1431
        1427        1428        1433        1432
        1428        1429        1434        1433
        1430        1431        1436        1435
        1431        1432        1437        1436
        1432        1433        1438        1437
        1433        1434        1439        1438
        1435        1436        1441        1440
        1436        1437        1442        1441
        1437        1438        1443        1442
        1438        1439        1444        1443
        1440        1441        1446        1445
        1441        1442        1447        1446
        1442        1443        1448        1447
        1443        1444        1449        1448
        1450        1451        1456        1455
        1451        1452        1457        1456
        1452        1453        1458        1457
        1453        1454        1459        1458
        1455        1456        1461        1460
        1456        1457        1462        1461
        1457        1458        1463        1462
        1458        1459        1464        1463
        1460        1461        1466        1465
        1461        1462        1467        1466
        1462        1463        1468        1467
        1463        1464        1469        1468
        1465        1466        1471        1470
        1466        1467        1472        1471
        1467        1468        1473        1472
        1468        1469        1474        1473
        1475        1476        1481        1480
        1476        1477        1482        1481
        1477        1478        1483        1482
        1478        1479        1484        1483
        1480        1481        1486        1485
        1481        1482        1487        1486
        1482        1483        1488        1487
        1483        1484        1489        1488
        1485        1486        1491        1490
        1486        1487        1492        1491
        1487        1488        1493        1492
        1488        1489        1494        1493
        1490        1491        1496        1495
        1491        1492        1497        1496
        1492        1493        1498        1497
        1493        1494        1499        1498
        1500        1501        1506        1505
        1501        1502        1507        1506
        1502        1503        1508        1507
        1503        1504        1509        1508
        1505        1506        1511        1510
        1506        1507        1512        1511
        1507        1508        1513        1512
        1508        1509        1514        1513
        1510        1511        1516        1515
        1511        1512        1517        1516
        1512        1513        1518        1517
        1513        1514        1519        1518
        1515        1516        1521        1520
        1516        1517        1522        1521
        1517        1518        1523        1522
        1518        1519        1524        1523
        1525        1526        1531        1530
        1526        1527        1532        1531
        1527        1528        1533        1532
        1528        1529        1534        1533
        1530        1531        1536        1535
        1531        1532        1537        1536
        1532        1533        1538        1537
        1533        1534        1539        1538
        1535        1536        1541        1540
        1536        1537        1542        1541
        1537        1538        1543        1542
        1538        1539        1544        1543
        1540        1541        1546        1545
        1541        1542        1547        1546
        1542        1543        1548        1547
        1543        1544        1549        1548
        1550        1551        1556        1555
        1551        1552        1557        1556
        1552        1553        1558        1557
        1553        1554        1559        1558
        1555        1556        1561        1560
        1556        1557        1562        1561
        1557        1558        1563        1562
        1558        1559        1564        1563
        1560        1561        1566        1565
        1561        1562        1567        1566
        1562        1563        1568        1567
        1563        1564        1569        1568
        1565        1566        1571        1570
        1566        1567        1572        1571
        1567        1568        1573        1572
        1568        1569        1574        1573
        1575        1576        1581        1580
        1576        1577        1582        1581
        1577        1578        1583        1582
        1578        1579        1584        1583
        1580        1581        1586        1585
        1581        1582        1587        1586
        1582        1583        1588        1587
        1583        1584        1589        1588
        1585        1586        1591        1590
        1586        1587        1592        1591
        1587        1588        1593        1592
        1588        1589        1594        1593
        1590        1591        1596        1595
        1591        1592        1597        1596
        1592        1593        1598        1597
        1593        1594        1599        1598
 </DataArray>
 <DataArray  type="Int32"  Name="offsets"  format="ascii"> 
           4
           8
          12
          16
          20
          24
          28
          32
          36
          40
          44
          48
          52
          56
          60
          64
          68
          72
          76
          80
          84
          88
          92
          96
         100
         104
         108
         112
         116
         120
         124
         128
         132
         136
         140
         144
         148
         152
         156
         160
         164
         168
         172
         176
         180
         184
         188
         192
         196
         200
         204
         208
         212
         216
         220
         224
         228
         232
         236
         240
         244
         248
         252
         256
         260
         264
         268
         272
         276
         280
         284
         288
         292
         296
         300
         304
         308
         312
         316
         320
         324
         328
         332
         336
         340
         344
         348
         352
         356
         360
         364
         368
         372
         376
         380
         384
         388
         392
         396
         400
         404
         408
         412
         416
         420
         424
         428
         432
         436
         440
         444
         448
         452
         456
         460
         464
         468
         472
         476
         480
         484
         488
         492
         496
         500
         504
         508
         512
         516
         520
         524
         528
         532
         536
         540
         544
         548
         552
         556
         560
         564
         568
         572
         576
         580
         584
         588
         592
         596
         600
         604
         608
         612
         616
         620
         624
         628
         632
         636
         640
         644
         648
         652
         656
         660
         664
         668
         672
         676
         680
         684
         688
         692
         696
         700
         704
         708
         712
         716
         720
         724
         728
         732
         736
         740
         744
         748
         752
         756
         760
         764
         768
         772
         776
         780
         784
         788
         792
         796
         800
         804
         808
         812
         816
         820
         824
         828
         832
         836
         840
         844
         848
         852
         856
         860
         864
         868
         872
         876
         880
         884
         888
         892
         896
         900
         904
         908
         912
         916
         920
         924
         928
         932
         936
         940
         944
         948
         952
         956
         960
         964
         968
         972
         976
         980
         984
         988
         992
         996
        1000
        1004
        1008
        1012
        1016
        1020
        1024
        1028
        1032
        1036
        1040
        1044
        1048
        1052
        1056
        1060
        1064
        1068
        1072
        1076
        1080
        1084
        1088
        1092
        1096
        1100
        1104
        1108
        1112
        1116
        1120
        1124
        1128
        1132
        1136
        1140
        1144
        1148
        1152
        1156
        1160
        1164
        1168
        1172
        1176
        1180
        1184
        1188
        1192
        1196
        1200
        1204
        1208
        1212
        1216
        1220
        1224
        1228
        1232
        1236
        1240
        1244
        1248
        1252
        1256
        1260
        1264
        1268
        1272
        1276
        1280
        1284
        1288
        1292
        1296
        1300
        1304
        1308
        1312
        1316
        1320
        1324
        1328
        1332
        1336
        1340
        1344
        1348
        1352
        1356
        1360
        1364
        1368
        1372
        1376
        1380
        1384
        1388
        1392
        1396
        1400
        1404
        1408
        1412
        1416
        1420
        1424
        1428
        1432
        1436
        1440
        1444
        1448
        1452
        1456
        1460
        1464
        1468
        1472
        1476
        1480
        1484
        1488
        1492
        1496
        1500
        1504
        1508
        1512
        1516
        1520
        1524
        1528
        1532
        1536
        1540
        1544
        1548
        1552
        1556
        1560
        1564
        1568
        1572
        1576
        1580
        1584
        1588
        1592
        1596
        1600
        1604
        1608
        1612
        1616
        1620
        1624
        1628
        1632
        1636
        1640
        1644
        1648
        1652
        1656
        1660
        1664
        1668
        1672
        1676
        1680
        1684
        1688
        1692
        1696
        1700
        1704
        1708
        1712
        1716
        1720
        1724
        1728
        1732
        1736
        1740
        1744
        1748
        1752
        1756
        1760
        1764
        1768
        1772
        1776
        1780
        1784
        1788
        1792
        1796
        1800
        1804
        1808
        1812
        1816
        1820
        1824
        1828
        1832
        1836
        1840
        1844
        1848
        1852
        1856
        1860
        1864
        1868
        1872
        1876
        1880
        1884
        1888
        1892
        1896
        1900
        1904
        1908
        1912
        1916
        1920
        1924
        1928
        1932
        1936
        1940
        1944
        1948
        1952
        1956
        1960
        1964
        1968
        1972
        1976
        1980
        1984
        1988
        1992
        1996
        2000
        2004
        2008
        2012
        2016
        2020
        2024
        2028
        2032
        2036
        2040
        2044
        2048
        2052
        2056
        2060
        2064
        2068
        2072
        2076
        2080
        2084
        2088
        2092
        2096
        2100
        2104
        2108
        2112
        2116
        2120
        2124
        2128
        2132
        2136
        2140
        2144
        2148
        2152
        2156
        2160
        2164
        2168
        2172
        2176
        2180
        2184
        2188
        2192
        2196
        2200
        2204
        2208
        2212
        2216
        2220
        2224
        2228
        2232
        2236
        2240
        2244
        2248
        2252
        2256
        2260
        2264
        2268
        2272
        2276
        2280
        2284
        2288
        2292
        2296
        2300
        2304
        2308
        2312
        2316
        2320
        2324
        2328
        2332
        2336
        2340
        2344
        2348
        2352
        2356
        2360
        2364
        2368
        2372
        2376
        2380
        2384
        2388
        2392
        2396
        2400
        2404
        2408
        2412
        2416
        2420
        2424
        2428
        2432
        2436
        2440
        2444
        2448
        2452
        2456
        2460
        2464
        2468
        2472
        2476
        2480
        2484
        2488
        2492
        2496
        2500
        2504
        2508
        2512
        2516
        2520
        2524
        2528
        2532
        2536
        2540
        2544
        2548
        2552
        2556
        2560
        2564
        2568
        2572
        2576
        2580
        2584
        2588
        2592
        2596
        2600
        2604
        2608
        2612
        2616
        2620
        2624
        2628
        2632
        2636
        2640
        2644
        2648
        2652
        2656
        2660
        2664
        2668
        2672
        2676
        2680
        2684
        2688
        2692
        2696
        2700
        2704
        2708
        2712
        2716
        2720
        2724
        2728
        2732
        2736
        2740
        2744
        2748
        2752
        2756
        2760
        2764
        2768
        2772
        2776
        2780
        2784
        2788
        2792
        2796
        2800
        2804
        2808
        2812
        2816
        2820
        2824
        2828
        2832
        2836
        2840
        2844
        2848
        2852
        2856
        2860
        2864
        2868
        2872
        2876
        2880
        2884
        2888
        2892
        2896
        2900
        2904
        2908
        2912
        2916
        2920
        2924
        2928
        2932
        2936
        2940
        2944
        2948
        2952
        2956
        2960
        2964
        2968
        2972
        2976
        2980
        2984
        2988
        2992
        2996
        3000
        3004
        3008
        3012
        3016
        3020
        3024
        3028
        3032
        3036
        3040
        3044
        3048
        3052
        3056
        3060
        3064
        3068
        3072
        3076
        3080
        3084
        3088
        3092
        3096
        3100
        3104
        3108
        3112
        3116
        3120
        3124
        3128
        3132
        3136
        3140
        3144
        3148
        3152
        3156
        3160
        3164
        3168
        3172
        3176
        3180
        3184
        3188
        3192
        3196
        3200
        3204
        3208
        3212
        3216
        3220
        3224
        3228
        3232
        3236
        3240
        3244
        3248
        3252
        3256
        3260
        3264
        3268
        3272
        3276
        3280
        3284
        3288
        3292
        3296
        3300
        3304
        3308
        3312
        3316
        3320
        3324
        3328
        3332
        3336
        3340
        3344
        3348
        3352
        3356
        3360
        3364
        3368
        3372
        3376
        3380
        3384
        3388
        3392
        3396
        3400
        3404
        3408
        3412
        3416
        3420
        3424
        3428
        3432
        3436
        3440
        3444
        3448
        3452
        3456
        3460
        3464
        3468
        3472
        3476
        3480
        3484
        3488
        3492
        3496
        3500
        3504
        3508
        3512
        3516
        3520
        3524
        3528
        3532
        3536
        3540
        3544
        3548
        3552
        3556
        3560
        3564
        3568
        3572
        3576
        3580
        3584
        3588
        3592
        3596
        3600
        3604
        3608
        3612
        3616
        3620
        3624
        3628
        3632
        3636
        3640
        3644
        3648
        3652
        3656
        3660
        3664
        3668
        3672
        3676
        3680
        3684
        3688
        3692
        3696
        3700
        3704
        3708
        3712
        3716
        3720
        3724
        3728
        3732
        3736
        3740
        3744
        3748
        3752
        3756
        3760
        3764
        3768
        3772
        3776
        3780
        3784
        3788
        3792
        3796
        3800
        3804
        3808
        3812
        3816
        3820
        3824
        3828
        3832
        3836
        3840
        3844
        3848
        3852
        3856
        3860
        3864
        3868
        3872
        3876
        3880
        3884
        3888
        3892
        3896
        3900
        3904
        3908
        3912
        3916
        3920
        3924
        3928
        3932
        3936
        3940
        3944
        3948
        3952
        3956
        3960
        3964
        3968
        3972
        3976
        3980
        3984
        3988
        3992
        3996
        4000
        4004
        4008
        4012
        4016
        4020
        4024
        4028
        4032
        4036
        4040
        4044
        4048
        4052
        4056
        4060
        4064
        4068
        4072
        4076
        4080
        4084
        4088
        4092
        4096
 </DataArray>
 <DataArray  type="UInt8"  Name="types"  format="ascii">
 9
 9
 9
 9
 9
 9
 9
 9
 9
 9
 9
 9
 9
 9
 9
 9
 9
 9
 9
 9
 9
 9
 9
 9
 9
 9
 9
 9
 9
 9
 9
 9
 9
 9
 9
 9
 9
 9
 9
 9
 9
 9
 9
 9
 9
 9
 9
 9
 9
 9
 9
 9
 9
 9
 9
 9
 9
 9
 9
 9
 9
 9
 9
 9
 9
 9
 9
 9
 9
 9
 9
 9
 9
 9
 9
 9
 9
 9
 9
 9
 9
 9
 9
 9
 9
 9
 9
 9
 9
 9
 9
 9
 9
 9
 9
 9
 9
 9
 9
 9
 9
 9
 9
 9
 9
 9
 9
 9
 9
 9
 9
 9
 9
 9
 9
 9
 9
 9
 9
 9
 9
 9
 9
 9
 9
 9
 9
 9
 9
 9
 9
 9
 9
 9
 9
 9
 9
 9
 9
 9
 9
 9
 9
 9
 9
 9
 9
 9
 9
 9
 9
 9
 9
 9
 9
 9
 9
 9
 9
 9
 9
 9
 9
 9
 9
 9
 9
 9
 9
 9
 9
 9
 9
 9
 9
 9
 9
 9
 9
 9
 9
 9
 9
 9
 9
 9
 9
 9
 9
 9
 9
 9
 9
 9
 9
 9
 9
 9
 9
 9
 9
 9
 9
 9
 9
 9
 9
 9
 9
 9
 9
 9
 9
 9
 9
 9
 9
 9
 9
 9
 9
 9
 9
 9
 9
 9
 9
 9
 9
 9
 9
 9
 9
 9
 9
 9
 9
 9
 9
 9
 9
 9
 9
 9
 9
 9
 9
 9
 9
 9
 9
 9
 9
 9
 9
 9
 9
 9
 9
 9
 9
 9
 9
 9
 9
 9
 9
 9
 9
 9
 9
 9
 9
 9
 9
 9
 9
 9
 9
 9
 9
 9
 9
 9
 9
 9
 9
 9
 9
 9
 9
 9
 9
 9
 9
 9
 9
 9
 9
 9
 9
 9
 9
 9
 9
 9
 9
 9
 9
 9
 9
 9
 9
 9
 9
 9
 9
 9
 9
 9
 9
 9
 9
 9
 9
 9
 9
 9
 9
 9
 9
 9
 9
 9
 9
 9
 9
 9
 9
 9
 9
 9
 9
 9
 9
 9
 9
 9
 9
 9
 9
 9
 9
 9
 9
 9
 9
 9
 9
 9
 9
 9
 9
 9
 9
 9
 9
 9
 9
 9
 9
 9
 9
 9
 9
 9
 9
 9
 9
 9
 9
 9
 9
 9
 9
 9
 9
 9
 9
 9
 9
 9
 9
 9
 9
 9
 9
 9
 9
 9
 9
 9
 9
 9
 9
 9
 9
 9
 9
 9
 9
 9
 9
 9
 9
 9
 9
 9
 9
 9
 9
 9
 9
 9
 9
 9
 9
 9
 9
 9
 9
 9
 9
 9
 9
 9
 9
 9
 9
 9
 9
 9
 9
 9
 9
 9
 9
 9
 9
 9
 9
 9
 9
 9
 9
 9
 9
 9
 9
 9
 9
 9
 9
 9
 9
 9
 9
 9
 9
 9
 9
 9
 9
 9
 9
 9
 9
 9
 9
 9
 9
 9
 9
 9
 9
 9
 9
 9
 9
 9
 9
 9
 9
 9
 9
 9
 9
 9
 9
 9
 9
 9
 9
 9
 9
 9
 9
 9
 9
 9
 9
 9
 9
 9
 9
 9
 9
 9
 9
 9
 9
 9
 9
 9
 9
 9
 9
 9
 9
 9
 9
 9
 9
 9
 9
 9
 9
 9
 9
 9
 9
 9
 9
 9
 9
 9
 9
 9
 9
 9
 9
 9
 9
 9
 9
 9
 9
 9
 9
 9
 9
 9
 9
 9
 9
 9
 9
 9
 9
 9
 9
 9
 9
 9
 9
 9
 9
 9
 9
 9
 9
 9
 9
 9
 9
 9
 9
 9
 9
 9
 9
 9
 9
 9
 9
 9
 9
 9
 9
 9
 9
 9
 9
 9
 9
 9
 9
 9
 9
 9
 9
 9
 9
 9
 9
 9
 9
 9
 9
 9
 9
 9
 9
 9
 9
 9
 9
 9
 9
 9
 9
 9
 9
 9
 9
 9
 9
 9
 9
 9
 9
 9
 9
 9
 9
 9
 9
 9
 9
 9
 9
 9
 9
 9
 9
 9
 9
 9
 9
 9
 9
 9
 9
 9
 9
 9
 9
 9
 9
 9
 9
 9
 9
 9
 9
 9
 9
 9
 9
 9
 9
 9
 9
 9
 9
 9
 9
 9
 9
 9
 9
 9
 9
 9
 9
 9
 9
 9
 9
 9
 9
 9
 9
 9
 9
 9
 9
 9
 9
 9
 9
 9
 9
 9
 9
 9
 9
 9
 9
 9
 9
 9
 9
 9
 9
 9
 9
 9
 9
 9
 9
 9
 9
 9
 9
 9
 9
 9
 9
 9
 9
 9
 9
 9
 9
 9
 9
 9
 9
 9
 9
 9
 9
 9
 9
 9
 9
 9
 9
 9
 9
 9
 9
 9
 9
 9
 9
 9
 9
 9
 9
 9
 9
 9
 9
 9
 9
 9
 9
 9
 9
 9
 9
 9
 9
 9
 9
 9
 9
 9
 9
 9
 9
 9
 9
 9
 9
 9
 9
 9
 9
 9
 9
 9
 9
 9
 9
 9
 9
 9
 9
 9
 9
 9
 9
 9
 9
 9
 9
 9
 9
 9
 9
 9
 9
 9
 9
 9
 9
 9
 9
 9
 9
 9
 9
 9
 9
 9
 9
 9
 9
 9
 9
 9
 9
 9
 9
 9
 9
 9
 9
 9
 9
 9
 9
 9
 9
 9
 9
 9
 9
 9
 9
 9
 9
 9
 9
 9
 9
 9
 9
 9
 9
 9
 9
 9
 9
 9
 9
 9
 9
 9
 9
 9
 9
 9
 9
 9
 9
 9
 9
 9
 9
 9
 9
 9
 9
 9
 9
 9
 9
 9
 9
 9
 9
 9
 9
 9
 9
 9
 9
 9
 9
 9
 9
 9
 9
 9
 9
 9
 9
 9
 9
 9
 9
 9
 9
 9
 9
 9
 9
 9
 9
 9
 9
 9
 9
 9
 9
 9
 9
 9
 9
 9
 9
 9
 9
 9
 9
 9
 9
 9
 9
 9
 9
 9
 9
 9
 9
 9
 9
 9
 9
 9
 9
 9
 9
 9
 9
 9
 9
 9
 9
 9
 9
 9
 9
 9
 9
 9
 9
 9
 9
 9
 9
 9
 9
 9
 9
 9
 9
 9
 9
 9
 9
 9
 9
 9
 9
 9
 9
 9
 9
 9
 9
 9
 9
 9
 9
 9
 9
 9
 9
 9
 9
 9
 9
 9
 9
 9
 9
 9
 9
 9
 </DataArray>
 </Cells> 
 <PointData>
 <DataArray  type="Float64" Name="disp" NumberOfComponents="3" format="ascii">
   0.0000000000000000        0.0000000000000000        0.0000000000000000     
   6.1005193175049663E-003   3.7903083166492746E-003   0.0000000000000000     
   1.1675113329017130E-002   7.3254433283241188E-003   0.0000000000000000     
   1.6723782034536491E-002   1.0605405035024532E-002   0.0000000000000000     
   2.1246525434063045E-002   1.3630193436750515E-002   0.0000000000000000     
   0.0000000000000000        0.0000000000000000        0.0000000000000000     
   4.8942625092008238E-003   3.0215839053136058E-003   0.0000000000000000     
   9.5798755908739746E-003   6.0612829647560037E-003   0.0000000000000000     
   1.4056839245019451E-002   9.1190971783271929E-003   0.0000000000000000     
   1.8325153471637254E-002   1.2195026546027173E-002   0.0000000000000000     
   0.0000000000000000        0.0000000000000000        0.0000000000000000     
   3.9553999237249612E-003   2.4243600865937465E-003   0.0000000000000000     
   7.9143106907853238E-003   5.0631514729000803E-003   0.0000000000000000     
   1.1876732301181086E-002   7.9163741589190015E-003   0.0000000000000000     
   1.5842664754912250E-002   1.0984028144650508E-002   0.0000000000000000     
   0.0000000000000000        0.0000000000000000        0.0000000000000000     
   3.2839315610773794E-003   1.9986368604896980E-003   0.0000000000000000     
   6.6784186287511789E-003   4.3310488527563513E-003   0.0000000000000000     
   1.0183461203021401E-002   6.9972359767999604E-003   0.0000000000000000     
   1.3799059283888042E-002   9.9971982326205241E-003   0.0000000000000000     
   0.0000000000000000        0.0000000000000000        0.0000000000000000     
   2.8798574212580762E-003   1.7444142270014596E-003   0.0000000000000000     
   5.8721994047715390E-003   3.8649751043248154E-003   0.0000000000000000     
   8.9770259505403890E-003   6.3616826319700670E-003   0.0000000000000000     
   1.2194337058564628E-002   9.2345368099372160E-003   0.0000000000000000     
   2.1246525434063045E-002   1.3630193436750515E-002   0.0000000000000000     
   2.5456723840885084E-002   1.6629788597592763E-002   0.0000000000000000     
   2.9567757568290894E-002   1.9834170581641965E-002   0.0000000000000000     
   3.3579626616280472E-002   2.3243339388898127E-002   0.0000000000000000     
   3.7492330984853814E-002   2.6857295019361248E-002   0.0000000000000000     
   1.8325153471637254E-002   1.2195026546027173E-002   0.0000000000000000     
   2.2423261753022092E-002   1.5356943027262118E-002   0.0000000000000000     
   2.6389607571468687E-002   1.8672718581438208E-002   0.0000000000000000     
   3.0224190926977035E-002   2.2142353208555433E-002   0.0000000000000000     
   3.3927011819547138E-002   2.5765846908613797E-002   0.0000000000000000     
   1.5842664754912250E-002   1.0984028144650508E-002   0.0000000000000000     
   1.9740399201490545E-002   1.4224694663943273E-002   0.0000000000000000     
   2.3498226790427710E-002   1.7596954950645966E-002   0.0000000000000000     
   2.7116147521723734E-002   2.1100809004758591E-002   0.0000000000000000     
   3.0594161395378624E-002   2.4736256826281142E-002   0.0000000000000000     
   1.3799059283888042E-002   9.9971982326205241E-003   0.0000000000000000     
   1.7408136186290446E-002   1.3233043507636226E-002   0.0000000000000000     
   2.0893615225167958E-002   1.6606879689265254E-002   0.0000000000000000     
   2.4255496400520569E-002   2.0118706777507610E-002   0.0000000000000000     
   2.7493779712348287E-002   2.3768524772363287E-002   0.0000000000000000     
   1.2194337058564628E-002   9.2345368099372160E-003   0.0000000000000000     
   1.5426472707421791E-002   1.2381989558340975E-002   0.0000000000000000     
   1.8575772875689432E-002   1.5702492797296064E-002   0.0000000000000000     
   2.1642237563367538E-002   1.9196046526802481E-002   0.0000000000000000     
   2.4625866770456119E-002   2.2862650746860232E-002   0.0000000000000000     
   3.7492330984853814E-002   2.6857295019361248E-002   0.0000000000000000     
   4.1309370147329945E-002   3.0677778842351545E-002   0.0000000000000000     
   4.5034243577027872E-002   3.4706532227189238E-002   0.0000000000000000     
   4.8666951273947594E-002   3.8943555173874329E-002   0.0000000000000000     
   5.2207493238089112E-002   4.3388847682406820E-002   0.0000000000000000     
   3.3927011819547138E-002   2.5765846908613797E-002   0.0000000000000000     
   3.7519208994621592E-002   2.9578217688000702E-002   0.0000000000000000     
   4.1021921197642981E-002   3.3614483553103543E-002   0.0000000000000000     
   4.4435148428611328E-002   3.7874644503922326E-002   0.0000000000000000     
   4.7758890687526617E-002   4.2358700540457039E-002   0.0000000000000000     
   3.0594161395378624E-002   2.4736256826281142E-002   0.0000000000000000     
   3.3959193120209293E-002   2.8553303484041118E-002   0.0000000000000000     
   3.7238167405032649E-002   3.2601954046866020E-002   0.0000000000000000     
   4.0431084249848689E-002   3.6882208514755856E-002   0.0000000000000000     
   4.3537943654657421E-002   4.1394066887710600E-002   0.0000000000000000     
   2.7493779712348287E-002   2.3768524772363287E-002   0.0000000000000000     
   3.0629322524093065E-002   2.7603036230472805E-002   0.0000000000000000     
   3.3682982199196868E-002   3.1668943708476671E-002   0.0000000000000000     
   3.6654758737659679E-002   3.5966247206374889E-002   0.0000000000000000     
   3.9544652139481516E-002   4.0494946724167459E-002   0.0000000000000000     
   2.4625866770456119E-002   2.2862650746860232E-002   0.0000000000000000     
   2.7529597206272904E-002   2.6727415927295755E-002   0.0000000000000000     
   3.0356365580135634E-002   3.0815452537935498E-002   0.0000000000000000     
   3.3106171892044303E-002   3.5126760578779469E-002   0.0000000000000000     
   3.5779016141998909E-002   3.9661340049827645E-002   0.0000000000000000     
   5.2207493238089112E-002   4.3388847682406820E-002   0.0000000000000000     
   5.5638151760596277E-002   4.8044560059949434E-002   0.0000000000000000     
   5.8941209132612929E-002   5.2912842613664912E-002   0.0000000000000000     
   6.2116665354139074E-002   5.7993695343553260E-002   0.0000000000000000     
   6.5164520425174705E-002   6.3287118249614471E-002   0.0000000000000000     
   4.7758890687526617E-002   4.2358700540457039E-002   0.0000000000000000     
   5.0986757001823847E-002   4.7057901328154239E-002   0.0000000000000000     
   5.4112356398938029E-002   5.1963496532460421E-002   0.0000000000000000     
   5.7135688878869134E-002   5.7075486153375599E-002   0.0000000000000000     
   6.0056754441617177E-002   6.2393870190899772E-002   0.0000000000000000     
   4.3537943654657421E-002   4.1394066887710600E-002   0.0000000000000000     
   4.6561005338703838E-002   4.6123219277078534E-002   0.0000000000000000     
   4.9502529021232887E-002   5.1055355794207939E-002   0.0000000000000000     
   5.2362514702244595E-002   5.6190476439098809E-002   0.0000000000000000     
   5.5140962381738941E-002   6.1528581211751143E-002   0.0000000000000000     
   3.9544652139481516E-002   4.0494946724167459E-002   0.0000000000000000     
   4.2360896771236188E-002   4.5240513906722346E-002   0.0000000000000000     
   4.5111726999497490E-002   5.0188420398907481E-002   0.0000000000000000     
   4.7797142824265414E-002   5.5338666200722898E-002   0.0000000000000000     
   5.0417144245539974E-002   6.0691251312168563E-002   0.0000000000000000     
   3.5779016141998909E-002   3.9661340049827645E-002   0.0000000000000000     
   3.8386431299420938E-002   4.4409785217085641E-002   0.0000000000000000     
   4.0939950333731844E-002   4.9362690346559046E-002   0.0000000000000000     
   4.3439573244931626E-002   5.4520055438247852E-002   0.0000000000000000     
   4.5885300033020292E-002   5.9881880492152054E-002   0.0000000000000000     
   6.5164520425174705E-002   6.3287118249614471E-002   0.0000000000000000     
   6.8111968519110999E-002   6.8773509536278074E-002   0.0000000000000000     
   7.0986203809339149E-002   7.4433267407973597E-002   0.0000000000000000     
   7.3787226295859154E-002   8.0266391864701039E-002   0.0000000000000000     
   7.6515035978670987E-002   8.6272882906460402E-002   0.0000000000000000     
   6.0056754441617177E-002   6.2393870190899772E-002   0.0000000000000000     
   6.2886513855927889E-002   6.7903869789324264E-002   0.0000000000000000     
   6.5635927890546994E-002   7.3590706092940411E-002   0.0000000000000000     
   6.8304996545474506E-002   7.9454379101748199E-002   0.0000000000000000     
   7.0893719820710369E-002   8.5494888815747655E-002   0.0000000000000000     
   5.5140962381738941E-002   6.1528581211751143E-002   0.0000000000000000     
   5.7837043234088933E-002   6.7058490660389311E-002   0.0000000000000000     
   6.0449928433667532E-002   7.2769025333237689E-002   0.0000000000000000     
   6.2979617980474759E-002   7.8660185230296276E-002   0.0000000000000000     
   6.5426111874510570E-002   8.4731970351565100E-002   0.0000000000000000     
   5.0417144245539974E-002   6.0691251312168563E-002   0.0000000000000000     
   5.2963556653594104E-002   6.6237372149473187E-002   0.0000000000000000     
   5.5428205438700764E-002   7.1968225128865429E-002   0.0000000000000000     
   5.7811090600859920E-002   7.7883810250345298E-002   0.0000000000000000     
   6.0112212140071591E-002   8.3984127513912779E-002   0.0000000000000000     
   4.5885300033020292E-002   5.9881880492152054E-002   0.0000000000000000     
   4.8266054114443444E-002   6.5440514256575905E-002   0.0000000000000000     
   5.0570758905646683E-002   7.1188305479823619E-002   0.0000000000000000     
   5.2799414406630010E-002   7.7125254161895210E-002   0.0000000000000000     
   5.4952020617393439E-002   8.3251360302790650E-002   0.0000000000000000     
   7.6515035978670987E-002   8.6272882906460402E-002   0.0000000000000000     
   7.9143597938864371E-002   9.2452767058256585E-002   0.0000000000000000     
   8.1646877257529005E-002   9.8806070845094490E-002   0.0000000000000000     
   8.4024873934664859E-002  0.10533279426697410        0.0000000000000000     
   8.6277587970271963E-002  0.11203293732389544        0.0000000000000000     
   7.0893719820710369E-002   8.5494888815747655E-002   0.0000000000000000     
   7.3383397317510285E-002   9.1710994741175209E-002   0.0000000000000000     
   7.5755328637129873E-002   9.8101456384267371E-002   0.0000000000000000     
   7.8009513779569148E-002  0.10466627374502409        0.0000000000000000     
   8.0145952744828108E-002  0.11140544682344540        0.0000000000000000     
   6.5426111874510570E-002   8.4731970351565100E-002   0.0000000000000000     
   6.7776214943689503E-002   9.0980934671705316E-002   0.0000000000000000     
   7.0016732015926092E-002   9.7403632165378132E-002   0.0000000000000000     
   7.2147663091220282E-002  0.10400006283258355        0.0000000000000000     
   7.4169008169572101E-002  0.11077022667332155        0.0000000000000000     
   6.0112212140071591E-002   8.3984127513912779E-002   0.0000000000000000     
   6.2322050817402067E-002   9.0262586849846949E-002   0.0000000000000000     
   6.4431087393917619E-002   9.6712598188426840E-002   0.0000000000000000     
   6.6439321869618234E-002  0.10333416152965247        0.0000000000000000     
   6.8346754244503941E-002  0.11012727687352386        0.0000000000000000     
   5.4952020617393439E-002   8.3251360302790650E-002   0.0000000000000000     
   5.7020904938647934E-002   8.9555951275600038E-002   0.0000000000000000     
   5.8998394771104461E-002   9.6028354453413470E-002   0.0000000000000000     
   6.0884490114763025E-002  0.10266856983623089        0.0000000000000000     
   6.2679190969623627E-002  0.10947659742405233        0.0000000000000000     
   8.6277587970271963E-002  0.11203293732389544        0.0000000000000000     
   8.8360226662291763E-002  0.11886386098502542        0.0000000000000000     
   9.0227997308665778E-002  0.12578292621953102        0.0000000000000000     
   9.1880899909393979E-002  0.13279013302741219        0.0000000000000000     
   9.3318934464476394E-002  0.13988548140866897        0.0000000000000000     
   8.0145952744828108E-002  0.11140544682344540        0.0000000000000000     
   8.2147709425754417E-002  0.11828054176892414        0.0000000000000000     
   8.3997847715195820E-002  0.12525312473085307        0.0000000000000000     
   8.5696367613152274E-002  0.13232319570923215        0.0000000000000000     
   8.7243269119623795E-002  0.13949075470406144        0.0000000000000000     
   7.4169008169572101E-002  0.11077022667332155        0.0000000000000000     
   7.6082494571568682E-002  0.11768032094782961        0.0000000000000000     
   7.7889849617797158E-002  0.12469654291634517        0.0000000000000000     
   7.9591073308257571E-002  0.13181889257886822        0.0000000000000000     
   8.1186165642949865E-002  0.13904736993539882        0.0000000000000000     
   6.8346754244503941E-002  0.11012727687352386        0.0000000000000000     
   7.0164582099734543E-002  0.11706319852174187        0.0000000000000000     
   7.1904003016469833E-002  0.12411318077600741        0.0000000000000000     
   7.3565016994709867E-002  0.13127722363632044        0.0000000000000000     
   7.5147624034454574E-002  0.13855532710268104        0.0000000000000000     
   6.2679190969623627E-002  0.10947659742405233        0.0000000000000000     
   6.4393972010251987E-002  0.11642917449066091        0.0000000000000000     
   6.6040307911213833E-002  0.12350303830983973        0.0000000000000000     
   6.7618198672509150E-002  0.13069818888158879        0.0000000000000000     
   6.9127644294137938E-002  0.13801462620590813        0.0000000000000000     
   9.3318934464476394E-002  0.13988548140866897        0.0000000000000000     
   9.4454961951924571E-002  0.14685367313732708        0.0000000000000000     
   9.5201843349750098E-002  0.15347940998741225        0.0000000000000000     
   9.5559578657952976E-002  0.15976269195892445        0.0000000000000000     
   9.5528167876533218E-002  0.16570351905186373        0.0000000000000000     
   8.7243269119623795E-002  0.13949075470406144        0.0000000000000000     
   8.8553687703328138E-002  0.14657558947051413        0.0000000000000000     
   8.9542758832983044E-002  0.15339748776376341        0.0000000000000000     
   9.0210482508588541E-002  0.15995644958380933        0.0000000000000000     
   9.0556858730144602E-002  0.16625247493065182        0.0000000000000000     
   8.1186165642949865E-002  0.13904736993539882        0.0000000000000000     
   8.2592807976228449E-002  0.14623101727493137        0.0000000000000000     
   8.3728681662447707E-002  0.15321887688646058        0.0000000000000000     
   8.4593786701607679E-002  0.16001094876998631        0.0000000000000000     
   8.5188123093708337E-002  0.16660723292550866        0.0000000000000000     
   7.5147624034454574E-002  0.13855532710268104        0.0000000000000000     
   7.6572322770625492E-002  0.14581995655057889        0.0000000000000000     
   7.7759611838144102E-002  0.15294357735550365        0.0000000000000000     
   7.8709491237010376E-002  0.15992618951745546        0.0000000000000000     
   7.9421960967224384E-002  0.16676779303643427        0.0000000000000000     
   6.9127644294137938E-002  0.13801462620590813        0.0000000000000000     
   7.0492232086519252E-002  0.14534240729745651        0.0000000000000000     
   7.1635549360072173E-002  0.15257158917089270        0.0000000000000000     
   7.2557596114796674E-002  0.15970217182621677        0.0000000000000000     
   7.3258372350692783E-002  0.16673415526342861        0.0000000000000000     
   0.0000000000000000        0.0000000000000000        0.0000000000000000     
   2.8798574212580762E-003   1.7444142270014596E-003   0.0000000000000000     
   5.8721994047715390E-003   3.8649751043248154E-003   0.0000000000000000     
   8.9770259505403890E-003   6.3616826319700670E-003   0.0000000000000000     
   1.2194337058564628E-002   9.2345368099372160E-003   0.0000000000000000     
   0.0000000000000000        0.0000000000000000        0.0000000000000000     
   2.6093540257441871E-003   1.5888658569000753E-003   0.0000000000000000     
   5.2877246830040419E-003   3.5573805950664117E-003   0.0000000000000000     
   8.0351119717795641E-003   5.9055442144990101E-003   0.0000000000000000     
   1.0851515892070757E-002   8.6333567151978714E-003   0.0000000000000000     
   0.0000000000000000        0.0000000000000000        0.0000000000000000     
   2.3385978960128451E-003   1.4591654209565889E-003   0.0000000000000000     
   4.7170661276063229E-003   3.3007156924420812E-003   0.0000000000000000     
   7.1354046947804325E-003   5.5246508144564770E-003   0.0000000000000000     
   9.5936135975351750E-003   8.1309707869997739E-003   0.0000000000000000     
   0.0000000000000000        0.0000000000000000        0.0000000000000000     
   2.0675890320640497E-003   1.3553129191710010E-003   0.0000000000000000     
   4.1602237385783810E-003   3.0949803964518225E-003   0.0000000000000000     
   6.2779041195429935E-003   5.2190024318424641E-003   0.0000000000000000     
   8.4206301749578903E-003   7.7273790253429269E-003   0.0000000000000000     
   0.0000000000000000        0.0000000000000000        0.0000000000000000     
   1.7963274338978008E-003   1.2773083515433110E-003   0.0000000000000000     
   3.6171975159202175E-003   2.9401747070956366E-003   0.0000000000000000     
   5.4626102460672496E-003   4.9885990666569758E-003   0.0000000000000000     
   7.3325656243388975E-003   7.4225814302273296E-003   0.0000000000000000     
   1.2194337058564628E-002   9.2345368099372160E-003   0.0000000000000000     
   1.5426472707421791E-002   1.2381989558340975E-002   0.0000000000000000     
   1.8575772875689432E-002   1.5702492797296064E-002   0.0000000000000000     
   2.1642237563367538E-002   1.9196046526802481E-002   0.0000000000000000     
   2.4625866770456119E-002   2.2862650746860232E-002   0.0000000000000000     
   1.0851515892070757E-002   8.6333567151978714E-003   0.0000000000000000     
   1.3683798226360833E-002   1.1659449281803017E-002   0.0000000000000000     
   1.6478820757133025E-002   1.4902453098954474E-002   0.0000000000000000     
   1.9236583484387327E-002   1.8362368166652248E-002   0.0000000000000000     
   2.1957086408123737E-002   2.2039194484896336E-002   0.0000000000000000     
   9.5936135975351750E-003   8.1309707869997739E-003   0.0000000000000000     
   1.2068502204583819E-002   1.1053339143767849E-002   0.0000000000000000     
   1.4536879884639628E-002   1.4225419418456573E-002   0.0000000000000000     
   1.6998746637702608E-002   1.7647211611065947E-002   0.0000000000000000     
   1.9454102463772747E-002   2.1318715721595972E-002   0.0000000000000000     
   8.4206301749578903E-003   7.7273790253429269E-003   0.0000000000000000     
   1.0580584642090744E-002   1.0563659144235469E-002   0.0000000000000000     
   1.2749950258209243E-002   1.3671391755802351E-002   0.0000000000000000     
   1.4928727023313382E-002   1.7050576860043569E-002   0.0000000000000000     
   1.7116914937403162E-002   2.0701214456959129E-002   0.0000000000000000     
   7.3325656243388975E-003   7.4225814302273296E-003   0.0000000000000000     
   9.2200455388816178E-003   1.0190409283205880E-002   0.0000000000000000     
   1.1118031877841869E-002   1.3240370110991813E-002   0.0000000000000000     
   1.3026524641219657E-002   1.6572463913585123E-002   0.0000000000000000     
   1.4945523829014970E-002   2.0186690690985821E-002   0.0000000000000000     
   2.4625866770456119E-002   2.2862650746860232E-002   0.0000000000000000     
   2.7529597206272904E-002   2.6727415927295755E-002   0.0000000000000000     
   3.0356365580135634E-002   3.0815452537935498E-002   0.0000000000000000     
   3.3106171892044303E-002   3.5126760578779469E-002   0.0000000000000000     
   3.5779016141998909E-002   3.9661340049827645E-002   0.0000000000000000     
   2.1957086408123737E-002   2.2039194484896336E-002   0.0000000000000000     
   2.4623660589297103E-002   2.5931502966534691E-002   0.0000000000000000     
   2.7219637088862277E-002   3.0037864524415269E-002   0.0000000000000000     
   2.9745015906819255E-002   3.4358279158538070E-002   0.0000000000000000     
   3.2199797043168041E-002   3.8892746868903108E-002   0.0000000000000000     
   1.9454102463772747E-002   2.1318715721595972E-002   0.0000000000000000     
   2.1875156095713957E-002   2.5220357740214343E-002   0.0000000000000000     
   2.4234116266390118E-002   2.9332563657088775E-002   0.0000000000000000     
   2.6530982975801240E-002   3.3655333472219252E-002   0.0000000000000000     
   2.8765756223947319E-002   3.8188667185605797E-002   0.0000000000000000     
   1.7116914937403162E-002   2.0701214456959129E-002   0.0000000000000000     
   1.9284083725523458E-002   2.4593980248334715E-002   0.0000000000000000     
   2.1399803112719159E-002   2.8699549935956008E-002   0.0000000000000000     
   2.3464073098990266E-002   3.3017923519823009E-002   0.0000000000000000     
   2.5476893684336768E-002   3.7549100999935726E-002   0.0000000000000000     
   1.4945523829014970E-002   2.0186690690985821E-002   0.0000000000000000     
   1.6850443478725618E-002   2.4052370490895796E-002   0.0000000000000000     
   1.8716697627849398E-002   2.8138823361016967E-002   0.0000000000000000     
   2.0544286276386318E-002   3.2446049301349325E-002   0.0000000000000000     
   2.2333209424336378E-002   3.6974048311892875E-002   0.0000000000000000     
   3.5779016141998909E-002   3.9661340049827645E-002   0.0000000000000000     
   3.8386431299420938E-002   4.4409785217085641E-002   0.0000000000000000     
   4.0939950333731844E-002   4.9362690346559046E-002   0.0000000000000000     
   4.3439573244931626E-002   5.4520055438247852E-002   0.0000000000000000     
   4.5885300033020292E-002   5.9881880492152054E-002   0.0000000000000000     
   3.2199797043168041E-002   3.8892746868903108E-002   0.0000000000000000     
   3.4596541462500491E-002   4.3637848394183366E-002   0.0000000000000000     
   3.6947810129408488E-002   4.8590164473051853E-002   0.0000000000000000     
   3.9253603043892034E-002   5.3749695105508574E-002   0.0000000000000000     
   4.1513920205951113E-002   5.9116440291553517E-002   0.0000000000000000     
   2.8765756223947319E-002   3.8188667185605797E-002   0.0000000000000000     
   3.0950159799717263E-002   4.2931518624030413E-002   0.0000000000000000     
   3.3095917491999964E-002   4.7882841614275119E-002   0.0000000000000000     
   3.5203029300795434E-002   5.3042636156339917E-002   0.0000000000000000     
   3.7271495226103672E-002   5.8410902250224828E-002   0.0000000000000000     
   2.5476893684336768E-002   3.7549100999935726E-002   0.0000000000000000     
   2.7447286311071246E-002   4.2290795906626794E-002   0.0000000000000000     
   2.9384272421506274E-002   4.7240721770228845E-002   0.0000000000000000     
   3.1287852015641847E-002   5.2398878590741924E-002   0.0000000000000000     
   3.3158025093477962E-002   5.7765266368166000E-002   0.0000000000000000     
   2.2333209424336378E-002   3.6974048311892875E-002   0.0000000000000000     
   2.4087920996562446E-002   4.1715680241972496E-002   0.0000000000000000     
   2.5812874917927407E-002   4.6663804940913059E-002   0.0000000000000000     
   2.7508071188431255E-002   5.1818422408714572E-002   0.0000000000000000     
   2.9173509808074004E-002   5.7179532645377021E-002   0.0000000000000000     
   4.5885300033020292E-002   5.9881880492152054E-002   0.0000000000000000     
   4.8266054114443444E-002   6.5440514256575905E-002   0.0000000000000000     
   5.0570758905646683E-002   7.1188305479823619E-002   0.0000000000000000     
   5.2799414406630010E-002   7.7125254161895210E-002   0.0000000000000000     
   5.4952020617393439E-002   8.3251360302790650E-002   0.0000000000000000     
   4.1513920205951113E-002   5.9116440291553517E-002   0.0000000000000000     
   4.3717389584801446E-002   6.4683610204411296E-002   0.0000000000000000     
   4.5852639149658744E-002   7.0444415017306528E-002   0.0000000000000000     
   4.7919668900523016E-002   7.6398854730239191E-002   0.0000000000000000     
   4.9918478837394240E-002   8.2546929343209299E-002   0.0000000000000000     
   3.7271495226103672E-002   5.8410902250224828E-002   0.0000000000000000     
   3.9290417032832661E-002   6.3982353215693191E-002   0.0000000000000000     
   4.1248896485890404E-002   6.9751702372508384E-002   0.0000000000000000     
   4.3146933585276895E-002   7.5718949720670406E-002   0.0000000000000000     
   4.4984528330992139E-002   8.1884095260179257E-002   0.0000000000000000     
   3.3158025093477962E-002   5.7765266368166000E-002   0.0000000000000000     
   3.4985136458537090E-002   6.3336743290421577E-002   0.0000000000000000     
   3.6759530914341650E-002   6.9110167545429188E-002   0.0000000000000000     
   3.8481208460891675E-002   7.5085539133188828E-002   0.0000000000000000     
   4.0150169098187111E-002   8.1262858053700496E-002   0.0000000000000000     
   2.9173509808074004E-002   5.7179532645377021E-002   0.0000000000000000     
   3.0801547861914719E-002   6.2746780428596480E-002   0.0000000000000000     
   3.2384542435012487E-002   6.8519810536068954E-002   0.0000000000000000     
   3.3922493527367308E-002   7.4498622967794484E-002   0.0000000000000000     
   3.5415401138979181E-002   8.0683217723773043E-002   0.0000000000000000     
   5.4952020617393439E-002   8.3251360302790650E-002   0.0000000000000000     
   5.7020904938647934E-002   8.9555951275600038E-002   0.0000000000000000     
   5.8998394771104461E-002   9.6028354453413470E-002   0.0000000000000000     
   6.0884490114763025E-002  0.10266856983623089        0.0000000000000000     
   6.2679190969623627E-002  0.10947659742405233        0.0000000000000000     
   4.9918478837394240E-002   8.2546929343209299E-002   0.0000000000000000     
   5.1842143035654917E-002   8.8873797465119725E-002   0.0000000000000000     
   5.3683735570687501E-002   9.5364617704873325E-002   0.0000000000000000     
   5.5443256442491970E-002  0.10201939006247010        0.0000000000000000     
   5.7120705651068360E-002  0.10883811453791004        0.0000000000000000     
   4.4984528330992139E-002   8.1884095260179257E-002   0.0000000000000000     
   4.6755130836650803E-002   8.8228894934561000E-002   0.0000000000000000     
   4.8452191215867545E-002   9.4735104687341712E-002   0.0000000000000000     
   5.0075709468642385E-002  0.10140272451852141        0.0000000000000000     
   5.1625685594975296E-002  0.10823175442810007        0.0000000000000000     
   4.0150169098187111E-002   8.1262858053700496E-002   0.0000000000000000     
   4.1759868341635586E-002   8.7621243683923863E-002   0.0000000000000000     
   4.3303761706644635E-002   9.4139815400818644E-002   0.0000000000000000     
   4.4781849193214249E-002  0.10081857320438484        0.0000000000000000     
   4.6194130801344435E-002  0.10765751709462242        0.0000000000000000     
   3.5415401138979181E-002   8.0683217723773043E-002   0.0000000000000000     
   3.6856355550609274E-002   8.7050843713208342E-002   0.0000000000000000     
   3.8238447043018743E-002   9.3578749845304121E-002   0.0000000000000000     
   3.9561675616207589E-002  0.10026693612006037        0.0000000000000000     
   4.0826041270175806E-002  0.10711540253747709        0.0000000000000000     
   6.2679190969623627E-002  0.10947659742405233        0.0000000000000000     
   6.4393972010251987E-002  0.11642917449066091        0.0000000000000000     
   6.6040307911213833E-002  0.12350303830983973        0.0000000000000000     
   6.7618198672509150E-002  0.13069818888158879        0.0000000000000000     
   6.9127644294137938E-002  0.13801462620590813        0.0000000000000000     
   5.7120705651068360E-002  0.10883811453791004        0.0000000000000000     
   5.8723753098294647E-002  0.11580254183326524        0.0000000000000000     
   6.0260068686048794E-002  0.12289442265060777        0.0000000000000000     
   6.1729652414330836E-002  0.13011375698993760        0.0000000000000000     
   6.3132504283140739E-002  0.13746054485125475        0.0000000000000000     
   5.1625685594975296E-002  0.10823175442810007        0.0000000000000000     
   5.3107014159036042E-002  0.11520759352823341        0.0000000000000000     
   5.4524589724994382E-002  0.12231564093107708        0.0000000000000000     
   5.5878412292850281E-002  0.12955589663663111        0.0000000000000000     
   5.7168481862603773E-002  0.13692836064489550        0.0000000000000000     
   4.6194130801344435E-002  0.10765751709462242        0.0000000000000000     
   4.7543755192476223E-002  0.11464432957556539        0.0000000000000000     
   4.8833871028050570E-002  0.12176669315124770        0.0000000000000000     
   5.0064478308067505E-002  0.12902460782166938        0.0000000000000000     
   5.1235577032527020E-002  0.13641807358683042        0.0000000000000000     
   4.0826041270175806E-002  0.10711540253747709        0.0000000000000000     
   4.2033976198615160E-002  0.11411274997526119        0.0000000000000000     
   4.3187912595217384E-002  0.12124757931111962        0.0000000000000000     
   4.4287850459982486E-002  0.12851989054505236        0.0000000000000000     
   4.5333789792910487E-002  0.13592968367705943        0.0000000000000000     
   6.9127644294137938E-002  0.13801462620590813        0.0000000000000000     
   7.0492232086519252E-002  0.14534240729745651        0.0000000000000000     
   7.1635549360072173E-002  0.15257158917089270        0.0000000000000000     
   7.2557596114796674E-002  0.15970217182621677        0.0000000000000000     
   7.3258372350692783E-002  0.16673415526342861        0.0000000000000000     
   6.3132504283140739E-002  0.13746054485125475        0.0000000000000000     
   6.4396361129290328E-002  0.14483645657379501        0.0000000000000000     
   6.5448959789591393E-002  0.15214316249679416        0.0000000000000000     
   6.6290300264043936E-002  0.15938066262025222        0.0000000000000000     
   6.6920382552647942E-002  0.16654895694416924        0.0000000000000000     
   5.7168481862603773E-002  0.13692836064489550        0.0000000000000000     
   5.8328535104319262E-002  0.14434019143782506        0.0000000000000000     
   5.9292308688061179E-002  0.15169854749737460        0.0000000000000000     
   6.0059802613829538E-002  0.15900342882354415        0.0000000000000000     
   6.0631016881624318E-002  0.16625483541633365        0.0000000000000000     
   5.1235577032527020E-002  0.13641807358683042        0.0000000000000000     
   5.2288754011606049E-002  0.14385361188954662        0.0000000000000000     
   5.3165596055481532E-002  0.15123774417263400        0.0000000000000000     
   5.3866103164153488E-002  0.15857047043609238        0.0000000000000000     
   5.4390275337621891E-002  0.16585179067992192        0.0000000000000000     
   4.5333789792910487E-002  0.13592968367705943        0.0000000000000000     
   4.6277017851150688E-002  0.14337671792895978        0.0000000000000000     
   4.7068821891852464E-002  0.15076075252257229        0.0000000000000000     
   4.7709201915015792E-002  0.15808178745789705        0.0000000000000000     
   4.8198157920640680E-002  0.16533982273493397        0.0000000000000000     
   0.0000000000000000        0.0000000000000000        0.0000000000000000     
   1.7963274338978008E-003   1.2773083515433110E-003   0.0000000000000000     
   3.6171975159202175E-003   2.9401747070956366E-003   0.0000000000000000     
   5.4626102460672496E-003   4.9885990666569758E-003   0.0000000000000000     
   7.3325656243388975E-003   7.4225814302273296E-003   0.0000000000000000     
   0.0000000000000000        0.0000000000000000        0.0000000000000000     
   1.5330216490340705E-003   1.2180814466887921E-003   0.0000000000000000     
   3.0952189472984188E-003   2.8218280398377843E-003   0.0000000000000000     
   4.6865918947930456E-003   4.8112397794469759E-003   0.0000000000000000     
   6.3071404915179497E-003   7.1863166655163685E-003   0.0000000000000000     
   0.0000000000000000        0.0000000000000000        0.0000000000000000     
   1.2858802249928296E-003   1.1705619332227164E-003   0.0000000000000000     
   2.6015195203795724E-003   2.7254698101425272E-003   0.0000000000000000     
   3.9469178861602288E-003   4.6647236307594316E-003   0.0000000000000000     
   5.3220753223348002E-003   6.9883233950734308E-003   0.0000000000000000     
   0.0000000000000000        0.0000000000000000        0.0000000000000000     
   1.0549031617740775E-003   1.1347498111450845E-003   0.0000000000000000     
   2.1360992351636778E-003   2.6511000180098657E-003   0.0000000000000000     
   3.2435882201688007E-003   4.5490506205943431E-003   0.0000000000000000     
   4.3773701167894473E-003   6.8286016188985185E-003   0.0000000000000000     
   0.0000000000000000        0.0000000000000000        0.0000000000000000     
   8.4009045937781469E-004   1.1106450804558958E-003   0.0000000000000000     
   1.6989580916507349E-003   2.5987186634397995E-003   0.0000000000000000     
   2.5766028968187611E-003   4.4642207489517111E-003   0.0000000000000000     
   3.4730248748818925E-003   6.7071513369916297E-003   0.0000000000000000     
   7.3325656243388975E-003   7.4225814302273296E-003   0.0000000000000000     
   9.2200455388816178E-003   1.0190409283205880E-002   0.0000000000000000     
   1.1118031877841869E-002   1.3240370110991813E-002   0.0000000000000000     
   1.3026524641219657E-002   1.6572463913585123E-002   0.0000000000000000     
   1.4945523829014970E-002   2.0186690690985821E-002   0.0000000000000000     
   6.3071404915179497E-003   7.1863166655163685E-003   0.0000000000000000     
   7.9449402411998042E-003   9.8978587383299569E-003   0.0000000000000000     
   9.5880666475652802E-003   1.2896666038171741E-002   0.0000000000000000     
   1.1236519710614380E-002   1.6182738565041717E-002   0.0000000000000000     
   1.2890299430347099E-002   1.9756076318939882E-002   0.0000000000000000     
   5.3220753223348002E-003   6.9883233950734308E-003   0.0000000000000000     
   6.7133240952886759E-003   9.6502766872585757E-003   0.0000000000000000     
   8.1069964714072483E-003   1.2604591091488912E-002   0.0000000000000000     
   9.5030924506905191E-003   1.5851266607764446E-002   0.0000000000000000     
   1.0901612033138483E-002   1.9390303236085170E-002   0.0000000000000000     
   4.3773701167894473E-003   6.8286016188985185E-003   0.0000000000000000     
   5.5251971011482321E-003   9.4476631299917329E-003   0.0000000000000000     
   6.6748213493677717E-003   1.2364145270943334E-002   0.0000000000000000     
   7.8262428614480680E-003   1.5578048041753317E-002   0.0000000000000000     
   8.9794616373891165E-003   1.9089371442421687E-002   0.0000000000000000     
   3.4730248748818925E-003   6.7071513369916297E-003   0.0000000000000000     
   4.3805592587784752E-003   9.2900180665294336E-003   0.0000000000000000     
   5.2915412814468540E-003   1.2175328576535001E-002   0.0000000000000000     
   6.2059709428870305E-003   1.5363082867008330E-002   0.0000000000000000     
   7.1238482430990031E-003   1.8853280937949426E-002   0.0000000000000000     
   1.4945523829014970E-002   2.0186690690985821E-002   0.0000000000000000     
   1.6850443478725618E-002   2.4052370490895796E-002   0.0000000000000000     
   1.8716697627849398E-002   2.8138823361016967E-002   0.0000000000000000     
   2.0544286276386318E-002   3.2446049301349325E-002   0.0000000000000000     
   2.2333209424336378E-002   3.6974048311892875E-002   0.0000000000000000     
   1.2890299430347099E-002   1.9756076318939882E-002   0.0000000000000000     
   1.4533522896670509E-002   2.3588250651478904E-002   0.0000000000000000     
   1.6150307199491669E-002   2.7650832914271430E-002   0.0000000000000000     
   1.7740652338810579E-002   3.1943823107317457E-002   0.0000000000000000     
   1.9304558314627244E-002   3.6467221230616999E-002   0.0000000000000000     
   1.0901612033138483E-002   1.9390303236085170E-002   0.0000000000000000     
   1.2292609520708217E-002   2.3194342913665331E-002   0.0000000000000000     
   1.3666139215356792E-002   2.7236027577719157E-002   0.0000000000000000     
   1.5022201117084206E-002   3.1515357228246658E-002   0.0000000000000000     
   1.6360795225890463E-002   3.6032331865247819E-002   0.0000000000000000     
   8.9794616373891165E-003   1.9089371442421687E-002   0.0000000000000000     
   1.0127703350838744E-002   2.2870647277455084E-002   0.0000000000000000     
   1.1264193675444772E-002   2.6894407351360162E-002   0.0000000000000000     
   1.2388932611207201E-002   3.1160651664136913E-002   0.0000000000000000     
   1.3501920158126030E-002   3.5669380215785342E-002   0.0000000000000000     
   7.1238482430990031E-003   1.8853280937949426E-002   0.0000000000000000     
   8.0388043870620891E-003   2.2617163742848164E-002   0.0000000000000000     
   8.9444705797556111E-003   2.6625972235194435E-002   0.0000000000000000     
   9.8408468211795639E-003   3.0879706414988231E-002   0.0000000000000000     
   1.0727933111333951E-002   3.5378366282229567E-002   0.0000000000000000     
   2.2333209424336378E-002   3.6974048311892875E-002   0.0000000000000000     
   2.4087920996562446E-002   4.1715680241972496E-002   0.0000000000000000     
   2.5812874917927407E-002   4.6663804940913059E-002   0.0000000000000000     
   2.7508071188431255E-002   5.1818422408714572E-002   0.0000000000000000     
   2.9173509808074004E-002   5.7179532645377021E-002   0.0000000000000000     
   1.9304558314627244E-002   3.6467221230616999E-002   0.0000000000000000     
   2.0841947927959750E-002   4.1208079029133177E-002   0.0000000000000000     
   2.2352743979826180E-002   4.6153448247829111E-002   0.0000000000000000     
   2.3836946470226543E-002   5.1303328886704816E-002   0.0000000000000000     
   2.5294555399160833E-002   5.6657720945760277E-002   0.0000000000000000     
   1.6360795225890463E-002   3.6032331865247819E-002   0.0000000000000000     
   1.7679251177032035E-002   4.0769899667174460E-002   0.0000000000000000     
   1.8974898605765404E-002   4.5711008812478401E-002   0.0000000000000000     
   2.0247737512090566E-002   5.0855659301159609E-002   0.0000000000000000     
   2.1497767896007523E-002   5.6203851133218123E-002   0.0000000000000000     
   1.3501920158126030E-002   3.5669380215785342E-002   0.0000000000000000     
   1.4599830743779307E-002   4.0401142156096366E-002   0.0000000000000000     
   1.5679338795745072E-002   4.5336486634860909E-002   0.0000000000000000     
   1.6740444314023325E-002   5.0475413652078971E-002   0.0000000000000000     
   1.7783147298614070E-002   5.5817923207750544E-002   0.0000000000000000     
   1.0727933111333951E-002   3.5378366282229567E-002   0.0000000000000000     
   1.1603686628201562E-002   4.0101806495898881E-002   0.0000000000000000     
   1.2466064549765187E-002   4.5029881714976655E-002   0.0000000000000000     
   1.3315066876024823E-002   5.0162591939462875E-002   0.0000000000000000     
   1.4150693606980472E-002   5.5499937169357548E-002   0.0000000000000000     
   2.9173509808074004E-002   5.7179532645377021E-002   0.0000000000000000     
   3.0801547861914719E-002   6.2746780428596480E-002   0.0000000000000000     
   3.2384542435012487E-002   6.8519810536068954E-002   0.0000000000000000     
   3.3922493527367308E-002   7.4498622967794484E-002   0.0000000000000000     
   3.5415401138979181E-002   8.0683217723773043E-002   0.0000000000000000     
   2.5294555399160833E-002   5.6657720945760277E-002   0.0000000000000000     
   2.6719972598808157E-002   6.2218966092267111E-002   0.0000000000000000     
   2.8107599901347608E-002   6.7989405993496885E-002   0.0000000000000000     
   2.9457437306779192E-002   7.3969040649449605E-002   0.0000000000000000     
   3.0769484815102909E-002   8.0157870060125286E-002   0.0000000000000000     
   2.1497767896007523E-002   5.6203851133218123E-002   0.0000000000000000     
   2.2720732025060000E-002   6.1759801743482702E-002   0.0000000000000000     
   2.3912372166791714E-002   6.7527728566782144E-002   0.0000000000000000     
   2.5072688321202664E-002   7.3507631603116463E-002   0.0000000000000000     
   2.6201680488292856E-002   7.9699510852485611E-002   0.0000000000000000     
   1.7783147298614070E-002   5.5817923207750544E-002   0.0000000000000000     
   1.8803826140670249E-002   6.1369287382243259E-002   0.0000000000000000     
   1.9798859231344803E-002   6.7134778255924760E-002   0.0000000000000000     
   2.0768246570637736E-002   7.3114395828795017E-002   0.0000000000000000     
   2.1711988158549040E-002   7.9308140100854047E-002   0.0000000000000000     
   1.4150693606980472E-002   5.5499937169357548E-002   0.0000000000000000     
   1.4969254945638900E-002   6.1047423008548790E-002   0.0000000000000000     
   1.5767061095006873E-002   6.6810555060924703E-002   0.0000000000000000     
   1.6544112055084385E-002   7.2789333326485295E-002   0.0000000000000000     
   1.7300407825871444E-002   7.8983757805230564E-002   0.0000000000000000     
   3.5415401138979181E-002   8.0683217723773043E-002   0.0000000000000000     
   3.6856355550609274E-002   8.7050843713208342E-002   0.0000000000000000     
   3.8238447043018743E-002   9.3578749845304121E-002   0.0000000000000000     
   3.9561675616207589E-002  0.10026693612006037        0.0000000000000000     
   4.0826041270175806E-002  0.10711540253747709        0.0000000000000000     
   3.0769484815102909E-002   8.0157870060125286E-002   0.0000000000000000     
   3.2036560553660075E-002   8.6531804466821294E-002   0.0000000000000000     
   3.3251482649792018E-002   9.3066754110835065E-002   0.0000000000000000     
   3.4414251103498737E-002   9.9762718992166544E-002   0.0000000000000000     
   3.5524865914780240E-002  0.10661969911081576        0.0000000000000000     
   2.6201680488292856E-002   7.9699510852485611E-002   0.0000000000000000     
   2.7292451440876199E-002   8.6078235389169616E-002   0.0000000000000000     
   2.8338103951766606E-002   9.2618674287448341E-002   0.0000000000000000     
   2.9338638020964071E-002   9.9320827547321869E-002   0.0000000000000000     
   3.0294053648468600E-002  0.10618469516879017        0.0000000000000000     
   2.1711988158549040E-002   7.9308140100854047E-002   0.0000000000000000     
   2.2624028212257646E-002   8.5690136480253254E-002   0.0000000000000000     
   2.3498310948942492E-002   9.2234510375144019E-002   0.0000000000000000     
   2.4334836368603577E-002   9.8941261785526383E-002   0.0000000000000000     
   2.5133604471240901E-002  0.10581039071140029        0.0000000000000000     
   1.7300407825871444E-002   7.8983757805230564E-002   0.0000000000000000     
   1.8031290867804424E-002   8.5367507740072235E-002   0.0000000000000000     
   1.8732103641319695E-002   9.1914262373922057E-002   0.0000000000000000     
   1.9402846146417265E-002   9.8624021706780030E-002   0.0000000000000000     
   2.0043518383097130E-002  0.10549678573864613        0.0000000000000000     
   4.0826041270175806E-002  0.10711540253747709        0.0000000000000000     
   4.2033976198615160E-002  0.11411274997526119        0.0000000000000000     
   4.3187912595217384E-002  0.12124757931111962        0.0000000000000000     
   4.4287850459982486E-002  0.12851989054505236        0.0000000000000000     
   4.5333789792910487E-002  0.13592968367705943        0.0000000000000000     
   3.5524865914780240E-002  0.10661969911081576        0.0000000000000000     
   3.6585547877724771E-002  0.11362632742265240        0.0000000000000000     
   3.7598517786420607E-002  0.12077123688354602        0.0000000000000000     
   3.8563775640867742E-002  0.12805442749349669        0.0000000000000000     
   3.9481321441066176E-002  0.13547589925250436        0.0000000000000000     
   3.0294053648468600E-002  0.10618469516879017        0.0000000000000000     
   3.1206340930076990E-002  0.11319853461307047        0.0000000000000000     
   3.2077489961586034E-002  0.12035060334138002        0.0000000000000000     
   3.2907500742995734E-002  0.12764090135371878        0.0000000000000000     
   3.3696373274306093E-002  0.13506942865008684        0.0000000000000000     
   2.5133604471240901E-002  0.10581039071140029        0.0000000000000000     
   2.5896355355671811E-002  0.11282937154651548        0.0000000000000000     
   2.6624829120713674E-002  0.11998567868462164        0.0000000000000000     
   2.7319025766366488E-002  0.12727931212571877        0.0000000000000000     
   2.7978945292630248E-002  0.13471027186980689        0.0000000000000000     
   2.0043518383097130E-002  0.10549678573864613        0.0000000000000000     
   2.0655591154509236E-002  0.11251883822298739        0.0000000000000000     
   2.1240535263803522E-002  0.11967646291327090        0.0000000000000000     
   2.1798350710979984E-002  0.12696965980949659        0.0000000000000000     
   2.2329037496038630E-002  0.13439842891166454        0.0000000000000000     
   4.5333789792910487E-002  0.13592968367705943        0.0000000000000000     
   4.6277017851150688E-002  0.14337671792895978        0.0000000000000000     
   4.7068821891852464E-002  0.15076075252257229        0.0000000000000000     
   4.7709201915015792E-002  0.15808178745789705        0.0000000000000000     
   4.8198157920640680E-002  0.16533982273493397        0.0000000000000000     
   3.9481321441066176E-002  0.13547589925250436        0.0000000000000000     
   4.0312206899915659E-002  0.14292668622083599        0.0000000000000000     
   4.1017483730315933E-002  0.15029782245875856        0.0000000000000000     
   4.1597151932267012E-002  0.15758930796627202        0.0000000000000000     
   4.2051211505768890E-002  0.16480114274337637        0.0000000000000000     
   3.3696373274306093E-002  0.13506942865008684        0.0000000000000000     
   3.4413201434863400E-002  0.14252069342994686        0.0000000000000000     
   3.5027079104013939E-002  0.14987920389276166        0.0000000000000000     
   3.5538006281757725E-002  0.15714496003853118        0.0000000000000000     
   3.5945982968094731E-002  0.16431796186725553        0.0000000000000000     
   2.7978945292630248E-002  0.13471027186980689        0.0000000000000000     
   2.8580001455993924E-002  0.14215873955629238        0.0000000000000000     
   2.9097608012946478E-002  0.14950489682458165        0.0000000000000000     
   2.9531764963487903E-002  0.15674874367467467        0.0000000000000000     
   2.9882472307618216E-002  0.16389028010657153        0.0000000000000000     
   2.2329037496038630E-002  0.13439842891166454        0.0000000000000000     
   2.2812606963307228E-002  0.14184082459987254        0.0000000000000000     
   2.3229070457113542E-002  0.14917490125421853        0.0000000000000000     
   2.3578427977457579E-002  0.15640065887470245        0.0000000000000000     
   2.3860679524339335E-002  0.16351809746132429        0.0000000000000000     
   0.0000000000000000        0.0000000000000000        0.0000000000000000     
   8.4009045937781469E-004   1.1106450804558958E-003   0.0000000000000000     
   1.6989580916507349E-003   2.5987186634397995E-003   0.0000000000000000     
   2.5766028968187611E-003   4.4642207489517111E-003   0.0000000000000000     
   3.4730248748818925E-003   6.7071513369916297E-003   0.0000000000000000     
   0.0000000000000000        0.0000000000000000        0.0000000000000000     
   6.3253691417794098E-004   1.0946754248352952E-003   0.0000000000000000     
   1.2755220314264698E-003   2.5625049196246201E-003   0.0000000000000000     
   1.9289553517455866E-003   4.4034884843679734E-003   0.0000000000000000     
   2.5928368751352913E-003   6.6176261190653580E-003   0.0000000000000000     
   0.0000000000000000        0.0000000000000000        0.0000000000000000     
   4.2333732254835573E-004   1.0832685279634274E-003   0.0000000000000000     
   8.5121699607660793E-004   2.5366379597566192E-003   0.0000000000000000     
   1.2836390205847562E-003   4.3601082953795747E-003   0.0000000000000000     
   1.7206033960728009E-003   6.5536795348322937E-003   0.0000000000000000     
   0.0000000000000000        0.0000000000000000        0.0000000000000000     
   2.1249168448905930E-004   1.0764243898402925E-003   0.0000000000000000     
   4.2604298560114910E-004   2.5211177838357960E-003   0.0000000000000000     
   6.4065390333626943E-004   4.3340801819865115E-003   0.0000000000000000     
   8.5632443769442020E-004   6.5153115842924375E-003   0.0000000000000000     
   0.0000000000000000        0.0000000000000000        0.0000000000000000     
   5.1499603193061461E-017   1.0741430104658904E-003   0.0000000000000000     
   9.3675067702747583E-017   2.5159443918621517E-003   0.0000000000000000     
   1.2636376320318554E-016   4.3254041441887848E-003   0.0000000000000000     
   1.4980963518318458E-016   6.5025222674457879E-003   0.0000000000000000     
   3.4730248748818925E-003   6.7071513369916297E-003   0.0000000000000000     
   4.3805592587784752E-003   9.2900180665294336E-003   0.0000000000000000     
   5.2915412814468540E-003   1.2175328576535001E-002   0.0000000000000000     
   6.2059709428870305E-003   1.5363082867008330E-002   0.0000000000000000     
   7.1238482430990031E-003   1.8853280937949426E-002   0.0000000000000000     
   2.5928368751352913E-003   6.6176261190653580E-003   0.0000000000000000     
   3.2646043552415197E-003   9.1717523520394063E-003   0.0000000000000000     
   3.9416955457102082E-003   1.2032701711612753E-002   0.0000000000000000     
   4.6241104465413550E-003   1.5200474197785403E-002   0.0000000000000000     
   5.3118490577349631E-003   1.8675069810557356E-002   0.0000000000000000     
   1.7206033960728009E-003   6.5536795348322937E-003   0.0000000000000000     
   2.1625261775994843E-003   9.0872768416893780E-003   0.0000000000000000     
   2.6098234202235489E-003   1.1930825379525431E-002   0.0000000000000000     
   3.0624951239449955E-003   1.5084325148340452E-002   0.0000000000000000     
   3.5205412887638230E-003   1.8547776148134444E-002   0.0000000000000000     
   8.5632443769442020E-004   6.5153115842924375E-003   0.0000000000000000     
   1.0743247258523673E-003   9.0365915354793502E-003   0.0000000000000000     
   1.2959249049868771E-003   1.1869699580273032E-002   0.0000000000000000     
   1.5211249750979486E-003   1.5014635718673480E-002   0.0000000000000000     
   1.7499249361855830E-003   1.8471399950680690E-002   0.0000000000000000     
   1.4980963518318458E-016   6.5025222674457879E-003   0.0000000000000000     
   1.6935237934223579E-016   9.0196964334093230E-003   0.0000000000000000     
   1.9173437794048342E-016   1.1849324313855554E-002   0.0000000000000000     
   2.1576809078587694E-016   1.4991405908784476E-002   0.0000000000000000     
   2.4210234511601314E-016   1.8445941218196094E-002   0.0000000000000000     
   7.1238482430990031E-003   1.8853280937949426E-002   0.0000000000000000     
   8.0388043870620891E-003   2.2617163742848164E-002   0.0000000000000000     
   8.9444705797556111E-003   2.6625972235194435E-002   0.0000000000000000     
   9.8408468211795639E-003   3.0879706414988231E-002   0.0000000000000000     
   1.0727933111333951E-002   3.5378366282229567E-002   0.0000000000000000     
   5.3118490577349631E-003   1.8675069810557356E-002   0.0000000000000000     
   5.9982075923230415E-003   2.2426083444518557E-002   0.0000000000000000     
   6.6764822633376044E-003   2.6423109994258977E-002   0.0000000000000000     
   7.3466730707786509E-003   3.0666149459778597E-002   0.0000000000000000     
   8.0087800146461802E-003   3.5155201841077441E-002   0.0000000000000000     
   3.5205412887638230E-003   1.8547776148134444E-002   0.0000000000000000     
   3.9782079295663901E-003   2.2289597517140262E-002   0.0000000000000000     
   4.4297410612390530E-003   2.6278208393590786E-002   0.0000000000000000     
   4.8751406837818133E-003   3.0513608777486004E-002   0.0000000000000000     
   5.3144067971946695E-003   3.4995798668825920E-002   0.0000000000000000     
   1.7499249361855830E-003   1.8471399950680690E-002   0.0000000000000000     
   1.9788053987921344E-003   2.2207705960713281E-002   0.0000000000000000     
   2.2042469734599580E-003   2.6191267433189867E-002   0.0000000000000000     
   2.4262496601890546E-003   3.0422084368110443E-002   0.0000000000000000     
   2.6448134589794228E-003   3.4900156765475018E-002   0.0000000000000000     
   2.4210234511601314E-016   1.8445941218196094E-002   0.0000000000000000     
   2.7495367094232392E-016   2.2180408775237609E-002   0.0000000000000000     
   3.1856570333055334E-016   2.6162287113056217E-002   0.0000000000000000     
   3.7291811348996728E-016   3.0391576231651916E-002   0.0000000000000000     
   4.3758399681514959E-016   3.4868276131024722E-002   0.0000000000000000     
   1.0727933111333951E-002   3.5378366282229567E-002   0.0000000000000000     
   1.1603686628201562E-002   4.0101806495898881E-002   0.0000000000000000     
   1.2466064549765187E-002   4.5029881714976655E-002   0.0000000000000000     
   1.3315066876024823E-002   5.0162591939462875E-002   0.0000000000000000     
   1.4150693606980472E-002   5.5499937169357548E-002   0.0000000000000000     
   8.0087800146461802E-003   3.5155201841077441E-002   0.0000000000000000     
   8.6625767463838071E-003   3.9870259852986353E-002   0.0000000000000000     
   9.3078369174351503E-003   4.4791316210336225E-002   0.0000000000000000     
   9.9445605278002079E-003   4.9918370913127043E-002   0.0000000000000000     
   1.0572747577478978E-002   5.5251423961358820E-002   0.0000000000000000     
   5.3144067971946695E-003   3.4995798668825920E-002   0.0000000000000000     
   5.7482590144110456E-003   3.9704869393763137E-002   0.0000000000000000     
   6.1774169483643660E-003   4.4620912278450220E-002   0.0000000000000000     
   6.6018805990546254E-003   4.9743927322887183E-002   0.0000000000000000     
   7.0216499664818299E-003   5.5073914527074039E-002   0.0000000000000000     
   2.6448134589794228E-003   3.4900156765475018E-002   0.0000000000000000     
   2.8607334322832759E-003   3.9605635118229204E-002   0.0000000000000000     
   3.0748046425528291E-003   4.4518669919318625E-002   0.0000000000000000     
   3.2870270897880790E-003   4.9639261168743294E-002   0.0000000000000000     
   3.4974007739890273E-003   5.4967408866503191E-002   0.0000000000000000     
   4.3758399681514959E-016   3.4868276131024722E-002   0.0000000000000000     
   4.9884141956058059E-016   3.9572557026384576E-002   0.0000000000000000     
   5.4123372450476381E-016   4.4484589132941468E-002   0.0000000000000000     
   5.6562827338568766E-016   4.9604372450695364E-002   0.0000000000000000     
   5.7180822576885504E-016   5.4931906979646297E-002   0.0000000000000000     
   1.4150693606980472E-002   5.5499937169357548E-002   0.0000000000000000     
   1.4969254945638900E-002   6.1047423008548790E-002   0.0000000000000000     
   1.5767061095006873E-002   6.6810555060924703E-002   0.0000000000000000     
   1.6544112055084385E-002   7.2789333326485295E-002   0.0000000000000000     
   1.7300407825871444E-002   7.8983757805230564E-002   0.0000000000000000     
   1.0572747577478978E-002   5.5251423961358820E-002   0.0000000000000000     
   1.1188623623772400E-002   6.0795826051117059E-002   0.0000000000000000     
   1.1788414223981402E-002   6.6556927878487257E-002   0.0000000000000000     
   1.2372119378105988E-002   7.2534729443469448E-002   0.0000000000000000     
   1.2939739086146157E-002   7.8729230746063583E-002   0.0000000000000000     
   7.0216499664818299E-003   5.5073914527074039E-002   0.0000000000000000     
   7.4335373588771750E-003   6.0616113938665853E-002   0.0000000000000000     
   7.8343550844718612E-003   6.6375765605317688E-002   0.0000000000000000     
   8.2241031432658870E-003   7.2352869527029573E-002   0.0000000000000000     
   8.6027815352592539E-003   7.8547425703801479E-002   0.0000000000000000     
   3.4974007739890273E-003   5.4967408866503191E-002   0.0000000000000000     
   3.7039961509532328E-003   6.0508286671195163E-002   0.0000000000000000     
   3.9048836764782528E-003   6.6267068241416011E-002   0.0000000000000000     
   4.1000633505640866E-003   7.2243753577165726E-002   0.0000000000000000     
   4.2895351732107345E-003   7.8438342678444323E-002   0.0000000000000000     
   5.7180822576885504E-016   5.4931906979646297E-002   0.0000000000000000     
   5.7061560337912098E-016   6.0472344248704998E-002   0.0000000000000000     
   5.7581977380705140E-016   6.6230835786782183E-002   0.0000000000000000     
   5.8511680743611461E-016   7.2207381593877865E-002   0.0000000000000000     
   5.9956380138448395E-016   7.8401981669992044E-002   0.0000000000000000     
   1.7300407825871444E-002   7.8983757805230564E-002   0.0000000000000000     
   1.8031290867804424E-002   8.5367507740072235E-002   0.0000000000000000     
   1.8732103641319695E-002   9.1914262373922057E-002   0.0000000000000000     
   1.9402846146417265E-002   9.8624021706780030E-002   0.0000000000000000     
   2.0043518383097130E-002  0.10549678573864613        0.0000000000000000     
   1.2939739086146157E-002   7.8729230746063583E-002   0.0000000000000000     
   1.3488164386788759E-002   8.5113850791235596E-002   0.0000000000000000     
   1.4014286318720639E-002   9.1662008583951418E-002   0.0000000000000000     
   1.4518104881941800E-002   9.8373704124211009E-002   0.0000000000000000     
   1.4999620076452242E-002  0.10524893741201438        0.0000000000000000     
   8.6027815352592539E-003   7.8547425703801479E-002   0.0000000000000000     
   8.9685737484829012E-003   8.4932667256352345E-002   0.0000000000000000     
   9.3196632709677731E-003   9.1481827305401026E-002   0.0000000000000000     
   9.6560501027138663E-003   9.8194905850947534E-002   0.0000000000000000     
   9.9777342437211806E-003  0.10507190289299181        0.0000000000000000     
   4.2895351732107345E-003   7.8438342678444323E-002   0.0000000000000000     
   4.4725189528868527E-003   8.4823957135422470E-002   0.0000000000000000     
   4.6482344980610935E-003   9.1373718538270879E-002   0.0000000000000000     
   4.8166818087334593E-003   9.8087626886989535E-002   0.0000000000000000     
   4.9778608849039476E-003  0.10496568218157842        0.0000000000000000     
   5.9956380138448395E-016   7.8401981669992044E-002   0.0000000000000000     
   6.0975530180584769E-016   8.4787720428445984E-002   0.0000000000000000     
   6.0222009670707344E-016   9.1337682282560992E-002   0.0000000000000000     
   5.8098328665351362E-016   9.8051867232337081E-002   0.0000000000000000     
   5.4296844798074062E-016  0.10493027527777421        0.0000000000000000     
   2.0043518383097130E-002  0.10549678573864613        0.0000000000000000     
   2.0655591154509236E-002  0.11251883822298739        0.0000000000000000     
   2.1240535263803522E-002  0.11967646291327090        0.0000000000000000     
   2.1798350710979984E-002  0.12696965980949659        0.0000000000000000     
   2.2329037496038630E-002  0.13439842891166454        0.0000000000000000     
   1.4999620076452242E-002  0.10524893741201438        0.0000000000000000     
   1.5460001571446480E-002  0.11227277207747466        0.0000000000000000     
   1.5900419036119037E-002  0.11943027175070488        0.0000000000000000     
   1.6320872470469910E-002  0.12672143643170508        0.0000000000000000     
   1.6721361874499099E-002  0.13414626612047523        0.0000000000000000     
   9.9777342437211806E-003  0.10507190289299181        0.0000000000000000     
   1.0285539851340770E-002  0.11209701054496565        0.0000000000000000     
   1.0580291082923687E-002  0.11925442092030072        0.0000000000000000     
   1.0861987938469935E-002  0.12654413401899703        0.0000000000000000     
   1.1130630417979509E-002  0.13396614984105451        0.0000000000000000     
   4.9778608849039476E-003  0.10496568218157842        0.0000000000000000     
   5.1322059941921044E-003  0.11199155362546044        0.0000000000000000     
   5.2801514042174766E-003  0.11914891042205841        0.0000000000000000     
   5.4216971149800624E-003  0.12643775257137238        0.0000000000000000     
   5.5568431264798653E-003  0.13385808007340227        0.0000000000000000     
   5.4296844798074062E-016  0.10493027527777421        0.0000000000000000     
   4.8528889240451178E-016  0.11195640131895898        0.0000000000000000     
   4.0115480381963664E-016  0.11911374025597797        0.0000000000000000     
   2.9414404939531735E-016  0.12640229208883119        0.0000000000000000     
   1.6132928326584306E-016  0.13382205681751863        0.0000000000000000     
   2.2329037496038630E-002  0.13439842891166454        0.0000000000000000     
   2.2812606963307228E-002  0.14184082459987254        0.0000000000000000     
   2.3229070457113542E-002  0.14917490125421853        0.0000000000000000     
   2.3578427977457579E-002  0.15640065887470245        0.0000000000000000     
   2.3860679524339335E-002  0.16351809746132429        0.0000000000000000     
   1.6721361874499099E-002  0.13414626612047523        0.0000000000000000     
   1.7085950215904040E-002  0.14158191603929546        0.0000000000000000     
   1.7398700462382181E-002  0.14890554141044574        0.0000000000000000     
   1.7659612613933517E-002  0.15611714223392620        0.0000000000000000     
   1.7868686670558041E-002  0.16321671850973674        0.0000000000000000     
   1.1130630417979509E-002  0.13396614984105451        0.0000000000000000     
   1.1374963472885111E-002  0.14139698135316911        0.0000000000000000     
   1.1583732054619442E-002  0.14871314152203688        0.0000000000000000     
   1.1756936163182500E-002  0.15591463034765765        0.0000000000000000     
   1.1894575798574282E-002  0.16300144783003157        0.0000000000000000     
   5.5568431264798653E-003  0.13385808007340227        0.0000000000000000     
   5.6796467342504330E-003  0.14128602054149367        0.0000000000000000     
   5.7841652338253228E-003  0.14859770158899188        0.0000000000000000     
   5.8703986252045337E-003  0.15579312321589694        0.0000000000000000     
   5.9383469083880659E-003  0.16287228542220894        0.0000000000000000     
   1.6132928326584306E-016  0.13382205681751863        0.0000000000000000     
   4.3368086899420177E-018  0.14124903360426894        0.0000000000000000     
  -1.7650811368064012E-016  0.14855922161131074        0.0000000000000000     
  -3.8326546797362582E-016  0.15575262083864400        0.0000000000000000     
  -6.1409211049578971E-016  0.16282923128626872        0.0000000000000000     
   0.0000000000000000        0.0000000000000000        0.0000000000000000     
   5.1499603193061461E-017   1.0741430104658904E-003   0.0000000000000000     
   9.3675067702747583E-017   2.5159443918621517E-003   0.0000000000000000     
   1.2636376320318554E-016   4.3254041441887848E-003   0.0000000000000000     
   1.4980963518318458E-016   6.5025222674457879E-003   0.0000000000000000     
   0.0000000000000000        0.0000000000000000        0.0000000000000000     
  -2.1249168448895993E-004   1.0764243898402322E-003   0.0000000000000000     
  -4.2604298560096853E-004   2.5211177838357023E-003   0.0000000000000000     
  -6.4065390333602559E-004   4.3340801819864118E-003   0.0000000000000000     
  -8.5632443769413126E-004   6.5153115842923586E-003   0.0000000000000000     
   0.0000000000000000        0.0000000000000000        0.0000000000000000     
  -4.2333732254826726E-004   1.0832685279633300E-003   0.0000000000000000     
  -8.5121699607644693E-004   2.5366379597564666E-003   0.0000000000000000     
  -1.2836390205845393E-003   4.3601082953794099E-003   0.0000000000000000     
  -1.7206033960725437E-003   6.5536795348321592E-003   0.0000000000000000     
   0.0000000000000000        0.0000000000000000        0.0000000000000000     
  -6.3253691417787051E-004   1.0946754248351838E-003   0.0000000000000000     
  -1.2755220314263419E-003   2.5625049196244432E-003   0.0000000000000000     
  -1.9289553517454145E-003   4.4034884843677791E-003   0.0000000000000000     
  -2.5928368751350879E-003   6.6176261190651897E-003   0.0000000000000000     
   0.0000000000000000        0.0000000000000000        0.0000000000000000     
  -8.4009045937776981E-004   1.1106450804557935E-003   0.0000000000000000     
  -1.6989580916506534E-003   2.5987186634396330E-003   0.0000000000000000     
  -2.5766028968186513E-003   4.4642207489515185E-003   0.0000000000000000     
  -3.4730248748817629E-003   6.7071513369914501E-003   0.0000000000000000     
   1.4980963518318458E-016   6.5025222674457879E-003   0.0000000000000000     
   1.6935237934223579E-016   9.0196964334093230E-003   0.0000000000000000     
   1.9173437794048342E-016   1.1849324313855554E-002   0.0000000000000000     
   2.1576809078587694E-016   1.4991405908784476E-002   0.0000000000000000     
   2.4210234511601314E-016   1.8445941218196094E-002   0.0000000000000000     
  -8.5632443769413126E-004   6.5153115842923586E-003   0.0000000000000000     
  -1.0743247258520399E-003   9.0365915354793016E-003   0.0000000000000000     
  -1.2959249049865063E-003   1.1869699580273001E-002   0.0000000000000000     
  -1.5211249750975298E-003   1.5014635718673452E-002   0.0000000000000000     
  -1.7499249361851109E-003   1.8471399950680659E-002   0.0000000000000000     
  -1.7206033960725437E-003   6.5536795348321592E-003   0.0000000000000000     
  -2.1625261775991920E-003   9.0872768416892860E-003   0.0000000000000000     
  -2.6098234202232154E-003   1.1930825379525367E-002   0.0000000000000000     
  -3.0624951239446134E-003   1.5084325148340396E-002   0.0000000000000000     
  -3.5205412887633872E-003   1.8547776148134382E-002   0.0000000000000000     
  -2.5928368751350879E-003   6.6176261190651897E-003   0.0000000000000000     
  -3.2646043552412864E-003   9.1717523520392797E-003   0.0000000000000000     
  -3.9416955457099358E-003   1.2032701711612656E-002   0.0000000000000000     
  -4.6241104465410375E-003   1.5200474197785316E-002   0.0000000000000000     
  -5.3118490577345875E-003   1.8675069810557263E-002   0.0000000000000000     
  -3.4730248748817629E-003   6.7071513369914501E-003   0.0000000000000000     
  -4.3805592587783243E-003   9.2900180665292809E-003   0.0000000000000000     
  -5.2915412814466692E-003   1.2175328576534868E-002   0.0000000000000000     
  -6.2059709428867980E-003   1.5363082867008205E-002   0.0000000000000000     
  -7.1238482430987125E-003   1.8853280937949302E-002   0.0000000000000000     
   2.4210234511601314E-016   1.8445941218196094E-002   0.0000000000000000     
   2.7495367094232392E-016   2.2180408775237609E-002   0.0000000000000000     
   3.1856570333055334E-016   2.6162287113056217E-002   0.0000000000000000     
   3.7291811348996728E-016   3.0391576231651916E-002   0.0000000000000000     
   4.3758399681514959E-016   3.4868276131024722E-002   0.0000000000000000     
  -1.7499249361851109E-003   1.8471399950680659E-002   0.0000000000000000     
  -1.9788053987915962E-003   2.2207705960713246E-002   0.0000000000000000     
  -2.2042469734593335E-003   2.6191267433189842E-002   0.0000000000000000     
  -2.4262496601883238E-003   3.0422084368110426E-002   0.0000000000000000     
  -2.6448134589785650E-003   3.4900156765475025E-002   0.0000000000000000     
  -3.5205412887633872E-003   1.8547776148134382E-002   0.0000000000000000     
  -3.9782079295658896E-003   2.2289597517140200E-002   0.0000000000000000     
  -4.4297410612384675E-003   2.6278208393590730E-002   0.0000000000000000     
  -4.8751406837811255E-003   3.0513608777485976E-002   0.0000000000000000     
  -5.3144067971938637E-003   3.4995798668825941E-002   0.0000000000000000     
  -5.3118490577345875E-003   1.8675069810557263E-002   0.0000000000000000     
  -5.9982075923225991E-003   2.2426083444518463E-002   0.0000000000000000     
  -6.6764822633370823E-003   2.6423109994258901E-002   0.0000000000000000     
  -7.3466730707780351E-003   3.0666149459778556E-002   0.0000000000000000     
  -8.0087800146454585E-003   3.5155201841077441E-002   0.0000000000000000     
  -7.1238482430987125E-003   1.8853280937949302E-002   0.0000000000000000     
  -8.0388043870617300E-003   2.2617163742848043E-002   0.0000000000000000     
  -8.9444705797551774E-003   2.6625972235194337E-002   0.0000000000000000     
  -9.8408468211790487E-003   3.0879706414988169E-002   0.0000000000000000     
  -1.0727933111333349E-002   3.5378366282229547E-002   0.0000000000000000     
   4.3758399681514959E-016   3.4868276131024722E-002   0.0000000000000000     
   4.9884141956058059E-016   3.9572557026384576E-002   0.0000000000000000     
   5.4123372450476381E-016   4.4484589132941468E-002   0.0000000000000000     
   5.6562827338568766E-016   4.9604372450695364E-002   0.0000000000000000     
   5.7180822576885504E-016   5.4931906979646297E-002   0.0000000000000000     
  -2.6448134589785650E-003   3.4900156765475025E-002   0.0000000000000000     
  -2.8607334322822984E-003   3.9605635118229246E-002   0.0000000000000000     
  -3.0748046425517661E-003   4.4518669919318708E-002   0.0000000000000000     
  -3.2870270897869670E-003   4.9639261168743398E-002   0.0000000000000000     
  -3.4974007739879019E-003   5.4967408866503337E-002   0.0000000000000000     
  -5.3144067971938637E-003   3.4995798668825941E-002   0.0000000000000000     
  -5.7482590144101280E-003   3.9704869393763192E-002   0.0000000000000000     
  -6.1774169483633625E-003   4.4620912278450345E-002   0.0000000000000000     
  -6.6018805990535733E-003   4.9743927322887370E-002   0.0000000000000000     
  -7.0216499664807570E-003   5.5073914527074289E-002   0.0000000000000000     
  -8.0087800146454585E-003   3.5155201841077441E-002   0.0000000000000000     
  -8.6625767463829849E-003   3.9870259852986430E-002   0.0000000000000000     
  -9.3078369174342483E-003   4.4791316210336371E-002   0.0000000000000000     
  -9.9445605277992521E-003   4.9918370913127286E-002   0.0000000000000000     
  -1.0572747577477991E-002   5.5251423961359181E-002   0.0000000000000000     
  -1.0727933111333349E-002   3.5378366282229547E-002   0.0000000000000000     
  -1.1603686628200875E-002   4.0101806495898944E-002   0.0000000000000000     
  -1.2466064549764427E-002   4.5029881714976815E-002   0.0000000000000000     
  -1.3315066876024005E-002   5.0162591939463159E-002   0.0000000000000000     
  -1.4150693606979611E-002   5.5499937169357964E-002   0.0000000000000000     
   5.7180822576885504E-016   5.4931906979646297E-002   0.0000000000000000     
   5.7061560337912098E-016   6.0472344248704998E-002   0.0000000000000000     
   5.7581977380705140E-016   6.6230835786782183E-002   0.0000000000000000     
   5.8511680743611461E-016   7.2207381593877865E-002   0.0000000000000000     
   5.9956380138448395E-016   7.8401981669992044E-002   0.0000000000000000     
  -3.4974007739879019E-003   5.4967408866503337E-002   0.0000000000000000     
  -3.7039961509521047E-003   6.0508286671195344E-002   0.0000000000000000     
  -3.9048836764771157E-003   6.6267068241416219E-002   0.0000000000000000     
  -4.1000633505629321E-003   7.2243753577165989E-002   0.0000000000000000     
  -4.2895351732095532E-003   7.8438342678444628E-002   0.0000000000000000     
  -7.0216499664807570E-003   5.5073914527074289E-002   0.0000000000000000     
  -7.4335373588760943E-003   6.0616113938666179E-002   0.0000000000000000     
  -7.8343550844707684E-003   6.6375765605318104E-002   0.0000000000000000     
  -8.2241031432647785E-003   7.2352869527030086E-002   0.0000000000000000     
  -8.6027815352581263E-003   7.8547425703802132E-002   0.0000000000000000     
  -1.0572747577477991E-002   5.5251423961359181E-002   0.0000000000000000     
  -1.1188623623771394E-002   6.0795826051117517E-002   0.0000000000000000     
  -1.1788414223980382E-002   6.6556927878487868E-002   0.0000000000000000     
  -1.2372119378104958E-002   7.2534729443470197E-002   0.0000000000000000     
  -1.2939739086145116E-002   7.8729230746064499E-002   0.0000000000000000     
  -1.4150693606979611E-002   5.5499937169357964E-002   0.0000000000000000     
  -1.4969254945638005E-002   6.1047423008549366E-002   0.0000000000000000     
  -1.5767061095005960E-002   6.6810555060925453E-002   0.0000000000000000     
  -1.6544112055083465E-002   7.2789333326486252E-002   0.0000000000000000     
  -1.7300407825870532E-002   7.8983757805231730E-002   0.0000000000000000     
   5.9956380138448395E-016   7.8401981669992044E-002   0.0000000000000000     
   6.0975530180584769E-016   8.4787720428445984E-002   0.0000000000000000     
   6.0222009670707344E-016   9.1337682282560992E-002   0.0000000000000000     
   5.8098328665351362E-016   9.8051867232337081E-002   0.0000000000000000     
   5.4296844798074062E-016  0.10493027527777421        0.0000000000000000     
  -4.2895351732095532E-003   7.8438342678444628E-002   0.0000000000000000     
  -4.4725189528856558E-003   8.4823957135422859E-002   0.0000000000000000     
  -4.6482344980599104E-003   9.1373718538271351E-002   0.0000000000000000     
  -4.8166818087323222E-003   9.8087626886990090E-002   0.0000000000000000     
  -4.9778608849028860E-003  0.10496568218157912        0.0000000000000000     
  -8.6027815352581263E-003   7.8547425703802132E-002   0.0000000000000000     
  -8.9685737484817649E-003   8.4932667256353095E-002   0.0000000000000000     
  -9.3196632709666577E-003   9.1481827305401942E-002   0.0000000000000000     
  -9.6560501027127994E-003   9.8194905850948616E-002   0.0000000000000000     
  -9.9777342437201953E-003  0.10507190289299317        0.0000000000000000     
  -1.2939739086145116E-002   7.8729230746064499E-002   0.0000000000000000     
  -1.3488164386787727E-002   8.5113850791236706E-002   0.0000000000000000     
  -1.4014286318719640E-002   9.1662008583952764E-002   0.0000000000000000     
  -1.4518104881940859E-002   9.8373704124212646E-002   0.0000000000000000     
  -1.4999620076451380E-002  0.10524893741201637        0.0000000000000000     
  -1.7300407825870532E-002   7.8983757805231730E-002   0.0000000000000000     
  -1.8031290867803532E-002   8.5367507740073664E-002   0.0000000000000000     
  -1.8732103641318852E-002   9.1914262373923819E-002   0.0000000000000000     
  -1.9402846146416488E-002   9.8624021706782153E-002   0.0000000000000000     
  -2.0043518383096443E-002  0.10549678573864872        0.0000000000000000     
   5.4296844798074062E-016  0.10493027527777421        0.0000000000000000     
   4.8528889240451178E-016  0.11195640131895898        0.0000000000000000     
   4.0115480381963664E-016  0.11911374025597797        0.0000000000000000     
   2.9414404939531735E-016  0.12640229208883119        0.0000000000000000     
   1.6132928326584306E-016  0.13382205681751863        0.0000000000000000     
  -4.9778608849028860E-003  0.10496568218157912        0.0000000000000000     
  -5.1322059941911633E-003  0.11199155362546126        0.0000000000000000     
  -5.2801514042167003E-003  0.11914891042205936        0.0000000000000000     
  -5.4216971149795073E-003  0.12643775257137346        0.0000000000000000     
  -5.5568431264795774E-003  0.13385808007340355        0.0000000000000000     
  -9.9777342437201953E-003  0.10507190289299317        0.0000000000000000     
  -1.0285539851339906E-002  0.11209701054496723        0.0000000000000000     
  -1.0580291082922999E-002  0.11925442092030260        0.0000000000000000     
  -1.0861987938469472E-002  0.12654413401899914        0.0000000000000000     
  -1.1130630417979331E-002  0.13396614984105695        0.0000000000000000     
  -1.4999620076451380E-002  0.10524893741201637        0.0000000000000000     
  -1.5460001571445748E-002  0.11227277207747702        0.0000000000000000     
  -1.5900419036118486E-002  0.11943027175070764        0.0000000000000000     
  -1.6320872470469604E-002  0.12672143643170825        0.0000000000000000     
  -1.6721361874499099E-002  0.13414626612047889        0.0000000000000000     
  -2.0043518383096443E-002  0.10549678573864872        0.0000000000000000     
  -2.0655591154508681E-002  0.11251883822299050        0.0000000000000000     
  -2.1240535263803168E-002  0.11967646291327452        0.0000000000000000     
  -2.1798350710979901E-002  0.12696965980950081        0.0000000000000000     
  -2.2329037496038880E-002  0.13439842891166934        0.0000000000000000     
   1.6132928326584306E-016  0.13382205681751863        0.0000000000000000     
   4.3368086899420177E-018  0.14124903360426894        0.0000000000000000     
  -1.7650811368064012E-016  0.14855922161131074        0.0000000000000000     
  -3.8326546797362582E-016  0.15575262083864400        0.0000000000000000     
  -6.1409211049578971E-016  0.16282923128626872        0.0000000000000000     
  -5.5568431264795774E-003  0.13385808007340355        0.0000000000000000     
  -5.6796467342504669E-003  0.14128602054149506        0.0000000000000000     
  -5.7841652338257304E-003  0.14859770158899344        0.0000000000000000     
  -5.8703986252053707E-003  0.15579312321589878        0.0000000000000000     
  -5.9383469083893860E-003  0.16287228542221094        0.0000000000000000     
  -1.1130630417979331E-002  0.13396614984105695        0.0000000000000000     
  -1.1374963472885274E-002  0.14139698135317191        0.0000000000000000     
  -1.1583732054620016E-002  0.14871314152204004        0.0000000000000000     
  -1.1756936163183551E-002  0.15591463034766120        0.0000000000000000     
  -1.1894575798575878E-002  0.16300144783003553        0.0000000000000000     
  -1.6721361874499099E-002  0.13414626612047889        0.0000000000000000     
  -1.7085950215904422E-002  0.14158191603929957        0.0000000000000000     
  -1.7398700462383027E-002  0.14890554141045040        0.0000000000000000     
  -1.7659612613934918E-002  0.15611714223393142        0.0000000000000000     
  -1.7868686670560095E-002  0.16321671850974251        0.0000000000000000     
  -2.2329037496038880E-002  0.13439842891166934        0.0000000000000000     
  -2.2812606963307901E-002  0.14184082459987801        0.0000000000000000     
  -2.3229070457114774E-002  0.14917490125422464        0.0000000000000000     
  -2.3578427977459484E-002  0.15640065887470925        0.0000000000000000     
  -2.3860679524342034E-002  0.16351809746133183        0.0000000000000000     
   0.0000000000000000        0.0000000000000000        0.0000000000000000     
  -8.4009045937776981E-004   1.1106450804557935E-003   0.0000000000000000     
  -1.6989580916506534E-003   2.5987186634396330E-003   0.0000000000000000     
  -2.5766028968186513E-003   4.4642207489515185E-003   0.0000000000000000     
  -3.4730248748817629E-003   6.7071513369914501E-003   0.0000000000000000     
   0.0000000000000000        0.0000000000000000        0.0000000000000000     
  -1.0549031617740571E-003   1.1347498111450003E-003   0.0000000000000000     
  -2.1360992351636423E-003   2.6511000180097239E-003   0.0000000000000000     
  -3.2435882201687551E-003   4.5490506205941705E-003   0.0000000000000000     
  -4.3773701167893961E-003   6.8286016188983381E-003   0.0000000000000000     
   0.0000000000000000        0.0000000000000000        0.0000000000000000     
  -1.2858802249928250E-003   1.1705619332226462E-003   0.0000000000000000     
  -2.6015195203795689E-003   2.7254698101424044E-003   0.0000000000000000     
  -3.9469178861602306E-003   4.6647236307592746E-003   0.0000000000000000     
  -5.3220753223348115E-003   6.9883233950732556E-003   0.0000000000000000     
   0.0000000000000000        0.0000000000000000        0.0000000000000000     
  -1.5330216490340735E-003   1.2180814466887303E-003   0.0000000000000000     
  -3.0952189472984327E-003   2.8218280398376746E-003   0.0000000000000000     
  -4.6865918947930794E-003   4.8112397794468327E-003   0.0000000000000000     
  -6.3071404915180087E-003   7.1863166655162019E-003   0.0000000000000000     
   0.0000000000000000        0.0000000000000000        0.0000000000000000     
  -1.7963274338978028E-003   1.2773083515432535E-003   0.0000000000000000     
  -3.6171975159202357E-003   2.9401747070955339E-003   0.0000000000000000     
  -5.4626102460672990E-003   4.9885990666568413E-003   0.0000000000000000     
  -7.3325656243389903E-003   7.4225814302271743E-003   0.0000000000000000     
  -3.4730248748817629E-003   6.7071513369914501E-003   0.0000000000000000     
  -4.3805592587783243E-003   9.2900180665292809E-003   0.0000000000000000     
  -5.2915412814466692E-003   1.2175328576534868E-002   0.0000000000000000     
  -6.2059709428867980E-003   1.5363082867008205E-002   0.0000000000000000     
  -7.1238482430987125E-003   1.8853280937949302E-002   0.0000000000000000     
  -4.3773701167893961E-003   6.8286016188983381E-003   0.0000000000000000     
  -5.5251971011481696E-003   9.4476631299915612E-003   0.0000000000000000     
  -6.6748213493676833E-003   1.2364145270943167E-002   0.0000000000000000     
  -7.8262428614479362E-003   1.5578048041753159E-002   0.0000000000000000     
  -8.9794616373889274E-003   1.9089371442421531E-002   0.0000000000000000     
  -5.3220753223348115E-003   6.9883233950732556E-003   0.0000000000000000     
  -6.7133240952886898E-003   9.6502766872583936E-003   0.0000000000000000     
  -8.1069964714072500E-003   1.2604591091488728E-002   0.0000000000000000     
  -9.5030924506904861E-003   1.5851266607764262E-002   0.0000000000000000     
  -1.0901612033138402E-002   1.9390303236084989E-002   0.0000000000000000     
  -6.3071404915180087E-003   7.1863166655162019E-003   0.0000000000000000     
  -7.9449402411998840E-003   9.8978587383297765E-003   0.0000000000000000     
  -9.5880666475653652E-003   1.2896666038171547E-002   0.0000000000000000     
  -1.1236519710614444E-002   1.6182738565041509E-002   0.0000000000000000     
  -1.2890299430347130E-002   1.9756076318939667E-002   0.0000000000000000     
  -7.3325656243389903E-003   7.4225814302271743E-003   0.0000000000000000     
  -9.2200455388817531E-003   1.0190409283205710E-002   0.0000000000000000     
  -1.1118031877842030E-002   1.3240370110991622E-002   0.0000000000000000     
  -1.3026524641219818E-002   1.6572463913584915E-002   0.0000000000000000     
  -1.4945523829015119E-002   2.0186690690985578E-002   0.0000000000000000     
  -7.1238482430987125E-003   1.8853280937949302E-002   0.0000000000000000     
  -8.0388043870617300E-003   2.2617163742848043E-002   0.0000000000000000     
  -8.9444705797551774E-003   2.6625972235194337E-002   0.0000000000000000     
  -9.8408468211790487E-003   3.0879706414988169E-002   0.0000000000000000     
  -1.0727933111333349E-002   3.5378366282229547E-002   0.0000000000000000     
  -8.9794616373889274E-003   1.9089371442421531E-002   0.0000000000000000     
  -1.0127703350838490E-002   2.2870647277454942E-002   0.0000000000000000     
  -1.1264193675444451E-002   2.6894407351360047E-002   0.0000000000000000     
  -1.2388932611206811E-002   3.1160651664136830E-002   0.0000000000000000     
  -1.3501920158125572E-002   3.5669380215785307E-002   0.0000000000000000     
  -1.0901612033138402E-002   1.9390303236084989E-002   0.0000000000000000     
  -1.2292609520708079E-002   2.3194342913665157E-002   0.0000000000000000     
  -1.3666139215356596E-002   2.7236027577719008E-002   0.0000000000000000     
  -1.5022201117083959E-002   3.1515357228246547E-002   0.0000000000000000     
  -1.6360795225890165E-002   3.6032331865247770E-002   0.0000000000000000     
  -1.2890299430347130E-002   1.9756076318939667E-002   0.0000000000000000     
  -1.4533522896670498E-002   2.3588250651478689E-002   0.0000000000000000     
  -1.6150307199491617E-002   2.7650832914271239E-002   0.0000000000000000     
  -1.7740652338810493E-002   3.1943823107317311E-002   0.0000000000000000     
  -1.9304558314627126E-002   3.6467221230616916E-002   0.0000000000000000     
  -1.4945523829015119E-002   2.0186690690985578E-002   0.0000000000000000     
  -1.6850443478725750E-002   2.4052370490895539E-002   0.0000000000000000     
  -1.8716697627849513E-002   2.8138823361016727E-002   0.0000000000000000     
  -2.0544286276386419E-002   3.2446049301349131E-002   0.0000000000000000     
  -2.2333209424336462E-002   3.6974048311892750E-002   0.0000000000000000     
  -1.0727933111333349E-002   3.5378366282229547E-002   0.0000000000000000     
  -1.1603686628200875E-002   4.0101806495898944E-002   0.0000000000000000     
  -1.2466064549764427E-002   4.5029881714976815E-002   0.0000000000000000     
  -1.3315066876024005E-002   5.0162591939463159E-002   0.0000000000000000     
  -1.4150693606979611E-002   5.5499937169357964E-002   0.0000000000000000     
  -1.3501920158125572E-002   3.5669380215785307E-002   0.0000000000000000     
  -1.4599830743778783E-002   4.0401142156096415E-002   0.0000000000000000     
  -1.5679338795744482E-002   4.5336486634861048E-002   0.0000000000000000     
  -1.6740444314022680E-002   5.0475413652079262E-002   0.0000000000000000     
  -1.7783147298613369E-002   5.5817923207751009E-002   0.0000000000000000     
  -1.6360795225890165E-002   3.6032331865247770E-002   0.0000000000000000     
  -1.7679251177031688E-002   4.0769899667174481E-002   0.0000000000000000     
  -1.8974898605765005E-002   4.5711008812478547E-002   0.0000000000000000     
  -2.0247737512090122E-002   5.0855659301159921E-002   0.0000000000000000     
  -2.1497767896007030E-002   5.6203851133218644E-002   0.0000000000000000     
  -1.9304558314627126E-002   3.6467221230616916E-002   0.0000000000000000     
  -2.0841947927959601E-002   4.1208079029133184E-002   0.0000000000000000     
  -2.2352743979826003E-002   4.6153448247829257E-002   0.0000000000000000     
  -2.3836946470226331E-002   5.1303328886705142E-002   0.0000000000000000     
  -2.5294555399160586E-002   5.6657720945760839E-002   0.0000000000000000     
  -2.2333209424336462E-002   3.6974048311892750E-002   0.0000000000000000     
  -2.4087920996562519E-002   4.1715680241972482E-002   0.0000000000000000     
  -2.5812874917927473E-002   4.6663804940913205E-002   0.0000000000000000     
  -2.7508071188431314E-002   5.1818422408714912E-002   0.0000000000000000     
  -2.9173509808074045E-002   5.7179532645377625E-002   0.0000000000000000     
  -1.4150693606979611E-002   5.5499937169357964E-002   0.0000000000000000     
  -1.4969254945638005E-002   6.1047423008549366E-002   0.0000000000000000     
  -1.5767061095005960E-002   6.6810555060925453E-002   0.0000000000000000     
  -1.6544112055083465E-002   7.2789333326486252E-002   0.0000000000000000     
  -1.7300407825870532E-002   7.8983757805231730E-002   0.0000000000000000     
  -1.7783147298613369E-002   5.5817923207751009E-002   0.0000000000000000     
  -1.8803826140669500E-002   6.1369287382243932E-002   0.0000000000000000     
  -1.9798859231344040E-002   6.7134778255925648E-002   0.0000000000000000     
  -2.0768246570636969E-002   7.3114395828796155E-002   0.0000000000000000     
  -2.1711988158548298E-002   7.9308140100855462E-002   0.0000000000000000     
  -2.1497767896007030E-002   5.6203851133218644E-002   0.0000000000000000     
  -2.2720732025059465E-002   6.1759801743483445E-002   0.0000000000000000     
  -2.3912372166791162E-002   6.7527728566783157E-002   0.0000000000000000     
  -2.5072688321202134E-002   7.3507631603117768E-002   0.0000000000000000     
  -2.6201680488292366E-002   7.9699510852487249E-002   0.0000000000000000     
  -2.5294555399160586E-002   5.6657720945760839E-002   0.0000000000000000     
  -2.6719972598807890E-002   6.2218966092267937E-002   0.0000000000000000     
  -2.8107599901347341E-002   6.7989405993497995E-002   0.0000000000000000     
  -2.9457437306778949E-002   7.3969040649451090E-002   0.0000000000000000     
  -3.0769484815102718E-002   8.0157870060127132E-002   0.0000000000000000     
  -2.9173509808074045E-002   5.7179532645377625E-002   0.0000000000000000     
  -3.0801547861914771E-002   6.2746780428597368E-002   0.0000000000000000     
  -3.2384542435012563E-002   6.8519810536070189E-002   0.0000000000000000     
  -3.3922493527367426E-002   7.4498622967796108E-002   0.0000000000000000     
  -3.5415401138979369E-002   8.0683217723775111E-002   0.0000000000000000     
  -1.7300407825870532E-002   7.8983757805231730E-002   0.0000000000000000     
  -1.8031290867803532E-002   8.5367507740073664E-002   0.0000000000000000     
  -1.8732103641318852E-002   9.1914262373923819E-002   0.0000000000000000     
  -1.9402846146416488E-002   9.8624021706782153E-002   0.0000000000000000     
  -2.0043518383096443E-002  0.10549678573864872        0.0000000000000000     
  -2.1711988158548298E-002   7.9308140100855462E-002   0.0000000000000000     
  -2.2624028212256956E-002   8.5690136480254975E-002   0.0000000000000000     
  -2.3498310948941864E-002   9.2234510375146156E-002   0.0000000000000000     
  -2.4334836368603029E-002   9.8941261785528978E-002   0.0000000000000000     
  -2.5133604471240446E-002  0.10581039071140347        0.0000000000000000     
  -2.6201680488292366E-002   7.9699510852487249E-002   0.0000000000000000     
  -2.7292451440875765E-002   8.6078235389171628E-002   0.0000000000000000     
  -2.8338103951766253E-002   9.2618674287450853E-002   0.0000000000000000     
  -2.9338638020963807E-002   9.9320827547324964E-002   0.0000000000000000     
  -3.0294053648468450E-002  0.10618469516879391        0.0000000000000000     
  -3.0769484815102718E-002   8.0157870060127132E-002   0.0000000000000000     
  -3.2036560553659964E-002   8.6531804466823611E-002   0.0000000000000000     
  -3.3251482649792011E-002   9.3066754110837938E-002   0.0000000000000000     
  -3.4414251103498841E-002   9.9762718992170055E-002   0.0000000000000000     
  -3.5524865914780462E-002  0.10661969911082003        0.0000000000000000     
  -3.5415401138979369E-002   8.0683217723775111E-002   0.0000000000000000     
  -3.6856355550609544E-002   8.7050843713210938E-002   0.0000000000000000     
  -3.8238447043019125E-002   9.3578749845307327E-002   0.0000000000000000     
  -3.9561675616208096E-002  0.10026693612006428        0.0000000000000000     
  -4.0826041270176465E-002  0.10711540253748181        0.0000000000000000     
  -2.0043518383096443E-002  0.10549678573864872        0.0000000000000000     
  -2.0655591154508681E-002  0.11251883822299050        0.0000000000000000     
  -2.1240535263803168E-002  0.11967646291327452        0.0000000000000000     
  -2.1798350710979901E-002  0.12696965980950081        0.0000000000000000     
  -2.2329037496038880E-002  0.13439842891166934        0.0000000000000000     
  -2.5133604471240446E-002  0.10581039071140347        0.0000000000000000     
  -2.5896355355671502E-002  0.11282937154651927        0.0000000000000000     
  -2.6624829120713574E-002  0.11998567868462612        0.0000000000000000     
  -2.7319025766366668E-002  0.12727931212572396        0.0000000000000000     
  -2.7978945292630782E-002  0.13471027186981283        0.0000000000000000     
  -3.0294053648468450E-002  0.10618469516879391        0.0000000000000000     
  -3.1206340930076990E-002  0.11319853461307493        0.0000000000000000     
  -3.2077489961586242E-002  0.12035060334138527        0.0000000000000000     
  -3.2907500742996205E-002  0.12764090135372491        0.0000000000000000     
  -3.3696373274306898E-002  0.13506942865009386        0.0000000000000000     
  -3.5524865914780462E-002  0.10661969911082003        0.0000000000000000     
  -3.6585547877725146E-002  0.11362632742265745        0.0000000000000000     
  -3.7598517786421162E-002  0.12077123688355200        0.0000000000000000     
  -3.8563775640868526E-002  0.12805442749350368        0.0000000000000000     
  -3.9481321441067231E-002  0.13547589925251247        0.0000000000000000     
  -4.0826041270176465E-002  0.10711540253748181        0.0000000000000000     
  -4.2033976198615972E-002  0.11411274997526685        0.0000000000000000     
  -4.3187912595218363E-002  0.12124757931112631        0.0000000000000000     
  -4.4287850459983631E-002  0.12851989054506022        0.0000000000000000     
  -4.5333789792911784E-002  0.13592968367706859        0.0000000000000000     
  -2.2329037496038880E-002  0.13439842891166934        0.0000000000000000     
  -2.2812606963307901E-002  0.14184082459987801        0.0000000000000000     
  -2.3229070457114774E-002  0.14917490125422464        0.0000000000000000     
  -2.3578427977459484E-002  0.15640065887470925        0.0000000000000000     
  -2.3860679524342034E-002  0.16351809746133183        0.0000000000000000     
  -2.7978945292630782E-002  0.13471027186981283        0.0000000000000000     
  -2.8580001455994916E-002  0.14215873955629910        0.0000000000000000     
  -2.9097608012948074E-002  0.14950489682458920        0.0000000000000000     
  -2.9531764963490262E-002  0.15674874367468306        0.0000000000000000     
  -2.9882472307621477E-002  0.16389028010658072        0.0000000000000000     
  -3.3696373274306898E-002  0.13506942865009386        0.0000000000000000     
  -3.4413201434864635E-002  0.14252069342995488        0.0000000000000000     
  -3.5027079104015764E-002  0.14987920389277057        0.0000000000000000     
  -3.5538006281760293E-002  0.15714496003854103        0.0000000000000000     
  -3.5945982968098200E-002  0.16431796186726627        0.0000000000000000     
  -3.9481321441067231E-002  0.13547589925251247        0.0000000000000000     
  -4.0312206899917068E-002  0.14292668622084526        0.0000000000000000     
  -4.1017483730317855E-002  0.15029782245876880        0.0000000000000000     
  -4.1597151932269559E-002  0.15758930796628323        0.0000000000000000     
  -4.2051211505772214E-002  0.16480114274338853        0.0000000000000000     
  -4.5333789792911784E-002  0.13592968367706859        0.0000000000000000     
  -4.6277017851152208E-002  0.14337671792897022        0.0000000000000000     
  -4.7068821891854302E-002  0.15076075252258386        0.0000000000000000     
  -4.7709201915018068E-002  0.15808178745790966        0.0000000000000000     
  -4.8198157920643497E-002  0.16533982273494746        0.0000000000000000     
   0.0000000000000000        0.0000000000000000        0.0000000000000000     
  -1.7963274338978028E-003   1.2773083515432535E-003   0.0000000000000000     
  -3.6171975159202357E-003   2.9401747070955339E-003   0.0000000000000000     
  -5.4626102460672990E-003   4.9885990666568413E-003   0.0000000000000000     
  -7.3325656243389903E-003   7.4225814302271743E-003   0.0000000000000000     
   0.0000000000000000        0.0000000000000000        0.0000000000000000     
  -2.0675890320640518E-003   1.3553129191709429E-003   0.0000000000000000     
  -4.1602237385784044E-003   3.0949803964517206E-003   0.0000000000000000     
  -6.2779041195430603E-003   5.2190024318423331E-003   0.0000000000000000     
  -8.4206301749580152E-003   7.7273790253427812E-003   0.0000000000000000     
   0.0000000000000000        0.0000000000000000        0.0000000000000000     
  -2.3385978960128581E-003   1.4591654209565256E-003   0.0000000000000000     
  -4.7170661276063697E-003   3.3007156924419719E-003   0.0000000000000000     
  -7.1354046947805314E-003   5.5246508144563382E-003   0.0000000000000000     
  -9.5936135975353450E-003   8.1309707869996264E-003   0.0000000000000000     
   0.0000000000000000        0.0000000000000000        0.0000000000000000     
  -2.6093540257442240E-003   1.5888658569000020E-003   0.0000000000000000     
  -5.2877246830041287E-003   3.5573805950662868E-003   0.0000000000000000     
  -8.0351119717797133E-003   5.9055442144988549E-003   0.0000000000000000     
  -1.0851515892070977E-002   8.6333567151977066E-003   0.0000000000000000     
   0.0000000000000000        0.0000000000000000        0.0000000000000000     
  -2.8798574212581477E-003   1.7444142270013716E-003   0.0000000000000000     
  -5.8721994047716839E-003   3.8649751043246666E-003   0.0000000000000000     
  -8.9770259505406076E-003   6.3616826319698849E-003   0.0000000000000000     
  -1.2194337058564916E-002   9.2345368099370287E-003   0.0000000000000000     
  -7.3325656243389903E-003   7.4225814302271743E-003   0.0000000000000000     
  -9.2200455388817531E-003   1.0190409283205710E-002   0.0000000000000000     
  -1.1118031877842030E-002   1.3240370110991622E-002   0.0000000000000000     
  -1.3026524641219818E-002   1.6572463913584915E-002   0.0000000000000000     
  -1.4945523829015119E-002   2.0186690690985578E-002   0.0000000000000000     
  -8.4206301749580152E-003   7.7273790253427812E-003   0.0000000000000000     
  -1.0580584642090936E-002   1.0563659144235311E-002   0.0000000000000000     
  -1.2749950258209478E-002   1.3671391755802167E-002   0.0000000000000000     
  -1.4928727023313645E-002   1.7050576860043354E-002   0.0000000000000000     
  -1.7116914937403440E-002   2.0701214456958866E-002   0.0000000000000000     
  -9.5936135975353450E-003   8.1309707869996264E-003   0.0000000000000000     
  -1.2068502204584062E-002   1.1053339143767691E-002   0.0000000000000000     
  -1.4536879884639937E-002   1.4225419418456389E-002   0.0000000000000000     
  -1.6998746637702962E-002   1.7647211611065722E-002   0.0000000000000000     
  -1.9454102463773146E-002   2.1318715721595691E-002   0.0000000000000000     
  -1.0851515892070977E-002   8.6333567151977066E-003   0.0000000000000000     
  -1.3683798226361139E-002   1.1659449281802847E-002   0.0000000000000000     
  -1.6478820757133399E-002   1.4902453098954284E-002   0.0000000000000000     
  -1.9236583484387778E-002   1.8362368166652019E-002   0.0000000000000000     
  -2.1957086408124257E-002   2.2039194484896048E-002   0.0000000000000000     
  -1.2194337058564916E-002   9.2345368099370287E-003   0.0000000000000000     
  -1.5426472707422159E-002   1.2381989558340788E-002   0.0000000000000000     
  -1.8575772875689879E-002   1.5702492797295860E-002   0.0000000000000000     
  -2.1642237563368083E-002   1.9196046526802246E-002   0.0000000000000000     
  -2.4625866770456757E-002   2.2862650746859944E-002   0.0000000000000000     
  -1.4945523829015119E-002   2.0186690690985578E-002   0.0000000000000000     
  -1.6850443478725750E-002   2.4052370490895539E-002   0.0000000000000000     
  -1.8716697627849513E-002   2.8138823361016727E-002   0.0000000000000000     
  -2.0544286276386419E-002   3.2446049301349131E-002   0.0000000000000000     
  -2.2333209424336462E-002   3.6974048311892750E-002   0.0000000000000000     
  -1.7116914937403440E-002   2.0701214456958866E-002   0.0000000000000000     
  -1.9284083725523742E-002   2.4593980248334417E-002   0.0000000000000000     
  -2.1399803112719450E-002   2.8699549935955720E-002   0.0000000000000000     
  -2.3464073098990554E-002   3.3017923519822766E-002   0.0000000000000000     
  -2.5476893684337074E-002   3.7549100999935567E-002   0.0000000000000000     
  -1.9454102463773146E-002   2.1318715721595691E-002   0.0000000000000000     
  -2.1875156095714391E-002   2.5220357740214024E-002   0.0000000000000000     
  -2.4234116266390594E-002   2.9332563657088456E-002   0.0000000000000000     
  -2.6530982975801743E-002   3.3655333472218996E-002   0.0000000000000000     
  -2.8765756223947860E-002   3.8188667185605631E-002   0.0000000000000000     
  -2.1957086408124257E-002   2.2039194484896048E-002   0.0000000000000000     
  -2.4623660589297689E-002   2.5931502966534358E-002   0.0000000000000000     
  -2.7219637088862936E-002   3.0037864524414946E-002   0.0000000000000000     
  -2.9745015906819980E-002   3.4358279158537806E-002   0.0000000000000000     
  -3.2199797043168832E-002   3.8892746868902935E-002   0.0000000000000000     
  -2.4625866770456757E-002   2.2862650746859944E-002   0.0000000000000000     
  -2.7529597206273647E-002   2.6727415927295429E-002   0.0000000000000000     
  -3.0356365580136487E-002   3.0815452537935183E-002   0.0000000000000000     
  -3.3106171892045268E-002   3.5126760578779212E-002   0.0000000000000000     
  -3.5779016141999992E-002   3.9661340049827506E-002   0.0000000000000000     
  -2.2333209424336462E-002   3.6974048311892750E-002   0.0000000000000000     
  -2.4087920996562519E-002   4.1715680241972482E-002   0.0000000000000000     
  -2.5812874917927473E-002   4.6663804940913205E-002   0.0000000000000000     
  -2.7508071188431314E-002   5.1818422408714912E-002   0.0000000000000000     
  -2.9173509808074045E-002   5.7179532645377625E-002   0.0000000000000000     
  -2.5476893684337074E-002   3.7549100999935567E-002   0.0000000000000000     
  -2.7447286311071559E-002   4.2290795906626773E-002   0.0000000000000000     
  -2.9384272421506603E-002   4.7240721770229012E-002   0.0000000000000000     
  -3.1287852015642201E-002   5.2398878590742305E-002   0.0000000000000000     
  -3.3158025093478344E-002   5.7765266368166632E-002   0.0000000000000000     
  -2.8765756223947860E-002   3.8188667185605631E-002   0.0000000000000000     
  -3.0950159799717842E-002   4.2931518624030385E-002   0.0000000000000000     
  -3.3095917492000602E-002   4.7882841614275279E-002   0.0000000000000000     
  -3.5203029300796121E-002   5.3042636156340320E-002   0.0000000000000000     
  -3.7271495226104422E-002   5.8410902250225494E-002   0.0000000000000000     
  -3.2199797043168832E-002   3.8892746868902935E-002   0.0000000000000000     
  -3.4596541462501365E-002   4.3637848394183353E-002   0.0000000000000000     
  -3.6947810129409453E-002   4.8590164473052033E-002   0.0000000000000000     
  -3.9253603043893089E-002   5.3749695105508991E-002   0.0000000000000000     
  -4.1513920205952272E-002   5.9116440291554231E-002   0.0000000000000000     
  -3.5779016141999992E-002   3.9661340049827506E-002   0.0000000000000000     
  -3.8386431299422138E-002   4.4409785217085648E-002   0.0000000000000000     
  -4.0939950333733169E-002   4.9362690346559261E-002   0.0000000000000000     
  -4.3439573244933090E-002   5.4520055438248317E-002   0.0000000000000000     
  -4.5885300033021895E-002   5.9881880492152838E-002   0.0000000000000000     
  -2.9173509808074045E-002   5.7179532645377625E-002   0.0000000000000000     
  -3.0801547861914771E-002   6.2746780428597368E-002   0.0000000000000000     
  -3.2384542435012563E-002   6.8519810536070189E-002   0.0000000000000000     
  -3.3922493527367426E-002   7.4498622967796108E-002   0.0000000000000000     
  -3.5415401138979369E-002   8.0683217723775111E-002   0.0000000000000000     
  -3.3158025093478344E-002   5.7765266368166632E-002   0.0000000000000000     
  -3.4985136458537507E-002   6.3336743290422520E-002   0.0000000000000000     
  -3.6759530914342128E-002   6.9110167545430506E-002   0.0000000000000000     
  -3.8481208460892195E-002   7.5085539133190590E-002   0.0000000000000000     
  -4.0150169098187735E-002   8.1262858053702772E-002   0.0000000000000000     
  -3.7271495226104422E-002   5.8410902250225494E-002   0.0000000000000000     
  -3.9290417032833487E-002   6.3982353215694190E-002   0.0000000000000000     
  -4.1248896485891313E-002   6.9751702372509800E-002   0.0000000000000000     
  -4.3146933585277901E-002   7.5718949720672307E-002   0.0000000000000000     
  -4.4984528330993243E-002   8.1884095260181727E-002   0.0000000000000000     
  -4.1513920205952272E-002   5.9116440291554231E-002   0.0000000000000000     
  -4.3717389584802729E-002   6.4683610204412378E-002   0.0000000000000000     
  -4.5852639149660146E-002   7.0444415017308040E-002   0.0000000000000000     
  -4.7919668900524529E-002   7.6398854730241245E-002   0.0000000000000000     
  -4.9918478837395891E-002   8.2546929343211978E-002   0.0000000000000000     
  -4.5885300033021895E-002   5.9881880492152838E-002   0.0000000000000000     
  -4.8266054114445199E-002   6.5440514256577056E-002   0.0000000000000000     
  -5.0570758905648598E-002   7.1188305479825256E-002   0.0000000000000000     
  -5.2799414406632092E-002   7.7125254161897416E-002   0.0000000000000000     
  -5.4952020617395680E-002   8.3251360302793537E-002   0.0000000000000000     
  -3.5415401138979369E-002   8.0683217723775111E-002   0.0000000000000000     
  -3.6856355550609544E-002   8.7050843713210938E-002   0.0000000000000000     
  -3.8238447043019125E-002   9.3578749845307327E-002   0.0000000000000000     
  -3.9561675616208096E-002  0.10026693612006428        0.0000000000000000     
  -4.0826041270176465E-002  0.10711540253748181        0.0000000000000000     
  -4.0150169098187735E-002   8.1262858053702772E-002   0.0000000000000000     
  -4.1759868341636308E-002   8.7621243683926722E-002   0.0000000000000000     
  -4.3303761706645474E-002   9.4139815400822169E-002   0.0000000000000000     
  -4.4781849193215241E-002  0.10081857320438914        0.0000000000000000     
  -4.6194130801345615E-002  0.10765751709462758        0.0000000000000000     
  -4.4984528330993243E-002   8.1884095260181727E-002   0.0000000000000000     
  -4.6755130836652031E-002   8.8228894934564109E-002   0.0000000000000000     
  -4.8452191215868926E-002   9.4735104687345542E-002   0.0000000000000000     
  -5.0075709468643932E-002  0.10140272451852607        0.0000000000000000     
  -5.1625685594977051E-002  0.10823175442810563        0.0000000000000000     
  -4.9918478837395891E-002   8.2546929343211978E-002   0.0000000000000000     
  -5.1842143035656707E-002   8.8873797465123097E-002   0.0000000000000000     
  -5.3683735570689457E-002   9.5364617704877461E-002   0.0000000000000000     
  -5.5443256442494135E-002  0.10201939006247508        0.0000000000000000     
  -5.7120705651070774E-002  0.10883811453791593        0.0000000000000000     
  -5.4952020617395680E-002   8.3251360302793537E-002   0.0000000000000000     
  -5.7020904938650356E-002   8.9555951275603674E-002   0.0000000000000000     
  -5.8998394771107091E-002   9.6028354453417869E-002   0.0000000000000000     
  -6.0884490114765898E-002  0.10266856983623616        0.0000000000000000     
  -6.2679190969626777E-002  0.10947659742405851        0.0000000000000000     
  -4.0826041270176465E-002  0.10711540253748181        0.0000000000000000     
  -4.2033976198615972E-002  0.11411274997526685        0.0000000000000000     
  -4.3187912595218363E-002  0.12124757931112631        0.0000000000000000     
  -4.4287850459983631E-002  0.12851989054506022        0.0000000000000000     
  -4.5333789792911784E-002  0.13592968367706859        0.0000000000000000     
  -4.6194130801345615E-002  0.10765751709462758        0.0000000000000000     
  -4.7543755192477555E-002  0.11464432957557154        0.0000000000000000     
  -4.8833871028052048E-002  0.12176669315125502        0.0000000000000000     
  -5.0064478308069066E-002  0.12902460782167799        0.0000000000000000     
  -5.1235577032528651E-002  0.13641807358684047        0.0000000000000000     
  -5.1625685594977051E-002  0.10823175442810563        0.0000000000000000     
  -5.3107014159037985E-002  0.11520759352823999        0.0000000000000000     
  -5.4524589724996443E-002  0.12231564093108488        0.0000000000000000     
  -5.5878412292852425E-002  0.12955589663664030        0.0000000000000000     
  -5.7168481862605917E-002  0.13692836064490627        0.0000000000000000     
  -5.7120705651070774E-002  0.10883811453791593        0.0000000000000000     
  -5.8723753098297277E-002  0.11580254183327217        0.0000000000000000     
  -6.0260068686051570E-002  0.12289442265061595        0.0000000000000000     
  -6.1729652414333681E-002  0.13011375698994723        0.0000000000000000     
  -6.3132504283143612E-002  0.13746054485126599        0.0000000000000000     
  -6.2679190969626777E-002  0.10947659742405851        0.0000000000000000     
  -6.4393972010255401E-002  0.11642917449066811        0.0000000000000000     
  -6.6040307911217414E-002  0.12350303830984818        0.0000000000000000     
  -6.7618198672512855E-002  0.13069818888159868        0.0000000000000000     
  -6.9127644294141699E-002  0.13801462620591964        0.0000000000000000     
  -4.5333789792911784E-002  0.13592968367706859        0.0000000000000000     
  -4.6277017851152208E-002  0.14337671792897022        0.0000000000000000     
  -4.7068821891854302E-002  0.15076075252258386        0.0000000000000000     
  -4.7709201915018068E-002  0.15808178745790966        0.0000000000000000     
  -4.8198157920643497E-002  0.16533982273494746        0.0000000000000000     
  -5.1235577032528651E-002  0.13641807358684047        0.0000000000000000     
  -5.2288754011607756E-002  0.14385361188955820        0.0000000000000000     
  -5.3165596055483391E-002  0.15123774417264682        0.0000000000000000     
  -5.3866103164155549E-002  0.15857047043610639        0.0000000000000000     
  -5.4390275337624236E-002  0.16585179067993688        0.0000000000000000     
  -5.7168481862605917E-002  0.13692836064490627        0.0000000000000000     
  -5.8328535104321413E-002  0.14434019143783747        0.0000000000000000     
  -5.9292308688063351E-002  0.15169854749738856        0.0000000000000000     
  -6.0059802613831745E-002  0.15900342882355961        0.0000000000000000     
  -6.0631016881626601E-002  0.16625483541635055        0.0000000000000000     
  -6.3132504283143612E-002  0.13746054485126599        0.0000000000000000     
  -6.4396361129293159E-002  0.14483645657380806        0.0000000000000000     
  -6.5448959789594169E-002  0.15214316249680915        0.0000000000000000     
  -6.6290300264046656E-002  0.15938066262026934        0.0000000000000000     
  -6.6920382552650565E-002  0.16654895694418850        0.0000000000000000     
  -6.9127644294141699E-002  0.13801462620591964        0.0000000000000000     
  -7.0492232086523013E-002  0.14534240729746994        0.0000000000000000     
  -7.1635549360075865E-002  0.15257158917090860        0.0000000000000000     
  -7.2557596114800241E-002  0.15970217182623553        0.0000000000000000     
  -7.3258372350696169E-002  0.16673415526345073        0.0000000000000000     
   0.0000000000000000        0.0000000000000000        0.0000000000000000     
  -2.8798574212581477E-003   1.7444142270013716E-003   0.0000000000000000     
  -5.8721994047716839E-003   3.8649751043246666E-003   0.0000000000000000     
  -8.9770259505406076E-003   6.3616826319698849E-003   0.0000000000000000     
  -1.2194337058564916E-002   9.2345368099370287E-003   0.0000000000000000     
   0.0000000000000000        0.0000000000000000        0.0000000000000000     
  -3.2839315610774821E-003   1.9986368604896030E-003   0.0000000000000000     
  -6.6784186287513767E-003   4.3310488527561909E-003   0.0000000000000000     
  -1.0183461203021682E-002   6.9972359767997636E-003   0.0000000000000000     
  -1.3799059283888400E-002   9.9971982326203176E-003   0.0000000000000000     
   0.0000000000000000        0.0000000000000000        0.0000000000000000     
  -3.9553999237250783E-003   2.4243600865936641E-003   0.0000000000000000     
  -7.9143106907855493E-003   5.0631514728999381E-003   0.0000000000000000     
  -1.1876732301181414E-002   7.9163741589188211E-003   0.0000000000000000     
  -1.5842664754912670E-002   1.0984028144650311E-002   0.0000000000000000     
   0.0000000000000000        0.0000000000000000        0.0000000000000000     
  -4.8942625092009357E-003   3.0215839053135555E-003   0.0000000000000000     
  -9.5798755908742036E-003   6.0612829647559083E-003   0.0000000000000000     
  -1.4056839245019799E-002   9.1190971783270593E-003   0.0000000000000000     
  -1.8325153471637733E-002   1.2195026546027004E-002   0.0000000000000000     
   0.0000000000000000        0.0000000000000000        0.0000000000000000     
  -6.1005193175050548E-003   3.7903083166492759E-003   0.0000000000000000     
  -1.1675113329017337E-002   7.3254433283241015E-003   0.0000000000000000     
  -1.6723782034536845E-002   1.0605405035024478E-002   0.0000000000000000     
  -2.1246525434063579E-002   1.3630193436750402E-002   0.0000000000000000     
  -1.2194337058564916E-002   9.2345368099370287E-003   0.0000000000000000     
  -1.5426472707422159E-002   1.2381989558340788E-002   0.0000000000000000     
  -1.8575772875689879E-002   1.5702492797295860E-002   0.0000000000000000     
  -2.1642237563368083E-002   1.9196046526802246E-002   0.0000000000000000     
  -2.4625866770456757E-002   2.2862650746859944E-002   0.0000000000000000     
  -1.3799059283888400E-002   9.9971982326203176E-003   0.0000000000000000     
  -1.7408136186290883E-002   1.3233043507636023E-002   0.0000000000000000     
  -2.0893615225168489E-002   1.6606879689265042E-002   0.0000000000000000     
  -2.4255496400521208E-002   2.0118706777507368E-002   0.0000000000000000     
  -2.7493779712349047E-002   2.3768524772363013E-002   0.0000000000000000     
  -1.5842664754912670E-002   1.0984028144650311E-002   0.0000000000000000     
  -1.9740399201491069E-002   1.4224694663943068E-002   0.0000000000000000     
  -2.3498226790428338E-002   1.7596954950645751E-002   0.0000000000000000     
  -2.7116147521724487E-002   2.1100809004758359E-002   0.0000000000000000     
  -3.0594161395379516E-002   2.4736256826280896E-002   0.0000000000000000     
  -1.8325153471637733E-002   1.2195026546027004E-002   0.0000000000000000     
  -2.2423261753022703E-002   1.5356943027261927E-002   0.0000000000000000     
  -2.6389607571469437E-002   1.8672718581437996E-002   0.0000000000000000     
  -3.0224190926977920E-002   2.2142353208555218E-002   0.0000000000000000     
  -3.3927011819548158E-002   2.5765846908613589E-002   0.0000000000000000     
  -2.1246525434063579E-002   1.3630193436750402E-002   0.0000000000000000     
  -2.5456723840885803E-002   1.6629788597592596E-002   0.0000000000000000     
  -2.9567757568291778E-002   1.9834170581641778E-002   0.0000000000000000     
  -3.3579626616281499E-002   2.3243339388897950E-002   0.0000000000000000     
  -3.7492330984854980E-002   2.6857295019361106E-002   0.0000000000000000     
  -2.4625866770456757E-002   2.2862650746859944E-002   0.0000000000000000     
  -2.7529597206273647E-002   2.6727415927295429E-002   0.0000000000000000     
  -3.0356365580136487E-002   3.0815452537935183E-002   0.0000000000000000     
  -3.3106171892045268E-002   3.5126760578779212E-002   0.0000000000000000     
  -3.5779016141999992E-002   3.9661340049827506E-002   0.0000000000000000     
  -2.7493779712349047E-002   2.3768524772363013E-002   0.0000000000000000     
  -3.0629322524093963E-002   2.7603036230472503E-002   0.0000000000000000     
  -3.3682982199197908E-002   3.1668943708476394E-002   0.0000000000000000     
  -3.6654758737660866E-002   3.5966247206374674E-002   0.0000000000000000     
  -3.9544652139482855E-002   4.0494946724167348E-002   0.0000000000000000     
  -3.0594161395379516E-002   2.4736256826280896E-002   0.0000000000000000     
  -3.3959193120210326E-002   2.8553303484040869E-002   0.0000000000000000     
  -3.7238167405033835E-002   3.2601954046865798E-002   0.0000000000000000     
  -4.0431084249850056E-002   3.6882208514755689E-002   0.0000000000000000     
  -4.3537943654658962E-002   4.1394066887710530E-002   0.0000000000000000     
  -3.3927011819548158E-002   2.5765846908613589E-002   0.0000000000000000     
  -3.7519208994622751E-002   2.9578217688000518E-002   0.0000000000000000     
  -4.1021921197644313E-002   3.3614483553103411E-002   0.0000000000000000     
  -4.4435148428612820E-002   3.7874644503922236E-002   0.0000000000000000     
  -4.7758890687528296E-002   4.2358700540457039E-002   0.0000000000000000     
  -3.7492330984854980E-002   2.6857295019361106E-002   0.0000000000000000     
  -4.1309370147331236E-002   3.0677778842351452E-002   0.0000000000000000     
  -4.5034243577029301E-002   3.4706532227189203E-002   0.0000000000000000     
  -4.8666951273949183E-002   3.8943555173874343E-002   0.0000000000000000     
  -5.2207493238090867E-002   4.3388847682406889E-002   0.0000000000000000     
  -3.5779016141999992E-002   3.9661340049827506E-002   0.0000000000000000     
  -3.8386431299422138E-002   4.4409785217085648E-002   0.0000000000000000     
  -4.0939950333733169E-002   4.9362690346559261E-002   0.0000000000000000     
  -4.3439573244933090E-002   5.4520055438248317E-002   0.0000000000000000     
  -4.5885300033021895E-002   5.9881880492152838E-002   0.0000000000000000     
  -3.9544652139482855E-002   4.0494946724167348E-002   0.0000000000000000     
  -4.2360896771237687E-002   4.5240513906722367E-002   0.0000000000000000     
  -4.5111726999499155E-002   5.0188420398907731E-002   0.0000000000000000     
  -4.7797142824267266E-002   5.5338666200723398E-002   0.0000000000000000     
  -5.0417144245542028E-002   6.0691251312169403E-002   0.0000000000000000     
  -4.3537943654658962E-002   4.1394066887710530E-002   0.0000000000000000     
  -4.6561005338705545E-002   4.6123219277078610E-002   0.0000000000000000     
  -4.9502529021234830E-002   5.1055355794208217E-002   0.0000000000000000     
  -5.2362514702246780E-002   5.6190476439099350E-002   0.0000000000000000     
  -5.5140962381741404E-002   6.1528581211752018E-002   0.0000000000000000     
  -4.7758890687528296E-002   4.2358700540457039E-002   0.0000000000000000     
  -5.0986757001825742E-002   4.7057901328154350E-002   0.0000000000000000     
  -5.4112356398940166E-002   5.1963496532460726E-002   0.0000000000000000     
  -5.7135688878871604E-002   5.7075486153376175E-002   0.0000000000000000     
  -6.0056754441620015E-002   6.2393870190900695E-002   0.0000000000000000     
  -5.2207493238090867E-002   4.3388847682406889E-002   0.0000000000000000     
  -5.5638151760598241E-002   4.8044560059949601E-002   0.0000000000000000     
  -5.8941209132615212E-002   5.2912842613665259E-002   0.0000000000000000     
  -6.2116665354141745E-002   5.7993695343553871E-002   0.0000000000000000     
  -6.5164520425177869E-002   6.3287118249615429E-002   0.0000000000000000     
  -4.5885300033021895E-002   5.9881880492152838E-002   0.0000000000000000     
  -4.8266054114445199E-002   6.5440514256577056E-002   0.0000000000000000     
  -5.0570758905648598E-002   7.1188305479825256E-002   0.0000000000000000     
  -5.2799414406632092E-002   7.7125254161897416E-002   0.0000000000000000     
  -5.4952020617395680E-002   8.3251360302793537E-002   0.0000000000000000     
  -5.0417144245542028E-002   6.0691251312169403E-002   0.0000000000000000     
  -5.2963556653596366E-002   6.6237372149474422E-002   0.0000000000000000     
  -5.5428205438703221E-002   7.1968225128867164E-002   0.0000000000000000     
  -5.7811090600862591E-002   7.7883810250347629E-002   0.0000000000000000     
  -6.0112212140074471E-002   8.3984127513915832E-002   0.0000000000000000     
  -5.5140962381741404E-002   6.1528581211752018E-002   0.0000000000000000     
  -5.7837043234091674E-002   6.7058490660390602E-002   0.0000000000000000     
  -6.0449928433670544E-002   7.2769025333239520E-002   0.0000000000000000     
  -6.2979617980478020E-002   7.8660185230298746E-002   0.0000000000000000     
  -6.5426111874514109E-002   8.4731970351568292E-002   0.0000000000000000     
  -6.0056754441620015E-002   6.2393870190900695E-002   0.0000000000000000     
  -6.2886513855931109E-002   6.7903869789325638E-002   0.0000000000000000     
  -6.5635927890550574E-002   7.3590706092942312E-002   0.0000000000000000     
  -6.8304996545478419E-002   7.9454379101750738E-002   0.0000000000000000     
  -7.0893719820714615E-002   8.5494888815750944E-002   0.0000000000000000     
  -6.5164520425177869E-002   6.3287118249615429E-002   0.0000000000000000     
  -6.8111968519114691E-002   6.8773509536279476E-002   0.0000000000000000     
  -7.0986203809343312E-002   7.4433267407975540E-002   0.0000000000000000     
  -7.3787226295863734E-002   8.0266391864703635E-002   0.0000000000000000     
  -7.6515035978675969E-002   8.6272882906463733E-002   0.0000000000000000     
  -5.4952020617395680E-002   8.3251360302793537E-002   0.0000000000000000     
  -5.7020904938650356E-002   8.9555951275603674E-002   0.0000000000000000     
  -5.8998394771107091E-002   9.6028354453417869E-002   0.0000000000000000     
  -6.0884490114765898E-002  0.10266856983623616        0.0000000000000000     
  -6.2679190969626777E-002  0.10947659742405851        0.0000000000000000     
  -6.0112212140074471E-002   8.3984127513915832E-002   0.0000000000000000     
  -6.2322050817405161E-002   9.0262586849850779E-002   0.0000000000000000     
  -6.4431087393920963E-002   9.6712598188431503E-002   0.0000000000000000     
  -6.6439321869621870E-002  0.10333416152965802        0.0000000000000000     
  -6.8346754244507896E-002  0.11012727687353027        0.0000000000000000     
  -6.5426111874514109E-002   8.4731970351568292E-002   0.0000000000000000     
  -6.7776214943693333E-002   9.0980934671709326E-002   0.0000000000000000     
  -7.0016732015930200E-002   9.7403632165382975E-002   0.0000000000000000     
  -7.2147663091224751E-002  0.10400006283258925        0.0000000000000000     
  -7.4169008169576944E-002  0.11077022667332816        0.0000000000000000     
  -7.0893719820714615E-002   8.5494888815750944E-002   0.0000000000000000     
  -7.3383397317514851E-002   9.1710994741179303E-002   0.0000000000000000     
  -7.5755328637134828E-002   9.8101456384272312E-002   0.0000000000000000     
  -7.8009513779574519E-002  0.10466627374502993        0.0000000000000000     
  -8.0145952744833937E-002  0.11140544682345219        0.0000000000000000     
  -7.6515035978675969E-002   8.6272882906463733E-002   0.0000000000000000     
  -7.9143597938869756E-002   9.2452767058260721E-002   0.0000000000000000     
  -8.1646877257534833E-002   9.8806070845099500E-002   0.0000000000000000     
  -8.4024873934671201E-002  0.10533279426698004        0.0000000000000000     
  -8.6277587970278874E-002  0.11203293732390235        0.0000000000000000     
  -6.2679190969626777E-002  0.10947659742405851        0.0000000000000000     
  -6.4393972010255401E-002  0.11642917449066811        0.0000000000000000     
  -6.6040307911217414E-002  0.12350303830984818        0.0000000000000000     
  -6.7618198672512855E-002  0.13069818888159868        0.0000000000000000     
  -6.9127644294141699E-002  0.13801462620591964        0.0000000000000000     
  -6.8346754244507896E-002  0.11012727687353027        0.0000000000000000     
  -7.0164582099738804E-002  0.11706319852174930        0.0000000000000000     
  -7.1904003016474372E-002  0.12411318077601606        0.0000000000000000     
  -7.3565016994714585E-002  0.13127722363633051        0.0000000000000000     
  -7.5147624034459445E-002  0.13855532710269275        0.0000000000000000     
  -7.4169008169576944E-002  0.11077022667332816        0.0000000000000000     
  -7.6082494571573928E-002  0.11768032094783727        0.0000000000000000     
  -7.7889849617802778E-002  0.12469654291635407        0.0000000000000000     
  -7.9591073308263496E-002  0.13181889257887858        0.0000000000000000     
  -8.1186165642956110E-002  0.13904736993541078        0.0000000000000000     
  -8.0145952744833937E-002  0.11140544682345219        0.0000000000000000     
  -8.2147709425760773E-002  0.11828054176893199        0.0000000000000000     
  -8.3997847715202661E-002  0.12525312473086217        0.0000000000000000     
  -8.5696367613159616E-002  0.13232319570924272        0.0000000000000000     
  -8.7243269119631692E-002  0.13949075470407379        0.0000000000000000     
  -8.6277587970278874E-002  0.11203293732390235        0.0000000000000000     
  -8.8360226662299313E-002  0.11886386098503343        0.0000000000000000     
  -9.0227997308674007E-002  0.12578292621954038        0.0000000000000000     
  -9.1880899909402958E-002  0.13279013302742312        0.0000000000000000     
  -9.3318934464486164E-002  0.13988548140868173        0.0000000000000000     
  -6.9127644294141699E-002  0.13801462620591964        0.0000000000000000     
  -7.0492232086523013E-002  0.14534240729746994        0.0000000000000000     
  -7.1635549360075865E-002  0.15257158917090860        0.0000000000000000     
  -7.2557596114800241E-002  0.15970217182623553        0.0000000000000000     
  -7.3258372350696169E-002  0.16673415526345073        0.0000000000000000     
  -7.5147624034459445E-002  0.13855532710269275        0.0000000000000000     
  -7.6572322770630460E-002  0.14581995655059266        0.0000000000000000     
  -7.7759611838149098E-002  0.15294357735552033        0.0000000000000000     
  -7.8709491237015330E-002  0.15992618951747567        0.0000000000000000     
  -7.9421960967229185E-002  0.16676779303645875        0.0000000000000000     
  -8.1186165642956110E-002  0.13904736993541078        0.0000000000000000     
  -8.2592807976235000E-002  0.14623101727494553        0.0000000000000000     
  -8.3728681662454479E-002  0.15321887688647770        0.0000000000000000     
  -8.4593786701614646E-002  0.16001094877000724        0.0000000000000000     
  -8.5188123093715429E-002  0.16660723292553412        0.0000000000000000     
  -8.7243269119631692E-002  0.13949075470407379        0.0000000000000000     
  -8.8553687703336603E-002  0.14657558947052865        0.0000000000000000     
  -8.9542758832992092E-002  0.15339748776378073        0.0000000000000000     
  -9.0210482508598172E-002  0.15995644958383018        0.0000000000000000     
  -9.0556858730154899E-002  0.16625247493067685        0.0000000000000000     
  -9.3318934464486164E-002  0.13988548140868173        0.0000000000000000     
  -9.4454961951935257E-002  0.14685367313734193        0.0000000000000000     
  -9.5201843349761880E-002  0.15347940998742954        0.0000000000000000     
  -9.5559578657965979E-002  0.15976269195894455        0.0000000000000000     
  -9.5528167876547596E-002  0.16570351905188691        0.0000000000000000     
 </DataArray>
 <DataArray  type="Float64" Name="stress" NumberOfComponents="3" format="ascii">
   13426247674.024864        4027874302.2074594        2893214746.4392538     
   11775748751.927195        1892133186.9024963        1715274642.0507891     
   10322592883.386721        414202250.12152815        810442487.64348578     
   9066780068.4034462       -405918508.13544178        178718283.21734431     
   8008310306.9773731       -568229087.86841631       -179897971.22763497     
   10546469745.156208        3163940923.5468626        2224634827.0148010     
   9673942282.3989258        1590872383.8663712        1445968087.7449837     
   8950036936.2898445        513210899.67987728        862785465.15019560     
   8374753706.8289614       -69043529.012620926        475086959.23043716     
   7948092594.0162745       -155890902.21112299        282872569.98570669     
   8341755432.9120235        2502526629.8736072        1711122045.5907350     
   8025417048.6204672        1425595951.5551891        1274887578.3790653     
   7808979844.0681105        681669205.70076728        956513394.53629303     
   7692443819.2549515        270746392.31034231        755999494.06241691     
   7675808974.1809940        192827511.38391495        673345876.95743740     
   6812104737.2923117        2043631421.1876934        1352676402.1670554     
   6830173050.5918169        1396303889.9689493        1202033113.9530339     
   6899421606.7215204        919577168.18420124        1091626275.8017764     
   7019850405.6814251        613451255.83345079        1021455887.7132828     
   7191459447.4715261        477926152.91669607        991521949.68755329     
   5957517658.2970715        1787255297.4891214        1149297896.7437625     
   6088210288.3129721        1502996199.1076517        1227404694.4668884     
   6221362224.2500753        1226934787.1301789        1268124108.9466460     
   6356973466.1083746        959071061.55670190        1271456140.1830359     
   6495044013.8878746        699405022.38722181        1237400788.1760566     
   8008310306.9773731       -568229087.86841631       -179897971.22763497     
   7928276708.4932804       -200353801.21817446       -78847963.261283562     
   7806936331.7271271        29832224.491854191       -10899108.229024226     
   7644289176.6789083        122328989.26167154        23948593.869146697     
   7440335243.3486271        77136493.091273785        25695143.033229217     
   7948092594.0162745       -155890902.21112299        282872569.98570669     
   7746383387.8539848        15024840.052688122        281120269.29839921     
   7521509786.0108757        108725930.04710531        264324702.80497050     
   7273471788.4869461        125212367.77212763        232485870.50542355     
   7002269395.2822046        64484153.227759361        185603772.39975965     
   7675808974.1809940        192827511.38391495        673345876.95743740     
   7404018123.5632763        182261898.22812557        589957380.65125406     
   7127205259.8659878        154956241.47376251        509583505.66692460     
   6845370383.0891275        110910541.12082815        432224252.00444579     
   6558513493.2326937        50124797.169320345        357879619.66382158     
   7191459447.4715261        477926152.91669607        991521949.68755329     
   6901180915.6211586        301357373.30814075        847663370.79728460     
   6624022753.2924671        168523158.77183318        724877300.35683835     
   6359984960.4854460        79423509.307769775        623163738.36621761     
   6109067537.2001019        34058424.915955305        542522684.82542050     
   6495044013.8878746        699405022.38722181        1237400788.1760566     
   6237871764.0276318        372311265.29273200        1054238239.7364880     
   6011962266.2903090        149426681.94131041        910206086.87471354     
   5817315520.6759052        30751272.332951307        805304329.59073627     
   5653931527.1844225        16285036.467663050        739532967.88455224     
   7440335243.3486271        77136493.091273785        25695143.033229217     
   7236692903.1520023       -11810617.783632755        14314938.134846829     
   7045446510.9223156       -59437902.102086544        4638640.9766590074     
   6866596066.6595650       -65745359.864080906       -3333748.4413204798     
   6700141570.3637524       -30732991.069616318       -9602230.1191028412     
   7002269395.2822046        64484153.227759361        185603772.39975965     
   6812378131.6248474        4217095.5094466209        184046627.95166576     
   6629871802.9638081       -31433512.221145153        184744853.14205432     
   6454750409.2990866       -42467669.964014530        187698447.97093010     
   6287013950.6306782       -28885377.719164371        192907412.43828830     
   6558513493.2326937        50124797.169320345        357879619.66382158     
   6383948911.5382700        19010474.234701395        360299353.86696225     
   6211758251.8695450       -4190775.2809314728        365525919.60687047     
   6041941514.2265120       -19478951.377579927        373559316.88354278     
   5874498698.6091728       -26854054.055249929        384399545.69698131     
   6109067537.2001019        34058424.915955305        542522684.82542050     
   5951405242.8922729        32569518.392127752        543073115.88073945     
   5791105857.6395187        22290308.718551159        546981840.37110281     
   5628169381.4418392        3220795.8952200413        554248858.29651713     
   5462595814.2992334       -24639020.077858686        564874169.65697849     
   5653931527.1844225        16285036.467663050        739532967.88455224     
   5514747125.6868515        44894227.981729269        732367913.99298966     
   5367914620.2737350        48009739.777308464        729112615.43475676     
   5213434010.9450722        25631571.854398012        729767072.20985365     
   5051305297.7008600       -22240275.787000895        734331284.31827807     
   6700141570.3637524       -30732991.069616318       -9602230.1191028412     
   6462728071.6281433       -5463957.0490570068       -1638528.7159876176     
   6220530294.7880383        3857483.2898466587        26733954.566503130     
   5973548239.8434315       -2768670.0529205799        75515219.728356600     
   5721781906.7943296       -25342417.077337027        144705266.76958814     
   6287013950.6306782       -28885377.719164371        192907412.43828830     
   6094484546.6902561       -16141787.548982143        194824456.65634197     
   5898921316.4394093       -13510951.746870279        213749432.80294737     
   5700324259.8781424       -20992870.312829256        249682340.87810463     
   5498693377.0064545       -38587543.246858120        302623180.88181525     
   5874498698.6091728       -26854054.055249929        384399545.69698131     
   5717136675.3187380       -29550921.978999853        382312126.48972970     
   5558491277.5119600       -36525704.957230568        393831789.26020843     
   5398562505.1888351       -47778402.989946604        418958534.00841981     
   5237350358.3493652       -63309016.077150822        457692360.73436898     
   5462595814.2992334       -24639020.077858686        564874169.65697849     
   5330684457.5135965       -45691360.339097977        560824480.78417122     
   5199240178.0056877       -65186776.341235876        566981023.93828106     
   5068262975.7755098       -83125268.084267616        583343799.11930656     
   4937752850.8230667       -99506835.568196058        609912806.32724786     
   5051305297.7008600       -22240275.787000895        734331284.31827807     
   4935127893.2748241       -64563102.629290819        730361519.53967392     
   4821168017.9205952       -99494165.898882389        733197136.83717120     
   4709425671.6381741       -127033465.59578919        742838136.21076310     
   4599900854.4275560       -147181001.72000980        759284517.66045272     
   5721781906.7943296       -25342417.077337027        144705266.76958814     
   5583424721.4978619       -17971091.000034571        191725215.00877088     
   5447163239.8724585       -3614086.0192000866        231896872.21881664     
   5312997461.9181013        17728597.865124702        265220238.39971447     
   5180927387.6347809        46056960.652915716        291695313.55147403     
   5498693377.0064545       -38587543.246858120        302623180.88181525     
   5342946235.9523668       -43534250.067507267        340397766.28377575     
   5189496334.5503159       -40823491.381376266        374486376.64700586     
   5038343672.8002939       -30455267.188477993        404889011.97150397     
   4889488250.7023039       -12429577.488801956        431605672.25726849     
   5237350358.3493652       -63309016.077150822        457692360.73436898     
   5073248450.0816851       -77863199.232534409        486456708.61025614     
   4911645317.4470167       -84088130.277886391        514697397.43781048     
   4752540960.4453611       -81983809.213188410        542414427.21704853     
   4595935379.0767107       -71550236.038470984        569607797.94795954     
   4937752850.8230667       -99506835.568196058        609912806.32724786     
   4774331363.8858118       -120957938.49512744        629902041.98819840     
   4613610188.5625515       -133408002.70874572        652529934.59123242     
   4455589324.8532848       -136857028.20905685        677796484.13635194     
   4300268772.7580051       -131305014.99606562        705701690.62355530     
   4599900854.4275560       -147181001.72000980        759284517.66045272     
   4446194977.3647556       -172818467.85526752        770733766.41761160     
   4295390947.8969269       -188783108.67395353        787983988.10726535     
   4147488766.0240712       -195074924.17606115        811035182.72940946     
   4002488431.7461872       -191693914.36159706        839887350.28404820     
   5180927387.6347809        46056960.652915716        291695313.55147403     
   4940586423.9040546        46729320.667901993        317452965.56033862     
   4701331249.2900105        51020977.738494635        348545711.52884448     
   4463161863.7926273        58931931.864638567        384973551.45700055     
   4226078267.4119391        70462183.046404362        426736485.34479535     
   4889488250.7023039       -12429577.488801956        431605672.25726849     
   4662919490.5889664       -14083243.912539005        457545073.23501825     
   4436449960.2397814       -15406144.455760479        489280158.36774677     
   4210079659.6547360       -16398279.118527889        526810927.65544337     
   3983808588.8338428       -17059647.900778532        570137381.09811032     
   4595935379.0767107       -71550236.038470984        569607797.94795954     
   4384454794.5674152       -75135137.304921389        594577961.98331463     
   4172086880.4697437       -81677803.865965128        625804400.36896670     
   3958831636.7836800       -91178235.721637249        663287113.10492373     
   3744689063.5092373       -103636432.87192369        707026100.19118404     
   4300268772.7580051       -131305014.99606562        705701690.62355530     
   4105192335.8394060       -136426359.50923681        728551631.80522561     
   3908242009.9798946       -147794000.49210978        758118437.53252566     
   3709417795.1794667       -165407937.94471025        794402107.80545664     
   3508719691.4381227       -189268171.86701989        837402642.62401223     
   4002488431.7461872       -191693914.36159706        839887350.28404820     
   3825132114.4049320       -197956910.52549005        859466082.70075071     
   3644915348.7702322       -213754734.33420229        886222269.85841167     
   3461838134.8420873       -239087385.78772902        920155911.75703013     
   3275900472.6205006       -273954864.88606238        961267008.39660633     
   4226078267.4119391        70462183.046404362        426736485.34479535     
   3803592042.4415007        37330258.611439466        434825368.69265783     
   3387245487.4490385        24663900.769704103        496180194.23096412     
   2977038602.4345388        32463109.521184921        610800961.95969820     
   2572971387.3979959        60727884.865865231        778687671.87888002     
   3983808588.8338428       -17059647.900778532        570137381.09811032     
   3688966638.2863770       -29508444.222087145        579672301.54505670     
   3399816998.4443998       -22982871.525103807        629356153.63915706     
   3116359669.3079052        2517070.1901535988        719188937.38042772     
   2838594650.8768964        46991380.923700571        849170652.76883888     
   3744689063.5092373       -103636432.87192369        707026100.19118404     
   3540014214.4039297       -106645252.97378922        717485138.58599520     
   3340584316.7316217       -92170901.632334709        754976098.08467138     
   3146399370.4923172       -60213378.847537756        819498978.68721318     
   2957459375.6860065       -10772684.619408131        911053780.39362550     
   3508719691.4381227       -189268171.86701989        837402642.62401223     
   3356734770.7941494       -194080167.64370823        848263879.81545138     
   3209547442.3106942       -182900189.55201983        873040027.56747758     
   3067157705.9877596       -155728237.59192634        911731085.88007772     
   2929565561.8253365       -112564311.76344740        964337054.75326240     
   3275900472.6205006       -273954864.88606238        961267008.39660633     
   3139128307.4570398       -291813188.23183632        972008525.23344588     
   3006706375.1816206       -295170735.28414547        983547942.08758402     
   2878634675.7942328       -284027506.04302132        995885258.95901299     
   2754913209.2948828       -258383500.50842178        1009020475.8477405     
   2572971387.3979959        60727884.865865231        778687671.87888002     
   1831390147.3233123        79325391.535165489        683440822.17366517     
   1144056229.9098184        278747307.07513136        644618747.75319719     
   510969635.15752947        658993631.48576975        662221448.61749017     
  -67869636.933554649        1220064364.7670798        736248924.76653779     
   2838594650.8768964        46991380.923700571        849170652.76883888     
   2228774985.1153069        70882867.634726882        754921507.94062877     
   1665373054.9185846        249500139.56198132        704380957.28964770     
   1148388860.2867162        582843196.70540857        697549000.81590044     
   677822401.21971262        1070912039.0650511        734425638.51939642     
   2957459375.6860065       -10772684.619408131        911053780.39362550     
   2443069338.2160292        7513198.3269301653        808667822.16337204     
   1967267449.2145662        154426242.83498418        737274277.00282121     
   1530053708.6816325        429966448.90479976        696873144.91197908     
   1131428116.6172004        834133816.53630161        687464425.89083374     
   2929565561.8253365       -112564311.76344740        964337054.75326240     
   2474273206.6254606       -110783616.38827920        844679764.84189045     
   2049739412.7977600       -6474383.1058434248        743298706.89270389     
   1655964180.3422391        200363388.08384806        660193880.90570140     
   1292947509.2588928        509729697.18080693        595365286.88086307     
   2754913209.2948828       -258383500.50842178        1009020475.8477405     
   2322386590.3436065       -284007576.51086402        862957335.97619438     
   1912788945.6681736       -233201738.26050508        722454246.95929885     
   1526120275.2685790       -105965985.75735039        587511208.79706490     
   1162380579.1448121        97699680.998580456        458128221.48948526     
   5957517658.2970715        1787255297.4891214        1149297896.7437625     
   6088210288.3129721        1502996199.1076517        1227404694.4668884     
   6221362224.2500753        1226934787.1301789        1268124108.9466460     
   6356973466.1083746        959071061.55670190        1271456140.1830359     
   6495044013.8878746        699405022.38722181        1237400788.1760566     
   5432641497.9931850        1629792449.3979554        1033138276.6278976     
   5487982461.0362167        1372555884.5077894        1113644702.7032053     
   5545297711.6172915        1121900278.0777626        1167339722.0062957     
   5604587249.7364082        877825630.10787535        1194223334.5371695     
   5665851075.3935642        640331940.59812689        1194295540.2958262     
   4892123558.4475317        1467637067.5342596        936349289.12650156     
   4902329930.1495562        1246488158.8249557        1018689488.7736408     
   4914025571.0064640        1030303480.6319335        1084794258.1197147     
   4927210481.0182571        819083032.95519352        1134663597.1647222     
   4941884660.1849346        612826815.79473567        1168297505.9086647     
   4335963839.6601143        1300789151.8980343        858930934.23957479     
   4331252695.6529903        1124793022.0591505        942539052.67819500     
   4327545802.4175949        952144394.79269147        1020487717.2869016     
   4324843159.9539261        782843270.09865761        1092776928.0656939     
   4323144768.2619848        616889647.97704804        1159406685.0145721     
   3764162341.6309304        1129248702.4892793        800883211.96711683     
   3774750757.5465212        1007470474.2103740        885193394.41686881     
   3785858405.8506818        887423020.56003666        974420099.50785804     
   3797485286.5434122        769106341.53826678        1068563327.2400848     
   3809631399.6247144        652520437.14506543        1167623077.6135495     
   6495044013.8878746        699405022.38722181        1237400788.1760566     
   6237871764.0276318        372311265.29273200        1054238239.7364880     
   6011962266.2903090        149426681.94131041        910206086.87471354     
   5817315520.6759052        30751272.332951307        805304329.59073627     
   5653931527.1844225        16285036.467663050        739532967.88455224     
   5665851075.3935642        640331940.59812689        1194295540.2958262     
   5516001484.6843052        379296047.41509056        1074877248.3391879     
   5390413972.0875349        199133747.94034863        983640330.01825118     
   5289088537.6032524        99845042.173900127        920584785.33301842     
   5212025181.2314577        81429930.115746260        885710614.28348923     
   4941884660.1849346        612826815.79473567        1168297505.9086647     
   4868074808.7921104        408463910.57278800        1104456017.4227862     
   4811526361.5013428        261639019.02436209        1057846880.6305169     
   4772239318.3126335        172352141.14945841        1028470095.5318598     
   4750213679.2259798        140603276.94807696        1016325662.1268132     
   4323144768.2619848        616889647.97704804        1159406685.0145721     
   4294091736.3510494        459814854.76582563        1142974546.9872823     
   4275299434.5317359        336942495.19335186        1132825738.7115107     
   4266767862.8040471        248272569.25962615        1128960260.1872597     
   4268497021.1679840        193805076.96465015        1131378111.4145262     
   3809631399.6247144        652520437.14506543        1167623077.6135495     
   3794052267.3611155        533348879.99420166        1190432837.0326777     
   3781733191.1787081        425044176.44731343        1208576904.2612336     
   3772674171.0774941        327606326.50440359        1222055279.2992167     
   3766875207.0574751        241035330.16547155        1230867962.1466267     
   5653931527.1844225        16285036.467663050        739532967.88455224     
   5514747125.6868515        44894227.981729269        732367913.99298966     
   5367914620.2737350        48009739.777308464        729112615.43475676     
   5213434010.9450722        25631571.854398012        729767072.20985365     
   5051305297.7008600       -22240275.787000895        734331284.31827807     
   5212025181.2314577        81429930.115746260        885710614.28348923     
   5074742742.4500599        75646963.136864901        865561450.69291818     
   4933438579.2718763        56458248.168709278        850902231.97213769     
   4788112691.6969118        23863785.211279154        841732958.12114775     
   4638765079.7251673       -22136425.735425711        838053629.13994658     
   4750213679.2259798        140603276.94807696        1016325662.1268132     
   4619348030.4077797        101782599.65035486        987423164.94246030     
   4488087036.7115660        61644106.092575788        965590802.16435623     
   4356430698.1373339        20187796.274736166        950828573.79250467     
   4224379014.6850824       -22586329.803164959        943136479.82690322     
   4268497021.1679840        193805076.96465015        1131378111.4145262     
   4148562989.5600204        123301137.52220011        1097953056.7416134     
   4031859992.5928016        63567313.548904657        1073178326.0114135     
   3918388030.2663317        14603605.044767380        1057053919.2239242     
   3808147102.5806069       -23589987.990221500        1049579836.3791487     
   3766875207.0574751        241035330.16547155        1230867962.1466267     
   3662387619.9067755        140202576.75240099        1197151126.0903800     
   3564757446.9155865        62227870.537700415        1173664803.5133064     
   3473984688.0839081        7111211.5213701725        1160408994.4154062     
   3390069343.4117384       -25147400.296597481        1157383698.7966783     
   5051305297.7008600       -22240275.787000895        734331284.31827807     
   4935127893.2748241       -64563102.629290819        730361519.53967392     
   4821168017.9205952       -99494165.898882389        733197136.83717120     
   4709425671.6381741       -127033465.59578919        742838136.21076310     
   4599900854.4275560       -147181001.72000980        759284517.66045272     
   4638765079.7251673       -22136425.735425711        838053629.13994658     
   4541045916.4735498       -56822154.390955448        834884715.48740983     
   4444596355.2067118       -87275876.430552959        837346659.54215205     
   4349416395.9246559       -113497591.85421228        845439461.30417371     
   4255506038.6273789       -135487300.66193485        859163120.77347648     
   4224379014.6850824       -22586329.803164959        943136479.82690322     
   4141762308.6969724       -50641695.445220709        939662502.36556780     
   4059467277.6066217       -77624811.428086758        940644858.24269235     
   3977493921.4140272       -103535677.75176740        946083547.45828497     
   3895842240.1191893       -128374294.41625810        955978570.01233566     
   3808147102.5806069       -23589987.990221500        1049579836.3791487     
   3737277069.9451017       -46021725.792069197        1044694880.1741493     
   3665780785.1203337       -70540970.891476631        1043091732.9387993     
   3593658248.1062927       -97147723.288452625        1044770394.6730940     
   3520909458.9029837       -125841982.98298740        1049730865.3770348     
   3390069343.4117384       -25147400.296597481        1157383698.7966783     
   3327590200.2179375       -42962245.431506634        1149981848.9131577     
   3263536877.7478404       -66024354.820733547        1144687283.6304636     
   3197909376.0014486       -94333728.464273691        1141500002.9486022     
   3130707694.9787664       -127890366.36212325        1140420006.8675692     
   4599900854.4275560       -147181001.72000980        759284517.66045272     
   4446194977.3647556       -172818467.85526752        770733766.41761160     
   4295390947.8969269       -188783108.67395353        787983988.10726535     
   4147488766.0240712       -195074924.17606115        811035182.72940946     
   4002488431.7461872       -191693914.36159706        839887350.28404820     
   4255506038.6273789       -135487300.66193485        859163120.77347648     
   4115626160.6429768       -165146751.05451250        868555437.83712959     
   3978512580.4240813       -185585208.89541030        883710316.08798170     
   3844165297.9706969       -196802674.18460417        904627755.52602935     
   3712584313.2828174       -198799146.92210865        931307756.15127110     
   3895842240.1191893       -128374294.41625810        955978570.01233566     
   3769678613.3694801       -162088653.41928053        963155813.91477823     
   3646145734.5558176       -187033852.63549089        976057207.25911832     
   3525243603.6781974       -203209892.06488633        994682750.04535830     
   3406972220.7366257       -210616771.70746875        1019032442.2734993     
   3520909458.9029837       -125841982.98298740        1049730865.3770348     
   3408352335.5442657       -163644174.94956231        1054534894.6505543     
   3298290410.2921324       -193129039.89419532        1065024661.6206744     
   3190723683.1465778       -214296577.81690383        1081200166.2874024     
   3085652154.1076026       -227146788.71767735        1103061408.6507325     
   3130707694.9787664       -127890366.36212325        1140420006.8675692     
   3031647327.1673365       -169813315.64535534        1142692680.0444558     
   2934946607.6330271       -203870770.67153001        1150612679.1726537     
   2840605536.3758307       -230062731.44065893        1164180004.2521548     
   2748624113.3957500       -248389197.95273459        1183394655.2829649     
   4002488431.7461872       -191693914.36159706        839887350.28404820     
   3825132114.4049320       -197956910.52549005        859466082.70075071     
   3644915348.7702322       -213754734.33420229        886222269.85841167     
   3461838134.8420873       -239087385.78772902        920155911.75703013     
   3275900472.6205006       -273954864.88606238        961267008.39660633     
   3712584313.2828174       -198799146.92210865        931307756.15127110     
   3552147514.0024843       -208329833.19675040        942245265.10777390     
   3389684547.1812196       -224614411.27451324        959774415.54958391     
   3225195412.8190145       -247652881.15539837        983895207.47670567     
   3058680110.9158735       -277445242.83940518        1014607640.8891343     
   3406972220.7366257       -210616771.70746875        1019032442.2734993     
   3261781187.3582258       -223917273.74054837        1022302055.3143905     
   3115398267.1913958       -241190731.73506403        1031577496.5849435     
   2967823460.2361374       -262437145.69100916        1046858766.0851587     
   2819056766.4924498       -287656515.60838056        1068145863.8150351     
   3085652154.1076026       -227146788.71767735        1103061408.6507325     
   2954033134.4721398       -244719232.15690088        1099636453.3206024     
   2822056508.8007574       -263483695.71586084        1101631512.9644914     
   2689722277.0934520       -283440179.39456332        1109046587.5823915     
   2557030439.3502302       -304588683.19299638        1121881677.1743116     
   2748624113.3957500       -248389197.95273459        1183394655.2829649     
   2628903355.3442364       -270735708.44579172        1174248459.1264124     
   2509659272.0093069       -291493303.21690071        1169936464.6882248     
   2390891863.3909631       -310661982.26605797        1170458671.9684055     
   2272601129.4892073       -328241745.59325671        1175815080.9669549     
   3275900472.6205006       -273954864.88606238        961267008.39660633     
   3139128307.4570398       -291813188.23183632        972008525.23344588     
   3006706375.1816206       -295170735.28414547        983547942.08758402     
   2878634675.7942328       -284027506.04302132        995885258.95901299     
   2754913209.2948828       -258383500.50842178        1009020475.8477405     
   3058680110.9158735       -277445242.83940518        1014607640.8891343     
   2925245270.7715406       -295144142.69893479        1022529327.3163428     
   2795266921.2209902       -301321407.24584389        1032183496.7826048     
   2668745062.2642336       -295977036.48011518        1043570149.2879207     
   2545679693.9012699       -279111030.40174222        1056689284.8322889     
   2819056766.4924498       -287656515.60838056        1068145863.8150351     
   2691629488.5722666       -304394920.82017744        1072205020.4893234     
   2566764958.9516177       -312590831.70016491        1078931243.2244239     
   2444463177.6305180       -312244248.24833345        1088324532.0203390     
   2324724144.6089687       -303355170.46467555        1100384886.8770657     
   2557030439.3502302       -304588683.19299638        1121881677.1743116     
   2438280960.8592148       -319565522.59555757        1121035604.7523901     
   2321200488.3735061       -328979008.64709461        1123791181.4130449     
   2205789021.8930898       -332829141.34766424        1130148407.1562722     
   2092046561.4179723       -331115920.69722402        1140107281.9820733     
   2272601129.4892073       -328241745.59325671        1175815080.9669549     
   2165199687.6323996       -340655948.02505350        1169021080.1055410     
   2058573509.4866419       -350485938.08667743        1166763311.3484635     
   1952722595.0519447       -357731715.77810848        1169041774.6957150     
   1847646944.3283021       -362393281.09935844        1175856470.1473010     
   2754913209.2948828       -258383500.50842178        1009020475.8477405     
   2322386590.3436065       -284007576.51086402        862957335.97619438     
   1912788945.6681736       -233201738.26050508        722454246.95929885     
   1526120275.2685790       -105965985.75735039        587511208.79706490     
   1162380579.1448121        97699680.998580456        458128221.48948526     
   2545679693.9012699       -279111030.40174222        1056689284.8322889     
   2126548481.9986475       -324162680.64659119        930063014.15609956     
   1721698425.7035606       -321610478.86631155        812664138.25708044     
   1331129525.0160236       -271454425.06088471        704492657.13523126     
   954841779.93602109       -173694519.23033768        605548570.79055691     
   2324724144.6089687       -303355170.46467555        1100384886.8770657     
   1929466465.2479005       -364690957.30405319        983106363.61654842     
   1539842122.8260708       -407248954.34596777        878722579.05571806     
   1155851117.3434846       -431029161.59040564        787233533.19457018     
   777493448.80013847       -436031579.03737658        708639226.03310907     
   2092046561.4179723       -331115920.69722402        1140107281.9820733     
   1731140540.0913670       -405592406.48324883        1022087384.3575426     
   1367220037.0356958       -490117164.69948614        920629569.35521865     
   1000285052.2509651       -584690195.34592497        835733836.97509396     
   630335585.73717988       -689311498.42254162        767400187.21716595     
   1847646944.3283021       -362393281.09935844        1175856470.1473010     
   1531570706.5290473       -446867028.18418014        1047006076.3790849     
   1203832168.3324258       -570215109.92689538        938385109.15557981     
   864431329.73845840       -732437526.32743120        849993568.47678876     
   513368190.74713278       -933534277.38583326        781831454.34272194     
   3764162341.6309304        1129248702.4892793        800883211.96711683     
   3774750757.5465212        1007470474.2103740        885193394.41686881     
   3785858405.8506818        887423020.56003666        974420099.50785804     
   3797485286.5434122        769106341.53826678        1068563327.2400848     
   3809631399.6247144        652520437.14506543        1167623077.6135495     
   3203728508.6641192        961118552.59923577        757106860.40026486     
   3231502440.5825834        866974170.58700407        853432922.19057691     
   3258892775.3913412        771551131.54241741        951685047.58801448     
   3285899513.0903921        674849435.46547532        1051863236.5925772     
   3312522653.6797361        576869082.35617805        1153967489.2042663     
   2681671785.0638189        804501535.51914573        722502617.63015580     
   2718087064.3162651        735427749.17292035        829791257.67970479     
   2753215916.9607291        662065874.13341689        936015502.30226719     
   2787058342.9972086        584415910.40063548        1041175351.4978435     
   2819614342.4257050        502477857.97457564        1145270805.2664332     
   2197992170.8300290        659397651.24900866        697070483.65678954     
   2234504628.7475672        612831209.96812248        814268400.88425279     
   2268827830.5588450        558967248.33303475        927411463.65061736     
   2300961776.2638626        497805766.34374654        1036499671.9558836     
   2330906465.8626199        429346764.00025660        1141533025.8000512     
   1752689665.9627504        525806899.78882509        680810458.48016632     
   1780755133.8764884        499184552.97261018        806864351.80422044     
   1805728516.1856897        462255254.14127129        925872931.63306367     
   1827609812.8903537        415019003.29480845        1037836197.9666973     
   1846399023.9904807        357475800.43322158        1142754150.8051202     
   3809631399.6247144        652520437.14506543        1167623077.6135495     
   3794052267.3611155        533348879.99420166        1190432837.0326777     
   3781733191.1787081        425044176.44731343        1208576904.2612336     
   3772674171.0774941        327606326.50440359        1222055279.2992167     
   3766875207.0574751        241035330.16547155        1230867962.1466267     
   3312522653.6797361        576869082.35617805        1153967489.2042663     
   3290253760.6292458        468548836.07935989        1182878004.5768967     
   3271221904.4188533        371018712.60287142        1208804093.6407883     
   3255427085.0485616        284278711.92671585        1231745756.3959410     
   3242869302.5183673        208328834.05088902        1251702992.8423560     
   2819614342.4257050        502477857.97457564        1145270805.2664332     
   2795459305.3935618        406450007.61337447        1180255220.8112900     
   2774518285.9604254        321135549.24885845        1213936475.9292419     
   2756791284.1262932        246534482.88102698        1246314570.6202888     
   2742278299.8911681        182646808.50988102        1277389504.8844304     
   2330906465.8626199        429346764.00025660        1141533025.8000512     
   2309668901.6540656        347052394.59624505        1182564485.7358572     
   2291622335.8034229        275394686.38527286        1223974051.1265931     
   2276766768.3106914        214373639.36733824        1265761721.9722581     
   2265102199.1758723        163989253.54244328        1307927498.2728508     
   1846399023.9904807        357475800.43322158        1142754150.8051202     
   1832882549.4107542        290355997.02797109        1189805799.3505998     
   1822534053.9478469        233796124.01211429        1238916819.2328436     
   1815353537.6017568        187796181.38564909        1290087210.4518497     
   1811341000.3724849        152356169.14857793        1343316973.0076199     
   3766875207.0574751        241035330.16547155        1230867962.1466267     
   3662387619.9067755        140202576.75240099        1197151126.0903800     
   3564757446.9155865        62227870.537700415        1173664803.5133064     
   3473984688.0839081        7111211.5213701725        1160408994.4154062     
   3390069343.4117384       -25147400.296597481        1157383698.7966783     
   3242869302.5183673        208328834.05088902        1251702992.8423560     
   3167577490.2597919        126566772.93668866        1232094512.2390683     
   3097625361.3897791        62603656.451036334        1220312877.5431197     
   3033012915.9083333        16439484.593935609        1216358088.7545071     
   2973740153.8154492       -11925742.634621024        1220230145.8732312     
   2742278299.8911681        182646808.50988102        1277389504.8844304     
   2689314640.8908982        117895153.20440447        1270118693.8346665     
   2640172934.5082469        65883339.957656622        1268271061.1204045     
   2594853180.7432141        26611368.769638658        1271846606.7416439     
   2553355379.5958009        79239.640350103378        1280845330.6983817     
   2265102199.1758723        163989253.54244328        1307927498.2728508     
   2227599071.8000932        114187717.55554688        1311223670.8771739     
   2192400166.2709856        72066921.057557344        1317539354.2451622     
   2159505482.5885525        37626864.048481226        1326874548.3768146     
   2128915020.7527900        10867546.528309703        1339229253.2721310     
   1811341000.3724849        152356169.14857793        1343316973.0076199     
   1782430782.9873781        115444465.99011475        1355409443.3665907     
   1754307056.6779983        81154399.750741780        1368117756.9173911     
   1726969821.4443452        49485970.430457294        1381441913.6600211     
   1700419077.2864192        20439178.029264569        1395381913.5944803     
   3390069343.4117384       -25147400.296597481        1157383698.7966783     
   3327590200.2179375       -42962245.431506634        1149981848.9131577     
   3263536877.7478404       -66024354.820733547        1144687283.6304636     
   3197909376.0014486       -94333728.464273691        1141500002.9486022     
   3130707694.9787664       -127890366.36212325        1140420006.8675692     
   2973740153.8154492       -11925742.634621024        1220230145.8732312     
   2916344431.9221373       -33046022.229471326        1210174965.2978575     
   2858014632.5131202       -57279893.543343902        1202685616.7666364     
   2798750755.5883956       -84627356.576240301        1197762100.2795601     
   2738552801.1479616       -115088411.32816327        1195404415.8366370     
   2553355379.5958009        79239.640350103378        1280845330.6983817     
   2502353214.5553226       -23953433.748736858        1268883604.8185112     
   2451057073.7597218       -48966026.321559191        1259946258.4261079     
   2399466957.2090020       -74958538.078112245        1254033291.5211711     
   2347582864.9031634       -101930969.01840127        1251144704.1037066     
   2128915020.7527900        10867546.528309703        1339229253.2721310     
   2085616548.1174853       -15684479.989309311        1326107767.4751127     
   2042664201.4876442       -41082753.155379891        1316469208.6088805     
   2000057980.8632751       -65327272.969884276        1310313576.6734376     
   1957797886.2443695       -88418039.432834625        1307640871.6687818     
   1700419077.2864192        20439178.029264569        1395381913.5944803     
   1666134432.6086285       -8239160.9511899948        1381847453.2676647     
   1632836015.6968908       -33630074.044797778        1372254467.3149564     
   1600523826.5512094       -55733561.251555145        1366602955.7363555     
   1569197865.1715784       -74549622.571473777        1364892918.5318620     
   3130707694.9787664       -127890366.36212325        1140420006.8675692     
   3031647327.1673365       -169813315.64535534        1142692680.0444558     
   2934946607.6330271       -203870770.67153001        1150612679.1726537     
   2840605536.3758307       -230062731.44065893        1164180004.2521548     
   2748624113.3957500       -248389197.95273459        1183394655.2829649     
   2738552801.1479616       -115088411.32816327        1195404415.8366370     
   2655244901.9632268       -150926067.12025106        1200320939.4025397     
   2573897266.4808712       -180229510.57108057        1210303122.0781755     
   2494509894.7008948       -202998741.68064082        1225350963.8635421     
   2417082786.6232991       -219233760.44893169        1245464464.7586346     
   2347582864.9031634       -101930969.01840127        1251144704.1037066     
   2278365529.0834670       -132181902.89785135        1258239129.3881040     
   2210709072.3914142       -157229906.35181785        1269817546.9406550     
   2144613494.8270059       -177074979.38030529        1285879956.7613580     
   2080078796.3902411       -191717121.98331392        1306426358.8502126     
   1957797886.2443695       -88418039.432834625        1307640871.6687818     
   1901009208.5280595       -113580822.97814119        1316447250.0011487     
   1845382025.3646593       -134871958.01375139        1329155953.7600884     
   1790916336.7541680       -152291444.53966117        1345766982.9456067     
   1737612142.6965864       -165839282.55587542        1366280337.5576935     
   1569197865.1715784       -74549622.571473777        1364892918.5318620     
   1523175940.2970049       -95122827.361125052        1374945301.2416730     
   1477916125.4006069       -113155665.55686253        1388318342.5364788     
   1433418420.4823802       -128648137.15869164        1405012042.4162810     
   1389682825.5423269       -141600242.16661501        1425026400.8810806     
   2748624113.3957500       -248389197.95273459        1183394655.2829649     
   2628903355.3442364       -270735708.44579172        1174248459.1264124     
   2509659272.0093069       -291493303.21690071        1169936464.6882248     
   2390891863.3909631       -310661982.26605797        1170458671.9684055     
   2272601129.4892073       -328241745.59325671        1175815080.9669549     
   2417082786.6232991       -219233760.44893169        1245464464.7586346     
   2310556839.5366926       -240536939.21618617        1235069516.6683197     
   2204484799.1018205       -260327095.81099367        1229749452.5882251     
   2098866665.3186841       -278604230.23334920        1229504272.5183535     
   1993702438.1872795       -295368342.48326004        1234333976.4587061     
   2080078796.3902411       -191717121.98331392        1306426358.8502126     
   1987435323.9595604       -211770669.91745687        1294756096.0838056     
   1895222990.1157582       -230387089.22866309        1288401399.6194777     
   1803441794.8588448       -247566379.91691172        1287362269.4572265     
   1712091738.1888125       -263308541.98222184        1291638705.5970531     
   1737612142.6965864       -165839282.55587542        1366280337.5576935     
   1659538808.6128378       -184436900.54960799        1353308197.3728738     
   1581873845.0511234       -201673283.46990418        1345892305.7819841     
   1504617252.0114446       -217548431.31674767        1344032662.7850311     
   1427769029.4937963       -232062344.09014505        1347729268.3820066     
   1389682825.5423269       -141600242.16661501        1425026400.8810806     
   1326867293.4965315       -158535631.11262774        1410725820.5355201     
   1264437363.9079137       -174185678.53471750        1402222171.0757453     
   1202393036.7764874       -188550384.43283808        1399515452.5017583     
   1140734312.1022363       -201629748.80703819        1402605664.8135583     
   2272601129.4892073       -328241745.59325671        1175815080.9669549     
   2165199687.6323996       -340655948.02505350        1169021080.1055410     
   2058573509.4866419       -350485938.08667743        1166763311.3484635     
   1952722595.0519447       -357731715.77810848        1169041774.6957150     
   1847646944.3283021       -362393281.09935844        1175856470.1473010     
   1993702438.1872795       -295368342.48326004        1234333976.4587061     
   1898254695.0151925       -308170339.19854307        1227287078.4709201     
   1803043487.1782851       -320183884.79654849        1224988592.2017052     
   1708068814.6765661       -331408979.27726531        1227438517.6510496     
   1613330677.5100329       -341845622.64069474        1234636854.8189571     
   1712091738.1888125       -263308541.98222184        1291638705.5970531     
   1629203921.1706693       -276316464.74022424        1283710394.0443892     
   1546013911.1118455       -290331697.63384068        1280742673.8245199     
   1462521708.0123367       -305354240.66307050        1282735544.9374397     
   1378727311.8721421       -321384093.82791573        1289689007.3831584     
   1427769029.4937963       -232062344.09014505        1347729268.3820066     
   1358047366.0988338       -245094324.65010417        1338291026.8259416     
   1287484781.2873166       -260929376.59856826        1334025556.2169082     
   1216081275.0592506       -279567499.93553287        1334932856.5548930     
   1143836847.4146280       -301008694.66101474        1341012927.8399045     
   1140734312.1022363       -201629748.80703819        1402605664.8135583     
   1084785029.7996831       -214503918.92817199        1391028976.8155875     
   1027456097.7047074       -231976921.69070822        1384837239.3788691     
   968747515.81730759       -254048757.09466273        1384030452.5034072     
   908659284.13748658       -280719425.14001846        1388608616.1891990     
   1847646944.3283021       -362393281.09935844        1175856470.1473010     
   1531570706.5290473       -446867028.18418014        1047006076.3790849     
   1203832168.3324258       -570215109.92689538        938385109.15557981     
   864431329.73845840       -732437526.32743120        849993568.47678876     
   513368190.74713278       -933534277.38583326        781831454.34272194     
   1613330677.5100329       -341845622.64069474        1234636854.8189571     
   1349649166.9934702       -416888768.95434034        1092224045.5262449     
   1076550797.4415851       -523321445.38573772        967709153.57445562     
   794035568.85437441       -661143651.93487465        861092178.96358895     
   502103481.23184246       -830355388.60175192        772373121.69366252     
   1378727311.8721421       -321384093.82791573        1289689007.3831584     
   1160779073.7702973       -388995075.83077604        1136333464.1549909     
   935659417.99516296       -480510783.41127473        998544329.06395602     
   703368344.54674459       -595931216.56939030        876321602.11006403     
   463905853.42503041       -735256375.30514050        769665283.29330349     
   1143836847.4146280       -301008694.66101474        1341012927.8399045     
   964960426.85953093       -363185948.81349140        1179334332.2653236     
   781158029.99318147       -441783124.00347942        1030890635.6240897     
   592429656.81558204       -536800220.23097157        895681837.91620600     
   398775307.32672596       -648237237.49597335        773707939.14166367     
   908659284.13748658       -280719425.14001846        1388608616.1891990     
   762193226.26117194       -339461387.90247798        1221226649.8572440     
   613046633.43563533       -407138467.16234112        1064748073.2548451     
   461219505.66088039       -483750662.91959471        919172886.38200796     
   306711842.93690896       -569297975.17425334        784501089.23872483     
   1752689665.9627504        525806899.78882509        680810458.48016632     
   1780755133.8764884        499184552.97261018        806864351.80422044     
   1805728516.1856897        462255254.14127129        925872931.63306367     
   1827609812.8903537        415019003.29480845        1037836197.9666973     
   1846399023.9904807        357475800.43322158        1142754150.8051202     
   1323561099.2020683        397068329.76062047        670595734.04919183     
   1336941431.9248133        374800939.18467450        792277581.33975184     
   1348002700.4441581        344803334.59739429        908703494.38469625     
   1356744904.7601027        307075515.99877971        1019873473.1840243     
   1363168044.8726470        261617483.38883093        1125787517.7377372     
   888403299.28806889        266520989.78642067        663299502.31277215     
   892211008.96151960        250142309.09325317        781511161.87116468     
   894472675.83270669        228610152.39254111        896256266.43353593     
   895188299.90163028        201924519.68428427        1007534815.9998858     
   894357881.16829109        170085410.96848309        1115346810.5702147     
   447216266.22075236        134164879.86622570        658921763.27090728     
   446563864.98660702        125208662.69834621        774565093.39845848     
   445138442.35133529        113675707.52671190        888531247.77958310     
   442939998.31493694        99566014.351322681        1000820226.4142810     
   439968532.87741220        82879583.172178686        1111432029.3025522     
   1.1860933480799664E-004   3.5582800442398987E-005   657462516.92359722     
   7.6072390145418087E-005  -4.6185582830731952E-005   771439375.92163372     
   4.3986677853216309E-005  -9.3073156782374323E-005   885528438.42283809     
   2.2299298396821640E-005  -1.0540804149857479E-004   999729704.42721033     
   1.1048854139298437E-005  -8.2606197523341733E-005   1114043173.9347503     
   1846399023.9904807        357475800.43322158        1142754150.8051202     
   1832882549.4107542        290355997.02797109        1189805799.3505998     
   1822534053.9478469        233796124.01211429        1238916819.2328436     
   1815353537.6017568        187796181.38564909        1290087210.4518497     
   1811341000.3724849        152356169.14857793        1343316973.0076199     
   1363168044.8726470        261617483.38883093        1125787517.7377372     
   1358807528.5692129        213010682.72430974        1180446465.7360268     
   1356822996.6033916        172323829.85183054        1235816855.8237638     
   1357214448.9751818        139556924.77139050        1291898688.0009475     
   1359981885.6845849        114709967.48299277        1348691962.2675765     
   894357881.16829109        170085410.96848309        1115346810.5702147     
   895302096.72024441        138836245.11842030        1176689064.1122408     
   897830301.83060491        112867044.46304697        1237394830.4963973     
   901942496.49937177        92177809.002361745        1297464109.7226837     
   907638680.72654533        76768538.736365676        1356896901.7911015     
   439968532.87741220        82879583.172178686        1111432029.3025522     
   442366253.86384946        67832684.210303336        1178533594.4792418     
   445555969.62948740        55425767.845764190        1243650743.2507451     
   449537680.17432648        45658834.078562021        1306783475.6170630     
   454311385.49836665        38531882.908696860        1367931791.5781939     
   1.1048854139298437E-005  -8.2606197523341733E-005   1114043173.9347503     
   2.7427693815773954E-005  -4.2408270119030812E-005   1185980056.8370302     
   3.9095615481252021E-005  -1.7349617621685626E-005   1254584594.0868073     
   4.6289594753433044E-005  -7.7462075215733576E-006   1319856785.6840820     
   4.8656134066848378E-005  -1.3713846907886979E-005   1381796631.6288538     
   1811341000.3724849        152356169.14857793        1343316973.0076199     
   1782430782.9873781        115444465.99011475        1355409443.3665907     
   1754307056.6779983        81154399.750741780        1368117756.9173911     
   1726969821.4443452        49485970.430457294        1381441913.6600211     
   1700419077.2864192        20439178.029264569        1395381913.5944803     
   1359981885.6845849        114709967.48299277        1348691962.2675765     
   1335943741.0710554        86319545.641733587        1361517683.5221860     
   1312495464.7643228        59895351.489796579        1375508860.3360558     
   1289637056.7643855        35437385.027177155        1390665492.7091863     
   1267368517.0712450        12945646.253879309        1406987580.6415753     
   907638680.72654533        76768538.736365676        1356896901.7911015     
   890042929.93439662        57370494.527252227        1370226480.7109299     
   872840424.68011332        39283268.777689338        1385271127.5574505     
   856031164.96369541        22506861.487678021        1402030842.3306611     
   839615150.78514230        7041272.6572170854        1420505625.0305648     
   454311385.49836665        38531882.908696860        1367931791.5781939     
   444728349.57740104        28597312.646669433        1381535834.9328225     
   435341936.42536998        19318151.614422843        1397404558.5815728     
   426152146.04227388        10694399.811960191        1415537962.5244465     
   417158978.42811185        2726057.2392773926        1435936046.7614415     
   4.8656134066848378E-005  -1.3713846907886979E-005   1381796631.6288538     
   6.8660736437068835E-005  -1.5206471613040646E-005   1395445746.1878631     
   9.2817237412429372E-005  -3.3798513438537133E-006   1411909153.4084258     
   1.2065097089895394E-004   2.1311363845805179E-005   1431186853.2905419     
   1.5207615386761072E-004   5.7280187918847360E-005   1453278845.8342109     
   1700419077.2864192        20439178.029264569        1395381913.5944803     
   1666134432.6086285       -8239160.9511899948        1381847453.2676647     
   1632836015.6968908       -33630074.044797778        1372254467.3149564     
   1600523826.5512094       -55733561.251555145        1366602955.7363555     
   1569197865.1715784       -74549622.571473777        1364892918.5318620     
   1267368517.0712450        12945646.253879309        1406987580.6415753     
   1244809605.7827640       -7616736.3154936433        1395945878.9421310     
   1222990365.3188231       -25713549.469732642        1388109584.7654910     
   1201910795.6794224       -41344793.208839238        1383478698.1116540     
   1181570896.8645639       -54510467.532804668        1382053218.9806230     
   839615150.78514230        7041272.6572170854        1420505625.0305648     
   826678924.73939240       -6036067.9450482130        1411669032.1933899     
   814235812.57666934       -17469695.603891790        1405301780.0277174     
   802285814.29697275       -27259610.319312245        1401403868.5335455     
   790828929.90030313       -35405812.091309428        1399975297.7108796     
   417158978.42811185        2726057.2392773926        1435936046.7614415     
   411742389.47851276       -3497155.8398558199        1429016913.0214398     
   406572357.47042727       -8898512.4472772777        1423831053.1016362     
   401648882.40385520       -13478012.582987189        1420378467.0020347     
   396971964.27879536       -17235656.246989146        1418659154.7226300     
   1.5207615386761072E-004   5.7280187918847360E-005   1453278845.8342109     
   1.2499159216796405E-004   8.4959511953114651E-005   1447989521.4262822     
   9.6877634119935530E-005   1.0816668074052307E-004   1443697403.9872496     
   6.9015306290400353E-005   1.3290650631329998E-004   1440402493.5171127     
   4.1130102986456691E-005   1.5722313560951993E-004   1438104790.0158722     
   1569197865.1715784       -74549622.571473777        1364892918.5318620     
   1523175940.2970049       -95122827.361125052        1374945301.2416730     
   1477916125.4006069       -113155665.55686253        1388318342.5364788     
   1433418420.4823802       -128648137.15869164        1405012042.4162810     
   1389682825.5423269       -141600242.16661501        1425026400.8810806     
   1181570896.8645639       -54510467.532804668        1382053218.9806230     
   1145959306.0615814       -70268915.269146442        1391921106.5969415     
   1110919297.7422280       -84122088.060058355        1405365187.1325684     
   1076450871.9065056       -96069985.905534327        1422385460.5875020     
   1042554028.5544119       -106112608.80558127        1442981926.9617496     
   790828929.90030313       -35405812.091309428        1399975297.7108796     
   766357771.26694870       -46130473.344937116        1409436408.1567342     
   742267667.62268233       -55584951.301604360        1422729245.8562131     
   718558618.96750140       -63769245.961319238        1439853810.8093190     
   695230625.30140960       -70683357.324070454        1460810103.0160465     
   396971964.27879536       -17235656.246989146        1418659154.7226300     
   384371335.91310954       -22707501.588487223        1427491205.9210579     
   371961235.04196793       -27544255.281505883        1440410518.7074244     
   359741661.66537249       -31745917.326036528        1457417093.0817287     
   347712615.78331983       -35312487.722090855        1478510929.0439708     
   4.1130102986456691E-005   1.5722313560951993E-004   1438104790.0158722     
   6.4234332139026916E-005   2.0162443143639002E-004   1446085499.8899076     
   8.9282976616318391E-005   2.5285405637419302E-004   1458409005.6861951     
   1.1429730788199715E-004   3.0396930393995357E-004   1475075307.4047334     
   1.4374948118292205E-004   3.6953041359467264E-004   1496084405.0455241     
   1389682825.5423269       -141600242.16661501        1425026400.8810806     
   1326867293.4965315       -158535631.11262774        1410725820.5355201     
   1264437363.9079137       -174185678.53471750        1402222171.0757453     
   1202393036.7764874       -188550384.43283808        1399515452.5017583     
   1140734312.1022363       -201629748.80703819        1402605664.8135583     
   1042554028.5544119       -106112608.80558127        1442981926.9617496     
   995968443.91227782       -118656331.19741964        1428945496.0860238     
   949672061.11303329       -130236047.44629222        1420583247.7379012     
   903664880.15667856       -140851757.55219644        1417895181.9173825     
   857946901.04320753       -150503461.51516050        1420881298.6244674     
   695230625.30140960       -70683357.324070454        1460810103.0160465     
   664524278.46812689       -78940626.040169001        1446925354.2268131     
   634010732.86344039       -86555223.994280577        1438592039.6069980     
   603689988.48734784       -93527151.186411321        1435810159.1566026     
   573562045.33984792       -99856407.616567135        1438579712.8756273     
   347712615.78331983       -35312487.722090855        1478510929.0439708     
   332534797.16407764       -39388515.640888721        1464665394.9578848     
   317453379.15913796       -43143208.178680167        1456248546.6830337     
   302468361.76849246       -46576565.335490346        1453260384.2194204     
   287579744.99215084       -49688587.111287415        1455700907.5670393     
   1.4374948118292205E-004   3.6953041359467264E-004   1496084405.0455241     
   1.2705038486472773E-004   4.1448072080734638E-004   1482165618.2792435     
   1.2242953903421368E-004   4.9969186297895438E-004   1473552768.9660122     
   1.1967304436799121E-004   5.9129098137913189E-004   1470245857.1058357     
   1.2307005231765127E-004   7.0305483047038934E-004   1472244882.6987109     
   1140734312.1022363       -201629748.80703819        1402605664.8135583     
   1084785029.7996831       -214503918.92817199        1391028976.8155875     
   1027456097.7047074       -231976921.69070822        1384837239.3788691     
   968747515.81730759       -254048757.09466273        1384030452.5034072     
   908659284.13748658       -280719425.14001846        1388608616.1891990     
   857946901.04320753       -150503461.51516050        1420881298.6244674     
   816791901.10974503       -159917000.56792766        1407242966.9619772     
   774602163.83195746       -172779664.10178035        1398801294.7756011     
   731377689.20986104       -189091452.11665994        1395556282.0653465     
   687118477.24344301       -208852364.61261484        1397507928.8312042     
   573562045.33984792       -99856407.616567135        1438579712.8756273     
   546663353.24649990       -105970707.95969546        1423282135.4047437     
   519074836.25694311       -114384424.62351766        1412992926.3248382     
   490796494.37117559       -125097557.60804191        1407712085.6359122     
   461828327.58919847       -138110106.91326654        1407439613.3379595     
   287579744.99215084       -49688587.111287415        1455700907.5670393     
   274399386.20995563       -52665041.103443012        1439146482.1438885     
   260874114.97965807       -56791203.255939901        1427412134.0265746     
   247003931.30125469       -62067073.568787977        1420497863.2151012     
   232788835.17474827       -68492652.041982368        1418403669.7094655     
   1.2307005231765127E-004   7.0305483047038934E-004   1472244882.6987109     
   1.1044279044416735E-004   8.1917073856786109E-004   1454836007.1794138     
   1.0252787629883145E-004   9.5168836181621676E-004   1442058917.8808162     
   9.6946260543161037E-005   1.0919836463634575E-003   1433913614.8029184     
   9.4063950767691814E-005   1.2405827281209785E-003   1430400097.9457269     
   908659284.13748658       -280719425.14001846        1388608616.1891990     
   762193226.26117194       -339461387.90247798        1221226649.8572440     
   613046633.43563533       -407138467.16234112        1064748073.2548451     
   461219505.66088039       -483750662.91959471        919172886.38200796     
   306711842.93690896       -569297975.17425334        784501089.23872483     
   687118477.24344301       -208852364.61261484        1397507928.8312042     
   574085922.32656574       -253863740.13731435        1226448664.4486418     
   459042966.19777513       -305576453.03505337        1067035492.4812235     
   341989608.85707515       -363990503.30583119        919268412.92893970     
   222925850.30445424       -429105890.94966871        783147425.79180801     
   461828327.58919847       -138110106.91326654        1407439613.3379595     
   384351283.30485314       -168754292.89827269        1233484873.5983117     
   305533971.54590142       -203866037.13196605        1071918928.9593918     
   225376392.31234282       -243445339.61434728        922741779.42120183     
   143878545.60417593       -287492200.34542441        785953424.98372126     
   232788835.17474827       -68492652.041982368        1418403669.7094655     
   192989309.19603211       -84133046.185358554        1242335277.3062634     
   152519649.48001075       -102007219.45308565        1079398382.6893668     
   111379856.02669109       -122115171.84513846        929592985.85877478     
   69569928.836068824       -144456903.36153540        792919086.81449819     
   9.4063950767691814E-005   1.2405827281209785E-003   1430400097.9457269     
   9.7266517184879816E-005   1.4080769517399083E-003   1252999875.5724854     
   1.0376315191688959E-004   1.5865514030749110E-003   1089473853.6711347     
   1.1931847451465970E-004   1.7952214806291147E-003   939822032.24167442     
   1.3761885404144796E-004   2.0130417479467125E-003   804044411.28410625     
   1.1860933480799664E-004   3.5582800442398987E-005   657462516.92359722     
   7.6072390145418087E-005  -4.6185582830731952E-005   771439375.92163372     
   4.3986677853216309E-005  -9.3073156782374323E-005   885528438.42283809     
   2.2299298396821640E-005  -1.0540804149857479E-004   999729704.42721033     
   1.1048854139298437E-005  -8.2606197523341733E-005   1114043173.9347503     
  -447216266.22052348       -134164879.86615704        658921763.27085268     
  -446563864.98644739       -125208662.69839197        774565093.39841866     
  -445138442.35123110       -113675707.52682705        888531247.77955902     
  -442939998.31487489       -99566014.351462096        1000820226.4142735     
  -439968532.87737888       -82879583.172297403        1111432029.3025622     
  -888403299.28786504       -266520989.78635952        663299502.31268442     
  -892211008.96136594       -250142309.09325618        781511161.87109756     
  -894472675.83259737       -228610152.39258829        896256266.43349123     
  -895188299.90155935       -201924519.68435544        1007534815.9998659     
  -894357881.16825199       -170085410.96855801        1115346810.5702214     
  -1323561099.2019062       -397068329.76057184        670595734.04909241     
  -1336941431.9246798       -374800939.18463904        792277581.33967042     
  -1348002700.4440553       -344803334.59737682        908703494.38463569     
  -1356744904.7600315       -307075515.99878508        1019873473.1839879     
  -1363168044.8726087       -261617483.38886318        1125787517.7377272     
  -1752689665.9626465       -525806899.78879398        680810458.48007667     
  -1780755133.8763893       -499184552.97254062        806864351.80413747     
  -1805728516.1856041       -462255254.14119291        925872931.63299143     
  -1827609812.8902907       -415019003.29475033        1037836197.9666392     
  -1846399023.9904482       -357475800.43321353        1142754150.8050804     
   1.1048854139298437E-005  -8.2606197523341733E-005   1114043173.9347503     
   2.7427693815773954E-005  -4.2408270119030812E-005   1185980056.8370302     
   3.9095615481252021E-005  -1.7349617621685626E-005   1254584594.0868073     
   4.6289594753433044E-005  -7.7462075215733576E-006   1319856785.6840820     
   4.8656134066848378E-005  -1.3713846907886979E-005   1381796631.6288538     
  -439968532.87737888       -82879583.172297403        1111432029.3025622     
  -442366253.86379212       -67832684.210374042        1178533594.4792418     
  -445555969.62941110       -55425767.845802993        1243650743.2507362     
  -449537680.17423677       -45658834.078587487        1306783475.6170449     
  -454311385.49826843       -38531882.908725172        1367931791.5781679     
  -894357881.16825199       -170085410.96855801        1115346810.5702214     
  -895302096.72018814       -138836245.11847737        1176689064.1122317     
  -897830301.83053172       -112867044.46308938        1237394830.4963746     
  -901942496.49928391       -92177809.002395600        1297464109.7226486     
  -907638680.72644365       -76768538.736394078        1356896901.7910547     
  -1363168044.8726087       -261617483.38886318        1125787517.7377272     
  -1358807528.5691612       -213010682.72435403        1180446465.7360008     
  -1356822996.6033239       -172323829.85187829        1235816855.8237226     
  -1357214448.9750950       -139556924.77143210        1291898688.0008943     
  -1359981885.6844771       -114709967.48302084        1348691962.2675140     
  -1846399023.9904482       -357475800.43321353        1142754150.8050804     
  -1832882549.4107118       -290355997.02800512        1189805799.3505478     
  -1822534053.9477859       -233796124.01216674        1238916819.2327809     
  -1815353537.6016719       -187796181.38570052        1290087210.4517803     
  -1811341000.3723686       -152356169.14860421        1343316973.0075457     
   4.8656134066848378E-005  -1.3713846907886979E-005   1381796631.6288538     
   6.8660736437068835E-005  -1.5206471613040646E-005   1395445746.1878631     
   9.2817237412429372E-005  -3.3798513438537133E-006   1411909153.4084258     
   1.2065097089895394E-004   2.1311363845805179E-005   1431186853.2905419     
   1.5207615386761072E-004   5.7280187918847360E-005   1453278845.8342109     
  -454311385.49826843       -38531882.908725172        1367931791.5781679     
  -444728349.57726228       -28597312.646693528        1381535834.9328046     
  -435341936.42518437       -19318151.614421770        1397404558.5815620     
  -426152146.04203701       -10694399.811918393        1415537962.5244403     
  -417158978.42781824       -2726057.2391785085        1435936046.7614381     
  -907638680.72644365       -76768538.736394078        1356896901.7910547     
  -890042929.93425715       -57370494.527267665        1370226480.7108958     
  -872840424.67993259       -39283268.777681530        1385271127.5574253     
  -856031164.96347189       -22506861.487639546        1402030842.3306432     
  -839615150.78487372       -7041272.6571423411        1420505625.0305502     
  -1359981885.6844771       -114709967.48302084        1348691962.2675140     
  -1335943741.0709171       -86319545.641743004        1361517683.5221374     
  -1312495464.7641525       -59895351.489783585        1375508860.3360171     
  -1289637056.7641845       -35437385.027144969        1390665492.7091537     
  -1267368517.0710139       -12945646.253831983        1406987580.6415451     
  -1811341000.3723686       -152356169.14860421        1343316973.0075457     
  -1782430782.9872413       -115444465.99011785        1355409443.3665297     
  -1754307056.6778429       -81154399.750724494        1368117756.9173369     
  -1726969821.4441750       -49485970.430433571        1381441913.6599686     
  -1700419077.2862370       -20439178.029244065        1395381913.5944228     
   1.5207615386761072E-004   5.7280187918847360E-005   1453278845.8342109     
   1.2499159216796405E-004   8.4959511953114651E-005   1447989521.4262822     
   9.6877634119935530E-005   1.0816668074052307E-004   1443697403.9872496     
   6.9015306290400353E-005   1.3290650631329998E-004   1440402493.5171127     
   4.1130102986456691E-005   1.5722313560951993E-004   1438104790.0158722     
  -417158978.42781824       -2726057.2391785085        1435936046.7614381     
  -411742389.47827691        3497155.8399875760        1429016913.0214343     
  -406572357.47024632        8898512.4474510550        1423831053.1016314     
  -401648882.40372831        13478012.583206236        1420378467.0020301     
  -396971964.27872157        17235656.247256920        1418659154.7226291     
  -839615150.78487372       -7041272.6571423411        1420505625.0305502     
  -826678924.73917735        6036067.9451435208        1411669032.1933737     
  -814235812.57650459        17469695.604014456        1405301780.0277033     
  -802285814.29685342        27259610.319480419        1401403868.5335386     
  -790828929.90022683        35405812.091531366        1399975297.7108803     
  -1267368517.0710139       -12945646.253831983        1406987580.6415451     
  -1244809605.7825763        7616736.3155476451        1395945878.9420989     
  -1222990365.3186736        25713549.469809592        1388109584.7654653     
  -1201910795.6793056        41344793.208956003        1383478698.1116414     
  -1181570896.8644743        54510467.532981873        1382053218.9806309     
  -1700419077.2862370       -20439178.029244065        1395381913.5944228     
  -1666134432.6084731        8239160.9512053728        1381847453.2676117     
  -1632836015.6967576        33630074.044824600        1372254467.3149159     
  -1600523826.5510864        55733561.251633763        1366602955.7363360     
  -1569197865.1714621        74549622.571613550        1364892918.5318723     
   4.1130102986456691E-005   1.5722313560951993E-004   1438104790.0158722     
   6.4234332139026916E-005   2.0162443143639002E-004   1446085499.8899076     
   8.9282976616318391E-005   2.5285405637419302E-004   1458409005.6861951     
   1.1429730788199715E-004   3.0396930393995357E-004   1475075307.4047334     
   1.4374948118292205E-004   3.6953041359467264E-004   1496084405.0455241     
  -396971964.27872157        17235656.247256920        1418659154.7226291     
  -384371335.91299361        22707501.588840067        1427491205.9210641     
  -371961235.04180491        27544255.281959459        1440410518.7074363     
  -359741661.66516066        31745917.326597169        1457417093.0817423     
  -347712615.78305399        35312487.722775146        1478510929.0439854     
  -790828929.90022683        35405812.091531366        1399975297.7108803     
  -766357771.26683807        46130473.345246345        1409436408.1567509     
  -742267667.62253368        55584951.302012622        1422729245.8562393     
  -718558618.96731353        63769245.961830407        1439853810.8093495     
  -695230625.30117774        70683357.324702948        1460810103.0160754     
  -1181570896.8644743        54510467.532981873        1382053218.9806309     
  -1145959306.0614691        70268915.269417226        1391921106.5969660     
  -1110919297.7420931        84122088.060423076        1405365187.1326053     
  -1076450871.9063466        96069985.905997813        1422385460.5875483     
  -1042554028.5542239        106112608.80615902        1442981926.9617925     
  -1569197865.1714621        74549622.571613550        1364892918.5318723     
  -1523175940.2968895        95122827.361346245        1374945301.2417083     
  -1477916125.4004893        113155665.55717552        1388318342.5365310     
  -1433418420.4822595        128648137.15910214        1405012042.4163425     
  -1389682825.5421984        141600242.16712987        1425026400.8811395     
   1.4374948118292205E-004   3.6953041359467264E-004   1496084405.0455241     
   1.2705038486472773E-004   4.1448072080734638E-004   1482165618.2792435     
   1.2242953903421368E-004   4.9969186297895438E-004   1473552768.9660122     
   1.1967304436799121E-004   5.9129098137913189E-004   1470245857.1058357     
   1.2307005231765127E-004   7.0305483047038934E-004   1472244882.6987109     
  -347712615.78305399        35312487.722775146        1478510929.0439854     
  -332534797.16383809        39388515.641685009        1464665394.9579077     
  -317453379.15890950        43143208.179636329        1456248546.6830676     
  -302468361.76827151        46576565.336617425        1453260384.2194629     
  -287579744.99191982        49688587.112646520        1455700907.5670948     
  -695230625.30117774        70683357.324702948        1460810103.0160754     
  -664524278.46791708        78940626.040913045        1446925354.2268589     
  -634010732.86323774        86555223.995184064        1438592039.6070619     
  -603689988.48714614        93527151.187498569        1435810159.1566892     
  -573562045.33963382        99856407.617878646        1438579712.8757336     
  -1042554028.5542239        106112608.80615902        1442981926.9617925     
  -995968443.91210651        118656331.19810712        1428945496.0860920     
  -949672061.11286426        130236047.44713897        1420583247.7379973     
  -903664880.15650189        140851757.55323696        1417895181.9175103     
  -857946901.04301548        150503461.51641381        1420881298.6246283     
  -1389682825.5421984        141600242.16712987        1425026400.8811395     
  -1326867293.4964051        158535631.11327511        1410725820.5356123     
  -1264437363.9077840        174185678.53551602        1402222171.0758748     
  -1202393036.7763398        188550384.43382996        1399515452.5019300     
  -1140734312.1020637        201629748.80825239        1402605664.8137763     
   1.2307005231765127E-004   7.0305483047038934E-004   1472244882.6987109     
   1.1044279044416735E-004   8.1917073856786109E-004   1454836007.1794138     
   1.0252787629883145E-004   9.5168836181621676E-004   1442058917.8808162     
   9.6946260543161037E-005   1.0919836463634575E-003   1433913614.8029184     
   9.4063950767691814E-005   1.2405827281209785E-003   1430400097.9457269     
  -287579744.99191982        49688587.112646520        1455700907.5670948     
  -274399386.20975274        52665041.105032653        1439146482.1439478     
  -260874114.97947398        56791203.257791623        1427412134.0266409     
  -247003931.30108500        62067073.570915878        1420497863.2151678     
  -232788835.17459002        68492652.044395432        1418403669.7095354     
  -573562045.33963382        99856407.617878646        1438579712.8757336     
  -546663353.24632096        105970707.96123460        1423282135.4048615     
  -519074836.25679165        114384424.62531167        1412992926.3249621     
  -490796494.37104779        125097557.61010200        1407712085.6360393     
  -461828327.58909053        138110106.91560540        1407439613.3380892     
  -857946901.04301548        150503461.51641381        1420881298.6246283     
  -816791901.10959387        159917000.56942683        1407242966.9621518     
  -774602163.83185434        172779664.10350198        1398801294.7757888     
  -731377689.20979190        189091452.11865211        1395556282.0655332     
  -687118477.24340963        208852364.61486974        1397507928.8313935     
  -1140734312.1020637        201629748.80825239        1402605664.8137763     
  -1084785029.7995737        214503918.92960203        1391028976.8158193     
  -1027456097.7046552        231976921.69238168        1384837239.3791120     
  -968747515.81731057        254048757.09658009        1384030452.5036521     
  -908659284.13754404        280719425.14218622        1388608616.1894450     
   9.4063950767691814E-005   1.2405827281209785E-003   1430400097.9457269     
   9.7266517184879816E-005   1.4080769517399083E-003   1252999875.5724854     
   1.0376315191688959E-004   1.5865514030749110E-003   1089473853.6711347     
   1.1931847451465970E-004   1.7952214806291147E-003   939822032.24167442     
   1.3761885404144796E-004   2.0130417479467125E-003   804044411.28410625     
  -232788835.17459002        68492652.044395432        1418403669.7095354     
  -192989309.19587871        84133046.188100785        1242335277.3063304     
  -152519649.47985780        102007219.45616639        1079398382.6894257     
  -111379856.02653186        122115171.84858572        929592985.85882175     
  -69569928.835895479        144456903.36537105        792919086.81451416     
  -461828327.58909053        138110106.91560540        1407439613.3380892     
  -384351283.30478686        168754292.90090379        1233484873.5984378     
  -305533971.54587090        203866037.13490742        1071918928.9595044     
  -225376392.31234258        243445339.61761838        922741779.42127264     
  -143878545.60420120        287492200.34904063        785953424.98376095     
  -687118477.24340963        208852364.61486974        1397507928.8313935     
  -574085922.32662439        253863740.13983300        1226448664.4488184     
  -459042966.19792628        305576453.03784084        1067035492.4813710     
  -341989608.85730916        363990503.30891263        919268412.92904377     
  -222925850.30477703        429105890.95303237        783147425.79183269     
  -908659284.13754404        280719425.14218622        1388608616.1894450     
  -762193226.26139641        339461387.90486854        1221226649.8574696     
  -613046633.43602324        407138467.16496599        1064748073.2550271     
  -461219505.66143012        483750662.92245984        919172886.38211238     
  -306711842.93762320        569297975.17734313        784501089.23874021     
  -1752689665.9626465       -525806899.78879398        680810458.48007667     
  -1780755133.8763893       -499184552.97254062        806864351.80413747     
  -1805728516.1856041       -462255254.14119291        925872931.63299143     
  -1827609812.8902907       -415019003.29475033        1037836197.9666392     
  -1846399023.9904482       -357475800.43321353        1142754150.8050804     
  -2197992170.8299813       -659397651.24899435        697070483.65671802     
  -2234504628.7475195       -612831209.96807742        814268400.88418519     
  -2268827830.5588045       -558967248.33298087        927411463.65055525     
  -2300961776.2638350       -497805766.34370488        1036499671.9558284     
  -2330906465.8626118       -429346764.00024956        1141533025.8000047     
  -2681671785.0638046       -804501535.51914144        722502617.63009727     
  -2718087064.3162551       -735427749.17289555        829791257.67965090     
  -2753215916.9607248       -662065874.13338494        936015502.30221677     
  -2787058342.9972157       -584415910.40060973        1041175351.4977953     
  -2819614342.4257269       -502477857.97457010        1145270805.2663860     
  -3203728508.6641178       -961118552.59923542        757106860.40021443     
  -3231502440.5825939       -866974170.58699501        853432922.19053423     
  -3258892775.3913655       -771551131.54240513        951685047.58797562     
  -3285899513.0904326       -674849435.46546590        1051863236.5925392     
  -3312522653.6797948       -576869082.35617661        1153967489.2042248     
  -3764162341.6309195       -1129248702.4892759        800883211.96706975     
  -3774750757.5465393       -1007470474.2103763        885193394.41683519     
  -3785858405.8507280       -887423020.56004190        974420099.50783193     
  -3797485286.5434861       -769106341.53827238        1068563327.2400603     
  -3809631399.6248155       -652520437.14506912        1167623077.6135201     
  -1846399023.9904482       -357475800.43321353        1142754150.8050804     
  -1832882549.4107118       -290355997.02800512        1189805799.3505478     
  -1822534053.9477859       -233796124.01216674        1238916819.2327809     
  -1815353537.6016719       -187796181.38570052        1290087210.4517803     
  -1811341000.3723686       -152356169.14860421        1343316973.0075457     
  -2330906465.8626118       -429346764.00024956        1141533025.8000047     
  -2309668901.6540351       -347052394.59626335        1182564485.7358012     
  -2291622335.8033657       -275394686.38530272        1223974051.1265295     
  -2276766768.3106055       -214373639.36737156        1265761721.9721889     
  -2265102199.1757536       -163989253.54246736        1307927498.2727787     
  -2819614342.4257269       -502477857.97457010        1145270805.2663860     
  -2795459305.3935537       -406450007.61337954        1180255220.8112328     
  -2774518285.9603853       -321135549.24887335        1213936475.9291761     
  -2756791284.1262207       -246534482.88104713        1246314570.6202152     
  -2742278299.8910604       -182646808.50990558        1277389504.8843510     
  -3312522653.6797948       -576869082.35617661        1153967489.2042248     
  -3290253760.6292667       -468548836.07935500        1182878004.5768416     
  -3271221904.4188404       -371018712.60287249        1208804093.6407206     
  -3255427085.0485148       -284278711.92672729        1231745756.3958609     
  -3242869302.5182915       -208328834.05092251        1251702992.8422623     
  -3809631399.6248155       -652520437.14506912        1167623077.6135201     
  -3794052267.3611751       -533348879.99418819        1190432837.0326288     
  -3781733191.1787333       -425044176.44730461        1208576904.2611637     
  -3772674171.0774889       -327606326.50441074        1222055279.2991250     
  -3766875207.0574446       -241035330.16551399        1230867962.1465130     
  -1811341000.3723686       -152356169.14860421        1343316973.0075457     
  -1782430782.9872413       -115444465.99011785        1355409443.3665297     
  -1754307056.6778429       -81154399.750724494        1368117756.9173369     
  -1726969821.4441750       -49485970.430433571        1381441913.6599686     
  -1700419077.2862370       -20439178.029244065        1395381913.5944228     
  -2265102199.1757536       -163989253.54246736        1307927498.2727787     
  -2227599071.7999711       -114187717.55556488        1311223670.8771069     
  -2192400166.2708597       -72066921.057570219        1317539354.2450967     
  -2159505482.5884252       -37626864.048488379        1326874548.3767476     
  -2128915020.7526608       -10867546.528315425        1339229253.2720604     
  -2742278299.8910604       -182646808.50990558        1277389504.8843510     
  -2689314640.8908019       -117895153.20444298        1270118693.8345895     
  -2640172934.5081577       -65883339.957699060        1268271061.1203272     
  -2594853180.7431297       -26611368.769678712        1271846606.7415636     
  -2553355379.5957198       -79239.640378713608        1280845330.6982999     
  -3242869302.5182915       -208328834.05092251        1251702992.8422623     
  -3167577490.2597318       -126566772.93675005        1232094512.2389772     
  -3097625361.3897333       -62603656.451113820        1220312877.5430295     
  -3033012915.9082928       -16439484.594006181        1216358088.7544181     
  -2973740153.8154120        11925742.634567857        1220230145.8731434     
  -3766875207.0574446       -241035330.16551399        1230867962.1465130     
  -3662387619.9067640       -140202576.75248945        1197151126.0902698     
  -3564757446.9155850       -62227870.537806511        1173664803.5132027     
  -3473984688.0839119       -7111211.5214710236        1160408994.4153087     
  -3390069343.4117398        25147400.296524763        1157383698.7965908     
  -1700419077.2862370       -20439178.029244065        1395381913.5944228     
  -1666134432.6084731        8239160.9512053728        1381847453.2676117     
  -1632836015.6967576        33630074.044824600        1372254467.3149159     
  -1600523826.5510864        55733561.251633763        1366602955.7363360     
  -1569197865.1714621        74549622.571613550        1364892918.5318723     
  -2128915020.7526608       -10867546.528315425        1339229253.2720604     
  -2085616548.1173604        15684479.989313126        1326107767.4750514     
  -2042664201.4875212        41082753.155404091        1316469208.6088364     
  -2000057980.8631430        65327272.969958186        1310313576.6734159     
  -1957797886.2442245        88418039.432976365        1307640871.6687884     
  -2553355379.5957198       -79239.640378713608        1280845330.6982999     
  -2502353214.5552311        23953433.748729587        1268883604.8184454     
  -2451057073.7596192        48966026.321582794        1259946258.4260600     
  -2399466957.2088819        74958538.078184485        1254033291.5211477     
  -2347582864.9030242        101930969.01852882        1251144704.1037047     
  -2973740153.8154120        11925742.634567857        1220230145.8731434     
  -2916344431.9220867        33046022.229448676        1210174965.2977903     
  -2858014632.5130510        57279893.543364882        1202685616.7665856     
  -2798750755.5883079        84627356.576303959        1197762100.2795281     
  -2738552801.1478586        115088411.32826698        1195404415.8366189     
  -3390069343.4117398        25147400.296524763        1157383698.7965908     
  -3327590200.2179284        42962245.431472301        1149981848.9130886     
  -3263536877.7478213        66024354.820738316        1144687283.6304119     
  -3197909376.0014210        94333728.464313626        1141500002.9485598     
  -3130707694.9787264        127890366.36220360        1140420006.8675358     
  -1569197865.1714621        74549622.571613550        1364892918.5318723     
  -1523175940.2968895        95122827.361346245        1374945301.2417083     
  -1477916125.4004893        113155665.55717552        1388318342.5365310     
  -1433418420.4822595        128648137.15910214        1405012042.4163425     
  -1389682825.5421984        141600242.16712987        1425026400.8811395     
  -1957797886.2442245        88418039.432976365        1307640871.6687884     
  -1901009208.5279391        113580822.97834527        1316447250.0011735     
  -1845382025.3645585        134871958.01403093        1329155953.7601290     
  -1790916336.7540829        152291444.54003048        1345766982.9456539     
  -1737612142.6965103        165839282.55635130        1366280337.5577481     
  -2347582864.9030242        101930969.01852882        1251144704.1037047     
  -2278365529.0833626        132181902.89803052        1258239129.3881173     
  -2210709072.3913398        157229906.35206938        1269817546.9406822     
  -2144613494.8269551        177074979.38064432        1285879956.7613952     
  -2080078796.3902140        191717121.98375344        1306426358.8502612     
  -2738552801.1478586        115088411.32826698        1195404415.8366189     
  -2655244901.9631591        150926067.12040710        1200320939.4025373     
  -2573897266.4808359        180229510.57129192        1210303122.0781875     
  -2494509894.7008829        202998741.68094313        1225350963.8635695     
  -2417082786.6233044        219233760.44934380        1245464464.7586825     
  -3130707694.9787264        127890366.36220360        1140420006.8675358     
  -3031647327.1673307        169813315.64546692        1142692680.0444348     
  -2934946607.6330428        203870770.67170620        1150612679.1726475     
  -2840605536.3758612        230062731.44092298        1164180004.2521722     
  -2748624113.3957872        248389197.95310986        1183394655.2830124     
  -1389682825.5421984        141600242.16712987        1425026400.8811395     
  -1326867293.4964051        158535631.11327511        1410725820.5356123     
  -1264437363.9077840        174185678.53551602        1402222171.0758748     
  -1202393036.7763398        188550384.43382996        1399515452.5019300     
  -1140734312.1020637        201629748.80825239        1402605664.8137763     
  -1737612142.6965103        165839282.55635130        1366280337.5577481     
  -1659538808.6127591        184436900.55021632        1353308197.3729720     
  -1581873845.0510354        201673283.47065258        1345892305.7821314     
  -1504617252.0113339        217548431.31767839        1344032662.7852252     
  -1427769029.4936600        232062344.09128171        1347729268.3822529     
  -2080078796.3902140        191717121.98375344        1306426358.8502612     
  -1987435323.9595225        211770669.91803277        1294756096.0839093     
  -1895222990.1157093        230387089.22937596        1288401399.6196375     
  -1803441794.8587754        247566379.91778922        1287362269.4574399     
  -1712091738.1887238        263308541.98327088        1291638705.5973232     
  -2417082786.6233044        219233760.44934380        1245464464.7586825     
  -2310556839.5366945        240536939.21672583        1235069516.6684260     
  -2204484799.1018147        260327095.81166315        1229749452.5883925     
  -2098866665.3186674        278604230.23416317        1229504272.5185792     
  -1993702438.1872504        295368342.48422623        1234333976.4589856     
  -2748624113.3957872        248389197.95310986        1183394655.2830124     
  -2628903355.3442712        270735708.44630420        1174248459.1265213     
  -2509659272.0093470        291493303.21752572        1169936464.6883969     
  -2390891863.3910017        310661982.26681542        1170458671.9686348     
  -2272601129.4892478        328241745.59413373        1175815080.9672382     
  -1140734312.1020637        201629748.80825239        1402605664.8137763     
  -1084785029.7995737        214503918.92960203        1391028976.8158193     
  -1027456097.7046552        231976921.69238168        1384837239.3791120     
  -968747515.81731057        254048757.09658009        1384030452.5036521     
  -908659284.13754404        280719425.14218622        1388608616.1894450     
  -1427769029.4936600        232062344.09128171        1347729268.3822529     
  -1358047366.0987716        245094324.65143508        1338291026.8262181     
  -1287484781.2873220        260929376.60012269        1334025556.2172096     
  -1216081275.0593095        279567499.93735522        1334932856.5552280     
  -1143836847.4147348        301008694.66312671        1341012927.8402739     
  -1712091738.1887238        263308541.98327088        1291638705.5973232     
  -1629203921.1706433        276316464.74145699        1283710394.0447018     
  -1546013911.1118636        290331697.63529754        1280742673.8248827     
  -1462521708.0123842        305354240.66481411        1282735544.9378722     
  -1378727311.8722095        321384093.82997721        1289689007.3836656     
  -1993702438.1872504        295368342.48422623        1234333976.4589856     
  -1898254695.0151792        308170339.19968414        1227287078.4712653     
  -1803043487.1782746        320183884.79791820        1224988592.2021313     
  -1708068814.6765342        331408979.27894378        1227438517.6515830     
  -1613330677.5099552        341845622.64275551        1234636854.8196158     
  -2272601129.4892478        328241745.59413373        1175815080.9672382     
  -2165199687.6323895        340655948.02610719        1169021080.1059151     
  -2058573509.4865613        350485938.08797145        1166763311.3489561     
  -1952722595.0517566        357731715.77975965        1169041774.6963601     
  -1847646944.3279884        362393281.10143089        1175856470.1481285     
  -908659284.13754404        280719425.14218622        1388608616.1894450     
  -762193226.26139641        339461387.90486854        1221226649.8574696     
  -613046633.43602324        407138467.16496599        1064748073.2550271     
  -461219505.66143012        483750662.92245984        919172886.38211238     
  -306711842.93762320        569297975.17734313        784501089.23874021     
  -1143836847.4147348        301008694.66312671        1341012927.8402739     
  -964960426.85985279        363185948.81583464        1179334332.2657063     
  -781158029.99373460        441783124.00599581        1030890635.6244739     
  -592429656.81637096        536800220.23363280        895681837.91657555     
  -398775307.32777321        648237237.49874008        773707939.14201498     
  -1378727311.8722095        321384093.82997721        1289689007.3836656     
  -1160779073.7705872        388995075.83309048        1136333464.1555316     
  -935659417.99570704        480510783.41373032        998544329.06453443     
  -703368344.54756033        595931216.57193100        876321602.11067736     
  -463905853.42615473        735256375.30765414        769665283.29395676     
  -1613330677.5099552        341845622.64275551        1234636854.8196158     
  -1349649166.9935865        416888768.95666695        1092224045.5269384     
  -1076550797.4419286        523321445.38820195        967709153.57520092     
  -794035568.85498333        661143651.93735266        861092178.96440303     
  -502103481.23276550        830355388.60410285        772373121.69455767     
  -1847646944.3279884        362393281.10143089        1175856470.1481285     
  -1531570706.5288451        446867028.18658888        1047006076.3799279     
  -1203832168.3324094        570215109.92938495        938385109.15647650     
  -864431329.73865533        732437526.32990670        849993568.47777128     
  -513368190.74760485        933534277.38808966        781831454.34381843     
  -3764162341.6309195       -1129248702.4892759        800883211.96706975     
  -3774750757.5465393       -1007470474.2103763        885193394.41683519     
  -3785858405.8507280       -887423020.56004190        974420099.50783193     
  -3797485286.5434861       -769106341.53827238        1068563327.2400603     
  -3809631399.6248155       -652520437.14506912        1167623077.6135201     
  -4335963839.6600981       -1300789151.8980293        858930934.23952639     
  -4331252695.6530170       -1124793022.0591643        942539052.67815316     
  -4327545802.4176626       -952144394.79271877        1020487717.2868642     
  -4324843159.9540348       -782843270.09869289        1092776928.0656595     
  -4323144768.2621326       -616889647.97708762        1159406685.0145392     
  -4892123558.4475412       -1467637067.5342624        936349289.12644804     
  -4902329930.1496105       -1246488158.8249867        1018689488.7735875     
  -4914025571.0065603       -1030303480.6319846        1084794258.1196635     
  -4927210481.0183945       -819083032.95525706        1134663597.1646769     
  -4941884660.1851091       -612826815.79480350        1168297505.9086270     
  -5432641497.9932499       -1629792449.3979750        1033138276.6278350     
  -5487982461.0363159       -1372555884.5078425        1113644702.7031374     
  -5545297711.6174202       -1121900278.0778389        1167339722.0062299     
  -5604587249.7365637       -877825630.10796380        1194223334.5371122     
  -5665851075.3937473       -640331940.59821796        1194295540.2957847     
  -5957517658.2972221       -1787255297.4891667        1149297896.7436874     
  -6088210288.3131371       -1502996199.1077332        1227404694.4668038     
  -6221362224.2502441       -1226934787.1302826        1268124108.9465632     
  -6356973466.1085491       -959071061.55681491        1271456140.1829653     
  -6495044013.8880453       -699405022.38733053        1237400788.1760104     
  -3809631399.6248155       -652520437.14506912        1167623077.6135201     
  -3794052267.3611751       -533348879.99418819        1190432837.0326288     
  -3781733191.1787333       -425044176.44730461        1208576904.2611637     
  -3772674171.0774889       -327606326.50441074        1222055279.2991250     
  -3766875207.0574446       -241035330.16551399        1230867962.1465130     
  -4323144768.2621326       -616889647.97708762        1159406685.0145392     
  -4294091736.3511577       -459814854.76584816        1142974546.9872291     
  -4275299434.5318136       -336942495.19336820        1132825738.7114353     
  -4266767862.8040957       -248272569.25965238        1128960260.1871579     
  -4268497021.1680069       -193805076.96469450        1131378111.4143970     
  -4941884660.1851091       -612826815.79480350        1168297505.9086270     
  -4868074808.7922592       -408463910.57284021        1104456017.4227302     
  -4811526361.5014668       -261639019.02440643        1057846880.6304396     
  -4772239318.3127346       -172352141.14950085        1028470095.5317544     
  -4750213679.2260609       -140603276.94812322        1016325662.1266772     
  -5665851075.3937473       -640331940.59821796        1194295540.2957847     
  -5516001484.6844778       -379296047.41516900        1074877248.3391318     
  -5390413972.0876980       -199133747.94041634        983640330.01817524     
  -5289088537.6034069       -99845042.173960209        920584785.33291447     
  -5212025181.2316036       -81429930.115798712        885710614.28335011     
  -6495044013.8880453       -699405022.38733053        1237400788.1760104     
  -6237871764.0278158       -372311265.29283428        1054238239.7364331     
  -6011962266.2905035       -149426681.94139910        910206086.87464261     
  -5817315520.6761122       -30751272.333029270        805304329.59063768     
  -5653931527.1846371       -16285036.467720747        739532967.88441932     
  -3766875207.0574446       -241035330.16551399        1230867962.1465130     
  -3662387619.9067640       -140202576.75248945        1197151126.0902698     
  -3564757446.9155850       -62227870.537806511        1173664803.5132027     
  -3473984688.0839119       -7111211.5214710236        1160408994.4153087     
  -3390069343.4117398        25147400.296524763        1157383698.7965908     
  -4268497021.1680069       -193805076.96469450        1131378111.4143970     
  -4148562989.5600538       -123301137.52227306        1097953056.7414925     
  -4031859992.5928411       -63567313.548989534        1073178326.0113019     
  -3918388030.2663689       -14603605.044842243        1057053919.2238237     
  -3808147102.5806379        23589987.990170479        1049579836.3790581     
  -4750213679.2260609       -140603276.94812322        1016325662.1266772     
  -4619348030.4078674       -101782599.65041375        987423164.94233239     
  -4488087036.7116537       -61644106.092636347        965590802.16424048     
  -4356430698.1374168       -20187796.274787426        950828573.79239893     
  -4224379014.6851630        22586329.803130388        943136479.82680857     
  -5212025181.2316036       -81429930.115798712        885710614.28335011     
  -5074742742.4502068       -75646963.136912107        865561450.69278967     
  -4933438579.2720232       -56458248.168750525        850902231.97201836     
  -4788112691.6970587       -23863785.211312771        841732958.12103629     
  -4638765079.7253113        22136425.735400438        838053629.13984382     
  -5653931527.1846371       -16285036.467720747        739532967.88441932     
  -5514747125.6870670       -44894227.981767178        732367913.99286330     
  -5367914620.2739515       -48009739.777334690        729112615.43463480     
  -5213434010.9452925       -25631571.854415417        729767072.20973527     
  -5051305297.7010860        22240275.786986828        734331284.31816316     
  -3390069343.4117398        25147400.296524763        1157383698.7965908     
  -3327590200.2179284        42962245.431472301        1149981848.9130886     
  -3263536877.7478213        66024354.820738316        1144687283.6304119     
  -3197909376.0014210        94333728.464313626        1141500002.9485598     
  -3130707694.9787264        127890366.36220360        1140420006.8675358     
  -3808147102.5806379        23589987.990170479        1049579836.3790581     
  -3737277069.9451394        46021725.792042732        1044694880.1740742     
  -3665780785.1203675        70540970.891487122        1043091732.9387341     
  -3593658248.1063313        97147723.288487434        1044770394.6730378     
  -3520909458.9030209        125841982.98305821        1049730865.3769866     
  -4224379014.6851630        22586329.803130388        943136479.82680857     
  -4141762308.6970654        50641695.445202351        939662502.36548185     
  -4059467277.6067224        77624811.428091526        940644858.24261630     
  -3977493921.4141355        103535677.75179482        946083547.45821261     
  -3895842240.1193032        128374294.41631222        955978570.01227224     
  -4638765079.7253113        22136425.735400438        838053629.13984382     
  -4541045916.4737082        56822154.390941381        834884715.48731053     
  -4444596355.2068834        87275876.430555344        837346659.54205883     
  -4349416395.9248428        113497591.85422683        845439461.30408609     
  -4255506038.6275778        135487300.66197228        859163120.77339435     
  -5051305297.7010860        22240275.786986828        734331284.31816316     
  -4935127893.2750673        64563102.629270554        730361519.53956223     
  -4821168017.9208498        99494165.898878098        733197136.83706152     
  -4709425671.6384411        127033465.59579873        742838136.21065784     
  -4599900854.4278364        147181001.72003555        759284517.66035414     
  -3130707694.9787264        127890366.36220360        1140420006.8675358     
  -3031647327.1673307        169813315.64546692        1142692680.0444348     
  -2934946607.6330428        203870770.67170620        1150612679.1726475     
  -2840605536.3758612        230062731.44092298        1164180004.2521722     
  -2748624113.3957872        248389197.95310986        1183394655.2830124     
  -3520909458.9030209        125841982.98305821        1049730865.3769866     
  -3408352335.5443254        163644174.94965935        1054534894.6505235     
  -3298290410.2921991        193129039.89436269        1065024661.6206694     
  -3190723683.1466427        214296577.81716537        1081200166.2874241     
  -3085652154.1076608        227146788.71804678        1103061408.6507871     
  -3895842240.1193032        128374294.41631222        955978570.01227224     
  -3769678613.3696046        162088653.41937447        963155813.91473997     
  -3646145734.5559387        187033852.63565016        976057207.25911093     
  -3525243603.6783123        203209892.06513429        994682750.04538536     
  -3406972220.7367220        210616771.70782781        1019032442.2735655     
  -4255506038.6275778        135487300.66197228        859163120.77339435     
  -4115626160.6431723        165146751.05459881        868555437.83708346     
  -3978512580.4242716        185585208.89555502        883710316.08797014     
  -3844165297.9708691        196802674.18483901        904627755.52605832     
  -3712584313.2829714        198799146.92245054        931307756.15134335     
  -4599900854.4278364        147181001.72003555        759284517.66035414     
  -4446194977.3650293        172818467.85533762        770733766.41755521     
  -4295390947.8971891        188783108.67408657        787983988.10725057     
  -4147488766.0243158        195074924.17627597        811035182.72943926     
  -4002488431.7464066        191693914.36191750        839887350.28412378     
  -2748624113.3957872        248389197.95310986        1183394655.2830124     
  -2628903355.3442712        270735708.44630420        1174248459.1265213     
  -2509659272.0093470        291493303.21752572        1169936464.6883969     
  -2390891863.3910017        310661982.26681542        1170458671.9686348     
  -2272601129.4892478        328241745.59413373        1175815080.9672382     
  -3085652154.1076608        227146788.71804678        1103061408.6507871     
  -2954033134.4722123        244719232.15738070        1099636453.3207169     
  -2822056508.8008442        263483695.71644926        1101631512.9646573     
  -2689722277.0935588        283440179.39524579        1109046587.5826118     
  -2557030439.3503561        304588683.19375300        1121881677.1745746     
  -3406972220.7367220        210616771.70782781        1019032442.2735655     
  -3261781187.3583441        223917273.74101186        1022302055.3145003     
  -3115398267.1915469        241190731.73559761        1031577496.5850964     
  -2967823460.2363248        262437145.69159985        1046858766.0853535     
  -2819056766.4926796        287656515.60900950        1068145863.8152696     
  -3712584313.2829714        198799146.92245054        931307756.15134335     
  -3552147514.0026708        208329833.19717669        942245265.10787511     
  -3389684547.1814384        224614411.27500296        959774415.54971230     
  -3225195412.8192849        247652881.15590930        983895207.47686303     
  -3058680110.9162045        277445242.83990467        1014607640.8893206     
  -4002488431.7464066        191693914.36191750        839887350.28412378     
  -3825132114.4051881        197956910.52589130        859466082.70083845     
  -3644915348.7705374        213754734.33463120        886222269.85851026     
  -3461838134.8424544        239087385.78814864        920155911.75713992     
  -3275900472.6209412        273954864.88643622        961267008.39672422     
  -2272601129.4892478        328241745.59413373        1175815080.9672382     
  -2165199687.6323895        340655948.02610719        1169021080.1059151     
  -2058573509.4865613        350485938.08797145        1166763311.3489561     
  -1952722595.0517566        357731715.77975965        1169041774.6963601     
  -1847646944.3279884        362393281.10143089        1175856470.1481285     
  -2557030439.3503561        304588683.19375300        1121881677.1745746     
  -2438280960.8592334        319565522.59645045        1121035604.7527637     
  -2321200488.3733974        328979008.64820063        1123791181.4135487     
  -2205789021.8928380        332829141.34902239        1130148407.1569254     
  -2092046561.4175611        331115920.69890296        1140107281.9828985     
  -2819056766.4926796        287656515.60900950        1068145863.8152696     
  -2691629488.5723462        304394920.82090378        1072205020.4896756     
  -2566764958.9515505        312590831.70102870        1078931243.2249091     
  -2444463177.6302900        312244248.24936712        1088324532.0209668     
  -2324724144.6085548        303355170.46593702        1100384886.8778524     
  -3058680110.9162045        277445242.83990467        1014607640.8893206     
  -2925245270.7717199        295144142.69949353        1022529327.3166492     
  -2795266921.2210259        301321407.24645317        1032183496.7830371     
  -2668745062.2641110        295977036.48081481        1043570149.2884805     
  -2545679693.9009895        279111030.40253806        1056689284.8329784     
  -3275900472.6209412        273954864.88643622        961267008.39672422     
  -3139128307.4573622        291813188.23218429        972008525.23368287     
  -3006706375.1818118        295170735.28450191        983547942.08793437     
  -2878634675.7943058        284027506.04333615        995885258.95946610     
  -2754913209.2948351        258383500.50872600        1009020475.8482901     
  -1847646944.3279884        362393281.10143089        1175856470.1481285     
  -1531570706.5288451        446867028.18658888        1047006076.3799279     
  -1203832168.3324094        570215109.92938495        938385109.15647650     
  -864431329.73865533        732437526.32990670        849993568.47777128     
  -513368190.74760485        933534277.38808966        781831454.34381843     
  -2092046561.4175611        331115920.69890296        1140107281.9828985     
  -1731140540.0909786        405592406.48526120        1022087384.3583307     
  -1367220037.0353165        490117164.70188969        920629569.35599816     
  -1000285052.2505758        584690195.34878922        835733836.97589660     
  -630335585.73676062        689311498.42593491        767400187.21802843     
  -2324724144.6085548        303355170.46593702        1100384886.8778524     
  -1929466465.2474370        364690957.30565453        983106363.61731768     
  -1539842122.8254619        407248954.34821999        878722579.05650353     
  -1155851117.3426342        431029161.59362543        787233533.19541025     
  -777493448.79895365        436031579.04187542        708639226.03402376     
  -2545679693.9009895        279111030.40253806        1056689284.8329784     
  -2126548481.9982219        324162680.64774394        930063014.15688789     
  -1721698425.7028310        321610478.86837459        812664138.25800037     
  -1331129525.0148141        271454425.06442761        704492657.13631308     
  -954841779.93416893        173694519.23590267        605548570.79182506     
  -2754913209.2948351        258383500.50872600        1009020475.8482901     
  -2322386590.3433385        284007576.51154053        862957335.97703731     
  -1912788945.6674337        233201738.26236665        722454246.96047807     
  -1526120275.2671332        105965985.76119000        587511208.79859984     
  -1162380579.1424279       -97699680.991976559        458128221.49141192     
  -5957517658.2972221       -1787255297.4891667        1149297896.7436874     
  -6088210288.3131371       -1502996199.1077332        1227404694.4668038     
  -6221362224.2502441       -1226934787.1302826        1268124108.9465632     
  -6356973466.1085491       -959071061.55681491        1271456140.1829653     
  -6495044013.8880453       -699405022.38733053        1237400788.1760104     
  -6812104737.2925377       -2043631421.1877615        1352676402.1669741     
  -6830173050.5920229       -1396303889.9690061        1202033113.9529576     
  -6899421606.7217083       -919577168.18425250        1091626275.8017085     
  -7019850405.6815929       -613451255.83350134        1021455887.7132260     
  -7191459447.4716806       -477926152.91675234        991521949.68751061     
  -8341755432.9122763       -2502526629.8736830        1711122045.5906658     
  -8025417048.6206913       -1425595951.5552135        1274887578.3790092     
  -7808979844.0683107       -681669205.70076466        956513394.53624451     
  -7692443819.2551384       -270746392.31033707        755999494.06237054     
  -7675808974.1811743       -192827511.38393354        673345876.95738828     
  -10546469745.156437       -3163940923.5469308        2224634827.0147614     
  -9673942282.3991413       -1590872383.8663549        1445968087.7449591     
  -8950036936.2900562       -513210899.67981911        862785465.15017200     
  -8374753706.8291845        69043529.012675762        475086959.23040050     
  -7948092594.0165243        155890902.21113110        282872569.98564363     
  -13426247674.025021       -4027874302.2075062        2893214746.4392624     
  -11775748751.927374       -1892133186.9024320        1715274642.0508063     
  -10322592883.386944       -414202250.12141657        810442487.64349091     
  -9066780068.4037304        405918508.13554049        178718283.21731439     
  -8008310306.9777374        568229087.86843443       -179897971.22772193     
  -6495044013.8880453       -699405022.38733053        1237400788.1760104     
  -6237871764.0278158       -372311265.29283428        1054238239.7364331     
  -6011962266.2905035       -149426681.94139910        910206086.87464261     
  -5817315520.6761122       -30751272.333029270        805304329.59063768     
  -5653931527.1846371       -16285036.467720747        739532967.88441932     
  -7191459447.4716806       -477926152.91675234        991521949.68751061     
  -6901180915.6213465       -301357373.30821466        847663370.79722321     
  -6624022753.2926836       -168523158.77190948        724877300.35675931     
  -6359984960.4856892       -79423509.307835102        623163738.36611521     
  -6109067537.2003660       -34058424.915994644        542522684.82529414     
  -7675808974.1811743       -192827511.38393354        673345876.95738828     
  -7404018123.5634918       -182261898.22818089        589957380.65118289     
  -7127205259.8662338       -154956241.47382975        509583505.66683453     
  -6845370383.0893936       -110910541.12087965        432224252.00434357     
  -6558513493.2329769       -50124797.169334173        357879619.66370976     
  -7948092594.0165243        155890902.21113110        282872569.98564363     
  -7746383387.8542528       -15024840.052728653        281120269.29831082     
  -7521509786.0111523       -108725930.04716063        264324702.80486861     
  -7273471788.4872246       -125212367.77216387        232485870.50532174     
  -7002269395.2824659       -64484153.227733612        185603772.39966771     
  -8008310306.9777374        568229087.86843443       -179897971.22772193     
  -7928276708.4936266        200353801.21813631       -78847963.261395246     
  -7806936331.7274437       -29832224.491905689       -10899108.229135474     
  -7644289176.6791763       -122328989.26168060        23948593.869048331     
  -7440335243.3488369       -77136493.091204166        25695143.033165164     
  -5653931527.1846371       -16285036.467720747        739532967.88441932     
  -5514747125.6870670       -44894227.981767178        732367913.99286330     
  -5367914620.2739515       -48009739.777334690        729112615.43463480     
  -5213434010.9452925       -25631571.854415417        729767072.20973527     
  -5051305297.7010860        22240275.786986828        734331284.31816316     
  -6109067537.2003660       -34058424.915994644        542522684.82529414     
  -5951405242.8925400       -32569518.392139196        543073115.88062835     
  -5791105857.6397924       -22290308.718545675        546981840.37100792     
  -5628169381.4421244       -3220795.8952190876        554248858.29643118     
  -5462595814.2995348        24639020.077847481        564874169.65690219     
  -6558513493.2329769       -50124797.169334173        357879619.66370976     
  -6383948911.5385580       -19010474.234676361        360299353.86687219     
  -6211758251.8698416        4190775.2809748650        365525919.60679811     
  -6041941514.2268276        19478951.377617836        373559316.88348621     
  -5874498698.6095123        26854054.055253983        384399545.69693834     
  -7002269395.2824659       -64484153.227733612        185603772.39966771     
  -6812378131.6251183       -4217095.5093755722        184046627.95159572     
  -6629871802.9640970        31433512.221233845        184744853.14200655     
  -6454750409.2993984        42467669.964093924        187698447.97089595     
  -6287013950.6310329        28885377.719187260        192907412.43827283     
  -7440335243.3488369       -77136493.091204166        25695143.033165164     
  -7236692903.1522226        11810617.783762932        14314938.134799752     
  -7045446510.9225540        59437902.102240086        4638640.9766353080     
  -6866596066.6598396        65745359.864206791       -3333748.4413335300     
  -6700141570.3640738        30732991.069680214       -9602230.1190989986     
  -5051305297.7010860        22240275.786986828        734331284.31816316     
  -4935127893.2750673        64563102.629270554        730361519.53956223     
  -4821168017.9208498        99494165.898878098        733197136.83706152     
  -4709425671.6384411        127033465.59579873        742838136.21065784     
  -4599900854.4278364        147181001.72003555        759284517.66035414     
  -5462595814.2995348        24639020.077847481        564874169.65690219     
  -5330684457.5139256        45691360.339066029        560824480.78411174     
  -5199240178.0060453        65186776.341192484        566981023.93822765     
  -5068262975.7758894        83125268.084227085        583343799.11925304     
  -4937752850.8234634        99506835.568178415        609912806.32718897     
  -5874498698.6095123        26854054.055253983        384399545.69693834     
  -5717136675.3191481        29550921.978950500        382312126.48971450     
  -5558491277.5124283        36525704.957150698        393831789.26020652     
  -5398562505.1893597        47778402.989856005        418958534.00841773     
  -5237350358.3499374        63309016.077063322        457692360.73434770     
  -6287013950.6310329        28885377.719187260        192907412.43827283     
  -6094484546.6907272        16141787.548927307        194824456.65636787     
  -5898921316.4399967        13510951.746760130        213749432.80299464     
  -5700324259.8788414        20992870.312678814        249682340.87815022     
  -5498693377.0072556        38587543.246691942        302623180.88183337     
  -6700141570.3640738        30732991.069680214       -9602230.1190989986     
  -6462728071.6286726        5463957.0489969254       -1638528.7159235664     
  -6220530294.7887592       -3857483.2899973392        26733954.566594724     
  -5973548239.8443441        2768670.0526933670        75515219.728449792     
  -5721781906.7954216        25342417.077072859        144705266.76964322     
  -4599900854.4278364        147181001.72003555        759284517.66035414     
  -4446194977.3650293        172818467.85533762        770733766.41755521     
  -4295390947.8971891        188783108.67408657        787983988.10725057     
  -4147488766.0243158        195074924.17627597        811035182.72943926     
  -4002488431.7464066        191693914.36191750        839887350.28412378     
  -4937752850.8234634        99506835.568178415        609912806.32718897     
  -4774331363.8861990        120957938.49514103        629902041.98816657     
  -4613610188.5629234        133408002.70881581        652529934.59123468     
  -4455589324.8536348        136857028.20918894        677796484.13639212     
  -4300268772.7583437        131305014.99626350        705701690.62363756     
  -5237350358.3499374        63309016.077063322        457692360.73434770     
  -5073248450.0822296        77863199.232489586        486456708.61024523     
  -4911645317.4475355        84088130.277876377        514697397.43782949     
  -4752540960.4458494        81983809.213231325        542414427.21709430     
  -4595935379.0771761        71550236.038542747        569607797.94804001     
  -5498693377.0072556        38587543.246691942        302623180.88183337     
  -5342946235.9531231        43534250.067372322        340397766.28379285     
  -5189496334.5510216        40823491.381276131        374486376.64702547     
  -5038343672.8009510        30455267.188405037        404889011.97153616     
  -4889488250.7029219        12429577.488749027        431605672.25733048     
  -5721781906.7954216        25342417.077072859        144705266.76964322     
  -5583424721.4988718        17971090.999813557        191725215.00880036     
  -5447163239.8733826        3614086.0190188885        231896872.21882689     
  -5312997461.9189444       -17728597.865282297        265220238.39972922     
  -5180927387.6355677       -46056960.653118372        291695313.55150604     
  -4002488431.7464066        191693914.36191750        839887350.28412378     
  -3825132114.4051881        197956910.52589130        859466082.70083845     
  -3644915348.7705374        213754734.33463120        886222269.85851026     
  -3461838134.8424544        239087385.78814864        920155911.75713992     
  -3275900472.6209412        273954864.88643622        961267008.39672422     
  -4300268772.7583437        131305014.99626350        705701690.62363756     
  -4105192335.8397918        136426359.50947499        728551631.80530465     
  -3908242009.9803329        147794000.49238753        758118437.53259528     
  -3709417795.1799626        165407937.94498587        794402107.80551398     
  -3508719691.4386935        189268171.86727357        837402642.62406075     
  -4595935379.0771761        71550236.038542747        569607797.94804001     
  -4384454794.5679522        75135137.304998636        594577961.98337662     
  -4172086880.4703422        81677803.866075993        625804400.36901057     
  -3958831636.7843504        91178235.721759319        663287113.10493970     
  -3744689063.5099707        103636432.87205696        707026100.19116879     
  -4889488250.7029219        12429577.488749027        431605672.25733048     
  -4662919490.5896740        14083243.912460327        457545073.23506004     
  -4436449960.2405672        15406144.455706596        489280158.36774826     
  -4210079659.6556053        16398279.118464231        526810927.65541708     
  -3983808588.8347802        17059647.900775194        570137381.09804964     
  -5180927387.6355677       -46056960.653118372        291695313.55150604     
  -4940586423.9049625       -46729320.668174267        317452965.56034374     
  -4701331249.2910137       -51020977.738742352        348545711.52883202     
  -4463161863.7937355       -58931931.864877701        384973551.45695198     
  -4226078267.4131198       -70462183.046565056        426736485.34470564     
  -3275900472.6209412        273954864.88643622        961267008.39672422     
  -3139128307.4573622        291813188.23218429        972008525.23368287     
  -3006706375.1818118        295170735.28450191        983547942.08793437     
  -2878634675.7943058        284027506.04333615        995885258.95946610     
  -2754913209.2948351        258383500.50872600        1009020475.8482901     
  -3508719691.4386935        189268171.86727357        837402642.62406075     
  -3356734770.7946162        194080167.64398718        848263879.81559932     
  -3209547442.3110485        182900189.55232692        873040027.56770813     
  -3067157705.9880009        155728237.59226942        911731085.88037729     
  -2929565561.8254633        112564311.76384914        964337054.75361502     
  -3744689063.5099707        103636432.87205696        707026100.19116879     
  -3540014214.4046030        106645252.97397256        717485138.58606529     
  -3340584316.7322216        92170901.632593870        754976098.08480442     
  -3146399370.4928370        60213378.847886801        819498978.68738914     
  -2957459375.6864471        10772684.619867086        911053780.39381540     
  -3983808588.8347802        17059647.900775194        570137381.09804964     
  -3688966638.2873263        29508444.222142220        579672301.54507887     
  -3399816998.4453397        22982871.525262594        629356153.63922131     
  -3116359669.3088298       -2517070.1898558140        719188937.38048851     
  -2838594650.8777914       -46991380.923223734        849170652.76888251     
  -4226078267.4131198       -70462183.046565056        426736485.34470564     
  -3803592042.4427829       -37330258.611527681        434825368.69263220     
  -3387245487.4504013       -24663900.769651890        496180194.23096538     
  -2977038602.4359684       -32463109.520948887        610800961.95969188     
  -2572971387.3994875       -60727884.865420103        778687671.87881601     
  -2754913209.2948351        258383500.50872600        1009020475.8482901     
  -2322386590.3433385        284007576.51154053        862957335.97703731     
  -1912788945.6674337        233201738.26236665        722454246.96047807     
  -1526120275.2671332        105965985.76119000        587511208.79859984     
  -1162380579.1424279       -97699680.991976559        458128221.49141192     
  -2929565561.8254633        112564311.76384914        964337054.75361502     
  -2474273206.6253614        110783616.38893664        844679764.84268439     
  -2049739412.7973301        6474383.1071331501        743298706.89392447     
  -1655964180.3413665       -200363388.08158243        660193880.90734446     
  -1292947509.2574720       -509729697.17717665        595365286.88294542     
  -2957459375.6864471        10772684.619867086        911053780.39381540     
  -2443069338.2163486       -7513198.3263630867        808667822.16398406     
  -1967267449.2147794       -154426242.83438325        737274277.00381875     
  -1530053708.6817567       -429966448.90419704        696873144.91331267     
  -1131428116.6172695       -834133816.53581607        687464425.89248753     
  -2838594650.8777914       -46991380.923223734        849170652.76888251     
  -2228774985.1162949       -70882867.634374022        754921507.94093621     
  -1665373054.9197898       -249500139.56217271        704380957.29014969     
  -1148388860.2883050       -582843196.70668817        697549000.81651616     
  -677822401.22181463       -1070912039.0678766        734425638.52004433     
  -2572971387.3994875       -60727884.865420103        778687671.87881601     
  -1831390147.3251827       -79325391.535027146        683440822.17354608     
  -1144056229.9123487       -278747307.07621694        644618747.75291979     
  -510969635.16097885       -658993631.48895788        662221448.61695075     
   67869636.928887308       -1220064364.7733562        736248924.76561534     
 </DataArray>
 <DataArray  type="Float64" Name="VM" NumberOfComponents="1" format="ascii">
   12942980133.045269     
   11348728692.868332     
   10218722876.078886     
   9281565878.5181198     
   8312855283.8598270     
   10134946441.311014     
   9327298522.9957867     
   8832128076.3406391     
   8449651594.3539000     
   8042111902.6247234     
   7984727552.6287374     
   7737871514.8184624     
   7672447565.4907894     
   7673258748.0351124     
   7670417376.1902351     
   6492223763.7725267     
   6587760019.5809793     
   6758552646.1207762     
   6962643356.2213621     
   7173413634.7222681     
   5656973583.0235968     
   5890187774.4726896     
   6115711522.6276979     
   6331188025.0645304     
   6536480693.4219675     
   8312855283.8598270     
   8031489562.4465027     
   7792085917.3714209     
   7583978100.9139223     
   7402202234.8091288     
   8042111902.6247234     
   7754184611.1297026     
   7481761175.5266781     
   7222914260.2105131     
   6977660478.8770685     
   7670417376.1902351     
   7385619981.3446779     
   7106031759.1110992     
   6831736712.4697523     
   6562933874.7345467     
   7173413634.7222681     
   6913247580.8189631     
   6660789559.4092493     
   6412143448.2682228     
   6164153917.8550844     
   6536480693.4219675     
   6329414245.5590792     
   6144354841.0649033     
   5967307671.2866592     
   5789288338.5750675     
   7402202234.8091288     
   7242647874.3261461     
   7075357271.0800791     
   6899706092.7323627     
   6715581402.9146767     
   6977660478.8770685     
   6817727233.2272568     
   6653343545.0197258     
   6484243724.7171078     
   6310358259.4398928     
   6562933874.7345467     
   6404939506.3617659     
   6246024160.9293547     
   6086194793.5926123     
   5925495695.5495424     
   6164153917.8550844     
   6009262514.1288166     
   5857122653.3126478     
   5707867304.4888878     
   5561690534.5670424     
   5789288338.5750675     
   5637016881.4360161     
   5491258119.9169817     
   5352065264.4133625     
   5219794015.9300022     
   6715581402.9146767     
   6465462404.6211281     
   6218774843.1557846     
   5976364502.6574154     
   5739969778.0756989     
   6310358259.4398928     
   6111893980.4825773     
   5917281617.8289251     
   5727200655.6717625     
   5542927140.9730806     
   5925495695.5495424     
   5770091798.8610306     
   5618407039.0462627     
   5470948121.9271126     
   5328589419.0565186     
   5561690534.5670424     
   5441086564.7524347     
   5323501845.1715326     
   5209258112.6592922     
   5098884768.3689909     
   5219794015.9300022     
   5126262452.6584091     
   5034478360.3734331     
   4944543235.9245434     
   4856676545.7125759     
   5739969778.0756989     
   5602282614.1419868     
   5463754699.6529512     
   5324010674.5422735     
   5182737745.4946060     
   5542927140.9730806     
   5397145800.0143604     
   5250248780.9178658     
   5102066632.9767361     
   4952461457.7217121     
   5328589419.0565186     
   5181587812.3343210     
   5033793980.9027605     
   4885247032.6097765     
   4736025848.3844891     
   5098884768.3689909     
   4957488660.8079815     
   4816230386.3437309     
   4675361912.5752163     
   4535222597.5206213     
   4856676545.7125759     
   4727472074.9506512     
   4599964783.5662498     
   4474608647.6658669     
   4352027706.8551893     
   5182737745.4946060     
   4948033624.6042433     
   4714838754.1658611     
   4483846334.3554211     
   4255964734.9170594     
   4952461457.7217121     
   4736742343.4391041     
   4524252359.0173283     
   4315862250.5889149     
   4112682114.6131182     
   4736025848.3844891     
   4540824221.0075436     
   4350705751.7522821     
   4166709741.0862198     
   3990135414.7942610     
   4535222597.5206213     
   4361609238.7885351     
   4195002275.6465430     
   4036574220.8291578     
   3887769904.8658814     
   4352027706.8551893     
   4200485663.4364433     
   4057879573.4936657     
   3925459028.6224675     
   3804750560.8334146     
   4255964734.9170594     
   3859266277.7672734     
   3482683156.5764370     
   3144264971.1909184     
   2878659757.1092749     
   4112682114.6131182     
   3837481101.5155430     
   3581297096.9956622     
   3354930403.3104730     
   3176430495.3693347     
   3990135414.7942610     
   3803282047.3723650     
   3631235388.5131779     
   3479604246.9131393     
   3356873360.5848908     
   3887769904.8658814     
   3757055483.9369807     
   3634318473.7390823     
   3521805142.2862325     
   3422663802.0785995     
   3804750560.8334146     
   3699962462.8570857     
   3594022869.1851745     
   3487145393.5395875     
   3379718909.1308942     
   2878659757.1092749     
   2148553169.2758479     
   1521269902.0988734     
   1293927579.1046205     
   1789456930.1673479     
   3176430495.3693347     
   2554251319.3490572     
   1977034274.1192422     
   1564894998.9068902     
   1580680451.1789916     
   3356873360.5848908     
   2812849074.3058543     
   2284931298.5233593     
   1823447361.2301776     
   1565237478.6297500     
   3422663802.0785995     
   2923843627.8035374     
   2423267067.2552385     
   1938591277.5255420     
   1528353152.2491112     
   3379718909.1308942     
   2892715204.9438920     
   2392703643.4339213     
   1880823485.9930501     
   1369946724.7430525     
   5656973583.0235968     
   5890187774.4726896     
   6115711522.6276979     
   6331188025.0645304     
   6536480693.4219675     
   5149549793.5273838     
   5309417303.1834688     
   5465872481.0822945     
   5616104865.5671482     
   5758723252.6970177     
   4640821002.0992851     
   4752794976.5543318     
   4865857650.2332973     
   4977438103.1332321     
   5085667945.0529919     
   4131070945.9248786     
   4221171169.7939248     
   4317171375.4467783     
   4417456488.2152443     
   4520608571.2716494     
   3621834767.5746794     
   3716381592.1982665     
   3822181206.5379972     
   3939191770.3123417     
   4067338556.0807538     
   6536480693.4219675     
   6329414245.5590792     
   6144354841.0649033     
   5967307671.2866592     
   5789288338.5750675     
   5758723252.6970177     
   5651904423.0187855     
   5561065419.4451551     
   5477112958.8419342     
   5394522439.8276062     
   5085667945.0529919     
   5053318861.9105425     
   5031647636.2166348     
   5015448127.4786367     
   5001515492.8065462     
   4520608571.2716494     
   4538208767.5582581     
   4560818775.5781851     
   4585987314.7685089     
   4611986570.5387831     
   4067338556.0807538     
   4111828197.5636568     
   4154123158.0139084     
   4193411701.3459916     
   4229019350.5615478     
   5789288338.5750675     
   5637016881.4360161     
   5491258119.9169817     
   5352065264.4133625     
   5219794015.9300022     
   5394522439.8276062     
   5255705220.3002291     
   5122067382.8763971     
   4993783460.8795099     
   4871172222.4591179     
   5001515492.8065462     
   4878891287.2079992     
   4761003877.6652775     
   4647921489.1813335     
   4539804035.2404833     
   4611986570.5387831     
   4508964211.1676769     
   4411210316.1320477     
   4318430779.1428804     
   4230511610.3897371     
   4229019350.5615478     
   4149551314.9852481     
   4077009677.6098785     
   4010431777.9252033     
   3949311972.2825913     
   5219794015.9300022     
   5126262452.6584091     
   5034478360.3734331     
   4944543235.9245434     
   4856676545.7125759     
   4871172222.4591179     
   4793063347.1065760     
   4717351817.1049547     
   4644163716.2781496     
   4573700830.1648455     
   4539804035.2404833     
   4473857655.7105312     
   4410765672.6747694     
   4350656536.2797775     
   4293702108.5614009     
   4230511610.3897371     
   4173190148.4704204     
   4118935981.3870945     
   4067870270.0748620     
   4020139614.4737501     
   3949311972.2825913     
   3896798403.8804703     
   3847262925.3213844     
   3800823688.9348073     
   3757625227.1191883     
   4856676545.7125759     
   4727472074.9506512     
   4599964783.5662498     
   4474608647.6658669     
   4352027706.8551893     
   4573700830.1648455     
   4461894225.3629456     
   4352492283.6192856     
   4245931496.0960951     
   4142808755.9541268     
   4293702108.5614009     
   4198902127.4090877     
   4107234602.4038000     
   4019102190.4682064     
   3935056033.0244069     
   4020139614.4737501     
   3941767826.3945856     
   3867278979.6558695     
   3797022940.4434571     
   3731484191.5037751     
   3757625227.1191883     
   3694830963.1249075     
   3636695384.5472636     
   3583494298.7582221     
   3535622855.9982119     
   4352027706.8551893     
   4200485663.4364433     
   4057879573.4936657     
   3925459028.6224675     
   3804750560.8334146     
   4142808755.9541268     
   4008073102.9473829     
   3881402549.1249175     
   3763787410.9165726     
   3656419303.7286510     
   3935056033.0244069     
   3815105383.5503654     
   3702396644.6594381     
   3597701529.1396327     
   3501935768.9120698     
   3731484191.5037751     
   3624459817.8204932     
   3523885419.0083899     
   3430345846.7351904     
   3344529407.9791417     
   3535622855.9982119     
   3439876017.9975576     
   3349800124.3016047     
   3265816051.7208476     
   3188423499.6271200     
   3804750560.8334146     
   3699962462.8570857     
   3594022869.1851745     
   3487145393.5395875     
   3379718909.1308942     
   3656419303.7286510     
   3555873682.0130115     
   3455834751.0779581     
   3356606297.6744275     
   3258633469.3716140     
   3501935768.9120698     
   3406716121.7970109     
   3313701926.6493821     
   3223277388.8726206     
   3135940767.1301942     
   3344529407.9791417     
   3255255624.0915632     
   3169944004.1043749     
   3089035056.3207688     
   3013061621.4559832     
   3188423499.6271200     
   3105085372.6903596     
   3027552844.8692608     
   2956285563.1717453     
   2891819198.1349416     
   3379718909.1308942     
   2892715204.9438920     
   2392703643.4339213     
   1880823485.9930501     
   1369946724.7430525     
   3258633469.3716140     
   2812772507.1835694     
   2366994725.2091632     
   1922463011.0932405     
   1485870320.5153983     
   3135940767.1301942     
   2731115829.4189863     
   2341052045.8228121     
   1969566802.3693497     
   1624850748.5412047     
   3013061621.4559832     
   2645274672.1559181     
   2307006693.7030630     
   2005652714.6263223     
   1753191376.2166791     
   2891819198.1349416     
   2553129959.8690243     
   2258871464.3721733     
   2020968925.5392649     
   1856895586.2692544     
   3621834767.5746794     
   3716381592.1982665     
   3822181206.5379972     
   3939191770.3123417     
   4067338556.0807538     
   3134979221.0483537     
   3252332447.0014582     
   3379109964.3340211     
   3514871085.0834136     
   3659182321.8075395     
   2692063764.4872203     
   2827641279.5218239     
   2970537639.2174883     
   3119707239.8603883     
   3274271050.9146719     
   2296594380.4142499     
   2447099903.6668587     
   2602325830.6311707     
   2760398222.4247456     
   2919929690.0831246     
   1953797912.4296072     
   2117649370.3947909     
   2282838136.3075743     
   2446470420.7779160     
   2606644678.9340601     
   4067338556.0807538     
   4111828197.5636568     
   4154123158.0139084     
   4193411701.3459916     
   4229019350.5615478     
   3659182321.8075395     
   3701521899.4777145     
   3742791084.7178721     
   3782163943.9362969     
   3818939667.2913580     
   3274271050.9146719     
   3320028168.4945383     
   3366156355.4344535     
   3411881203.7734284     
   3456552269.6407309     
   2919929690.0831246     
   2974695945.0657306     
   3031602213.7236342     
   3089984208.1888800     
   3149309615.0368285     
   2606644678.9340601     
   2675535483.8574281     
   2748624067.1731825     
   2825391024.5688138     
   2905460568.6501036     
   4229019350.5615478     
   4149551314.9852481     
   4077009677.6098785     
   4010431777.9252033     
   3949311972.2825913     
   3818939667.2913580     
   3768663808.9795079     
   3724616756.2153883     
   3686211800.1888819     
   3653165971.0697217     
   3456552269.6407309     
   3430577186.5010395     
   3409757290.6336141     
   3393773706.7909884     
   3382471826.5409560     
   3149309615.0368285     
   3143054971.0581436     
   3140309292.1591039     
   3140925419.7470779     
   3144815760.0360370     
   2905460568.6501036     
   2914793205.0943880     
   2925243261.6662760     
   2936759801.2742982     
   2949298168.1262536     
   3949311972.2825913     
   3896798403.8804703     
   3847262925.3213844     
   3800823688.9348073     
   3757625227.1191883     
   3653165971.0697217     
   3605010514.2725377     
   3560139530.7053833     
   3518653237.5537105     
   3480670571.9623904     
   3382471826.5409560     
   3339533221.4332232     
   3300377356.9270077     
   3265075724.2639909     
   3233715485.0299993     
   3144815760.0360370     
   3107803023.4527144     
   3075281553.5265880     
   3047281234.2683806     
   3023850014.7268577     
   2949298168.1262536     
   2918613803.3938012     
   2893344742.9135747     
   2873464208.5489082     
   2858971971.1897082     
   3757625227.1191883     
   3694830963.1249075     
   3636695384.5472636     
   3583494298.7582221     
   3535622855.9982119     
   3480670571.9623904     
   3434553960.8713512     
   3393497163.9023099     
   3357770901.5867529     
   3327732559.3665991     
   3233715485.0299993     
   3202979449.0240812     
   3177554914.4245281     
   3157679808.1017704     
   3143647478.2793579     
   3023850014.7268577     
   3006951095.5047598     
   2995410188.9206128     
   2989411574.6190720     
   2989168590.0231094     
   2858971971.1897082     
   2854019243.7357521     
   2854217637.4347124     
   2859689115.7853022     
   2870565996.1834683     
   3535622855.9982119     
   3439876017.9975576     
   3349800124.3016047     
   3265816051.7208476     
   3188423499.6271200     
   3327732559.3665991     
   3244764295.1275229     
   3168321590.4035301     
   3098815418.1825829     
   3036726782.3544002     
   3143647478.2793579     
   3073240397.1330647     
   3010235505.8870182     
   2955007244.4782772     
   2907987194.7735238     
   2989168590.0231094     
   2930613494.3060398     
   2880329315.1267300     
   2838626237.0775619     
   2805856607.7920675     
   2870565996.1834683     
   2822500332.4777689     
   2783535598.6980071     
   2753895865.3252544     
   2733833069.5412526     
   3188423499.6271200     
   3105085372.6903596     
   3027552844.8692608     
   2956285563.1717453     
   2891819198.1349416     
   3036726782.3544002     
   2966820917.6325564     
   2903890521.0069895     
   2848370810.3868279     
   2800747904.4933834     
   2907987194.7735238     
   2850362994.5352597     
   2800752352.6806989     
   2759534308.3642678     
   2727117703.9732752     
   2805856607.7920675     
   2758673992.3428822     
   2720389008.3772035     
   2691305566.2421699     
   2671744902.1213961     
   2733833069.5412526     
   2694502918.0206041     
   2664797922.2329464     
   2644946597.3977308     
   2635193554.3819270     
   2891819198.1349416     
   2553129959.8690243     
   2258871464.3721733     
   2020968925.5392649     
   1856895586.2692544     
   2800747904.4933834     
   2477269221.5969872     
   2192166073.0328798     
   1953718047.9473038     
   1774317622.5992064     
   2727117703.9732752     
   2413301430.8666711     
   2132420205.0069578     
   1890195452.1235864     
   1695303589.1727087     
   2671744902.1213961     
   2363472261.0591445     
   2082952025.1700981     
   1834088768.1035149     
   1622838929.3720870     
   2635193554.3819270     
   2330041053.1654201     
   2047498022.3057115     
   1790108869.0556247     
   1561764594.0830655     
   1953797912.4296072     
   2117649370.3947909     
   2282838136.3075743     
   2446470420.7779160     
   2606644678.9340601     
   1653187515.8004620     
   1819316500.7142825     
   1987065906.2838504     
   2153800053.7013245     
   2317808197.0092463     
   1394063995.2426844     
   1570894976.0306177     
   1748623550.1729147     
   1925293316.0434656     
   2099686491.4572825     
   1208526192.2963629     
   1399655701.2766373     
   1590261710.1600835     
   1779587266.7255862     
   1967185907.3036563     
   1138758483.3837833     
   1336172194.0554962     
   1533780246.8954837     
   1731582641.9037447     
   1929579379.0802794     
   2606644678.9340601     
   2675535483.8574281     
   2748624067.1731825     
   2825391024.5688138     
   2905460568.6501036     
   2317808197.0092463     
   2404714641.4295435     
   2493708305.8479948     
   2584396482.9685264     
   2676493163.7127914     
   2099686491.4572825     
   2202347026.8781400     
   2304547822.8129039     
   2406054297.0485911     
   2506697208.3483934     
   1967185907.3036563     
   2082572108.0312095     
   2194743349.3789606     
   2303625977.6952119     
   2409167953.2807183     
   1929579379.0802794     
   2054177715.2051611     
   2173004259.3515267     
   2286059011.5193772     
   2393341971.7087107     
   2905460568.6501036     
   2914793205.0943880     
   2925243261.6662760     
   2936759801.2742982     
   2949298168.1262536     
   2676493163.7127914     
   2690366126.4157729     
   2706232306.2802949     
   2724072267.6441331     
   2743870587.2478552     
   2506697208.3483934     
   2525265810.3756256     
   2546769296.1263199     
   2571206095.9564137     
   2598576516.8597994     
   2409167953.2807183     
   2431420750.3357663     
   2457580983.8322902     
   2487650648.7802615     
   2521632177.0997481     
   2393341971.7087107     
   2416982931.6032429     
   2445498389.3749537     
   2478888345.0238433     
   2517152798.5499110     
   2949298168.1262536     
   2918613803.3938012     
   2893344742.9135747     
   2873464208.5489082     
   2858971971.1897082     
   2743870587.2478552     
   2721228591.4009390     
   2703397621.7904210     
   2690359015.1474605     
   2682107838.5634165     
   2598576516.8597994     
   2582024929.8262877     
   2569460814.9161558     
   2560873683.1522412     
   2556258283.3093219     
   2521632177.0997481     
   2509432598.3772311     
   2500176545.3455577     
   2493860837.9016628     
   2490483341.1248932     
   2517152798.5499110     
   2507991419.9376640     
   2500557254.4612074     
   2494850302.1205397     
   2490870562.9156623     
   2858971971.1897082     
   2854019243.7357521     
   2854217637.4347124     
   2859689115.7853022     
   2870565996.1834683     
   2682107838.5634165     
   2685334033.2167125     
   2694406240.7885780     
   2709415386.6442084     
   2730457368.3923302     
   2556258283.3093219     
   2565992530.5436215     
   2582205532.1779766     
   2604947588.0408568     
   2634270575.5657797     
   2490483341.1248932     
   2504032447.1074061     
   2524620095.9341888     
   2552260947.6844220     
   2586969913.6918974     
   2490870562.9156623     
   2504693557.8979578     
   2526038496.0644975     
   2554905377.4152784     
   2591294201.9503031     
   2870565996.1834683     
   2822500332.4777689     
   2783535598.6980071     
   2753895865.3252544     
   2733833069.5412526     
   2730457368.3923302     
   2692557542.5789714     
   2663961388.3431821     
   2644808586.7517843     
   2635253147.1726117     
   2634270575.5657797     
   2604047050.9934201     
   2583211088.2477989     
   2571828682.9498978     
   2569971466.4333005     
   2586969913.6918974     
   2561437693.1930227     
   2545253117.2213378     
   2538432913.5803308     
   2540995059.7165384     
   2591294201.9503031     
   2567186156.0913882     
   2552268263.4829369     
   2546540524.1249590     
   2550002938.0174494     
   2733833069.5412526     
   2694502918.0206041     
   2664797922.2329464     
   2644946597.3977308     
   2635193554.3819270     
   2635253147.1726117     
   2600834418.3924141     
   2575583819.8391771     
   2559628523.8432784     
   2553104514.9294586     
   2569971466.4333005     
   2538739259.1942558     
   2516255867.0066743     
   2502576270.3005047     
   2497759348.1104345     
   2540995059.7165384     
   2511164605.4891987     
   2489701207.0970688     
   2476617978.8315210     
   2471929028.2264328     
   2550002938.0174494     
   2519849881.1153846     
   2497719313.2773690     
   2483611234.5034027     
   2477525644.7934971     
   2635193554.3819270     
   2330041053.1654201     
   2047498022.3057115     
   1790108869.0556247     
   1561764594.0830655     
   2553104514.9294586     
   2247729971.2722659     
   1964704649.9437220     
   1705605521.1985488     
   1472904025.2390122     
   2497759348.1104345     
   2192149550.0024323     
   1908986888.2831821     
   1649025214.6123855     
   1413465641.4408510     
   2471929028.2264328     
   2165814129.8613672     
   1882691803.5915313     
   1622759414.0400410     
   1386333171.7585111     
   2477525644.7934971     
   2170259446.3690262     
   1887024068.0762658     
   1627819509.9152155     
   1392645771.8858788     
   1138758483.3837833     
   1336172194.0554962     
   1533780246.8954837     
   1731582641.9037447     
   1929579379.0802794     
   1208526192.2962065     
   1399655701.2765241     
   1590261710.1600101     
   1779587266.7255502     
   1967185907.3036582     
   1394063995.2424567     
   1570894976.0304420     
   1748623550.1727912     
   1925293316.0433960     
   2099686491.4572685     
   1653187515.8002388     
   1819316500.7140977     
   1987065906.2837095     
   2153800053.7012320     
   2317808197.0092053     
   1953797912.4294398     
   2117649370.3946371     
   2282838136.3074427     
   2446470420.7778120     
   2606644678.9339890     
   1929579379.0802794     
   2054177715.2051611     
   2173004259.3515267     
   2286059011.5193772     
   2393341971.7087107     
   1967185907.3036582     
   2082572108.0311930     
   2194743349.3789282     
   2303625977.6951623     
   2409167953.2806540     
   2099686491.4572685     
   2202347026.8780966     
   2304547822.8128347     
   2406054297.0484982     
   2506697208.3482785     
   2317808197.0092053     
   2404714641.4294696     
   2493708305.8478894     
   2584396482.9683948     
   2676493163.7126389     
   2606644678.9339890     
   2675535483.8573241     
   2748624067.1730471     
   2825391024.5686541     
   2905460568.6499243     
   2393341971.7087107     
   2416982931.6032429     
   2445498389.3749537     
   2478888345.0238433     
   2517152798.5499110     
   2409167953.2806540     
   2431420750.3357096     
   2457580983.8322401     
   2487650648.7802143     
   2521632177.0997019     
   2506697208.3482785     
   2525265810.3755207     
   2546769296.1262193     
   2571206095.9563169     
   2598576516.8597012     
   2676493163.7126389     
   2690366126.4156308     
   2706232306.2801580     
   2724072267.6439962     
   2743870587.2477131     
   2905460568.6499243     
   2914793205.0942211     
   2925243261.6661134     
   2936759801.2741318     
   2949298168.1260734     
   2517152798.5499110     
   2507991419.9376640     
   2500557254.4612074     
   2494850302.1205397     
   2490870562.9156623     
   2521632177.0997019     
   2509432598.3771935     
   2500176545.3455348     
   2493860837.9016533     
   2490483341.1249032     
   2598576516.8597012     
   2582024929.8262076     
   2569460814.9161005     
   2560873683.1522198     
   2556258283.3093367     
   2743870587.2477131     
   2721228591.4008155     
   2703397621.7903309     
   2690359015.1474156     
   2682107838.5634308     
   2949298168.1260734     
   2918613803.3936415     
   2893344742.9134488     
   2873464208.5488338     
   2858971971.1896992     
   2490870562.9156623     
   2504693557.8979578     
   2526038496.0644975     
   2554905377.4152784     
   2591294201.9503031     
   2490483341.1249032     
   2504032447.1074286     
   2524620095.9342227     
   2552260947.6844606     
   2586969913.6919403     
   2556258283.3093367     
   2565992530.5436664     
   2582205532.1780434     
   2604947588.0409365     
   2634270575.5658641     
   2682107838.5634308     
   2685334033.2167664     
   2694406240.7886643     
   2709415386.6443238     
   2730457368.3924556     
   2858971971.1896992     
   2854019243.7358060     
   2854217637.4348187     
   2859689115.7854509     
   2870565996.1836405     
   2591294201.9503031     
   2567186156.0913882     
   2552268263.4829369     
   2546540524.1249590     
   2550002938.0174494     
   2586969913.6919403     
   2561437693.1930928     
   2545253117.2214408     
   2538432913.5804634     
   2540995059.7167091     
   2634270575.5658641     
   2604047050.9935575     
   2583211088.2479935     
   2571828682.9501586     
   2569971466.4336247     
   2730457368.3924556     
   2692557542.5791702     
   2663961388.3434639     
   2644808586.7521582     
   2635253147.1730795     
   2870565996.1836405     
   2822500332.4780326     
   2783535598.6983714     
   2753895865.3257313     
   2733833069.5418525     
   2550002938.0174494     
   2519849881.1153846     
   2497719313.2773690     
   2483611234.5034027     
   2477525644.7934971     
   2540995059.7167091     
   2511164605.4893966     
   2489701207.0973005     
   2476617978.8317757     
   2471929028.2267170     
   2569971466.4336247     
   2538739259.1946421     
   2516255867.0071154     
   2502576270.3009958     
   2497759348.1109767     
   2635253147.1730795     
   2600834418.3929725     
   2575583819.8398228     
   2559628523.8439937     
   2553104514.9302473     
   2733833069.5418525     
   2694502918.0213161     
   2664797922.2337713     
   2644946597.3986521     
   2635193554.3829436     
   2477525644.7934971     
   2170259446.3690262     
   1887024068.0762658     
   1627819509.9152155     
   1392645771.8858788     
   2471929028.2267170     
   2165814129.8616943     
   1882691803.5919075     
   1622759414.0404825     
   1386333171.7590168     
   2497759348.1109767     
   2192149550.0030642     
   1908986888.2839148     
   1649025214.6132109     
   1413465641.4418421     
   2553104514.9302473     
   2247729971.2731800     
   1964704649.9447687     
   1705605521.1997557     
   1472904025.2403820     
   2635193554.3829436     
   2330041053.1666036     
   2047498022.3070650     
   1790108869.0571449     
   1561764594.0847890     
   1953797912.4294398     
   2117649370.3946371     
   2282838136.3074427     
   2446470420.7778120     
   2606644678.9339890     
   2296594380.4141488     
   2447099903.6667628     
   2602325830.6310854     
   2760398222.4246731     
   2919929690.0830660     
   2692063764.4871616     
   2827641279.5217733     
   2970537639.2174449     
   3119707239.8603530     
   3274271050.9146414     
   3134979221.0483160     
   3252332447.0014358     
   3379109964.3340120     
   3514871085.0834155     
   3659182321.8075490     
   3621834767.5746393     
   3716381592.1982584     
   3822181206.5380158     
   3939191770.3123841     
   4067338556.0808144     
   2606644678.9339890     
   2675535483.8573241     
   2748624067.1730471     
   2825391024.5686541     
   2905460568.6499243     
   2919929690.0830660     
   2974695945.0656366     
   3031602213.7235079     
   3089984208.1887250     
   3149309615.0366492     
   3274271050.9146414     
   3320028168.4944692     
   3366156355.4343462     
   3411881203.7732849     
   3456552269.6405520     
   3659182321.8075490     
   3701521899.4776807     
   3742791084.7177963     
   3782163943.9361763     
   3818939667.2911911     
   4067338556.0808144     
   4111828197.5636697     
   4154123158.0138721     
   4193411701.3459044     
   4229019350.5614057     
   2905460568.6499243     
   2914793205.0942211     
   2925243261.6661134     
   2936759801.2741318     
   2949298168.1260734     
   3149309615.0366492     
   3143054971.0579700     
   3140309292.1589308     
   3140925419.7469039     
   3144815760.0358577     
   3456552269.6405520     
   3430577186.5008664     
   3409757290.6334443     
   3393773706.7908187     
   3382471826.5407915     
   3818939667.2911911     
   3768663808.9793458     
   3724616756.2152309     
   3686211800.1887317     
   3653165971.0695810     
   4229019350.5614057     
   4149551314.9851069     
   4077009677.6097431     
   4010431777.9250784     
   3949311972.2824841     
   2949298168.1260734     
   2918613803.3936415     
   2893344742.9134488     
   2873464208.5488338     
   2858971971.1896992     
   3144815760.0358577     
   3107803023.4525533     
   3075281553.5264573     
   3047281234.2682900     
   3023850014.7268200     
   3382471826.5407915     
   3339533221.4330769     
   3300377356.9268847     
   3265075724.2639027     
   3233715485.0299439     
   3653165971.0695810     
   3605010514.2724199     
   3560139530.7052846     
   3518653237.5536337     
   3480670571.9623332     
   3949311972.2824841     
   3896798403.8803868     
   3847262925.3213243     
   3800823688.9347634     
   3757625227.1191597     
   2858971971.1896992     
   2854019243.7358060     
   2854217637.4348187     
   2859689115.7854509     
   2870565996.1836405     
   3023850014.7268200     
   3006951095.5047855     
   2995410188.9207010     
   2989411574.6192117     
   2989168590.0233026     
   3233715485.0299439     
   3202979449.0240917     
   3177554914.4246078     
   3157679808.1019139     
   3143647478.2795715     
   3480670571.9623332     
   3434553960.8713617     
   3393497163.9023862     
   3357770901.5869045     
   3327732559.3668337     
   3757625227.1191597     
   3694830963.1249337     
   3636695384.5473523     
   3583494298.7583852     
   3535622855.9984622     
   2870565996.1836405     
   2822500332.4780326     
   2783535598.6983714     
   2753895865.3257313     
   2733833069.5418525     
   2989168590.0233026     
   2930613494.3063388     
   2880329315.1271429     
   2838626237.0780926     
   2805856607.7927308     
   3143647478.2795715     
   3073240397.1333957     
   3010235505.8874698     
   2955007244.4788523     
   2907987194.7742314     
   3327732559.3668337     
   3244764295.1278782     
   3168321590.4040093     
   3098815418.1831880     
   3036726782.3551311     
   3535622855.9984622     
   3439876017.9979334     
   3349800124.3021049     
   3265816051.7214732     
   3188423499.6278677     
   2733833069.5418525     
   2694502918.0213161     
   2664797922.2337713     
   2644946597.3986521     
   2635193554.3829436     
   2805856607.7927308     
   2758673992.3436971     
   2720389008.3781667     
   2691305566.2432990     
   2671744902.1226940     
   2907987194.7742314     
   2850362994.5361381     
   2800752352.6817608     
   2759534308.3655539     
   2727117703.9747972     
   3036726782.3551311     
   2966820917.6334591     
   2903890521.0080981     
   2848370810.3881950     
   2800747904.4950495     
   3188423499.6278677     
   3105085372.6912580     
   3027552844.8703604     
   2956285563.1731205     
   2891819198.1366534     
   2635193554.3829436     
   2330041053.1666036     
   2047498022.3070650     
   1790108869.0571449     
   1561764594.0847890     
   2671744902.1226940     
   2363472261.0607119     
   2082952025.1719401     
   1834088768.1056354     
   1622838929.3745010     
   2727117703.9747972     
   2413301430.8685274     
   2132420205.0091624     
   1890195452.1261454     
   1695303589.1755841     
   2800747904.4950495     
   2477269221.5990028     
   2192166073.0352697     
   1953718047.9500730     
   1774317622.6022856     
   2891819198.1366534     
   2553129959.8710661     
   2258871464.3745718     
   2020968925.5420511     
   1856895586.2723351     
   3621834767.5746393     
   3716381592.1982584     
   3822181206.5380158     
   3939191770.3123841     
   4067338556.0808144     
   4131070945.9248352     
   4221171169.7939167     
   4317171375.4468050     
   4417456488.2153053     
   4520608571.2717419     
   4640821002.0992603     
   4752794976.5543385     
   4865857650.2333345     
   4977438103.1333055     
   5085667945.0530996     
   5149549793.5274000     
   5309417303.1835022     
   5465872481.0823469     
   5616104865.5672255     
   5758723252.6971273     
   5656973583.0236759     
   5890187774.4727659     
   6115711522.6277695     
   6331188025.0646095     
   6536480693.4220600     
   4067338556.0808144     
   4111828197.5636697     
   4154123158.0138721     
   4193411701.3459044     
   4229019350.5614057     
   4520608571.2717419     
   4538208767.5583067     
   4560818775.5781927     
   4585987314.7684669     
   4611986570.5386906     
   5085667945.0530996     
   5053318861.9106226     
   5031647636.2166834     
   5015448127.4786463     
   5001515492.8065195     
   5758723252.6971273     
   5651904423.0188837     
   5561065419.4452391     
   5477112958.8420019     
   5394522439.8276520     
   6536480693.4220600     
   6329414245.5591831     
   6144354841.0650177     
   5967307671.2867832     
   5789288338.5751972     
   4229019350.5614057     
   4149551314.9851069     
   4077009677.6097431     
   4010431777.9250784     
   3949311972.2824841     
   4611986570.5386906     
   4508964211.1675873     
   4411210316.1319647     
   4318430779.1428070     
   4230511610.3896742     
   5001515492.8065195     
   4878891287.2079763     
   4761003877.6652622     
   4647921489.1813231     
   4539804035.2404833     
   5394522439.8276520     
   5255705220.3002844     
   5122067382.8764591     
   4993783460.8795776     
   4871172222.4591904     
   5789288338.5751972     
   5637016881.4361572     
   5491258119.9171314     
   5352065264.4135199     
   5219794015.9301653     
   3949311972.2824841     
   3896798403.8803868     
   3847262925.3213243     
   3800823688.9347634     
   3757625227.1191597     
   4230511610.3896742     
   4173190148.4703856     
   4118935981.3870807     
   4067870270.0748696     
   4020139614.4737792     
   4539804035.2404833     
   4473857655.7105551     
   4410765672.6748161     
   4350656536.2798433     
   4293702108.5614901     
   4871172222.4591904     
   4793063347.1066675     
   4717351817.1050692     
   4644163716.2782869     
   4573700830.1650047     
   5219794015.9301653     
   5126262452.6585865     
   5034478360.3736296     
   4944543235.9247589     
   4856676545.7128124     
   3757625227.1191597     
   3694830963.1249337     
   3636695384.5473523     
   3583494298.7583852     
   3535622855.9984622     
   4020139614.4737792     
   3941767826.3946595     
   3867278979.6560035     
   3797022940.4436564     
   3731484191.5040488     
   4293702108.5614901     
   4198902127.4092207     
   4107234602.4039826     
   4019102190.4684515     
   3935056033.0247188     
   4573700830.1650047     
   4461894225.3631458     
   4352492283.6195278     
   4245931496.0963902     
   4142808755.9544868     
   4856676545.7128124     
   4727472074.9509220     
   4599964783.5665598     
   4474608647.6662245     
   4352027706.8556013     
   3535622855.9984622     
   3439876017.9979334     
   3349800124.3021049     
   3265816051.7214732     
   3188423499.6278677     
   3731484191.5040488     
   3624459817.8208871     
   3523885419.0088978     
   3430345846.7358160     
   3344529407.9798670     
   3935056033.0247188     
   3815105383.5507836     
   3702396644.6599574     
   3597701529.1402512     
   3501935768.9127836     
   4142808755.9544868     
   4008073102.9478350     
   3881402549.1254525     
   3763787410.9171886     
   3656419303.7293420     
   4352027706.8556013     
   4200485663.4369383     
   4057879573.4942274     
   3925459028.6230903     
   3804750560.8340869     
   3188423499.6278677     
   3105085372.6912580     
   3027552844.8703604     
   2956285563.1731205     
   2891819198.1366534     
   3344529407.9798670     
   3255255624.0923858     
   3169944004.1053452     
   3089035056.3219237     
   3013061621.4573789     
   3501935768.9127836     
   3406716121.7977614     
   3313701926.6502175     
   3223277388.8735647     
   3135940767.1312852     
   3656419303.7293420     
   3555873682.0137067     
   3455834751.0786753     
   3356606297.6751866     
   3258633469.3724332     
   3804750560.8340869     
   3699962462.8577337     
   3594022869.1858082     
   3487145393.5401945     
   3379718909.1314931     
   2891819198.1366534     
   2553129959.8710661     
   2258871464.3745718     
   2020968925.5420511     
   1856895586.2723351     
   3013061621.4573789     
   2645274672.1575150     
   2307006693.7049546     
   2005652714.6286240     
   1753191376.2195227     
   3135940767.1312852     
   2731115829.4202380     
   2341052045.8243756     
   1969566802.3714144     
   1624850748.5439591     
   3258633469.3724332     
   2812772507.1845737     
   2366994725.2105613     
   1922463011.0952339     
   1485870320.5180888     
   3379718909.1314931     
   2892715204.9447560     
   2392703643.4352880     
   1880823485.9950488     
   1369946724.7453780     
   5656973583.0236759     
   5890187774.4727659     
   6115711522.6277695     
   6331188025.0646095     
   6536480693.4220600     
   6492223763.7726622     
   6587760019.5811119     
   6758552646.1209030     
   6962643356.2214775     
   7173413634.7223759     
   7984727552.6289005     
   7737871514.8186388     
   7672447565.4909678     
   7673258748.0352859     
   7670417376.1903925     
   10134946441.311176     
   9327298522.9959869     
   8832128076.3408680     
   8449651594.3541441     
   8042111902.6249704     
   12942980133.045404     
   11348728692.868534     
   10218722876.079161     
   9281565878.5184555     
   8312855283.8602066     
   6536480693.4220600     
   6329414245.5591831     
   6144354841.0650177     
   5967307671.2867832     
   5789288338.5751972     
   7173413634.7223759     
   6913247580.8190908     
   6660789559.4094000     
   6412143448.2684021     
   6164153917.8552933     
   7670417376.1903925     
   7385619981.3448467     
   7106031759.1112919     
   6831736712.4699717     
   6562933874.7348032     
   8042111902.6249704     
   7754184611.1299410     
   7481761175.5269165     
   7222914260.2107630     
   6977660478.8773336     
   8312855283.8602066     
   8031489562.4468327     
   7792085917.3717117     
   7583978100.9141846     
   7402202234.8093729     
   5789288338.5751972     
   5637016881.4361572     
   5491258119.9171314     
   5352065264.4135199     
   5219794015.9301653     
   6164153917.8552933     
   6009262514.1290445     
   5857122653.3128939     
   5707867304.4891443     
   5561690534.5673103     
   6562933874.7348032     
   6404939506.3620491     
   6246024160.9296589     
   6086194793.5929346     
   5925495695.5498724     
   6977660478.8773336     
   6817727233.2275581     
   6653343545.0200567     
   6484243724.7174559     
   6310358259.4402571     
   7402202234.8093729     
   7242647874.3264322     
   7075357271.0803947     
   6899706092.7327003     
   6715581402.9150305     
   5219794015.9301653     
   5126262452.6585865     
   5034478360.3736296     
   4944543235.9247589     
   4856676545.7128124     
   5561690534.5673103     
   5441086564.7527237     
   5323501845.1718445     
   5209258112.6596260     
   5098884768.3693495     
   5925495695.5498724     
   5770091798.8614101     
   5618407039.0466871     
   5470948121.9275866     
   5328589419.0570354     
   6310358259.4402571     
   6111893980.4830227     
   5917281617.8294611     
   5727200655.6723900     
   5542927140.9737968     
   6715581402.9150305     
   6465462404.6216269     
   6218774843.1564322     
   5976364502.6582174     
   5739969778.0766611     
   4856676545.7128124     
   4727472074.9509220     
   4599964783.5665598     
   4474608647.6662245     
   4352027706.8556013     
   5098884768.3693495     
   4957488660.8083534     
   4816230386.3441286     
   4675361912.5756397     
   4535222597.5210848     
   5328589419.0570354     
   5181587812.3348322     
   5033793980.9032717     
   4885247032.6102934     
   4736025848.3850088     
   5542927140.9737968     
   5397145800.0150480     
   5250248780.9185209     
   5102066632.9773579     
   4952461457.7223129     
   5739969778.0766611     
   5602282614.1428871     
   5463754699.6537838     
   5324010674.5430384     
   5182737745.4952955     
   4352027706.8556013     
   4200485663.4369383     
   4057879573.4942274     
   3925459028.6230903     
   3804750560.8340869     
   4535222597.5210848     
   4361609238.7890635     
   4195002275.6471357     
   4036574220.8297958     
   3887769904.8665686     
   4736025848.3850088     
   4540824221.0081282     
   4350705751.7529354     
   4166709741.0869317     
   3990135414.7950168     
   4952461457.7223129     
   4736742343.4397755     
   4524252359.0180740     
   4315862250.5897226     
   4112682114.6140013     
   5182737745.4952955     
   4948033624.6050129     
   4714838754.1667328     
   4483846334.3563871     
   4255964734.9181180     
   3804750560.8340869     
   3699962462.8577337     
   3594022869.1858082     
   3487145393.5401945     
   3379718909.1314931     
   3887769904.8665686     
   3757055483.9376488     
   3634318473.7397223     
   3521805142.2868452     
   3422663802.0791931     
   3990135414.7950168     
   3803282047.3731308     
   3631235388.5139461     
   3479604246.9139013     
   3356873360.5856380     
   4112682114.6140013     
   3837481101.5164962     
   3581297096.9966683     
   3354930403.3115087     
   3176430495.3703694     
   4255964734.9181180     
   3859266277.7684798     
   3482683156.5777826     
   3144264971.1923704     
   2878659757.1107297     
   3379718909.1314931     
   2892715204.9447560     
   2392703643.4352880     
   1880823485.9950488     
   1369946724.7453780     
   3422663802.0791931     
   2923843627.8044429     
   2423267067.2565460     
   1938591277.5272541     
   1528353152.2509043     
   3356873360.5856380     
   2812849074.3069038     
   2284931298.5247192     
   1823447361.2319069     
   1565237478.6318774     
   3176430495.3703694     
   2554251319.3503222     
   1977034274.1206615     
   1564894998.9085906     
   1580680451.1813924     
   2878659757.1107297     
   2148553169.2773480     
   1521269902.0999825     
   1293927579.1052701     
   1789456930.1688397     
 </DataArray>
 <DataArray  type="Float64" Name="strain" NumberOfComponents="3" format="ascii">
  0.20363142305604379        0.0000000000000000       0.12537263901236767     
  0.18680181326427409       -2.7343190644594367E-002   7.4328567822200861E-002
  0.16997220347250436       -4.4709593581574794E-002   3.5119174464551053E-002
  0.15314259368073466       -5.2099208810941267E-002   7.7444589394182542E-003
  0.13631298388896496       -4.9512036332693798E-002  -7.7955787531975157E-003
  0.15995479113486916        0.0000000000000000        9.6400842503974710E-002
  0.15327800945398359       -2.1855171680888446E-002   6.2658617135615963E-002
  0.14660122777309803       -3.6196669686784602E-002   3.7387370156508476E-002
  0.13992444609221247       -4.3024494017688493E-002   2.0587101566652277E-002
  0.13324766441132688       -4.2338644673600094E-002   1.2257811366047290E-002
  0.12651662406583236        0.0000000000000000        7.4148621975598517E-002
  0.12662897105256518       -1.6367152717182518E-002   5.5245128396426167E-002
  0.12674131803929800       -2.7683745791994428E-002   4.1448913763239364E-002
  0.12685366502603082       -3.3949779224435719E-002   3.2759978076038067E-002
  0.12696601201276367       -3.5165253014506390E-002   2.9178321334822288E-002
  0.10331692184893339        0.0000000000000000        5.8615977427239063E-002
  0.10685469806001886       -1.0879133753476595E-002   5.2088101604631468E-002
  0.11039247427110434       -1.9170821897204246E-002   4.7303805284743650E-002
  0.11393025048218983       -2.4875064431182946E-002   4.4263088467575588E-002
  0.11746802669327530       -2.7991861355412703E-002   4.2965951153127312E-002
   9.0355684484172250E-002   0.0000000000000000        4.9802908858896378E-002
   9.3955190476344624E-002  -5.3911147897706714E-003   5.3187536760231836E-002
   9.7554696468517027E-002  -1.0657898002414061E-002   5.4952044721021324E-002
  0.10115420246068940       -1.5800349637930176E-002   5.5096432741264884E-002
  0.10475370845286180       -2.0818469696319012E-002   5.3620700820962458E-002
  0.13631298388896496       -4.9512036332693798E-002  -7.7955787531975157E-003
  0.13313971414764555       -4.2980613562769311E-002  -3.4167450746556208E-003
  0.12996644440632618       -3.8537477917104733E-002  -4.7229468992438309E-004
  0.12679317466500678       -3.6182629395700015E-002   1.0377724009963570E-003
  0.12361990492368741       -3.5916067998555234E-002   1.1134561981065993E-003
  0.13324766441132688       -4.2338644673600094E-002   1.2257811366047290E-002
  0.12903126559730296       -3.8481502938391782E-002   1.2181878336263965E-002
  0.12481486678327908       -3.5795450095935960E-002   1.1454070454882056E-002
  0.12059846796925514       -3.4280486146232608E-002   1.0074387721901687E-002
  0.11638206915523128       -3.3936611089281699E-002   8.0428301373229177E-003
  0.12696601201276367       -3.5165253014506390E-002   2.9178321334822288E-002
  0.12248899256824730       -3.3982392314014287E-002   2.5564819828221008E-002
  0.11801197312373098       -3.3053422274767222E-002   2.2081951912233399E-002
  0.11353495367921466       -3.2378342896765173E-002   1.8729717586859318E-002
  0.10905793423469830       -3.1957154180008135E-002   1.5508116852098935E-002
  0.11746802669327530       -2.7991861355412703E-002   4.2965951153127312E-002
  0.11351289506047861       -2.9483281689636785E-002   3.6732079401215666E-002
  0.10955776342768196       -3.0311394453598449E-002   3.1411349682129663E-002
  0.10560263179488526       -3.0476199647297735E-002   2.7003761995869430E-002
  0.10164750016208858       -2.9977697270734585E-002   2.3509316342434888E-002
  0.10475370845286180       -2.0818469696319012E-002   5.3620700820962458E-002
  0.10210297307399686       -2.4984171065259290E-002   4.5683657055247816E-002
   9.9452237695131923E-002  -2.7569366632429700E-002   3.9442263764570919E-002
   9.6801502316266982E-002  -2.8574056397830335E-002   3.4896520948931906E-002
   9.4150766937402069E-002  -2.7998240361461063E-002   3.2046428608330596E-002
  0.12361990492368741       -3.5916067998555234E-002   1.1134561981065993E-003
  0.12067060147478487       -3.6380308145487220E-002   6.2031398584336261E-004
  0.11772129802588235       -3.6217864256313015E-002   2.0100777565522365E-004
  0.11477199457697983       -3.5428736331032509E-002  -1.4446243245722079E-004
  0.11182269112807730       -3.4012924369645703E-002  -4.1609663849445644E-004
  0.11638206915523128       -3.3936611089281699E-002   8.0428301373229177E-003
  0.11351855004953355       -3.3991605732966793E-002   7.9753538779055166E-003
  0.11065503094383587       -3.3673250885171466E-002   8.0056103028223538E-003
  0.10779151183813818       -3.2981546545895676E-002   8.1335994120736374E-003
  0.10492799273244047       -3.1916492715139466E-002   8.3593212056591593E-003
  0.10905793423469830       -3.1957154180008135E-002   1.5508116852098935E-002
  0.10630409615446433       -3.1602903320446331E-002   1.5612972000901698E-002
  0.10355025807423041       -3.1128637514029917E-002   1.5839456516297722E-002
  0.10079641999399644       -3.0534356760758892E-002   1.6187570398286853E-002
   9.8042581913762472E-002  -2.9820061060633368E-002   1.6657313646869190E-002
  0.10164750016208858       -2.9977697270734585E-002   2.3509316342434888E-002
   9.9027239789577240E-002  -2.9214200907925900E-002   2.3533168354832042E-002
   9.6406979417065886E-002  -2.8584024142888409E-002   2.3702546416081122E-002
   9.3786719044554559E-002  -2.8087166975622194E-002   2.4017450526182409E-002
   9.1166458672043191E-002  -2.7723629406127145E-002   2.4477880685135737E-002
   9.4150766937402069E-002  -2.7998240361461063E-002   3.2046428608330596E-002
   9.1687980954872211E-002  -2.6825498495405435E-002   3.1735942939696220E-002
   8.9225194972342367E-002  -2.6039410771746867E-002   3.1594880002172795E-002
   8.6762408989812551E-002  -2.5639977190485393E-002   3.1623239795760323E-002
   8.4299623007282665E-002  -2.5627197751620978E-002   3.1821022320458719E-002
  0.11182269112807730       -3.4012924369645703E-002  -4.1609663849445644E-004
  0.10773945431238102       -3.2404706308958336E-002  -7.1002911026130100E-005
  0.10365621749668474       -3.1038360085776082E-002   1.1584713645484690E-003
   9.9572980680988465E-002  -2.9913885700099171E-002   3.2723261882287857E-003
   9.5489743865292187E-002  -2.9031283151927267E-002   6.2705615600154863E-003
  0.10492799273244047       -3.1916492715139466E-002   8.3593212056591593E-003
  0.10165545138258250       -3.0741452525934312E-002   8.4423931217748188E-003
   9.8382910032724508E-002  -2.9719789111311554E-002   9.2624754214610527E-003
   9.5110368682866528E-002  -2.8851502471271200E-002   1.0819568104717868E-002
   9.1837827333008548E-002  -2.8136592605813249E-002   1.3113671171545327E-002
   9.8042581913762472E-002  -2.9820061060633368E-002   1.6657313646869190E-002
   9.5433365865207301E-002  -2.9078198742910358E-002   1.6566858814554955E-002
   9.2824149816652157E-002  -2.8401218136846977E-002   1.7066044201275700E-002
   9.0214933768096986E-002  -2.7789119242443289E-002   1.8154869807031526E-002
   8.7605717719541842E-002  -2.7241902059699341E-002   1.9833335631822657E-002
   9.1166458672043191E-002  -2.7723629406127145E-002   2.4477880685135737E-002
   8.9073197760255435E-002  -2.7414944959886285E-002   2.4302394167314088E-002
   8.6979936848467637E-002  -2.7082647162382369E-002   2.4569177703992182E-002
   8.4886675936679840E-002  -2.6726736013615346E-002   2.5278231295169953E-002
   8.2793415024892097E-002  -2.6347211513585267E-002   2.6429554940847408E-002
   8.4299623007282665E-002  -2.5627197751620978E-002   3.1821022320458719E-002
   8.2574947067726848E-002  -2.5751691176862296E-002   3.1648999180052539E-002
   8.0850271128171003E-002  -2.5764076187917685E-002   3.1771875929610754E-002
   7.9125595188615172E-002  -2.5664352784787355E-002   3.2189652569133066E-002
   7.7400919249059313E-002  -2.5452520967471276E-002   3.2902329098619620E-002
   9.5489743865292187E-002  -2.9031283151927267E-002   6.2705615600154863E-003
   9.3146934146631222E-002  -2.8216641790823227E-002   8.3080926503800723E-003
   9.0804124427970312E-002  -2.7296050966348961E-002   1.0048864462815388E-002
   8.8461314709309402E-002  -2.6269510678505095E-002   1.1492876997320961E-002
   8.6118504990648437E-002  -2.5137020927291975E-002   1.2640130253897208E-002
   9.1837827333008548E-002  -2.8136592605813249E-002   1.3113671171545327E-002
   8.9266775182876984E-002  -2.7440302014220291E-002   1.4750569872296948E-002
   8.6695723032745475E-002  -2.6627873195774518E-002   1.6227742988036920E-002
   8.4124670882613967E-002  -2.5699306150476105E-002   1.7545190518765172E-002
   8.1553618732482402E-002  -2.4654600878324884E-002   1.8702912464481636E-002
   8.7605717719541842E-002  -2.7241902059699341E-002   1.9833335631822657E-002
   8.4943456830857411E-002  -2.6663962237617328E-002   2.1079790706444432E-002
   8.2281195942173035E-002  -2.5959695425199852E-002   2.2303553888971789E-002
   7.9618935053488632E-002  -2.5129101622446616E-002   2.3504625179405436E-002
   7.6956674164804201E-002  -2.4172180829358070E-002   2.4683004577744916E-002
   8.2793415024892097E-002  -2.6347211513585267E-002   2.6429554940847408E-002
   8.0176979090572503E-002  -2.5887622461014517E-002   2.7295755152821930E-002
   7.7560543156252923E-002  -2.5291517654625187E-002   2.8276297165620072E-002
   7.4944107221933370E-002  -2.4558897094417376E-002   2.9371180979241917E-002
   7.2327671287613748E-002  -2.3689760780391117E-002   3.0580406593687395E-002
   7.7400919249059313E-002  -2.5452520967471276E-002   3.2902329098619620E-002
   7.4967341962022260E-002  -2.5111282684411568E-002   3.3398463211429835E-002
   7.2533764674985221E-002  -2.4623339884050528E-002   3.4145972817981499E-002
   7.0100187387948154E-002  -2.3988692566388040E-002   3.5144857918274409E-002
   6.7666610100911101E-002  -2.3207340731424220E-002   3.6395118512308755E-002
   8.6118504990648437E-002  -2.5137020927291975E-002   1.2640130253897208E-002
   8.2109460461728068E-002  -2.3924110108388574E-002   1.3756295174281341E-002
   7.8100415932807699E-002  -2.2656306617475142E-002   1.5103647499583261E-002
   7.4091371403887274E-002  -2.1333610454552496E-002   1.6682187229803358E-002
   7.0082326874966960E-002  -1.9956021619619624E-002   1.8491914364941131E-002
   8.1553618732482402E-002  -2.4654600878324884E-002   1.8702912464481636E-002
   7.7785741062712133E-002  -2.3549318184820478E-002   1.9826953173517459E-002
   7.4017863392941835E-002  -2.2439018875461583E-002   2.1202140195935693E-002
   7.0249985723171579E-002  -2.1323702950249147E-002   2.2828473531735879E-002
   6.6482108053401268E-002  -2.0203370409182186E-002   2.4705953180918117E-002
   7.6956674164804201E-002  -2.4172180829358070E-002   2.4683004577744916E-002
   7.3449922262648210E-002  -2.3174526261252437E-002   2.5765045019276969E-002
   6.9943170360492218E-002  -2.2221731133448136E-002   2.7118190682655224E-002
   6.6436418458336186E-002  -2.1313795445945687E-002   2.8742441567880028E-002
   6.2929666556180236E-002  -2.0450719198744916E-002   3.0637797674951311E-002
   7.2327671287613748E-002  -2.3689760780391117E-002   3.0580406593687395E-002
   6.9102004061536285E-002  -2.2799734337684313E-002   3.1570570711559776E-002
   6.5876336835458793E-002  -2.2004443391434633E-002   3.2851798959742780E-002
   6.2650669609381329E-002  -2.1303887941642504E-002   3.4424091338236457E-002
   5.9425002383303817E-002  -2.0698067988307617E-002   3.6287447847040528E-002
   6.7666610100911101E-002  -2.3207340731424220E-002   3.6395118512308755E-002
   6.4741986459376316E-002  -2.2424942414116161E-002   3.7243530250365864E-002
   6.1817362817841545E-002  -2.1787155649421200E-002   3.8402965027197838E-002
   5.8892739176306767E-002  -2.1293980437339256E-002   3.9873422842804637E-002
   5.5968115534771989E-002  -2.0945416777870207E-002   4.1654903697186274E-002
   7.0082326874966960E-002  -1.9956021619619624E-002   1.8491914364941131E-002
   6.3206549414301150E-002  -1.8395789235350180E-002   1.8842432643348506E-002
   5.6330771953635450E-002  -1.6525162424416789E-002   2.1501141750008446E-002
   4.9454994492969723E-002  -1.4344141186819613E-002   2.6468041684920257E-002
   4.2579217032303940E-002  -1.1852725522558893E-002   3.3743132448084801E-002
   6.6482108053401268E-002  -2.0203370409182186E-002   2.4705953180918117E-002
   6.1630319525883381E-002  -1.8936640595133336E-002   2.5119133066952459E-002
   5.6778530998365523E-002  -1.7382132850973731E-002   2.7272099991030141E-002
   5.1926742470847650E-002  -1.5539847176703633E-002   3.1164853953151869E-002
   4.7074953943329778E-002  -1.3409783572322809E-002   3.6797394953316354E-002
   6.2929666556180236E-002  -2.0450719198744916E-002   3.0637797674951311E-002
   5.9533463171601103E-002  -1.9477491954916132E-002   3.1091022672059793E-002
   5.6137259787022040E-002  -1.8239103277530352E-002   3.2715630917002428E-002
   5.2741056402442969E-002  -1.6735553166587213E-002   3.5511622409779238E-002
   4.9344853017863816E-002  -1.4966841622086835E-002   3.9478997150390438E-002
   5.9425002383303817E-002  -2.0698067988307617E-002   3.6287447847040528E-002
   5.6915980351454364E-002  -2.0018343314699219E-002   3.6758101458669562E-002
   5.4406958319605001E-002  -1.9096073704087134E-002   3.7831734527924030E-002
   5.1897936287755624E-002  -1.7931259156470904E-002   3.9508347054803369E-002
   4.9388914255906177E-002  -1.6523899671850806E-002   4.1787939039308039E-002
   5.5968115534771989E-002  -2.0945416777870207E-002   4.1654903697186274E-002
   5.3777871065443184E-002  -2.0559194674482473E-002   4.2120369426782656E-002
   5.1587626596114405E-002  -1.9953044130643860E-002   4.2620410823795307E-002
   4.9397382126785655E-002  -1.9126965146354855E-002   4.3155027888223896E-002
   4.7207137657456821E-002  -1.8080957721614777E-002   4.3724220620068754E-002
   4.2579217032303940E-002  -1.1852725522558893E-002   3.3743132448084801E-002
   3.0126542164379377E-002  -7.8348608776971362E-003   2.9615768960858824E-002
   1.7673867296454648E-002  -1.0744926982969027E-003   2.7933479069305212E-002
   5.2211924285299749E-003   8.4283790156418487E-003   2.8696262773424575E-002
  -7.2314824393946431E-003   2.0673754264119104E-002   3.1904120073216635E-002
   4.7074953943329778E-002  -1.3409783572322809E-002   3.6797394953316354E-002
   3.6791835413748142E-002  -9.9624937983310846E-003   3.2713265344093911E-002
   2.6508716884166506E-002  -4.1685296152265683E-003   3.0523174815884735E-002
   1.6225598354584897E-002   3.9721089769898937E-003   3.0227123368689018E-002
   5.9424798250032884E-003   1.4459421978318954E-002   3.1825111002507178E-002
   4.9344853017863816E-002  -1.4966841622086835E-002   3.9478997150390438E-002
   4.0680256311965840E-002  -1.2090126718964644E-002   3.5042272293746124E-002
   3.2015659606067851E-002  -7.2625665321564281E-003   3.1948552003455588E-002
   2.3351062900169875E-002  -4.8416106166149914E-004   3.0197836279519094E-002
   1.4686466194271830E-002   8.2450896925190253E-003   2.9790125121936128E-002
   4.9388914255906177E-002  -1.6523899671850806E-002   4.1787939039308039E-002
   4.1791804859032403E-002  -1.4217759639598621E-002   3.6602789809815253E-002
   3.4194695462158552E-002  -1.0356603449086191E-002   3.2209610632017167E-002
   2.6597586065284746E-002  -4.9404311003137281E-003   2.8608401505913730E-002
   1.9000476668410843E-002   2.0307574067189860E-003   2.5799162431504069E-002
   4.7207137657456821E-002  -1.8080957721614777E-002   4.3724220620068754E-002
   4.0126481054947760E-002  -1.6345392560232430E-002   3.7394817892301757E-002
   3.3045824452438755E-002  -1.3450640366015953E-002   3.1306350701569619E-002
   2.5965167849929735E-002  -9.3967011389654020E-003   2.5458819047872810E-002
   1.8884511247420632E-002  -4.1835748790810534E-003   1.9852222931211028E-002
   9.0355684484172250E-002   0.0000000000000000        4.9802908858896378E-002
   9.3955190476344624E-002  -5.3911147897706714E-003   5.3187536760231836E-002
   9.7554696468517027E-002  -1.0657898002414061E-002   5.4952044721021324E-002
  0.10115420246068940       -1.5800349637930176E-002   5.5096432741264884E-002
  0.10475370845286180       -2.0818469696319012E-002   5.3620700820962458E-002
   8.2395062719563303E-002   0.0000000000000000        4.4769325320542230E-002
   8.4603594928064671E-002  -4.5639808967179295E-003   4.8257937117138897E-002
   8.6812127136566053E-002  -9.0281505901237489E-003   5.0584721286939478E-002
   8.9020659345067421E-002  -1.3392509080217449E-002   5.1749677829944010E-002
   9.1229191553568775E-002  -1.7657056366999040E-002   5.1752806746152465E-002
   7.4197207303120905E-002   0.0000000000000000        4.0575135862148400E-002
   7.5473058041701166E-002  -3.7368470036651886E-003   4.4143211180191100E-002
   7.6748908780281400E-002  -7.3984031778334299E-003   4.7007751185187636E-002
   7.8024759518861661E-002  -1.0984668522504728E-002   4.9168755877137968E-002
   7.9300610257441895E-002  -1.4495643037679079E-002   5.0626225256042143E-002
   6.5762118234845068E-002   0.0000000000000000        3.7220340483714906E-002
   6.6563579817254095E-002  -2.9097131106124476E-003   4.0843358949388453E-002
   6.7365041399663123E-002  -5.7686557655431160E-003   4.4221134415765737E-002
   6.8166502982072150E-002  -8.5768279647920054E-003   4.7353666882846736E-002
   6.8967964564481163E-002  -1.1334229708359119E-002   5.0240956350631465E-002
   5.7089795514735781E-002   0.0000000000000000        3.4704939185241729E-002
   5.7875160254723480E-002  -2.0825792175597057E-003   3.8358380424730984E-002
   5.8660524994711180E-002  -4.1389083532527970E-003   4.2224870978673848E-002
   5.9445889734698866E-002  -6.1689874070792790E-003   4.6304410847070342E-002
   6.0231254474686580E-002  -8.1728163790391484E-003   5.0597000029920479E-002
  0.10475370845286180       -2.0818469696319012E-002   5.3620700820962458E-002
  0.10210297307399686       -2.4984171065259290E-002   4.5683657055247816E-002
   9.9452237695131923E-002  -2.7569366632429700E-002   3.9442263764570919E-002
   9.6801502316266982E-002  -2.8574056397830335E-002   3.4896520948931906E-002
   9.4150766937402069E-002  -2.7998240361461063E-002   3.2046428608330596E-002
   9.1229191553568775E-002  -1.7657056366999040E-002   5.1752806746152465E-002
   9.0036877840996302E-002  -2.1258406633170017E-002   4.6578014094698146E-002
   8.8844564128423842E-002  -2.3633174061431866E-002   4.2624414300790885E-002
   8.7652250415851368E-002  -2.4781358651784591E-002   3.9892007364430798E-002
   8.6459936703278895E-002  -2.4702960404228182E-002   3.8380793285617866E-002
   7.9300610257441895E-002  -1.4495643037679079E-002   5.0626225256042143E-002
   7.9092260593671235E-002  -1.7532642201080754E-002   4.7859760754987400E-002
   7.8883910929900575E-002  -1.9696981490434015E-002   4.5840031493989068E-002
   7.8675561266129942E-002  -2.0988660905738862E-002   4.4567037473047258E-002
   7.8467211602359282E-002  -2.1407680446995286E-002   4.4040778692161907E-002
   6.8967964564481163E-002  -1.1334229708359119E-002   5.0240956350631465E-002
   6.9269121332021691E-002  -1.3806877768991484E-002   4.9528897036115564E-002
   6.9570278099562177E-002  -1.5760788919436150E-002   4.9089115344165463E-002
   6.9871434867102664E-002  -1.7195963159693139E-002   4.8921611274781250E-002
   7.0172591634643150E-002  -1.8112400489762415E-002   4.9026384827962802E-002
   6.0231254474686580E-002  -8.1728163790391484E-003   5.0597000029920479E-002
   6.0567460056047580E-002  -1.0081113336902215E-002   5.1585422938082694E-002
   6.0903665637408566E-002  -1.1824596348438314E-002   5.2371665851320123E-002
   6.1239871218769552E-002  -1.3403265413647412E-002   5.2955728769632726E-002
   6.1576076800130566E-002  -1.4817120532529517E-002   5.3337611693020488E-002
   9.4150766937402069E-002  -2.7998240361461063E-002   3.2046428608330596E-002
   9.1687980954872211E-002  -2.6825498495405435E-002   3.1735942939696220E-002
   8.9225194972342367E-002  -2.6039410771746867E-002   3.1594880002172795E-002
   8.6762408989812551E-002  -2.5639977190485393E-002   3.1623239795760323E-002
   8.4299623007282665E-002  -2.5627197751620978E-002   3.1821022320458719E-002
   8.6459936703278895E-002  -2.4702960404228182E-002   3.8380793285617866E-002
   8.4200810891816663E-002  -2.4112930993302549E-002   3.7507662863359791E-002
   8.1941685080354404E-002  -2.3726222093547564E-002   3.6872430052125968E-002
   7.9682559268892145E-002  -2.3542833704963243E-002   3.6475094851916405E-002
   7.7423433457429913E-002  -2.3562765827549598E-002   3.6315657262731019E-002
   7.8467211602359282E-002  -2.1407680446995286E-002   4.4040778692161907E-002
   7.6480220841877888E-002  -2.1400363491199653E-002   4.2788337147506614E-002
   7.4493230081396564E-002  -2.1413033415348236E-002   4.1842268093788770E-002
   7.2506239320915225E-002  -2.1445690219441069E-002   4.1202571531008536E-002
   7.0519248560433859E-002  -2.1498333903478162E-002   4.0869247459165807E-002
   7.0172591634643150E-002  -1.8112400489762415E-002   4.9026384827962802E-002
   6.8526210805056012E-002  -1.8687795989096770E-002   4.7577965792136585E-002
   6.6879829975468832E-002  -1.9099844737148930E-002   4.6504394127161251E-002
   6.5233449145881695E-002  -1.9348546733918871E-002   4.5805669833036716E-002
   6.3587068316294557E-002  -1.9433901979406726E-002   4.5481792909763112E-002
   6.1576076800130566E-002  -1.4817120532529517E-002   5.3337611693020488E-002
   6.0338780781350923E-002  -1.5975228486993863E-002   5.1876548797249795E-002
   5.9101484762571273E-002  -1.6786656058949592E-002   5.0858808152243279E-002
   5.7864188743791622E-002  -1.7251403248396708E-002   5.0284389758000939E-002
   5.6626892725011965E-002  -1.7369470055335318E-002   5.0153293614522726E-002
   8.4299623007282665E-002  -2.5627197751620978E-002   3.1821022320458719E-002
   8.2574947067726848E-002  -2.5751691176862296E-002   3.1648999180052539E-002
   8.0850271128171003E-002  -2.5764076187917685E-002   3.1771875929610754E-002
   7.9125595188615172E-002  -2.5664352784787355E-002   3.2189652569133066E-002
   7.7400919249059313E-002  -2.5452520967471276E-002   3.2902329098619620E-002
   7.7423433457429913E-002  -2.3562765827549598E-002   3.6315657262731019E-002
   7.5968209379847274E-002  -2.3652265488883675E-002   3.6178337671121094E-002
   7.4512985302264620E-002  -2.3677579716542774E-002   3.6285021913493254E-002
   7.3057761224681994E-002  -2.3638708510526817E-002   3.6635709989847526E-002
   7.1602537147099327E-002  -2.3535651870835811E-002   3.7230401900183979E-002
   7.0519248560433859E-002  -2.1498333903478162E-002   4.0869247459165807E-002
   6.9282580288842308E-002  -2.1552839800905207E-002   4.0718708435841272E-002
   6.8045912017250798E-002  -2.1591083245167886E-002   4.0761277190516670E-002
   6.6809243745659289E-002  -2.1613064236266261E-002   4.0996953723192349E-002
   6.5572575474067779E-002  -2.1618782774200249E-002   4.1425738033867877E-002
   6.3587068316294557E-002  -1.9433901979406726E-002   4.5481792909763112E-002
   6.2518059794712047E-002  -1.9453414112926663E-002   4.5270111474213136E-002
   6.1449051273129607E-002  -1.9504586773792944E-002   4.5200641760681302E-002
   6.0380042751547146E-002  -1.9587419962005675E-002   4.5273383769167411E-002
   5.9311034229964664E-002  -1.9701913677564707E-002   4.5488337499671509E-002
   5.6626892725011965E-002  -1.7369470055335318E-002   5.0153293614522726E-002
   5.5674647897456492E-002  -1.7353988424948133E-002   4.9832546786236831E-002
   5.4722403069901011E-002  -1.7418090302418095E-002   4.9603115623986754E-002
   5.3770158242345517E-002  -1.7561775687745140E-002   4.9465000127772767E-002
   5.2817913414790058E-002  -1.7785044580929221E-002   4.9418200297594667E-002
   7.7400919249059313E-002  -2.5452520967471276E-002   3.2902329098619620E-002
   7.4967341962022260E-002  -2.5111282684411568E-002   3.3398463211429835E-002
   7.2533764674985221E-002  -2.4623339884050528E-002   3.4145972817981499E-002
   7.0100187387948154E-002  -2.3988692566388040E-002   3.5144857918274409E-002
   6.7666610100911101E-002  -2.3207340731424220E-002   3.6395118512308755E-002
   7.1602537147099327E-002  -2.3535651870835811E-002   3.7230401900183979E-002
   6.9419503099322183E-002  -2.3330576654123428E-002   3.7637402306275616E-002
   6.7236469051545081E-002  -2.2985649717043914E-002   3.8294113697145873E-002
   6.5053435003767965E-002  -2.2500871059596889E-002   3.9200536072794605E-002
   6.2870400955990835E-002  -2.1876240681782566E-002   4.0356669433221748E-002
   6.5572575474067779E-002  -2.1618782774200249E-002   4.1425738033867877E-002
   6.3638420156587744E-002  -2.1549870623835413E-002   4.1736751936307055E-002
   6.1704264839107750E-002  -2.1347959550037269E-002   4.2295812314561795E-002
   5.9770109521627722E-002  -2.1013049552805758E-002   4.3102919168632195E-002
   5.7835954204147770E-002  -2.0545140632140940E-002   4.4158072498518303E-002
   5.9311034229964664E-002  -1.9701913677564707E-002   4.5488337499671509E-002
   5.7624093133818902E-002  -1.9769164593547363E-002   4.5696512101524020E-002
   5.5937152037673181E-002  -1.9710269383030582E-002   4.6151068670229223E-002
   5.4250210941527481E-002  -1.9525228046014618E-002   4.6852007205787437E-002
   5.2563269845381760E-002  -1.9214040582499300E-002   4.7799327708198405E-002
   5.2817913414790058E-002  -1.7785044580929221E-002   4.9418200297594667E-002
   5.1376522031015726E-002  -1.7988458563259271E-002   4.9516682801926420E-002
   4.9935130647241435E-002  -1.8072579216023968E-002   4.9859882764148322E-002
   4.8493739263467138E-002  -1.8037406539223467E-002   5.0447800184260039E-002
   4.7052347879692841E-002  -1.7882940532857661E-002   5.1280435062261820E-002
   6.7666610100911101E-002  -2.3207340731424220E-002   3.6395118512308755E-002
   6.4741986459376316E-002  -2.2424942414116161E-002   3.7243530250365864E-002
   6.1817362817841545E-002  -2.1787155649421200E-002   3.8402965027197838E-002
   5.8892739176306767E-002  -2.1293980437339256E-002   3.9873422842804637E-002
   5.5968115534771989E-002  -2.0945416777870207E-002   4.1654903697186274E-002
   6.2870400955990835E-002  -2.1876240681782566E-002   4.0356669433221748E-002
   6.0244107732691829E-002  -2.1232901456624931E-002   4.0830628154670201E-002
   5.7617814509392892E-002  -2.0691996257147988E-002   4.1590224673815304E-002
   5.4991521286093907E-002  -2.0253525083351716E-002   4.2635458990657245E-002
   5.2365228062794922E-002  -1.9917487935236122E-002   4.3966331105195822E-002
   5.7835954204147770E-002  -2.0545140632140940E-002   4.4158072498518303E-002
   5.5482606158006507E-002  -2.0040860499133603E-002   4.4299755730290255E-002
   5.3129258111865252E-002  -1.9596836864874713E-002   4.4701691518680885E-002
   5.0775910065724003E-002  -1.9213069729364173E-002   4.5363879863690212E-002
   4.8422562019582741E-002  -1.8889559092601926E-002   4.6286320765318190E-002
   5.2563269845381760E-002  -1.9214040582499300E-002   4.7799327708198405E-002
   5.0457481735320171E-002  -1.8848819541642380E-002   4.7650912977226109E-002
   4.8351693625258596E-002  -1.8501677472601469E-002   4.7737365561794622E-002
   4.6245905515197014E-002  -1.8172614375376647E-002   4.8058685461903637E-002
   4.4140117405135487E-002  -1.7861630249967758E-002   4.8614872677553503E-002
   4.7052347879692841E-002  -1.7882940532857661E-002   5.1280435062261820E-002
   4.5168734464632904E-002  -1.7656778584151045E-002   5.0884099895477874E-002
   4.3285121049572953E-002  -1.7406518080328212E-002   5.0697246803156404E-002
   4.1401507634513009E-002  -1.7132159021389117E-002   5.0719875785297575E-002
   3.9517894219453065E-002  -1.6833701407333646E-002   5.0951986841901387E-002
   5.5968115534771989E-002  -2.0945416777870207E-002   4.1654903697186274E-002
   5.3777871065443184E-002  -2.0559194674482473E-002   4.2120369426782656E-002
   5.1587626596114405E-002  -1.9953044130643860E-002   4.2620410823795307E-002
   4.9397382126785655E-002  -1.9126965146354855E-002   4.3155027888223896E-002
   4.7207137657456821E-002  -1.8080957721614777E-002   4.3724220620068754E-002
   5.2365228062794922E-002  -1.9917487935236122E-002   4.3966331105195822E-002
   5.0229808559687020E-002  -1.9545295398839951E-002   4.4309604183708190E-002
   4.8094389056579062E-002  -1.8998358060202350E-002   4.4727951527246207E-002
   4.5958969553471132E-002  -1.8276675919323086E-002   4.5221373135809900E-002
   4.3823550050363203E-002  -1.7380248976202051E-002   4.5789869009399187E-002
   4.8422562019582741E-002  -1.8889559092601926E-002   4.6286320765318190E-002
   4.6382466080305329E-002  -1.8531396123197624E-002   4.6462217554537347E-002
   4.4342370141027793E-002  -1.8043671989760840E-002   4.6753687206391698E-002
   4.2302274201750305E-002  -1.7426386692291483E-002   4.7160729720881353E-002
   4.0262178262472859E-002  -1.6679540230789436E-002   4.7683345098006175E-002
   4.4140117405135487E-002  -1.7861630249967758E-002   4.8614872677553503E-002
   4.2235843627298035E-002  -1.7517496847555367E-002   4.8578209539270237E-002
   4.0331569849460576E-002  -1.7088985919319108E-002   4.8697617861231952E-002
   3.8427296071623152E-002  -1.6576097465259853E-002   4.8973097643438462E-002
   3.6523022293785665E-002  -1.5978831485376932E-002   4.9404648885889843E-002
   3.9517894219453065E-002  -1.6833701407333646E-002   5.0951986841901387E-002
   3.7789941200665256E-002  -1.6503597571912887E-002   5.0657580137906777E-002
   3.6061988181877419E-002  -1.6134299848877834E-002   5.0559743491766757E-002
   3.4334035163089624E-002  -1.5725808238228198E-002   5.0658476903480978E-002
   3.2606082144301829E-002  -1.5278122739964151E-002   5.0953780373049706E-002
   4.7207137657456821E-002  -1.8080957721614777E-002   4.3724220620068754E-002
   4.0126481054947760E-002  -1.6345392560232430E-002   3.7394817892301757E-002
   3.3045824452438755E-002  -1.3450640366015953E-002   3.1306350701569619E-002
   2.5965167849929735E-002  -9.3967011389654020E-003   2.5458819047872810E-002
   1.8884511247420632E-002  -4.1835748790810534E-003   1.9852222931211028E-002
   4.3823550050363203E-002  -1.7380248976202051E-002   4.5789869009399187E-002
   3.7063288103210412E-002  -1.6035453754103091E-002   4.0302730613430982E-002
   3.0303026156057566E-002  -1.3968666776289662E-002   3.5215445991140154E-002
   2.3542764208904818E-002  -1.1179888042761529E-002   3.0528015142526690E-002
   1.6782502261752041E-002  -7.6691175535190670E-003   2.6240438067590799E-002
   4.0262178262472859E-002  -1.6679540230789436E-002   4.7683345098006175E-002
   3.3981229207318608E-002  -1.5725514947973723E-002   4.2601275756717100E-002
   2.7700280152164351E-002  -1.4486693186563149E-002   3.8077978425747783E-002
   2.1419331097010105E-002  -1.2963074946557518E-002   3.4113453105098043E-002
   1.5138382041855858E-002  -1.1154660227956970E-002   3.0707699794768062E-002
   3.6523022293785665E-002  -1.5978831485376932E-002   4.9404648885889843E-002
   3.0880304367272359E-002  -1.5415576141844314E-002   4.4290453322160181E-002
   2.5237586440759026E-002  -1.5004719596836580E-002   3.9893948005392810E-002
   1.9594868514245710E-002  -1.4746261850353576E-002   3.6215132935587403E-002
   1.3952150587732373E-002  -1.4640202902394928E-002   3.3254008112743857E-002
   3.2606082144301829E-002  -1.5278122739964151E-002   5.0953780373049706E-002
   2.7760513583071689E-002  -1.5105637335714905E-002   4.5370263309760350E-002
   2.2914945021841576E-002  -1.5522746007110386E-002   4.0663354730075124E-002
   1.8069376460611464E-002  -1.6529448754149478E-002   3.6833054633994181E-002
   1.3223807899381379E-002  -1.8125745576832886E-002   3.3879363021517950E-002
   5.7089795514735781E-002   0.0000000000000000        3.4704939185241729E-002
   5.7875160254723480E-002  -2.0825792175597057E-003   3.8358380424730984E-002
   5.8660524994711180E-002  -4.1389083532527970E-003   4.2224870978673848E-002
   5.9445889734698866E-002  -6.1689874070792790E-003   4.6304410847070342E-002
   6.0231254474686580E-002  -8.1728163790391484E-003   5.0597000029920479E-002
   4.8589882381405811E-002   0.0000000000000000        3.2807963950678143E-002
   4.9523503156774701E-002  -1.7079426931295143E-003   3.6982093294925002E-002
   5.0457123932143598E-002  -3.4352783512497480E-003   4.1239685395480626E-002
   5.1390744707512488E-002  -5.1820069743607027E-003   4.5580740252345014E-002
   5.2324365482881385E-002  -6.9481285624623801E-003   5.0005257865518203E-002
   4.0672022073467921E-002   0.0000000000000000        3.1308446763973416E-002
   4.1624312326073158E-002  -1.3333061686993221E-003   3.5957621166120543E-002
   4.2576602578678402E-002  -2.7316483492466964E-003   4.0560671766431577E-002
   4.3528892831283639E-002  -4.1950265416421202E-003   4.5117598564906554E-002
   4.4481183083888869E-002  -5.7234407458855970E-003   4.9628401561545445E-002
   3.3336214590922106E-002   0.0000000000000000        3.0206387625127548E-002
   3.4177587762618845E-002  -9.5866964426913033E-004   3.5284964038317622E-002
   3.5018960934315578E-002  -2.0280183472436461E-003   4.0187830091526752E-002
   3.5860334106012311E-002  -3.2080461089235381E-003   4.4914985784754960E-002
   3.6701707277709050E-002  -4.4987529293088226E-003   4.9466431118002217E-002
   2.6582459933768381E-002   0.0000000000000000        2.9501786534140539E-002
   2.7183329466411759E-002  -5.8403311983893941E-004   3.4964121911516217E-002
   2.7784198999055140E-002  -1.3243883452405941E-003   4.0121160370766094E-002
   2.8385068531698518E-002  -2.2210656762049596E-003   4.4972901911890219E-002
   2.8985938064341903E-002  -3.2740651127320438E-003   4.9519346534888549E-002
   6.0231254474686580E-002  -8.1728163790391484E-003   5.0597000029920479E-002
   6.0567460056047580E-002  -1.0081113336902215E-002   5.1585422938082694E-002
   6.0903665637408566E-002  -1.1824596348438314E-002   5.2371665851320123E-002
   6.1239871218769552E-002  -1.3403265413647412E-002   5.2955728769632726E-002
   6.1576076800130566E-002  -1.4817120532529517E-002   5.3337611693020488E-002
   5.2324365482881385E-002  -6.9481285624623801E-003   5.0005257865518203E-002
   5.2494818496757294E-002  -8.6421215351568954E-003   5.1258046864998852E-002
   5.2665271510633202E-002  -1.0172464312046410E-002   5.2381510724434158E-002
   5.2835724524509110E-002  -1.1539156893130875E-002   5.3375649443824114E-002
   5.3006177538385012E-002  -1.2742199278410353E-002   5.4240463023168754E-002
   4.4481183083888869E-002  -5.7234407458855970E-003   4.9628401561545445E-002
   4.4558738385159162E-002  -7.2031297334115693E-003   5.1144392901822565E-002
   4.4636293686429462E-002  -8.5203322756544856E-003   5.2603913956933812E-002
   4.4713848987699756E-002  -9.6750483726143512E-003   5.4006964726879186E-002
   4.4791404288970063E-002  -1.0667278024291158E-002   5.5353545211658653E-002
   3.6701707277709050E-002  -4.4987529293088226E-003   4.9466431118002217E-002
   3.6759219721253199E-002  -5.7641379316662432E-003   5.1244461048553812E-002
   3.6816732164797354E-002  -6.8682002392625686E-003   5.3038875548819031E-002
   3.6874244608341503E-002  -7.8109398520978205E-003   5.4849674618797847E-002
   3.6931757051885651E-002  -8.5923567701719720E-003   5.6676858258490205E-002
   2.8985938064341903E-002  -3.2740651127320438E-003   4.9519346534888549E-002
   2.9096262505039383E-002  -4.3251461299209206E-003   5.1558251305192662E-002
   2.9206586945736877E-002  -5.2160682028706638E-003   5.3686395500089891E-002
   2.9316911386434368E-002  -5.9468313315812985E-003   5.5903779119580159E-002
   2.9427235827131859E-002  -6.5174355160527928E-003   5.8210402163663529E-002
   6.1576076800130566E-002  -1.4817120532529517E-002   5.3337611693020488E-002
   6.0338780781350923E-002  -1.5975228486993863E-002   5.1876548797249795E-002
   5.9101484762571273E-002  -1.6786656058949592E-002   5.0858808152243279E-002
   5.7864188743791622E-002  -1.7251403248396708E-002   5.0284389758000939E-002
   5.6626892725011965E-002  -1.7369470055335318E-002   5.0153293614522726E-002
   5.3006177538385012E-002  -1.2742199278410353E-002   5.4240463023168754E-002
   5.2160124306313088E-002  -1.3728441235687481E-002   5.3390762197026292E-002
   5.1314071074241144E-002  -1.4444732532764957E-002   5.2880224693535191E-002
   5.0468017842169213E-002  -1.4891073169642742E-002   5.2708850512695304E-002
   4.9621964610097262E-002  -1.5067463146320931E-002   5.2876639654506688E-002
   4.4791404288970063E-002  -1.0667278024291158E-002   5.5353545211658653E-002
   4.4232434915492946E-002  -1.1481653984381082E-002   5.5038476732835545E-002
   4.3673465542015830E-002  -1.2102809006580291E-002   5.4958412648550857E-002
   4.3114496168538706E-002  -1.2530743090888760E-002   5.5113352958804568E-002
   4.2555526795061596E-002  -1.2765456237306502E-002   5.5503297663596539E-002
   3.6931757051885651E-002  -8.5923567701719720E-003   5.6676858258490205E-002
   3.6555712608890484E-002  -9.2348667330746839E-003   5.6819692404677540E-002
   3.6179668165895310E-002  -9.7608854803956403E-003   5.7093372017290360E-002
   3.5803623722900135E-002  -1.0170413012134743E-002   5.7497897096328632E-002
   3.5427579279904954E-002  -1.0463449328292122E-002   5.8033267641792341E-002
   2.9427235827131859E-002  -6.5174355160527928E-003   5.8210402163663529E-002
   2.9129957386505728E-002  -6.9880794817683105E-003   5.8734409212552262E-002
   2.8832678945879594E-002  -7.4189619542109602E-003   5.9285102799753617E-002
   2.8535400505253466E-002  -7.8100829333807714E-003   5.9862482925267579E-002
   2.8238122064627329E-002  -8.1614424192776869E-003   6.0466549589094143E-002
   5.6626892725011965E-002  -1.7369470055335318E-002   5.0153293614522726E-002
   5.5674647897456492E-002  -1.7353988424948133E-002   4.9832546786236831E-002
   5.4722403069901011E-002  -1.7418090302418095E-002   4.9603115623986754E-002
   5.3770158242345517E-002  -1.7561775687745140E-002   4.9465000127772767E-002
   5.2817913414790058E-002  -1.7785044580929221E-002   4.9418200297594667E-002
   4.9621964610097262E-002  -1.5067463146320931E-002   5.2876639654506688E-002
   4.8770970643182983E-002  -1.5132489196768545E-002   5.2440915162907165E-002
   4.7919976676268725E-002  -1.5244738054954667E-002   5.2116376726554246E-002
   4.7068982709354466E-002  -1.5404209720879318E-002   5.1903024345447607E-002
   4.6217988742440180E-002  -1.5610904194542530E-002   5.1800858019587601E-002
   4.2555526795061596E-002  -1.2765456237306502E-002   5.5503297663596539E-002
   4.1825654077999062E-002  -1.2910989968588894E-002   5.4984956208802151E-002
   4.1095781360936494E-002  -1.3071385807491263E-002   5.4597671198464676E-002
   4.0365908643873932E-002  -1.3246643754013548E-002   5.4341442632584086E-002
   3.9636035926811398E-002  -1.3436763808155838E-002   5.4216270511160625E-002
   3.5427579279904954E-002  -1.0463449328292122E-002   5.8033267641792341E-002
   3.4838698201904633E-002  -1.0689490740409247E-002   5.7464669923921546E-002
   3.4249817123904305E-002  -1.0898033560027888E-002   5.7046999039718160E-002
   3.3660936045904005E-002  -1.1089077787147780E-002   5.6780254989182301E-002
   3.3072054967903664E-002  -1.1262623421769091E-002   5.6664437772313878E-002
   2.8238122064627329E-002  -8.1614424192776869E-003   6.0466549589094143E-002
   2.7810103014899758E-002  -8.4679915122296417E-003   5.9880056308265470E-002
   2.7382083965172169E-002  -8.7246813125644168E-003   5.9464360250314777E-002
   2.6954064915444602E-002  -8.9315118202819670E-003   5.9219461415242078E-002
   2.6526045865717010E-002  -9.0884830353824553E-003   5.9145359803047359E-002
   5.2817913414790058E-002  -1.7785044580929221E-002   4.9418200297594667E-002
   5.1376522031015726E-002  -1.7988458563259271E-002   4.9516682801926420E-002
   4.9935130647241435E-002  -1.8072579216023968E-002   4.9859882764148322E-002
   4.8493739263467138E-002  -1.8037406539223467E-002   5.0447800184260039E-002
   4.7052347879692841E-002  -1.7882940532857661E-002   5.1280435062261820E-002
   4.6217988742440180E-002  -1.5610904194542530E-002   5.1800858019587601E-002
   4.5008712034988366E-002  -1.5791658961820318E-002   5.2013907374110060E-002
   4.3799435327536593E-002  -1.5873311508589033E-002   5.2446468623387608E-002
   4.2590158620084785E-002  -1.5855861834848488E-002   5.3098541767420154E-002
   4.1380881912632977E-002  -1.5739309940598689E-002   5.3970126806207497E-002
   3.9636035926811398E-002  -1.3436763808155838E-002   5.4216270511160625E-002
   3.8633668332547041E-002  -1.3594859360381524E-002   5.4523695606817843E-002
   3.7631300738282664E-002  -1.3674043801154036E-002   5.5025427034095055E-002
   3.6628933144018293E-002  -1.3674317130473452E-002   5.5721464792992184E-002
   3.5626565549753929E-002  -1.3595679348339773E-002   5.6611808883509210E-002
   3.3072054967903664E-002  -1.1262623421769091E-002   5.6664437772313878E-002
   3.2251390923691697E-002  -1.1398059758942650E-002   5.7046047500049775E-002
   3.1430726879479745E-002  -1.1474776093719153E-002   5.7596757996270502E-002
   3.0610062835267775E-002  -1.1492772426098526E-002   5.8316569260976295E-002
   2.9789398791055820E-002  -1.1452048756080857E-002   5.9205481294166723E-002
   2.6526045865717010E-002  -9.0884830353824553E-003   5.9145359803047359E-002
   2.5861879808422375E-002  -9.2012601575037767E-003   5.9580963053805835E-002
   2.5197713751127761E-002  -9.2755083862840759E-003   6.0160461509914082E-002
   2.4533547693833129E-002  -9.3112277217234293E-003   6.0883855171372181E-002
   2.3869381636538525E-002  -9.3084181638218855E-003   6.1751144038180161E-002
   4.7052347879692841E-002  -1.7882940532857661E-002   5.1280435062261820E-002
   4.5168734464632904E-002  -1.7656778584151045E-002   5.0884099895477874E-002
   4.3285121049572953E-002  -1.7406518080328212E-002   5.0697246803156404E-002
   4.1401507634513009E-002  -1.7132159021389117E-002   5.0719875785297575E-002
   3.9517894219453065E-002  -1.6833701407333646E-002   5.0951986841901387E-002
   4.1380881912632977E-002  -1.5739309940598689E-002   5.3970126806207497E-002
   3.9711965355025802E-002  -1.5561733184619897E-002   5.3519679055627184E-002
   3.8043048797418641E-002  -1.5361208925692330E-002   5.3289142945489754E-002
   3.6374132239811480E-002  -1.5137737163815907E-002   5.3278518475795317E-002
   3.4705215682204291E-002  -1.4891317898990730E-002   5.3487805646543929E-002
   3.5626565549753929E-002  -1.3595679348339773E-002   5.6611808883509210E-002
   3.4182775415579958E-002  -1.3466687785088749E-002   5.6106097496964907E-002
   3.2738985281405952E-002  -1.3315899771056509E-002   5.5830727316844041E-002
   3.1295195147231974E-002  -1.3143315306242754E-002   5.5785698343146478E-002
   2.9851405013057983E-002  -1.2948934390647759E-002   5.5971010575872296E-002
   2.9789398791055820E-002  -1.1452048756080857E-002   5.9205481294166723E-002
   2.8581164646295336E-002  -1.1371642385557656E-002   5.8643355219491197E-002
   2.7372930501534911E-002  -1.1270590616420686E-002   5.8321999917219314E-002
   2.6164696356774483E-002  -1.1148893448669685E-002   5.8241415387351343E-002
   2.4956462212013999E-002  -1.1006550882304733E-002   5.8401601629886959E-002
   2.3869381636538525E-002  -9.3084181638218855E-003   6.1751144038180161E-002
   2.2907133047171999E-002  -9.2765969860264530E-003   6.1131452223205873E-002
   2.1944884457805486E-002  -9.2252814617848622E-003   6.0762960746615635E-002
   2.0982635868438980E-002  -9.1544715910964053E-003   6.0645669608409530E-002
   2.0020387279072460E-002  -9.0641673739618178E-003   6.0779578808587531E-002
   3.9517894219453065E-002  -1.6833701407333646E-002   5.0951986841901387E-002
   3.7789941200665256E-002  -1.6503597571912887E-002   5.0657580137906777E-002
   3.6061988181877419E-002  -1.6134299848877834E-002   5.0559743491766757E-002
   3.4334035163089624E-002  -1.5725808238228198E-002   5.0658476903480978E-002
   3.2606082144301829E-002  -1.5278122739964151E-002   5.0953780373049706E-002
   3.4705215682204291E-002  -1.4891317898990730E-002   5.3487805646543929E-002
   3.3178429946245924E-002  -1.4627445795051680E-002   5.3182440067073206E-002
   3.1651644210287495E-002  -1.4351615515833901E-002   5.3082838995407222E-002
   3.0124858474329098E-002  -1.4063827061337252E-002   5.3189002431545479E-002
   2.8598072738370686E-002  -1.3764080431561743E-002   5.3500930375488143E-002
   2.9851405013057983E-002  -1.2948934390647759E-002   5.5971010575872296E-002
   2.8534981009878946E-002  -1.2751294018190418E-002   5.5627450408590198E-002
   2.7218557006699964E-002  -1.2568931182789907E-002   5.5498849199062526E-002
   2.5902133003520966E-002  -1.2401845884446193E-002   5.5585206947289051E-002
   2.4585709000341946E-002  -1.2250038123159307E-002   5.5886523653270195E-002
   2.4956462212013999E-002  -1.1006550882304733E-002   5.8401601629886959E-002
   2.3859594391564418E-002  -1.0875142241329239E-002   5.7992611162457464E-002
   2.2762726571114784E-002  -1.0786246849746054E-002   5.7807774102732690E-002
   2.1665858750665175E-002  -1.0739864707555134E-002   5.7847090450712034E-002
   2.0568990930215539E-002  -1.0735995814756719E-002   5.8110560206395864E-002
   2.0020387279072460E-002  -9.0641673739618178E-003   6.0779578808587531E-002
   1.9152270091302243E-002  -8.9989904644679486E-003   6.0277922328675460E-002
   1.8284152903531997E-002  -9.0035625167020072E-003   6.0009613706417664E-002
   1.7416035715761773E-002  -9.0778835306642505E-003   5.9974652941814310E-002
   1.6547918527991534E-002  -9.2219535063544078E-003   6.0173040034865288E-002
   3.2606082144301829E-002  -1.5278122739964151E-002   5.0953780373049706E-002
   2.7760513583071689E-002  -1.5105637335714905E-002   4.5370263309760350E-002
   2.2914945021841576E-002  -1.5522746007110386E-002   4.0663354730075124E-002
   1.8069376460611464E-002  -1.6529448754149478E-002   3.6833054633994181E-002
   1.3223807899381379E-002  -1.8125745576832886E-002   3.3879363021517950E-002
   2.8598072738370686E-002  -1.3764080431561743E-002   5.3500930375488143E-002
   2.4578596627996205E-002  -1.3696391984206358E-002   4.7329708639470613E-002
   2.0559120517621772E-002  -1.4104778076970220E-002   4.1934063321559745E-002
   1.6539644407247280E-002  -1.4989238709853116E-002   3.7313994421755523E-002
   1.2520168296872802E-002  -1.6349773882855079E-002   3.3469501940058710E-002
   2.4585709000341946E-002  -1.2250038123159307E-002   5.5886523653270195E-002
   2.1291293275325501E-002  -1.2287146632697754E-002   4.9241116780049610E-002
   1.7996877550309091E-002  -1.2686810146830395E-002   4.3270254259438097E-002
   1.4702461825292695E-002  -1.3449028665556894E-002   3.7973936091436108E-002
   1.1408046100276209E-002  -1.4573802188877494E-002   3.3352162276043151E-002
   2.0568990930215539E-002  -1.0735995814756719E-002   5.8110560206395864E-002
   1.7898603525059641E-002  -1.0877901281189178E-002   5.1104487731497360E-002
   1.5228216119903756E-002  -1.1268842216690566E-002   4.4671927543710556E-002
   1.2557828714747893E-002  -1.1908818621260770E-002   3.8812879643035592E-002
   9.8874413095919669E-003  -1.2797830494899853E-002   3.3527344029472092E-002
   1.6547918527991534E-002  -9.2219535063544078E-003   6.0173040034865288E-002
   1.4400527377198588E-002  -9.4686559296804917E-003   5.2919821493813912E-002
   1.2253136226405628E-002  -9.8508742865505289E-003   4.6139083174376622E-002
   1.0105745075612647E-002  -1.0368608576964315E-002   3.9830825076553680E-002
   7.9583539248197499E-003  -1.1021858800922102E-002   3.3995047200344741E-002
   2.6582459933768381E-002   0.0000000000000000        2.9501786534140539E-002
   2.7183329466411759E-002  -5.8403311983893941E-004   3.4964121911516217E-002
   2.7784198999055140E-002  -1.3243883452405941E-003   4.0121160370766094E-002
   2.8385068531698518E-002  -2.2210656762049596E-003   4.4972901911890219E-002
   2.8985938064341903E-002  -3.2740651127320438E-003   4.9519346534888549E-002
   2.0074010004564703E-002   0.0000000000000000        2.9059148475464980E-002
   2.0408352502823517E-002  -4.3802483987949187E-004   3.4332028524722578E-002
   2.0742695001082331E-002  -9.9329125893088573E-004   3.9377151423336837E-002
   2.1077037499341148E-002  -1.6657992571541850E-003   4.4194517171307721E-002
   2.1411379997599962E-002  -2.4555488345493863E-003   4.8784125768635278E-002
   1.3474116705869045E-002   0.0000000000000000        2.8742978433553459E-002
   1.3619471937225727E-002  -2.9201655992004477E-004   3.3865483681083802E-002
   1.3764827168582407E-002  -6.6219417262118174E-004   3.8837771545453224E-002
   1.3910182399939084E-002  -1.1105328381034131E-003   4.3659842026661719E-002
   1.4055537631295769E-002  -1.6370325563667366E-003   4.8331695124709306E-002
   6.7827800376814105E-003   0.0000000000000000        2.8553276408405982E-002
   6.8166877696183856E-003  -1.4600827996059831E-004   3.3564487380599868E-002
   6.8505955015553616E-003  -3.3109708631147818E-004   3.8503020737115271E-002
   6.8845032334923359E-003  -5.5526641905263982E-004   4.3368876477952178E-002
   6.9184109654293101E-003  -8.1851627818408301E-004   4.8162054603110592E-002
   1.7989082445879490E-015   0.0000000000000000        2.8490042400022546E-002
   1.4988010832439613E-015  -1.1501216645726231E-015   3.3429039623270797E-002
   1.1984770814654766E-015  -1.7711526689723200E-015   3.8372898998322982E-002
   8.9869518077323463E-016  -1.8682971836270212E-015   4.3321620525179114E-002
   5.9717855660501584E-016  -1.4320142294188543E-015   4.8275204203839184E-002
   2.8985938064341903E-002  -3.2740651127320438E-003   4.9519346534888549E-002
   2.9096262505039383E-002  -4.3251461299209206E-003   5.1558251305192662E-002
   2.9206586945736877E-002  -5.2160682028706638E-003   5.3686395500089891E-002
   2.9316911386434368E-002  -5.9468313315812985E-003   5.5903779119580159E-002
   2.9427235827131859E-002  -6.5174355160527928E-003   5.8210402163663529E-002
   2.1411379997599962E-002  -2.4555488345493863E-003   4.8784125768635278E-002
   2.1581738729198666E-002  -3.2438595974409023E-003   5.1152680181894492E-002
   2.1752097460797374E-002  -3.9120511521531154E-003   5.3552063752363099E-002
   2.1922456192396078E-002  -4.4601234986860680E-003   5.5982276480041053E-002
   2.2092814923994782E-002  -4.8880766370397108E-003   5.8443318364928318E-002
   1.4055537631295769E-002  -1.6370325563667366E-003   4.8331695124709306E-002
   1.4227520386411972E-002  -2.1625730649608836E-003   5.0989859444863769E-002
   1.4399503141528181E-002  -2.6080341014355747E-003   5.3620442654843885E-002
   1.4571485896644388E-002  -2.9734156657908297E-003   5.6223444754649625E-002
   1.4743468651760594E-002  -3.2587177580266323E-003   5.8798865744281059E-002
   6.9184109654293101E-003  -8.1851627818408301E-004   4.8162054603110592E-002
   7.0336074766793070E-003  -1.0812865324808581E-003   5.1069789094100482E-002
   7.1488039879293022E-003  -1.3040170507180337E-003   5.3891532207532282E-002
   7.2640004991792973E-003  -1.4867078328955987E-003   5.6627283943406062E-002
   7.3791970104292934E-003  -1.6293588790135521E-003   5.9277044301721732E-002
   5.9717855660501584E-016  -1.4320142294188543E-015   4.8275204203839184E-002
   6.6916958085805334E-016  -8.4394297106271665E-016   5.1392469129604643E-002
   7.3834167946262852E-016  -4.8463837110102048E-016   5.4365332410428312E-002
   8.1022428349841746E-016  -3.6055143246005450E-016   5.7193794046310219E-002
   8.7950480232024120E-016  -4.7184478546569153E-016   5.9877854037250336E-002
   2.9427235827131859E-002  -6.5174355160527928E-003   5.8210402163663529E-002
   2.9129957386505728E-002  -6.9880794817683105E-003   5.8734409212552262E-002
   2.8832678945879594E-002  -7.4189619542109602E-003   5.9285102799753617E-002
   2.8535400505253466E-002  -7.8100829333807714E-003   5.9862482925267579E-002
   2.8238122064627329E-002  -8.1614424192776869E-003   6.0466549589094143E-002
   2.2092814923994782E-002  -4.8880766370397108E-003   5.8443318364928318E-002
   2.1834131289642258E-002  -5.2410596113263846E-003   5.8999099619294726E-002
   2.1575447655289730E-002  -5.5642214656583377E-003   5.9605383947895753E-002
   2.1316764020937205E-002  -5.8575622000356410E-003   6.0262171350731412E-002
   2.1058080386584688E-002  -6.1210818144582374E-003   6.0969461827801594E-002
   1.4743468651760594E-002  -3.2587177580266323E-003   5.8798865744281059E-002
   1.4547196359603684E-002  -3.4940397408844467E-003   5.9376480830806960E-002
   1.4350924067446775E-002  -3.7094809771057438E-003   6.0028415527489526E-002
   1.4154651775289868E-002  -3.9050414666905106E-003   6.0754669834328645E-002
   1.3958379483132952E-002  -4.0807212096387602E-003   6.1555243751324470E-002
   7.3791970104292934E-003  -1.6293588790135521E-003   5.9277044301721732E-002
   7.2691525963900043E-003  -1.7470198704425148E-003   5.9866552847088979E-002
   7.1591081823507187E-003  -1.8547404885531356E-003   6.0554197538534825E-002
   7.0490637683114313E-003  -1.9525207333453663E-003   6.1339978376059354E-002
   6.9390193542721440E-003  -2.0403606048192691E-003   6.2223895359662468E-002
   8.7950480232024120E-016  -4.7184478546569153E-016   5.9877854037250336E-002
   1.2203779653496838E-015  -5.9674487573602164E-016   6.0469315668140740E-002
   1.5638532135930916E-015  -5.2041704279304213E-016   6.1182729981031789E-002
   1.9042926957535400E-015  -2.4806545706468341E-016   6.2018096975923483E-002
   2.2482016248659420E-015   1.9428902930940239E-016   6.2975416652815808E-002
   2.8238122064627329E-002  -8.1614424192776869E-003   6.0466549589094143E-002
   2.7810103014899758E-002  -8.4679915122296417E-003   5.9880056308265470E-002
   2.7382083965172169E-002  -8.7246813125644168E-003   5.9464360250314777E-002
   2.6954064915444602E-002  -8.9315118202819670E-003   5.9219461415242078E-002
   2.6526045865717010E-002  -9.0884830353824553E-003   5.9145359803047359E-002
   2.1058080386584688E-002  -6.1210818144582374E-003   6.0969461827801594E-002
   2.0784910444623536E-002  -6.3509936341720474E-003   6.0490988087492342E-002
   2.0511740502662384E-002  -6.5435109844229934E-003   6.0151415339837942E-002
   2.0238570560701240E-002  -6.6986338652111005E-003   5.9950743584838345E-002
   1.9965400618740088E-002  -6.8163622765362308E-003   5.9888972822493669E-002
   1.3958379483132952E-002  -4.0807212096387602E-003   6.1555243751324470E-002
   1.3808162418715115E-002  -4.2339957561144323E-003   6.1172324728380231E-002
   1.3657945354297280E-002  -4.3623406562815423E-003   6.0896410467867750E-002
   1.3507728289879440E-002  -4.4657559101400675E-003   6.0727500969786977E-002
   1.3357511225461600E-002  -4.5442415176900064E-003   6.0665596234138114E-002
   6.9390193542721440E-003  -2.0403606048192691E-003   6.2223895359662468E-002
   6.8798589371744916E-003  -2.1169978780568276E-003   6.1924066230929060E-002
   6.8206985200768410E-003  -2.1811703281400911E-003   6.1699345634404233E-002
   6.7615381029791895E-003  -2.2328779550690623E-003   6.1549733570088166E-002
   6.7023776858815354E-003  -2.2721207588437958E-003   6.1475230037980631E-002
   2.2482016248659420E-015   1.9428902930940239E-016   6.2975416652815808E-002
   1.6583956430338276E-015   7.9103390504542404E-016   6.2746212595138892E-002
   1.0737938316296436E-015   1.3183898417423734E-015   6.2560220839447483E-002
   4.8572257327350599E-016   1.8700319071029980E-015   6.2417441385741554E-002
  -1.0061396160665481E-016   2.4147350785597155E-015   6.2317874234021131E-002
   2.6526045865717010E-002  -9.0884830353824553E-003   5.9145359803047359E-002
   2.5861879808422375E-002  -9.2012601575037767E-003   5.9580963053805835E-002
   2.5197713751127761E-002  -9.2755083862840759E-003   6.0160461509914082E-002
   2.4533547693833129E-002  -9.3112277217234293E-003   6.0883855171372181E-002
   2.3869381636538525E-002  -9.3084181638218855E-003   6.1751144038180161E-002
   1.9965400618740088E-002  -6.8163622765362308E-003   5.9888972822493669E-002
   1.9450666344038754E-002  -6.9009451181270137E-003   6.0316581285867463E-002
   1.8935932069337427E-002  -6.9566312897121133E-003   6.0899158109077964E-002
   1.8421197794636100E-002  -6.9834207912914340E-003   6.1636703292125089E-002
   1.7906463519934773E-002  -6.9813136228650818E-003   6.2529216835009144E-002
   1.3357511225461600E-002  -4.5442415176900064E-003   6.0665596234138114E-002
   1.3003281887840498E-002  -4.6006300787503618E-003   6.1075577686791817E-002
   1.2649052550219394E-002  -4.6377541931401506E-003   6.1651600653769234E-002
   1.2294823212598286E-002  -4.6556138608594942E-003   6.2393665135070490E-002
   1.1940593874977180E-002  -4.6542090819082227E-003   6.3301771130695350E-002
   6.7023776858815354E-003  -2.2721207588437958E-003   6.1475230037980631E-002
   6.5197264398275953E-003  -2.3003150393736682E-003   6.1857952256579175E-002
   6.3370751937736614E-003  -2.3188770965682712E-003   6.2417789143988392E-002
   6.1544239477197239E-003  -2.3278069304274712E-003   6.3154740700208239E-002
   5.9717727016657847E-003  -2.3271045409514468E-003   6.4068806925238739E-002
  -1.0061396160665481E-016   2.4147350785597155E-015   6.2317874234021131E-002
   6.2450045135165055E-017   3.0392355299113660E-015   6.2663704995229330E-002
   2.2377932840100812E-016   3.7678193898216250E-015   6.3197723579735118E-002
   3.8510861166685117E-016   4.4946685262559072E-015   6.3919929987538454E-002
   5.4817261840867104E-016   5.4400928206632670E-015   6.4830324218639379E-002
   2.3869381636538525E-002  -9.3084181638218855E-003   6.1751144038180161E-002
   2.2907133047171999E-002  -9.2765969860264530E-003   6.1131452223205873E-002
   2.1944884457805486E-002  -9.2252814617848622E-003   6.0762960746615635E-002
   2.0982635868438980E-002  -9.1544715910964053E-003   6.0645669608409530E-002
   2.0020387279072460E-002  -9.0641673739618178E-003   6.0779578808587531E-002
   1.7906463519934773E-002  -6.9813136228650818E-003   6.2529216835009144E-002
   1.7192755721191728E-002  -6.9574477395183826E-003   6.1920971497061036E-002
   1.6479047922448684E-002  -6.9189610963367038E-003   6.1558607401975718E-002
   1.5765340123705625E-002  -6.8658536933200003E-003   6.1442124549753244E-002
   1.5051632324962594E-002  -6.7981255304687127E-003   6.1571522940393586E-002
   1.1940593874977180E-002  -4.6542090819082227E-003   6.3301771130695350E-002
   1.1470107771336294E-002  -4.6382984930101179E-003   6.2700098683161898E-002
   1.0999621667695410E-002  -4.6126407308885453E-003   6.2338988382969918E-002
   1.0529135564054522E-002  -4.5772357955435952E-003   6.2218440230119451E-002
   1.0058649460413634E-002  -4.5320836869753578E-003   6.2338454224610512E-002
   5.9717727016657847E-003  -2.3271045409514468E-003   6.4068806925238739E-002
   5.7391891976057378E-003  -2.3191492465018670E-003   6.3468833781508346E-002
   5.5066056935457004E-003  -2.3063203654403591E-003   6.3104103689598123E-002
   5.2740221894856595E-003  -2.2886178977673012E-003   6.2974616649508222E-002
   5.0414386854256178E-003  -2.2660418434822110E-003   6.3080372661238365E-002
   5.4817261840867104E-016   5.4400928206632670E-015   6.4830324218639379E-002
   4.5102810375396984E-017   6.2727600891321345E-015   6.4227176792100549E-002
  -4.5796699765787707E-016   7.7160500211448380E-015   6.3853953321860529E-002
  -9.6190416742913953E-016   9.2564844678122427E-015   6.3710653807919543E-002
  -1.4641066137244252E-015   1.1102230246251565E-014   6.3797278250277478E-002
   2.0020387279072460E-002  -9.0641673739618178E-003   6.0779578808587531E-002
   1.9152270091302243E-002  -8.9989904644679486E-003   6.0277922328675460E-002
   1.8284152903531997E-002  -9.0035625167020072E-003   6.0009613706417664E-002
   1.7416035715761773E-002  -9.0778835306642505E-003   5.9974652941814310E-002
   1.6547918527991534E-002  -9.2219535063544078E-003   6.0173040034865288E-002
   1.5051632324962594E-002  -6.7981255304687127E-003   6.1571522940393586E-002
   1.4412783354668723E-002  -6.7492428483475198E-003   6.0980528568352343E-002
   1.3773934384374860E-002  -6.7526718875227931E-003   6.0614722773609381E-002
   1.3135085414080983E-002  -6.8084126479936377E-003   6.0474105556165017E-002
   1.2496236443787126E-002  -6.9164651297607960E-003   6.0558676916018850E-002
   1.0058649460413634E-002  -4.5320836869753578E-003   6.2338454224610512E-002
   9.6409094272401422E-003  -4.4994952322274240E-003   6.1675559200872226E-002
   9.2231693940666402E-003  -4.5017812583433431E-003   6.1229693474076322E-002
   8.8054293608931366E-003  -4.5389417653232435E-003   6.1000857044222860E-002
   8.3876893277196399E-003  -4.6109767531671009E-003   6.0989049911311585E-002
   5.0414386854256178E-003  -2.2660418434822110E-003   6.3080372661238365E-002
   4.8366483090164763E-003  -2.2497476161071617E-003   6.2363014226235171E-002
   4.6318579326073339E-003  -2.2508906291639555E-003   6.1854525807818236E-002
   4.4270675561981845E-003  -2.2694708826527400E-003   6.1554907405987722E-002
   4.2222771797890499E-003  -2.3054883765734474E-003   6.1464159020743508E-002
  -1.4641066137244252E-015   1.1102230246251565E-014   6.3797278250277478E-002
  -2.2551405187698492E-015   1.3100631690576847E-014   6.3042893644441267E-002
  -3.0496438707672269E-015   1.5348833315442789E-014   6.2489219774835375E-002
  -3.8441472227646045E-015   1.7714996136675154E-014   6.2136256641459803E-002
  -4.6351811278100286E-015   2.0206059048177849E-014   6.1984004244314828E-002
   1.6547918527991534E-002  -9.2219535063544078E-003   6.0173040034865288E-002
   1.4400527377198588E-002  -9.4686559296804917E-003   5.2919821493813912E-002
   1.2253136226405628E-002  -9.8508742865505289E-003   4.6139083174376622E-002
   1.0105745075612647E-002  -1.0368608576964315E-002   3.9830825076553680E-002
   7.9583539248197499E-003  -1.1021858800922102E-002   3.3995047200344741E-002
   1.2496236443787126E-002  -6.9164651297607960E-003   6.0558676916018850E-002
   1.0837417406129334E-002  -7.1014919472547344E-003   5.3146108792774482E-002
   9.1785983684715203E-003  -7.3881557149064331E-003   4.6238204674186351E-002
   7.5197793308137417E-003  -7.7764564327158954E-003   3.9834964560254052E-002
   5.8609602931559146E-003  -8.2663941006834163E-003   3.3936388450978350E-002
   8.3876893277196399E-003  -4.6109767531671009E-003   6.0989049911311585E-002
   7.2496261862389152E-003  -4.7343279648288106E-003   5.3451011189260170E-002
   6.1115630447581872E-003  -4.9254371432622748E-003   4.6449820254906980E-002
   4.9734999032774504E-003  -5.1843042884675023E-003   3.9985477108252079E-002
   3.8354367617967206E-003  -5.5109294004446197E-003   3.4057981749294586E-002
   4.2222771797890499E-003  -2.3054883765734474E-003   6.1464159020743508E-002
   3.6371537175273281E-003  -2.3671639824028035E-003   5.3834528683271418E-002
   3.0520302552656071E-003  -2.4627185716181478E-003   4.6773929916539232E-002
   2.4669067930038770E-003  -2.5921521442190962E-003   4.0282362720546909E-002
   1.8817833307421573E-003  -2.7554647002059340E-003   3.4359827095294920E-002
  -4.6351811278100286E-015   2.0206059048177849E-014   6.1984004244314828E-002
  -5.4192761389515454E-015   2.2981616609740740E-014   5.4296661274807700E-002
  -6.2033711500930622E-015   2.5923707624997405E-014   4.7210533659082510E-002
  -6.9874661612345790E-015   2.9323765637911947E-014   4.0725621397139228E-002
  -7.7715611723760958E-015   3.2862601528904634E-014   3.4841924488977938E-002
   1.7989082445879490E-015   0.0000000000000000        2.8490042400022546E-002
   1.4988010832439613E-015  -1.1501216645726231E-015   3.3429039623270797E-002
   1.1984770814654766E-015  -1.7711526689723200E-015   3.8372898998322982E-002
   8.9869518077323463E-016  -1.8682971836270212E-015   4.3321620525179114E-002
   5.9717855660501584E-016  -1.4320142294188543E-015   4.8275204203839184E-002
  -6.7827800376779393E-003   0.0000000000000000        2.8553276408403619E-002
  -6.8166877696154964E-003   1.4600827995903728E-004   3.3564487380598140E-002
  -6.8505955015530501E-003   3.3109708630903786E-004   3.8503020737114223E-002
  -6.8845032334906046E-003   5.5526641905000607E-004   4.3368876477951852E-002
  -6.9184109654281609E-003   8.1851627818193759E-004   4.8162054603111029E-002
  -1.3474116705865954E-002   0.0000000000000000        2.8742978433549657E-002
  -1.3619471937223151E-002   2.9201655991922641E-004   3.3865483681080895E-002
  -1.3764827168580350E-002   6.6219417261984947E-004   3.8837771545451288E-002
  -1.3910182399937545E-002   1.1105328381018726E-003   4.3659842026660858E-002
  -1.4055537631294742E-002   1.6370325563652929E-003   4.8331695124709591E-002
  -2.0074010004562243E-002   0.0000000000000000        2.9059148475460671E-002
  -2.0408352502821470E-002   4.3802483987941511E-004   3.4332028524719053E-002
  -2.0742695001080703E-002   9.9329125893066238E-004   3.9377151423334214E-002
  -2.1077037499339934E-002   1.6657992571537396E-003   4.4194517171306139E-002
  -2.1411379997599161E-002   2.4555488345486568E-003   4.8784125768634841E-002
  -2.6582459933766806E-002   0.0000000000000000        2.9501786534136654E-002
  -2.7183329466410455E-002   5.8403311983960381E-004   3.4964121911512623E-002
  -2.7784198999054103E-002   1.3243883452414718E-003   4.0121160370762965E-002
  -2.8385068531697758E-002   2.2210656762056136E-003   4.4972901911887700E-002
  -2.8985938064341403E-002   3.2740651127320152E-003   4.9519346534886821E-002
   5.9717855660501584E-016  -1.4320142294188543E-015   4.8275204203839184E-002
   6.6916958085805334E-016  -8.4394297106271665E-016   5.1392469129604643E-002
   7.3834167946262852E-016  -4.8463837110102048E-016   5.4365332410428312E-002
   8.1022428349841746E-016  -3.6055143246005450E-016   5.7193794046310219E-002
   8.7950480232024120E-016  -4.7184478546569153E-016   5.9877854037250336E-002
  -6.9184109654281609E-003   8.1851627818193759E-004   4.8162054603111029E-002
  -7.0336074766779982E-003   1.0812865324793929E-003   5.1069789094100482E-002
  -7.1488039879278363E-003   1.3040170507170054E-003   5.3891532207531900E-002
  -7.2640004991776762E-003   1.4867078328947259E-003   5.6627283943405285E-002
  -7.3791970104275153E-003   1.6293588790125893E-003   5.9277044301720608E-002
  -1.4055537631294742E-002   1.6370325563652929E-003   4.8331695124709591E-002
  -1.4227520386410749E-002   2.1625730649596510E-003   5.0989859444863381E-002
  -1.4399503141526750E-002   2.6080341014345023E-003   5.3620442654842899E-002
  -1.4571485896642753E-002   2.9734156657898261E-003   5.6223444754648112E-002
  -1.4743468651758757E-002   3.2587177580256504E-003   5.8798865744279040E-002
  -2.1411379997599161E-002   2.4555488345486568E-003   4.8784125768634841E-002
  -2.1581738729197584E-002   3.2438595974399057E-003   5.1152680181893367E-002
  -2.1752097460796007E-002   3.9120511521519817E-003   5.3552063752361316E-002
  -2.1922456192394423E-002   4.4601234986849404E-003   5.5982276480038749E-002
  -2.2092814923992846E-002   4.8880766370387047E-003   5.8443318364925612E-002
  -2.8985938064341403E-002   3.2740651127320152E-003   4.9519346534886821E-002
  -2.9096262505038502E-002   4.3251461299201399E-003   5.1558251305190400E-002
  -2.9206586945735597E-002   5.2160682028694833E-003   5.3686395500087171E-002
  -2.9316911386432696E-002   5.9468313315800183E-003   5.5903779119577147E-002
  -2.9427235827129788E-002   6.5174355160517727E-003   5.8210402163660316E-002
   8.7950480232024120E-016  -4.7184478546569153E-016   5.9877854037250336E-002
   1.2203779653496838E-015  -5.9674487573602164E-016   6.0469315668140740E-002
   1.5638532135930916E-015  -5.2041704279304213E-016   6.1182729981031789E-002
   1.9042926957535400E-015  -2.4806545706468341E-016   6.2018096975923483E-002
   2.2482016248659420E-015   1.9428902930940239E-016   6.2975416652815808E-002
  -7.3791970104275153E-003   1.6293588790125893E-003   5.9277044301720608E-002
  -7.2691525963875705E-003   1.7470198704414193E-003   5.9866552847088195E-002
  -7.1591081823476300E-003   1.8547404885522253E-003   6.0554197538534353E-002
  -7.0490637683076913E-003   1.9525207333448784E-003   6.1339978376059076E-002
  -6.9390193542677447E-003   2.0403606048194495E-003   6.2223895359662315E-002
  -1.4743468651758757E-002   3.2587177580256504E-003   5.8798865744279040E-002
  -1.4547196359601281E-002   3.4940397408834908E-003   5.9376480830805482E-002
  -1.4350924067443803E-002   3.7094809771049710E-003   6.0028415527488430E-002
  -1.4154651775286332E-002   3.9050414666900327E-003   6.0754669834327868E-002
  -1.3958379483128851E-002   4.0807212096386630E-003   6.1555243751323846E-002
  -2.2092814923992846E-002   4.8880766370387047E-003   5.8443318364925612E-002
  -2.1834131289639902E-002   5.2410596113255346E-003   5.8999099619292616E-002
  -2.1575447655286958E-002   5.5642214656577028E-003   5.9605383947894074E-002
  -2.1316764020934017E-002   5.8575622000351726E-003   6.0262171350729990E-002
  -2.1058080386581073E-002   6.1210818144578696E-003   6.0969461827800289E-002
  -2.9427235827129788E-002   6.5174355160517727E-003   5.8210402163660316E-002
  -2.9129957386503431E-002   6.9880794817675750E-003   5.8734409212549618E-002
  -2.8832678945877092E-002   7.4189619542104727E-003   5.9285102799751264E-002
  -2.8535400505250750E-002   7.8100829333803161E-003   5.9862482925265303E-002
  -2.8238122064624397E-002   8.1614424192771179E-003   6.0466549589091659E-002
   2.2482016248659420E-015   1.9428902930940239E-016   6.2975416652815808E-002
   1.6583956430338276E-015   7.9103390504542404E-016   6.2746212595138892E-002
   1.0737938316296436E-015   1.3183898417423734E-015   6.2560220839447483E-002
   4.8572257327350599E-016   1.8700319071029980E-015   6.2417441385741554E-002
  -1.0061396160665481E-016   2.4147350785597155E-015   6.2317874234021131E-002
  -6.9390193542677447E-003   2.0403606048194495E-003   6.2223895359662315E-002
  -6.8798589371712191E-003   2.1169978780578441E-003   6.1924066230928818E-002
  -6.8206985200746943E-003   2.1811703281420826E-003   6.1699345634404025E-002
  -6.7615381029781704E-003   2.2328779550720790E-003   6.1549733570087972E-002
  -6.7023776858816438E-003   2.2721207588478898E-003   6.1475230037980597E-002
  -1.3958379483128851E-002   4.0807212096386630E-003   6.1555243751323846E-002
  -1.3808162418712007E-002   4.2339957561149458E-003   6.1172324728379524E-002
  -1.3657945354295148E-002   4.3623406562827635E-003   6.0896410467867139E-002
  -1.3507728289878293E-002   4.4657559101422741E-003   6.0727500969786671E-002
  -1.3357511225461437E-002   4.5442415176933232E-003   6.0665596234138149E-002
  -2.1058080386581073E-002   6.1210818144578696E-003   6.0969461827800289E-002
  -2.0784910444620677E-002   6.3509936341720093E-003   6.0490988087490948E-002
  -2.0511740502660275E-002   6.5435109844235277E-003   6.0151415339836832E-002
  -2.0238570560699876E-002   6.6986338652124623E-003   5.9950743584837790E-002
  -1.9965400618739481E-002   6.8163622765387358E-003   5.9888972822494002E-002
  -2.8238122064624397E-002   8.1614424192771179E-003   6.0466549589091659E-002
  -2.7810103014897246E-002   8.4679915122291213E-003   5.9880056308263180E-002
  -2.7382083965170084E-002   8.7246813125641982E-003   5.9464360250313021E-002
  -2.6954064915442940E-002   8.9315118202826609E-003   5.9219461415241231E-002
  -2.6526045865715771E-002   9.0884830353842039E-003   5.9145359803047803E-002
  -1.0061396160665481E-016   2.4147350785597155E-015   6.2317874234021131E-002
   6.2450045135165055E-017   3.0392355299113660E-015   6.2663704995229330E-002
   2.2377932840100812E-016   3.7678193898216250E-015   6.3197723579735118E-002
   3.8510861166685117E-016   4.4946685262559072E-015   6.3919929987538454E-002
   5.4817261840867104E-016   5.4400928206632670E-015   6.4830324218639379E-002
  -6.7023776858816438E-003   2.2721207588478898E-003   6.1475230037980597E-002
  -6.5197264398274279E-003   2.3003150393789695E-003   6.1857952256579446E-002
  -6.3370751937732129E-003   2.3188770965750158E-003   6.2417789143988912E-002
  -6.1544239477189962E-003   2.3278069304357562E-003   6.3154740700208836E-002
  -5.9717727016647751E-003   2.3271045409615221E-003   6.4068806925239363E-002
  -1.3357511225461437E-002   4.5442415176933232E-003   6.0665596234138149E-002
  -1.3003281887840199E-002   4.6006300787549623E-003   6.1075577686792538E-002
  -1.2649052550218958E-002   4.6377541931462117E-003   6.1651600653770372E-002
  -1.2294823212597710E-002   4.6556138608670741E-003   6.2393665135071816E-002
  -1.1940593874976476E-002   4.6542090819176041E-003   6.3301771130696599E-002
  -1.9965400618739481E-002   6.8163622765387358E-003   5.9888972822494002E-002
  -1.9450666344038237E-002   6.9009451181309654E-003   6.0316581285868531E-002
  -1.8935932069337000E-002   6.9566312897175169E-003   6.0899158109079560E-002
  -1.8421197794635767E-002   6.9834207912983642E-003   6.1636703292127087E-002
  -1.7906463519934527E-002   6.9813136228737693E-003   6.2529216835011003E-002
  -2.6526045865715771E-002   9.0884830353842039E-003   5.9145359803047803E-002
  -2.5861879808421560E-002   9.2012601575068853E-003   5.9580963053807362E-002
  -2.5197713751127365E-002   9.2755083862887042E-003   6.0160461509916344E-002
  -2.4533547693833167E-002   9.3112277217296657E-003   6.0883855171374839E-002
  -2.3869381636538959E-002   9.3084181638298236E-003   6.1751144038182715E-002
   5.4817261840867104E-016   5.4400928206632670E-015   6.4830324218639379E-002
   4.5102810375396984E-017   6.2727600891321345E-015   6.4227176792100549E-002
  -4.5796699765787707E-016   7.7160500211448380E-015   6.3853953321860529E-002
  -9.6190416742913953E-016   9.2564844678122427E-015   6.3710653807919543E-002
  -1.4641066137244252E-015   1.1102230246251565E-014   6.3797278250277478E-002
  -5.9717727016647751E-003   2.3271045409615221E-003   6.4068806925239363E-002
  -5.7391891976057274E-003   2.3191492465139407E-003   6.3468833781509332E-002
  -5.5066056935466727E-003   2.3063203654551528E-003   6.3104103689599594E-002
  -5.2740221894876128E-003   2.2886178977849815E-003   6.2974616649510054E-002
  -5.0414386854285634E-003   2.2660418435037077E-003   6.3080372661240780E-002
  -1.1940593874976476E-002   4.6542090819176041E-003   6.3301771130696599E-002
  -1.1470107771336517E-002   4.6382984930214699E-003   6.2700098683163882E-002
  -1.0999621667696550E-002   4.6126407309025896E-003   6.2338988382972679E-002
  -1.0529135564056595E-002   4.5772357955607065E-003   6.2218440230123198E-002
  -1.0058649460416624E-002   4.5320836869961467E-003   6.2338454224615120E-002
  -1.7906463519934527E-002   6.9813136228737693E-003   6.2529216835011003E-002
  -1.7192755721192311E-002   6.9574477395289852E-003   6.1920971497063992E-002
  -1.6479047922450099E-002   6.9189610963499709E-003   6.1558607401979888E-002
  -1.5765340123707883E-002   6.8658536933364593E-003   6.1442124549758781E-002
  -1.5051632324965661E-002   6.7981255304886412E-003   6.1571522940400560E-002
  -2.3869381636538959E-002   9.3084181638298236E-003   6.1751144038182715E-002
  -2.2907133047173130E-002   9.2765969860366115E-003   6.1131452223209870E-002
  -2.1944884457807311E-002   9.2252814617975187E-003   6.0762960746621242E-002
  -2.0982635868441478E-002   9.1544715911121982E-003   6.0645669608416969E-002
  -2.0020387279075659E-002   9.0641673739811912E-003   6.0779578808596968E-002
  -1.4641066137244252E-015   1.1102230246251565E-014   6.3797278250277478E-002
  -2.2551405187698492E-015   1.3100631690576847E-014   6.3042893644441267E-002
  -3.0496438707672269E-015   1.5348833315442789E-014   6.2489219774835375E-002
  -3.8441472227646045E-015   1.7714996136675154E-014   6.2136256641459803E-002
  -4.6351811278100286E-015   2.0206059048177849E-014   6.1984004244314828E-002
  -5.0414386854285634E-003   2.2660418435037077E-003   6.3080372661240780E-002
  -4.8366483090210421E-003   2.2497476161326413E-003   6.2363014226237745E-002
  -4.6318579326135242E-003   2.2508906291938968E-003   6.1854525807821109E-002
  -4.4270675562059960E-003   2.2694708826873564E-003   6.1554907405990608E-002
  -4.2222771797984782E-003   2.3054883766128742E-003   6.1464159020746534E-002
  -1.0058649460416624E-002   4.5320836869961467E-003   6.2338454224615120E-002
  -9.6409094272448554E-003   4.4994952322521820E-003   6.1675559200877333E-002
  -9.2231693940730865E-003   4.5017812583724864E-003   6.1229693474081692E-002
  -8.8054293609013071E-003   4.5389417653569387E-003   6.1000857044228370E-002
  -8.3876893277295347E-003   4.6109767532055423E-003   6.0989049911317206E-002
  -1.5051632324965661E-002   6.7981255304886412E-003   6.1571522940400560E-002
  -1.4412783354673699E-002   6.7492428483717504E-003   6.0980528568359914E-002
  -1.3773934384381750E-002   6.7526718875509720E-003   6.0614722773617513E-002
  -1.3135085414089793E-002   6.8084126480264951E-003   6.0474105556173108E-002
  -1.2496236443797841E-002   6.9164651297982105E-003   6.0558676916027052E-002
  -2.0020387279075659E-002   9.0641673739811912E-003   6.0779578808596968E-002
  -1.9152270091307572E-002   8.9989904644912355E-003   6.0277922328685507E-002
  -1.8284152903539495E-002   9.0035625167296379E-003   6.0009613706428183E-002
  -1.7416035715771411E-002   9.0778835306962215E-003   5.9974652941824927E-002
  -1.6547918528003330E-002   9.2219535063908231E-003   6.0173040034875946E-002
  -4.6351811278100286E-015   2.0206059048177849E-014   6.1984004244314828E-002
  -5.4192761389515454E-015   2.2981616609740740E-014   5.4296661274807700E-002
  -6.2033711500930622E-015   2.5923707624997405E-014   4.7210533659082510E-002
  -6.9874661612345790E-015   2.9323765637911947E-014   4.0725621397139228E-002
  -7.7715611723760958E-015   3.2862601528904634E-014   3.4841924488977938E-002
  -4.2222771797984782E-003   2.3054883766128742E-003   6.1464159020746534E-002
  -3.6371537175384824E-003   2.3671639824477397E-003   5.3834528683274319E-002
  -3.0520302552784623E-003   2.4627185716687289E-003   4.6773929916541779E-002
  -2.4669067930184595E-003   2.5921521442757549E-003   4.0282362720548942E-002
  -1.8817833307584464E-003   2.7554647002689947E-003   3.4359827095295614E-002
  -8.3876893277295347E-003   4.6109767532055423E-003   6.0989049911317206E-002
  -7.2496261862509672E-003   4.7343279648723313E-003   5.3451011189265638E-002
  -6.1115630447723859E-003   4.9254371433111455E-003   4.6449820254911858E-002
  -4.9734999032938019E-003   5.1843042885220195E-003   3.9985477108255146E-002
  -3.8354367618152231E-003   5.5109294005050158E-003   3.4057981749296307E-002
  -1.2496236443797841E-002   6.9164651297982105E-003   6.0558676916027052E-002
  -1.0837417406142906E-002   7.1014919472970062E-003   5.3146108792782129E-002
  -9.1785983684879759E-003   7.3881557149536453E-003   4.6238204674192748E-002
  -7.5197793308330492E-003   7.7764564327684228E-003   3.9834964560258562E-002
  -5.8609602931781130E-003   8.2663941007410924E-003   3.3936388450979418E-002
  -1.6547918528003330E-002   9.2219535063908231E-003   6.0173040034875946E-002
  -1.4400527377214284E-002   9.4686559297214590E-003   5.2919821493823682E-002
  -1.2253136226425217E-002   9.8508742865962146E-003   4.6139083174384504E-002
  -1.0105745075636136E-002   1.0368608577014816E-002   3.9830825076558204E-002
  -7.9583539248471030E-003   1.1021858800977169E-002   3.3995047200345407E-002
  -2.6582459933766806E-002   0.0000000000000000        2.9501786534136654E-002
  -2.7183329466410455E-002   5.8403311983960381E-004   3.4964121911512623E-002
  -2.7784198999054103E-002   1.3243883452414718E-003   4.0121160370762965E-002
  -2.8385068531697758E-002   2.2210656762056136E-003   4.4972901911887700E-002
  -2.8985938064341403E-002   3.2740651127320152E-003   4.9519346534886821E-002
  -3.3336214590921384E-002   0.0000000000000000        3.0206387625124446E-002
  -3.4177587762618276E-002   9.5866964426964164E-004   3.5284964038314694E-002
  -3.5018960934315169E-002   2.0280183472443395E-003   4.0187830091524060E-002
  -3.5860334106012061E-002   3.2080461089240937E-003   4.4914985784752566E-002
  -3.6701707277708946E-002   4.4987529293088989E-003   4.9466431118000205E-002
  -4.0672022073467706E-002   0.0000000000000000        3.1308446763970883E-002
  -4.1624312326073103E-002   1.3333061686996812E-003   3.5957621166118205E-002
  -4.2576602578678492E-002   2.7316483492472081E-003   4.0560671766429392E-002
  -4.3528892831283882E-002   4.1950265416425825E-003   4.5117598564904465E-002
  -4.4481183083889271E-002   5.7234407458858026E-003   4.9628401561543398E-002
  -4.8589882381405790E-002   0.0000000000000000        3.2807963950675957E-002
  -4.9523503156774923E-002   1.7079426931297195E-003   3.6982093294923149E-002
  -5.0457123932144070E-002   3.4352783512500763E-003   4.1239685395478946E-002
  -5.1390744707513217E-002   5.1820069743610652E-003   4.5580740252343363E-002
  -5.2324365482882364E-002   6.9481285624626967E-003   5.0005257865516406E-002
  -5.7089795514735614E-002   0.0000000000000000        3.4704939185239689E-002
  -5.7875160254723772E-002   2.0825792175597586E-003   3.8358380424729527E-002
  -5.8660524994711923E-002   4.1389083532529427E-003   4.2224870978672717E-002
  -5.9445889734700073E-002   6.1689874070795549E-003   4.6304410847069280E-002
  -6.0231254474688245E-002   8.1728163790395925E-003   5.0597000029919202E-002
  -2.8985938064341403E-002   3.2740651127320152E-003   4.9519346534886821E-002
  -2.9096262505038502E-002   4.3251461299201399E-003   5.1558251305190400E-002
  -2.9206586945735597E-002   5.2160682028694833E-003   5.3686395500087171E-002
  -2.9316911386432696E-002   5.9468313315800183E-003   5.5903779119577147E-002
  -2.9427235827129788E-002   6.5174355160517727E-003   5.8210402163660316E-002
  -3.6701707277708946E-002   4.4987529293088989E-003   4.9466431118000205E-002
  -3.6759219721252602E-002   5.7641379316657870E-003   5.1244461048551390E-002
  -3.6816732164796251E-002   6.8682002392617845E-003   5.3038875548816276E-002
  -3.6874244608339900E-002   7.8109398520968343E-003   5.4849674618794857E-002
  -3.6931757051883556E-002   8.5923567701709780E-003   5.6676858258487076E-002
  -4.4481183083889271E-002   5.7234407458858026E-003   4.9628401561543398E-002
  -4.4558738385158995E-002   7.2031297334114418E-003   5.1144392901820088E-002
  -4.4636293686428720E-002   8.5203322756540363E-003   5.2603913956930967E-002
  -4.4713848987698444E-002   9.6750483726136503E-003   5.4006964726875994E-002
  -4.4791404288968148E-002   1.0667278024290211E-002   5.5353545211655211E-002
  -5.2324365482882364E-002   6.9481285624626967E-003   5.0005257865516406E-002
  -5.2494818496757668E-002   8.6421215351570827E-003   5.1258046864996472E-002
  -5.2665271510632980E-002   1.0172464312046327E-002   5.2381510724431223E-002
  -5.2835724524508278E-002   1.1539156893130452E-002   5.3375649443820637E-002
  -5.3006177538383582E-002   1.2742199278409416E-002   5.4240463023164702E-002
  -6.0231254474688245E-002   8.1728163790395925E-003   5.0597000029919202E-002
  -6.0567460056048641E-002   1.0081113336902738E-002   5.1585422938080577E-002
  -6.0903665637409031E-002   1.1824596348438588E-002   5.2371665851317091E-002
  -6.1239871218769427E-002   1.3403265413647263E-002   5.2955728769628750E-002
  -6.1576076800129845E-002   1.4817120532528656E-002   5.3337611693015562E-002
  -2.9427235827129788E-002   6.5174355160517727E-003   5.8210402163660316E-002
  -2.9129957386503431E-002   6.9880794817675750E-003   5.8734409212549618E-002
  -2.8832678945877092E-002   7.4189619542104727E-003   5.9285102799751264E-002
  -2.8535400505250750E-002   7.8100829333803161E-003   5.9862482925265303E-002
  -2.8238122064624397E-002   8.1614424192771179E-003   6.0466549589091659E-002
  -3.6931757051883556E-002   8.5923567701709780E-003   5.6676858258487076E-002
  -3.6555712608888360E-002   9.2348667330737731E-003   5.6819692404674632E-002
  -3.6179668165893152E-002   9.7608854803947973E-003   5.7093372017287522E-002
  -3.5803623722897977E-002   1.0170413012133986E-002   5.7497897096325731E-002
  -3.5427579279902768E-002   1.0463449328291380E-002   5.8033267641789281E-002
  -4.4791404288968148E-002   1.0667278024290211E-002   5.5353545211655211E-002
  -4.4232434915491149E-002   1.1481653984379959E-002   5.5038476732832207E-002
  -4.3673465542014130E-002   1.2102809006579137E-002   5.4958412648547512E-002
  -4.3114496168537103E-002   1.2530743090887671E-002   5.5113352958801085E-002
  -4.2555526795060104E-002   1.2765456237305621E-002   5.5503297663592993E-002
  -5.3006177538383582E-002   1.2742199278409416E-002   5.4240463023164702E-002
  -5.2160124306311784E-002   1.3728441235686159E-002   5.3390762197022344E-002
  -5.1314071074239985E-002   1.4444732532763436E-002   5.2880224693531278E-002
  -5.0468017842168186E-002   1.4891073169641361E-002   5.2708850512691453E-002
  -4.9621964610096374E-002   1.5067463146319859E-002   5.2876639654502879E-002
  -6.1576076800129845E-002   1.4817120532528656E-002   5.3337611693015562E-002
  -6.0338780781350285E-002   1.5975228486992329E-002   5.1876548797245021E-002
  -5.9101484762570718E-002   1.6786656058947816E-002   5.0858808152238782E-002
  -5.7864188743791178E-002   1.7251403248395043E-002   5.0284389757996713E-002
  -5.6626892725011618E-002   1.7369470055334110E-002   5.0153293614518937E-002
  -2.8238122064624397E-002   8.1614424192771179E-003   6.0466549589091659E-002
  -2.7810103014897246E-002   8.4679915122291213E-003   5.9880056308263180E-002
  -2.7382083965170084E-002   8.7246813125641982E-003   5.9464360250313021E-002
  -2.6954064915442940E-002   8.9315118202826609E-003   5.9219461415241231E-002
  -2.6526045865715771E-002   9.0884830353842039E-003   5.9145359803047803E-002
  -3.5427579279902768E-002   1.0463449328291380E-002   5.8033267641789281E-002
  -3.4838698201902572E-002   1.0689490740408689E-002   5.7464669923918896E-002
  -3.4249817123902369E-002   1.0898033560027671E-002   5.7046999039716245E-002
  -3.3660936045902173E-002   1.1089077787148351E-002   5.6780254989181357E-002
  -3.3072054967901957E-002   1.1262623421770729E-002   5.6664437772314169E-002
  -4.2555526795060104E-002   1.2765456237305621E-002   5.5503297663592993E-002
  -4.1825654077997501E-002   1.2910989968588315E-002   5.4984956208799306E-002
  -4.1095781360934898E-002   1.3071385807491143E-002   5.4597671198462601E-002
  -4.0365908643872288E-002   1.3246643754014150E-002   5.4341442632583073E-002
  -3.9636035926809712E-002   1.3436763808157268E-002   5.4216270511160534E-002
  -4.9621964610096374E-002   1.5067463146319859E-002   5.2876639654502879E-002
  -4.8770970643182018E-002   1.5132489196767912E-002   5.2440915162904243E-002
  -4.7919976676267677E-002   1.5244738054954670E-002   5.2116376726552040E-002
  -4.7068982709353314E-002   1.5404209720879938E-002   5.1903024345446219E-002
  -4.6217988742438980E-002   1.5610904194543744E-002   5.1800858019586823E-002
  -5.6626892725011618E-002   1.7369470055334110E-002   5.0153293614518937E-002
  -5.5674647897456166E-002   1.7353988424947515E-002   4.9832546786233833E-002
  -5.4722403069900713E-002   1.7418090302418077E-002   4.9603115623984513E-002
  -5.3770158242345246E-002   1.7561775687745664E-002   4.9465000127770928E-002
  -5.2817913414789794E-002   1.7785044580930359E-002   4.9418200297593223E-002
  -2.6526045865715771E-002   9.0884830353842039E-003   5.9145359803047803E-002
  -2.5861879808421560E-002   9.2012601575068853E-003   5.9580963053807362E-002
  -2.5197713751127365E-002   9.2755083862887042E-003   6.0160461509916344E-002
  -2.4533547693833167E-002   9.3112277217296657E-003   6.0883855171374839E-002
  -2.3869381636538959E-002   9.3084181638298236E-003   6.1751144038182715E-002
  -3.3072054967901957E-002   1.1262623421770729E-002   5.6664437772314169E-002
  -3.2251390923690712E-002   1.1398059758945450E-002   5.7046047500050850E-002
  -3.1430726879479461E-002   1.1474776093723306E-002   5.7596757996272258E-002
  -3.0610062835268202E-002   1.1492772426104256E-002   5.8316569260978335E-002
  -2.9789398791056930E-002   1.1452048756088407E-002   5.9205481294169082E-002
  -3.9636035926809712E-002   1.3436763808157268E-002   5.4216270511160534E-002
  -3.8633668332546195E-002   1.3594859360383987E-002   5.4523695606818419E-002
  -3.7631300738282678E-002   1.3674043801157856E-002   5.5025427034096228E-002
  -3.6628933144019139E-002   1.3674317130478848E-002   5.5721464792993794E-002
  -3.5626565549755670E-002   1.3595679348346962E-002   5.6611808883511319E-002
  -4.6217988742438980E-002   1.5610904194543744E-002   5.1800858019586823E-002
  -4.5008712034988019E-002   1.5791658961822580E-002   5.2013907374109956E-002
  -4.3799435327537058E-002   1.5873311508592378E-002   5.2446468623388129E-002
  -4.2590158620086097E-002   1.5855861834853466E-002   5.3098541767421341E-002
  -4.1380881912635128E-002   1.5739309940605586E-002   5.3970126806209578E-002
  -5.2817913414789794E-002   1.7785044580930359E-002   4.9418200297593223E-002
  -5.1376522031016184E-002   1.7988458563261103E-002   4.9516682801925505E-002
  -4.9935130647242580E-002   1.8072579216026986E-002   4.9859882764148059E-002
  -4.8493739263468963E-002   1.8037406539228022E-002   5.0447800184260795E-002
  -4.7052347879695339E-002   1.7882940532864100E-002   5.1280435062263874E-002
  -2.3869381636538959E-002   9.3084181638298236E-003   6.1751144038182715E-002
  -2.2907133047173130E-002   9.2765969860366115E-003   6.1131452223209870E-002
  -2.1944884457807311E-002   9.2252814617975187E-003   6.0762960746621242E-002
  -2.0982635868441478E-002   9.1544715911121982E-003   6.0645669608416969E-002
  -2.0020387279075659E-002   9.0641673739811912E-003   6.0779578808596968E-002
  -2.9789398791056930E-002   1.1452048756088407E-002   5.9205481294169082E-002
  -2.8581164646297064E-002   1.1371642385567399E-002   5.8643355219495458E-002
  -2.7372930501537187E-002   1.1270590616432721E-002   5.8321999917225698E-002
  -2.6164696356777289E-002   1.1148893448684642E-002   5.8241415387359760E-002
  -2.4956462212017409E-002   1.1006550882322996E-002   5.8401601629897631E-002
  -3.5626565549755670E-002   1.3595679348346962E-002   5.6611808883511319E-002
  -3.4182775415582206E-002   1.3466687785098158E-002   5.6106097496969404E-002
  -3.2738985281408700E-002   1.3315899771068146E-002   5.5830727316850959E-002
  -3.1295195147235201E-002   1.3143315306257029E-002   5.5785698343155735E-002
  -2.9851405013061751E-002   1.2948934390664801E-002   5.5971010575884009E-002
  -4.1380881912635128E-002   1.5739309940605586E-002   5.3970126806209578E-002
  -3.9711965355028536E-002   1.5561733184628904E-002   5.3519679055631791E-002
  -3.8043048797421895E-002   1.5361208925703460E-002   5.3289142945497005E-002
  -3.6374132239815268E-002   1.5137737163829389E-002   5.3278518475805101E-002
  -3.4705215682208641E-002   1.4891317899006690E-002   5.3487805646556044E-002
  -4.7052347879695339E-002   1.7882940532864100E-002   5.1280435062263874E-002
  -4.5168734464636040E-002   1.7656778584159760E-002   5.0884099895482593E-002
  -4.3285121049576741E-002   1.7406518080338829E-002   5.0697246803163870E-002
  -4.1401507634517436E-002   1.7132159021401930E-002   5.0719875785307511E-002
  -3.9517894219458130E-002   1.6833701407348467E-002   5.0951986841913655E-002
  -2.0020387279075659E-002   9.0641673739811912E-003   6.0779578808596968E-002
  -1.9152270091307572E-002   8.9989904644912355E-003   6.0277922328685507E-002
  -1.8284152903539495E-002   9.0035625167296379E-003   6.0009613706428183E-002
  -1.7416035715771411E-002   9.0778835306962215E-003   5.9974652941824927E-002
  -1.6547918528003330E-002   9.2219535063908231E-003   6.0173040034875946E-002
  -2.4956462212017409E-002   1.1006550882322996E-002   5.8401601629897631E-002
  -2.3859594391570038E-002   1.0875142241351110E-002   5.7992611162469454E-002
  -2.2762726571122646E-002   1.0786246849771988E-002   5.7807774102745749E-002
  -2.1665858750675265E-002   1.0739864707585801E-002   5.7847090450726550E-002
  -2.0568990930227883E-002   1.0735995814792454E-002   5.8110560206411865E-002
  -2.9851405013061751E-002   1.2948934390664801E-002   5.5971010575884009E-002
  -2.8534981009884670E-002   1.2751294018210832E-002   5.5627450408603743E-002
  -2.7218557006707549E-002   1.2568931182814276E-002   5.5498849199078250E-002
  -2.5902133003530475E-002   1.2401845884475489E-002   5.5585206947307800E-002
  -2.4585709000353381E-002   1.2250038123194001E-002   5.5886523653292178E-002
  -3.4705215682208641E-002   1.4891317899006690E-002   5.3487805646556044E-002
  -3.3178429946251406E-002   1.4627445795070630E-002   5.3182440067088166E-002
  -3.1651644210294171E-002   1.4351615515856678E-002   5.3082838995425694E-002
  -3.0124858474336953E-002   1.4063827061365067E-002   5.3189002431568599E-002
  -2.8598072738379700E-002   1.3764080431595702E-002   5.3500930375516689E-002
  -3.9517894219458130E-002   1.6833701407348467E-002   5.0951986841913655E-002
  -3.7789941200670363E-002   1.6503597571930401E-002   5.0657580137922986E-002
  -3.6061988181882547E-002   1.6134299848898997E-002   5.0559743491788101E-002
  -3.4334035163094745E-002   1.5725808238254778E-002   5.0658476903508942E-002
  -3.2606082144306964E-002   1.5278122739997124E-002   5.0953780373085567E-002
  -1.6547918528003330E-002   9.2219535063908231E-003   6.0173040034875946E-002
  -1.4400527377214284E-002   9.4686559297214590E-003   5.2919821493823682E-002
  -1.2253136226425217E-002   9.8508742865962146E-003   4.6139083174384504E-002
  -1.0105745075636136E-002   1.0368608577014816E-002   3.9830825076558204E-002
  -7.9583539248471030E-003   1.1021858800977169E-002   3.3995047200345407E-002
  -2.0568990930227883E-002   1.0735995814792454E-002   5.8110560206411865E-002
  -1.7898603525076717E-002   1.0877901281229840E-002   5.1104487731513937E-002
  -1.5228216119925555E-002   1.1268842216735270E-002   4.4671927543727202E-002
  -1.2557828714774346E-002   1.1908818621309068E-002   3.8812879643051607E-002
  -9.8874413096232544E-003   1.2797830494951201E-002   3.3527344029487316E-002
  -2.4585709000353381E-002   1.2250038123194001E-002   5.5886523653292178E-002
  -2.1291293275341905E-002   1.2287146632737778E-002   4.9241116780073035E-002
  -1.7996877550330435E-002   1.2686810146874040E-002   4.3270254259463160E-002
  -1.4702461825318995E-002   1.3449028665603319E-002   3.7973936091462684E-002
  -1.1408046100307517E-002   1.4573802188925011E-002   3.3352162276071462E-002
  -2.8598072738379700E-002   1.3764080431595702E-002   5.3500930375516689E-002
  -2.4578596628009777E-002   1.3696391984245715E-002   4.7329708639500666E-002
  -2.0559120517639820E-002   1.4104778077013009E-002   4.1934063321592038E-002
  -1.6539644407269818E-002   1.4989238709897459E-002   3.7313994421790800E-002
  -1.2520168296899940E-002   1.6349773882898877E-002   3.3469501940097499E-002
  -3.2606082144306964E-002   1.5278122739997124E-002   5.0953780373085567E-002
  -2.7760513583080362E-002   1.5105637335754041E-002   4.5370263309796877E-002
  -2.2914945021853747E-002   1.5522746007151797E-002   4.0663354730113982E-002
  -1.8069376460627125E-002   1.6529448754191722E-002   3.6833054634036758E-002
  -1.3223807899400530E-002   1.8125745576872854E-002   3.3879363021565467E-002
  -5.7089795514735614E-002   0.0000000000000000        3.4704939185239689E-002
  -5.7875160254723772E-002   2.0825792175597586E-003   3.8358380424729527E-002
  -5.8660524994711923E-002   4.1389083532529427E-003   4.2224870978672717E-002
  -5.9445889734700073E-002   6.1689874070795549E-003   4.6304410847069280E-002
  -6.0231254474688245E-002   8.1728163790395925E-003   5.0597000029919202E-002
  -6.5762118234844819E-002   0.0000000000000000        3.7220340483712810E-002
  -6.6563579817254470E-002   2.9097131106123495E-003   4.0843358949386635E-002
  -6.7365041399664122E-002   5.7686557655430015E-003   4.4221134415764113E-002
  -6.8166502982073773E-002   8.5768279647919568E-003   4.7353666882845251E-002
  -6.8967964564483439E-002   1.1334229708359202E-002   5.0240956350630035E-002
  -7.4197207303121043E-002   0.0000000000000000        4.0575135862146082E-002
  -7.5473058041701915E-002   3.7368470036649444E-003   4.4143211180188789E-002
  -7.6748908780282760E-002   7.3984031778330621E-003   4.7007751185185416E-002
  -7.8024759518863632E-002   1.0984668522504357E-002   4.9168755877136004E-002
  -7.9300610257444462E-002   1.4495643037678821E-002   5.0626225256040505E-002
  -8.2395062719564288E-002   0.0000000000000000        4.4769325320539517E-002
  -8.4603594928066059E-002   4.5639808967175384E-003   4.8257937117135954E-002
  -8.6812127136567815E-002   9.0281505901231192E-003   5.0584721286936626E-002
  -8.9020659345069586E-002   1.3392509080216757E-002   5.1749677829941526E-002
  -9.1229191553571370E-002   1.7657056366998436E-002   5.1752806746150667E-002
  -9.0355684484174539E-002   0.0000000000000000        4.9802908858893116E-002
  -9.3955190476346942E-002   5.3911147897701302E-003   5.3187536760228166E-002
  -9.7554696468519331E-002   1.0657898002413180E-002   5.4952044721017744E-002
 -0.10115420246069173        1.5800349637929159E-002   5.5096432741261830E-002
 -0.10475370845286411        2.0818469696318051E-002   5.3620700820960446E-002
  -6.0231254474688245E-002   8.1728163790395925E-003   5.0597000029919202E-002
  -6.0567460056048641E-002   1.0081113336902738E-002   5.1585422938080577E-002
  -6.0903665637409031E-002   1.1824596348438588E-002   5.2371665851317091E-002
  -6.1239871218769427E-002   1.3403265413647263E-002   5.2955728769628750E-002
  -6.1576076800129845E-002   1.4817120532528656E-002   5.3337611693015562E-002
  -6.8967964564483439E-002   1.1334229708359202E-002   5.0240956350630035E-002
  -6.9269121332023384E-002   1.3806877768991652E-002   4.9528897036113260E-002
  -6.9570278099563385E-002   1.5760788919436265E-002   4.9089115344162201E-002
  -6.9871434867103330E-002   1.7195963159692938E-002   4.8921611274776844E-002
  -7.0172591634643317E-002   1.8112400489761794E-002   4.9026384827957209E-002
  -7.9300610257444462E-002   1.4495643037678821E-002   5.0626225256040505E-002
  -7.9092260593673441E-002   1.7532642201080622E-002   4.7859760754984972E-002
  -7.8883910929902420E-002   1.9696981490433897E-002   4.5840031493985717E-002
  -7.8675561266131414E-002   2.0988660905738660E-002   4.4567037473042692E-002
  -7.8467211602360393E-002   2.1407680446994915E-002   4.4040778692156009E-002
  -9.1229191553571370E-002   1.7657056366998436E-002   5.1752806746150667E-002
  -9.0036877840998786E-002   2.1258406633169569E-002   4.6578014094695711E-002
  -8.8844564128426229E-002   2.3633174061431554E-002   4.2624414300787596E-002
  -8.7652250415853644E-002   2.4781358651784362E-002   3.9892007364426295E-002
  -8.6459936703281060E-002   2.4702960404228036E-002   3.8380793285611836E-002
 -0.10475370845286411        2.0818469696318051E-002   5.3620700820960446E-002
 -0.10210297307399943        2.4984171065258510E-002   4.5683657055245436E-002
  -9.9452237695134740E-002   2.7569366632429201E-002   3.9442263764567845E-002
  -9.6801502316270049E-002   2.8574056397830071E-002   3.4896520948927631E-002
  -9.4150766937405345E-002   2.7998240361461174E-002   3.2046428608324837E-002
  -6.1576076800129845E-002   1.4817120532528656E-002   5.3337611693015562E-002
  -6.0338780781350285E-002   1.5975228486992329E-002   5.1876548797245021E-002
  -5.9101484762570718E-002   1.6786656058947816E-002   5.0858808152238782E-002
  -5.7864188743791178E-002   1.7251403248395043E-002   5.0284389757996713E-002
  -5.6626892725011618E-002   1.7369470055334110E-002   5.0153293614518937E-002
  -7.0172591634643317E-002   1.8112400489761794E-002   4.9026384827957209E-002
  -6.8526210805056192E-002   1.8687795989095719E-002   4.7577965792131346E-002
  -6.6879829975469068E-002   1.9099844737147716E-002   4.6504394127156415E-002
  -6.5233449145881944E-002   1.9348546733917810E-002   4.5805669833032359E-002
  -6.3587068316294820E-002   1.9433901979406032E-002   4.5481792909759185E-002
  -7.8467211602360393E-002   2.1407680446994915E-002   4.4040778692156009E-002
  -7.6480220841879054E-002   2.1400363491199108E-002   4.2788337147501070E-002
  -7.4493230081397716E-002   2.1413033415347664E-002   4.1842268093783754E-002
  -7.2506239320916349E-002   2.1445690219440629E-002   4.1202571531003956E-002
  -7.0519248560435038E-002   2.1498333903477988E-002   4.0869247459161706E-002
  -8.6459936703281060E-002   2.4702960404228036E-002   3.8380793285611836E-002
  -8.4200810891818884E-002   2.4112930993302497E-002   3.7507662863354219E-002
  -8.1941685080356638E-002   2.3726222093547609E-002   3.6872430052120798E-002
  -7.9682559268894407E-002   2.3542833704963410E-002   3.6475094851911576E-002
  -7.7423433457432203E-002   2.3562765827549900E-002   3.6315657262726564E-002
  -9.4150766937405345E-002   2.7998240361461174E-002   3.2046428608324837E-002
  -9.1687980954875611E-002   2.6825498495405879E-002   3.1735942939690745E-002
  -8.9225194972345864E-002   2.6039410771747516E-002   3.1594880002167508E-002
  -8.6762408989816131E-002   2.5639977190486204E-002   3.1623239795755195E-002
  -8.4299623007286370E-002   2.5627197751621880E-002   3.1821022320453737E-002
  -5.6626892725011618E-002   1.7369470055334110E-002   5.0153293614518937E-002
  -5.5674647897456166E-002   1.7353988424947515E-002   4.9832546786233833E-002
  -5.4722403069900713E-002   1.7418090302418077E-002   4.9603115623984513E-002
  -5.3770158242345246E-002   1.7561775687745664E-002   4.9465000127770928E-002
  -5.2817913414789794E-002   1.7785044580930359E-002   4.9418200297593223E-002
  -6.3587068316294820E-002   1.9433901979406032E-002   4.5481792909759185E-002
  -6.2518059794712533E-002   1.9453414112926407E-002   4.5270111474209881E-002
  -6.1449051273130231E-002   1.9504586773793291E-002   4.5200641760678478E-002
  -6.0380042751547965E-002   1.9587419962006448E-002   4.5273383769164968E-002
  -5.9311034229965635E-002   1.9701913677566074E-002   4.5488337499669421E-002
  -7.0519248560435038E-002   2.1498333903477988E-002   4.0869247459161706E-002
  -6.9282580288843765E-002   2.1552839800905364E-002   4.0718708435837546E-002
  -6.8045912017252505E-002   2.1591083245168473E-002   4.0761277190513374E-002
  -6.6809243745661231E-002   2.1613064236267257E-002   4.0996953723189213E-002
  -6.5572575474069944E-002   2.1618782774201720E-002   4.1425738033865130E-002
  -7.7423433457432203E-002   2.3562765827549900E-002   3.6315657262726564E-002
  -7.5968209379849841E-002   2.3652265488884230E-002   3.6178337671116792E-002
  -7.4512985302267506E-002   2.3677579716543672E-002   3.6285021913489215E-002
  -7.3057761224685186E-002   2.3638708510527996E-002   3.6635709989843730E-002
  -7.1602537147102824E-002   2.3535651870837428E-002   3.7230401900180420E-002
  -8.4299623007286370E-002   2.5627197751621880E-002   3.1821022320453737E-002
  -8.2574947067730817E-002   2.5751691176863184E-002   3.1648999180047696E-002
  -8.0850271128175222E-002   2.5764076187918882E-002   3.1771875929606001E-002
  -7.9125595188619682E-002   2.5664352784788850E-002   3.2189652569128507E-002
  -7.7400919249064115E-002   2.5452520967473108E-002   3.2902329098615346E-002
  -5.2817913414789794E-002   1.7785044580930359E-002   4.9418200297593223E-002
  -5.1376522031016184E-002   1.7988458563261103E-002   4.9516682801925505E-002
  -4.9935130647242580E-002   1.8072579216026986E-002   4.9859882764148059E-002
  -4.8493739263468963E-002   1.8037406539228022E-002   5.0447800184260795E-002
  -4.7052347879695339E-002   1.7882940532864100E-002   5.1280435062263874E-002
  -5.9311034229965635E-002   1.9701913677566074E-002   4.5488337499669421E-002
  -5.7624093133820387E-002   1.9769164593549285E-002   4.5696512101522688E-002
  -5.5937152037675131E-002   1.9710269383033704E-002   4.6151068670229008E-002
  -5.4250210941529868E-002   1.9525228046019302E-002   4.6852007205788374E-002
  -5.2563269845384585E-002   1.9214040582505754E-002   4.7799327708200778E-002
  -6.5572575474069944E-002   2.1618782774201720E-002   4.1425738033865130E-002
  -6.3638420156590284E-002   2.1549870623837598E-002   4.1736751936305397E-002
  -6.1704264839110567E-002   2.1347959550040530E-002   4.2295812314561476E-002
  -5.9770109521630879E-002   2.1013049552810466E-002   4.3102919168633368E-002
  -5.7835954204151170E-002   2.0545140632147407E-002   4.4158072498521175E-002
  -7.1602537147102824E-002   2.3535651870837428E-002   3.7230401900180420E-002
  -6.9419503099325874E-002   2.3330576654125846E-002   3.7637402306273618E-002
  -6.7236469051548967E-002   2.2985649717047273E-002   3.8294113697145374E-002
  -6.5053435003772017E-002   2.2500871059601663E-002   3.9200536072795861E-002
  -6.2870400955995109E-002   2.1876240681789033E-002   4.0356669433224877E-002
  -7.7400919249064115E-002   2.5452520967473108E-002   3.2902329098615346E-002
  -7.4967341962027173E-002   2.5111282684414107E-002   3.3398463211427393E-002
  -7.2533764674990245E-002   2.4623339884054053E-002   3.4145972817980860E-002
  -7.0100187387953317E-002   2.3988692566392848E-002   3.5144857918275700E-002
  -6.7666610100916375E-002   2.3207340731430659E-002   3.6395118512312030E-002
  -4.7052347879695339E-002   1.7882940532864100E-002   5.1280435062263874E-002
  -4.5168734464636040E-002   1.7656778584159760E-002   5.0884099895482593E-002
  -4.3285121049576741E-002   1.7406518080338829E-002   5.0697246803163870E-002
  -4.1401507634517436E-002   1.7132159021401930E-002   5.0719875785307511E-002
  -3.9517894219458130E-002   1.6833701407348467E-002   5.0951986841913655E-002
  -5.2563269845384585E-002   1.9214040582505754E-002   4.7799327708200778E-002
  -5.0457481735323780E-002   1.8848819541650741E-002   4.7650912977231064E-002
  -4.8351693625262981E-002   1.8501677472611708E-002   4.7737365561801817E-002
  -4.6245905515202204E-002   1.8172614375388554E-002   4.8058685461913178E-002
  -4.4140117405141371E-002   1.7861630249980998E-002   4.8614872677564896E-002
  -5.7835954204151170E-002   2.0545140632147407E-002   4.4158072498521175E-002
  -5.5482606158010789E-002   2.0040860499141916E-002   4.4299755730295015E-002
  -5.3129258111870442E-002   1.9596836864884365E-002   4.4701691518687511E-002
  -5.0775910065730082E-002   1.9213069729374956E-002   4.5363879863698650E-002
  -4.8422562019589707E-002   1.8889559092613556E-002   4.6286320765328348E-002
  -6.2870400955995109E-002   2.1876240681789033E-002   4.0356669433224877E-002
  -6.0244107732697061E-002   2.1232901456632966E-002   4.0830628154674586E-002
  -5.7617814509398992E-002   2.0691996257157244E-002   4.1590224673820869E-002
  -5.4991521286100964E-002   2.0253525083361579E-002   4.2635458990664066E-002
  -5.2365228062802936E-002   1.9917487935246100E-002   4.3966331105203892E-002
  -6.7666610100916375E-002   2.3207340731430659E-002   3.6395118512312030E-002
  -6.4741986459382589E-002   2.2424942414124127E-002   3.7243530250369666E-002
  -6.1817362817848776E-002   2.1787155649429873E-002   3.8402965027202113E-002
  -5.8892739176314990E-002   2.1293980437348085E-002   3.9873422842809397E-002
  -5.5968115534781204E-002   2.0945416777878645E-002   4.1654903697191381E-002
  -3.9517894219458130E-002   1.6833701407348467E-002   5.0951986841913655E-002
  -3.7789941200670363E-002   1.6503597571930401E-002   5.0657580137922986E-002
  -3.6061988181882547E-002   1.6134299848898997E-002   5.0559743491788101E-002
  -3.4334035163094745E-002   1.5725808238254778E-002   5.0658476903508942E-002
  -3.2606082144306964E-002   1.5278122739997124E-002   5.0953780373085567E-002
  -4.4140117405141371E-002   1.7861630249980998E-002   4.8614872677564896E-002
  -4.2235843627302809E-002   1.7517496847570341E-002   4.8578209539286432E-002
  -4.0331569849464288E-002   1.7088985919336996E-002   4.8697617861253775E-002
  -3.8427296071625740E-002   1.6576097465281228E-002   4.8973097643466766E-002
  -3.6523022293787205E-002   1.5978831485402856E-002   4.9404648885925606E-002
  -4.8422562019589707E-002   1.8889559092613556E-002   4.6286320765328348E-002
  -4.6382466080310290E-002   1.8531396123210128E-002   4.6462217554552612E-002
  -4.4342370141030985E-002   1.8043671989774898E-002   4.6753687206412722E-002
  -4.2302274201751672E-002   1.7426386692307571E-002   4.7160729720908560E-002
  -4.0262178262472269E-002   1.6679540230808393E-002   4.7683345098040272E-002
  -5.2365228062802936E-002   1.9917487935246100E-002   4.3966331105203892E-002
  -5.0229808559692800E-002   1.9545295398850158E-002   4.4309604183721464E-002
  -4.8094389056582698E-002   1.8998358060212682E-002   4.4727951527264942E-002
  -4.5958969553472596E-002   1.8276675919334136E-002   4.5221373135834159E-002
  -4.3823550050362516E-002   1.7380248976213916E-002   4.5789869009429066E-002
  -5.5968115534781204E-002   2.0945416777878645E-002   4.1654903697191381E-002
  -5.3777871065450289E-002   2.0559194674489883E-002   4.2120369426792925E-002
  -5.1587626596119374E-002   1.9953044130650757E-002   4.2620410823810490E-002
  -4.9397382126788444E-002   1.9126965146360465E-002   4.3155027888243533E-002
  -4.7207137657457543E-002   1.8080957721619606E-002   4.3724220620092569E-002
  -3.2606082144306964E-002   1.5278122739997124E-002   5.0953780373085567E-002
  -2.7760513583080362E-002   1.5105637335754041E-002   4.5370263309796877E-002
  -2.2914945021853747E-002   1.5522746007151797E-002   4.0663354730113982E-002
  -1.8069376460627125E-002   1.6529448754191722E-002   3.6833054634036758E-002
  -1.3223807899400530E-002   1.8125745576872854E-002   3.3879363021565467E-002
  -3.6523022293787205E-002   1.5978831485402856E-002   4.9404648885925606E-002
  -3.0880304367275950E-002   1.5415576141875914E-002   4.4290453322194334E-002
  -2.5237586440764723E-002   1.5004719596874744E-002   3.9893948005426588E-002
  -1.9594868514253544E-002   1.4746261850399366E-002   3.6215132935622188E-002
  -1.3952150587742351E-002   1.4640202902449384E-002   3.3254008112781230E-002
  -4.0262178262472269E-002   1.6679540230808393E-002   4.7683345098040272E-002
  -3.3981229207318886E-002   1.5725514947998093E-002   4.2601275756750434E-002
  -2.7700280152165465E-002   1.4486693186597642E-002   3.8077978425781818E-002
  -2.1419331097012030E-002   1.2963074946606928E-002   3.4113453105134445E-002
  -1.5138382041858606E-002   1.1154660228026025E-002   3.0707699794807697E-002
  -4.3823550050362516E-002   1.7380248976213916E-002   4.5789869009429066E-002
  -3.7063288103209080E-002   1.6035453754120174E-002   4.0302730613465142E-002
  -3.0303026156055724E-002   1.3968666776320398E-002   3.5215445991180018E-002
  -2.3542764208902375E-002   1.1179888042814532E-002   3.0528015142573566E-002
  -1.6782502261748995E-002   7.6691175536025558E-003   2.6240438067645755E-002
  -4.7207137657457543E-002   1.8080957721619606E-002   4.3724220620092569E-002
  -4.0126481054946678E-002   1.6345392560242367E-002   3.7394817892338283E-002
  -3.3045824452435729E-002   1.3450640366043279E-002   3.1306350701620717E-002
  -2.5965167849924836E-002   9.3967011390221657E-003   2.5458819047939327E-002
  -1.8884511247413915E-002   4.1835748791791971E-003   1.9852222931294516E-002
  -9.0355684484174539E-002   0.0000000000000000        4.9802908858893116E-002
  -9.3955190476346942E-002   5.3911147897701302E-003   5.3187536760228166E-002
  -9.7554696468519331E-002   1.0657898002413180E-002   5.4952044721017744E-002
 -0.10115420246069173        1.5800349637929159E-002   5.5096432741261830E-002
 -0.10475370845286411        2.0818469696318051E-002   5.3620700820960446E-002
 -0.10331692184893683        0.0000000000000000        5.8615977427235545E-002
 -0.10685469806002203        1.0879133753476683E-002   5.2088101604628165E-002
 -0.11039247427110720        1.9170821897204329E-002   4.7303805284740701E-002
 -0.11393025048219238        2.4875064431182946E-002   4.4263088467573125E-002
 -0.11746802669327758        2.7991861355412529E-002   4.2965951153125459E-002
 -0.12651662406583619        0.0000000000000000        7.4148621975595519E-002
 -0.12662897105256879        1.6367152717183236E-002   5.5245128396423739E-002
 -0.12674131803930136        2.7683745791995479E-002   4.1448913763237262E-002
 -0.12685366502603396        3.3949779224436746E-002   3.2759978076036055E-002
 -0.12696601201276658        3.5165253014506986E-002   2.9178321334820161E-002
 -0.15995479113487263        0.0000000000000000        9.6400842503973003E-002
 -0.15327800945398726        2.1855171680889792E-002   6.2658617135614894E-002
 -0.14660122777310186        3.6196669686786635E-002   3.7387370156507456E-002
 -0.13992444609221646        4.3024494017690519E-002   2.0587101566650688E-002
 -0.13324766441133107        4.2338644673601475E-002   1.2257811366044556E-002
 -0.20363142305604615        0.0000000000000000       0.12537263901236803     
 -0.18680181326427739        2.7343190644596334E-002   7.4328567822201611E-002
 -0.16997220347250863        4.4709593581577771E-002   3.5119174464551275E-002
 -0.15314259368073987        5.2099208810944327E-002   7.7444589394169566E-003
 -0.13631298388897112        4.9512036332695922E-002  -7.7955787532012835E-003
 -0.10475370845286411        2.0818469696318051E-002   5.3620700820960446E-002
 -0.10210297307399943        2.4984171065258510E-002   4.5683657055245436E-002
  -9.9452237695134740E-002   2.7569366632429201E-002   3.9442263764567845E-002
  -9.6801502316270049E-002   2.8574056397830071E-002   3.4896520948927631E-002
  -9.4150766937405345E-002   2.7998240361461174E-002   3.2046428608324837E-002
 -0.11746802669327758        2.7991861355412529E-002   4.2965951153125459E-002
 -0.11351289506048137        2.9483281689636487E-002   3.6732079401213008E-002
 -0.10955776342768518        3.0311394453598262E-002   3.1411349682126236E-002
 -0.10560263179488898        3.0476199647297860E-002   2.7003761995864992E-002
 -0.10164750016209279        2.9977697270735251E-002   2.3509316342429414E-002
 -0.12696601201276658        3.5165253014506986E-002   2.9178321334820161E-002
 -0.12248899256825062        3.3982392314014440E-002   2.5564819828217927E-002
 -0.11801197312373475        3.3053422274767340E-002   2.2081951912229496E-002
 -0.11353495367921884        3.2378342896765645E-002   1.8729717586854887E-002
 -0.10905793423470295        3.1957154180009315E-002   1.5508116852094089E-002
 -0.13324766441133107        4.2338644673601475E-002   1.2257811366044556E-002
 -0.12903126559730724        3.8481502938392448E-002   1.2181878336260136E-002
 -0.12481486678328341        3.5795450095936418E-002   1.1454070454877639E-002
 -0.12059846796925959        3.4280486146233392E-002   1.0074387721897275E-002
 -0.11638206915523576        3.3936611089283433E-002   8.0428301373189348E-003
 -0.13631298388897112        4.9512036332695922E-002  -7.7955787532012835E-003
 -0.13313971414765113        4.2980613562770408E-002  -3.4167450746604607E-003
 -0.12996644440633121        3.8537477917105455E-002  -4.7229468992920388E-004
 -0.12679317466501119        3.6182629395701202E-002   1.0377724009920943E-003
 -0.12361990492369127        3.5916067998557455E-002   1.1134561981038238E-003
  -9.4150766937405345E-002   2.7998240361461174E-002   3.2046428608324837E-002
  -9.1687980954875611E-002   2.6825498495405879E-002   3.1735942939690745E-002
  -8.9225194972345864E-002   2.6039410771747516E-002   3.1594880002167508E-002
  -8.6762408989816131E-002   2.5639977190486204E-002   3.1623239795755195E-002
  -8.4299623007286370E-002   2.5627197751621880E-002   3.1821022320453737E-002
 -0.10164750016209279        2.9977697270735251E-002   2.3509316342429414E-002
  -9.9027239789581639E-002   2.9214200907927045E-002   2.3533168354827227E-002
  -9.6406979417070479E-002   2.8584024142889870E-002   2.3702546416077008E-002
  -9.3786719044559319E-002   2.8087166975623638E-002   2.4017450526178687E-002
  -9.1166458672048145E-002   2.7723629406128464E-002   2.4477880685132430E-002
 -0.10905793423470295        3.1957154180009315E-002   1.5508116852094089E-002
 -0.10630409615446926        3.1602903320448184E-002   1.5612972000897795E-002
 -0.10355025807423557        3.1128637514032123E-002   1.5839456516294585E-002
 -0.10079641999400188        3.0534356760761099E-002   1.6187570398284404E-002
  -9.8042581913768134E-002   2.9820061060635124E-002   1.6657313646867327E-002
 -0.11638206915523576        3.3936611089283433E-002   8.0428301373189348E-003
 -0.11351855004953844        3.3991605732969332E-002   7.9753538779024809E-003
 -0.11065503094384112        3.3673250885174380E-002   8.0056103028202843E-003
 -0.10779151183814378        3.2981546545898563E-002   8.1335994120721577E-003
 -0.10492799273244648        3.1916492715141617E-002   8.3593212056584897E-003
 -0.12361990492369127        3.5916067998557455E-002   1.1134561981038238E-003
 -0.12067060147478920        3.6380308145490495E-002   6.2031398584132258E-004
 -0.11772129802588711        3.6217864256316776E-002   2.0100777565419670E-004
 -0.11477199457698503        3.5428736331035979E-002  -1.4446243245778631E-004
 -0.11182269112808296        3.4012924369648367E-002  -4.1609663849428991E-004
  -8.4299623007286370E-002   2.5627197751621880E-002   3.1821022320453737E-002
  -8.2574947067730817E-002   2.5751691176863184E-002   3.1648999180047696E-002
  -8.0850271128175222E-002   2.5764076187918882E-002   3.1771875929606001E-002
  -7.9125595188619682E-002   2.5664352784788850E-002   3.2189652569128507E-002
  -7.7400919249064115E-002   2.5452520967473108E-002   3.2902329098615346E-002
  -9.1166458672048145E-002   2.7723629406128464E-002   2.4477880685132430E-002
  -8.9073197760260764E-002   2.7414944959887395E-002   2.4302394167311510E-002
  -8.6979936848473383E-002   2.7082647162383434E-002   2.4569177703989864E-002
  -8.4886675936685960E-002   2.6726736013616567E-002   2.5278231295167632E-002
  -8.2793415024898620E-002   2.6347211513586960E-002   2.6429554940844854E-002
  -9.8042581913768134E-002   2.9820061060635124E-002   1.6657313646867327E-002
  -9.5433365865213879E-002   2.9078198742911579E-002   1.6566858814554296E-002
  -9.2824149816659568E-002   2.8401218136847990E-002   1.7066044201275617E-002
  -9.0214933768105271E-002   2.7789119242444399E-002   1.8154869807031435E-002
  -8.7605717719550946E-002   2.7241902059700743E-002   1.9833335631821734E-002
 -0.10492799273244648        3.1916492715141617E-002   8.3593212056584897E-003
 -0.10165545138259011        3.0741452525935763E-002   8.4423931217759412E-003
  -9.8382910032733750E-002   2.9719789111312653E-002   9.2624754214631014E-003
  -9.5110368682877422E-002   2.8851502471272189E-002   1.0819568104719844E-002
  -9.1837827333021052E-002   2.8136592605814477E-002   1.3113671171546113E-002
 -0.11182269112808296        3.4012924369648367E-002  -4.1609663849428991E-004
 -0.10773945431238952        3.2404706308959974E-002  -7.1002911023354542E-005
 -0.10365621749669601        3.1038360085777178E-002   1.1584713645524380E-003
  -9.9572980681002538E-002   2.9913885700099944E-002   3.2723261882328242E-003
  -9.5489743865309062E-002   2.9031283151928322E-002   6.2705615600178732E-003
  -7.7400919249064115E-002   2.5452520967473108E-002   3.2902329098615346E-002
  -7.4967341962027173E-002   2.5111282684414107E-002   3.3398463211427393E-002
  -7.2533764674990245E-002   2.4623339884054053E-002   3.4145972817980860E-002
  -7.0100187387953317E-002   2.3988692566392848E-002   3.5144857918275700E-002
  -6.7666610100916375E-002   2.3207340731430659E-002   3.6395118512312030E-002
  -8.2793415024898620E-002   2.6347211513586960E-002   2.6429554940844854E-002
  -8.0176979090579026E-002   2.5887622461016682E-002   2.7295755152820553E-002
  -7.7560543156259473E-002   2.5291517654628212E-002   2.8276297165620169E-002
  -7.4944107221939865E-002   2.4558897094421325E-002   2.9371180979243659E-002
  -7.2327671287620382E-002   2.3689760780396113E-002   3.0580406593690962E-002
  -8.7605717719550946E-002   2.7241902059700743E-002   1.9833335631821734E-002
  -8.4943456830866265E-002   2.6663962237619306E-002   2.1079790706443960E-002
  -8.2281195942181640E-002   2.5959695425202284E-002   2.2303553888972611E-002
  -7.9618935053496973E-002   2.5129101622449770E-002   2.3504625179407421E-002
  -7.6956674164812319E-002   2.4172180829361595E-002   2.4683004577748399E-002
  -9.1837827333021052E-002   2.8136592605814477E-002   1.3113671171546113E-002
  -8.9266775182888919E-002   2.7440302014221821E-002   1.4750569872297691E-002
  -8.6695723032756730E-002   2.6627873195776371E-002   1.6227742988037770E-002
  -8.4124670882624555E-002   2.5699306150478177E-002   1.7545190518766567E-002
  -8.1553618732492436E-002   2.4654600878327090E-002   1.8702912464484321E-002
  -9.5489743865309062E-002   2.9031283151928322E-002   6.2705615600178732E-003
  -9.3146934146646931E-002   2.8216641790824587E-002   8.3080926503813490E-003
  -9.0804124427984800E-002   2.7296050966350557E-002   1.0048864462815832E-002
  -8.8461314709322669E-002   2.6269510678506688E-002   1.1492876997321599E-002
  -8.6118504990660538E-002   2.5137020927292530E-002   1.2640130253898596E-002
  -6.7666610100916375E-002   2.3207340731430659E-002   3.6395118512312030E-002
  -6.4741986459382589E-002   2.2424942414124127E-002   3.7243530250369666E-002
  -6.1817362817848776E-002   2.1787155649429873E-002   3.8402965027202113E-002
  -5.8892739176314990E-002   2.1293980437348085E-002   3.9873422842809397E-002
  -5.5968115534781204E-002   2.0945416777878645E-002   4.1654903697191381E-002
  -7.2327671287620382E-002   2.3689760780396113E-002   3.0580406593690962E-002
  -6.9102004061543904E-002   2.2799734337690211E-002   3.1570570711563203E-002
  -6.5876336835467481E-002   2.2004443391441454E-002   3.2851798959745798E-002
  -6.2650669609390974E-002   2.1303887941649578E-002   3.4424091338238941E-002
  -5.9425002383314593E-002   2.0698067988314695E-002   3.6287447847042631E-002
  -7.6956674164812319E-002   2.4172180829361595E-002   2.4683004577748399E-002
  -7.3449922262657535E-002   2.3174526261256406E-002   2.5765045019279655E-002
  -6.9943170360502752E-002   2.2221731133452979E-002   2.7118190682657126E-002
  -6.6436418458347968E-002   2.1313795445951075E-002   2.8742441567880722E-002
  -6.2929666556193128E-002   2.0450719198750800E-002   3.0637797674950645E-002
  -8.1553618732492436E-002   2.4654600878327090E-002   1.8702912464484321E-002
  -7.7785741062723540E-002   2.3549318184822712E-002   1.9826953173519270E-002
  -7.4017863392954658E-002   2.2439018875464616E-002   2.1202140195935758E-002
  -7.0249985723185748E-002   2.1323702950252432E-002   2.2828473531734741E-002
  -6.6482108053416880E-002   2.0203370409186822E-002   2.4705953180915483E-002
  -8.6118504990660538E-002   2.5137020927292530E-002   1.2640130253898596E-002
  -8.2109460461741834E-002   2.3924110108388574E-002   1.3756295174281563E-002
  -7.8100415932823186E-002   2.2656306617476030E-002   1.5103647499582720E-002
  -7.4091371403904538E-002   2.1333610454554050E-002   1.6682187229801252E-002
  -7.0082326874985834E-002   1.9956021619622843E-002   1.8491914364937245E-002
  -5.5968115534781204E-002   2.0945416777878645E-002   4.1654903697191381E-002
  -5.3777871065450289E-002   2.0559194674489883E-002   4.2120369426792925E-002
  -5.1587626596119374E-002   1.9953044130650757E-002   4.2620410823810490E-002
  -4.9397382126788444E-002   1.9126965146360465E-002   4.3155027888243533E-002
  -4.7207137657457543E-002   1.8080957721619606E-002   4.3724220620092569E-002
  -5.9425002383314593E-002   2.0698067988314695E-002   3.6287447847042631E-002
  -5.6915980351463544E-002   2.0018343314706200E-002   3.6758101458675974E-002
  -5.4406958319612446E-002   1.9096073704094024E-002   3.7831734527934022E-002
  -5.1897936287761362E-002   1.7931259156477829E-002   3.9508347054816352E-002
  -4.9388914255910299E-002   1.6523899671858133E-002   4.1787939039323319E-002
  -6.2929666556193128E-002   2.0450719198750800E-002   3.0637797674950645E-002
  -5.9533463171613246E-002   1.9477491954922557E-002   3.1091022672062832E-002
  -5.6137259787033329E-002   1.8239103277537673E-002   3.2715630917008194E-002
  -5.2741056402453385E-002   1.6735553166595633E-002   3.5511622409786864E-002
  -4.9344853017873461E-002   1.4966841622096688E-002   3.9478997150398668E-002
  -6.6482108053416880E-002   2.0203370409186822E-002   2.4705953180915483E-002
  -6.1630319525899487E-002   1.8936640595139005E-002   2.5119133066953417E-002
  -5.6778530998381975E-002   1.7382132850981075E-002   2.7272099991032923E-002
  -5.1926742470864554E-002   1.5539847176713219E-002   3.1164853953154503E-002
  -4.7074953943347077E-002   1.3409783572335229E-002   3.6797394953318241E-002
  -7.0082326874985834E-002   1.9956021619622843E-002   1.8491914364937245E-002
  -6.3206549414322077E-002   1.8395789235355120E-002   1.8842432643347395E-002
  -5.6330771953658432E-002   1.6525162424424478E-002   2.1501141750008501E-002
  -4.9454994492994730E-002   1.4344141186830695E-002   2.6468041684919980E-002
  -4.2579217032331029E-002   1.1852725522573770E-002   3.3743132448082025E-002
  -4.7207137657457543E-002   1.8080957721619606E-002   4.3724220620092569E-002
  -4.0126481054946678E-002   1.6345392560242367E-002   3.7394817892338283E-002
  -3.3045824452435729E-002   1.3450640366043279E-002   3.1306350701620717E-002
  -2.5965167849924836E-002   9.3967011390221657E-003   2.5458819047939327E-002
  -1.8884511247413915E-002   4.1835748791791971E-003   1.9852222931294516E-002
  -4.9388914255910299E-002   1.6523899671858133E-002   4.1787939039323319E-002
  -4.1791804859034040E-002   1.4217759639609084E-002   3.6602789809849656E-002
  -3.4194695462157837E-002   1.0356603449105536E-002   3.2209610632070063E-002
  -2.6597586065281530E-002   4.9404311003471250E-003   2.8608401505984926E-002
  -1.9000476668405319E-002  -2.0307574066655842E-003   2.5799162431594302E-002
  -4.9344853017873461E-002   1.4966841622096688E-002   3.9478997150398668E-002
  -4.0680256311973993E-002   1.2090126718975691E-002   3.5042272293772644E-002
  -3.2015659606074408E-002   7.2625665321675095E-003   3.1948552003498810E-002
  -2.3351062900174961E-002   4.8416106167216595E-004   3.0197836279576885E-002
  -1.4686466194275410E-002  -8.2450896925105877E-003   2.9790125122007793E-002
  -4.7074953943347077E-002   1.3409783572335229E-002   3.6797394953318241E-002
  -3.6791835413766384E-002   9.9624937983419093E-003   3.2713265344107234E-002
  -2.6508716884185633E-002   4.1685296152294028E-003   3.0523174815906488E-002
  -1.6225598354604978E-002  -3.9721089770032780E-003   3.0227123368715698E-002
  -5.9424798250241953E-003  -1.4459421978355536E-002   3.1825111002535253E-002
  -4.2579217032331029E-002   1.1852725522573770E-002   3.3743132448082025E-002
  -3.0126542164411241E-002   7.8348608777087936E-003   2.9615768960853661E-002
  -1.7673867296491397E-002   1.0744926982914627E-003   2.7933479069293193E-002
  -5.2211924285715250E-003  -8.4283790156777366E-003   2.8696262773401197E-002
   7.2314824393482358E-003  -2.0673754264200372E-002   3.1904120073176667E-002
 </DataArray>
 </PointData>
 </Piece>
 <Piece  NumberOfPoints="          1600 "  NumberOfCells="         1024 ">
 <Points>
 <DataArray  type="Float64" NumberOfComponents="3"  format="ascii" >
  0.50000000000000000        0.0000000000000000        0.0000000000000000     
  0.53125000000000000        0.0000000000000000        0.0000000000000000     
  0.56250000000000000        0.0000000000000000        0.0000000000000000     
  0.59375000000000000        0.0000000000000000        0.0000000000000000     
  0.62500000000000000        0.0000000000000000        0.0000000000000000     
  0.50000000000000000        3.1250000000000000E-002   0.0000000000000000     
  0.53125000000000000        3.1250000000000000E-002   0.0000000000000000     
  0.56250000000000000        3.1250000000000000E-002   0.0000000000000000     
  0.59375000000000000        3.1250000000000000E-002   0.0000000000000000     
  0.62500000000000000        3.1250000000000000E-002   0.0000000000000000     
  0.50000000000000000        6.2500000000000000E-002   0.0000000000000000     
  0.53125000000000000        6.2500000000000000E-002   0.0000000000000000     
  0.56250000000000000        6.2500000000000000E-002   0.0000000000000000     
  0.59375000000000000        6.2500000000000000E-002   0.0000000000000000     
  0.62500000000000000        6.2500000000000000E-002   0.0000000000000000     
  0.50000000000000000        9.3750000000000000E-002   0.0000000000000000     
  0.53125000000000000        9.3750000000000000E-002   0.0000000000000000     
  0.56250000000000000        9.3750000000000000E-002   0.0000000000000000     
  0.59375000000000000        9.3750000000000000E-002   0.0000000000000000     
  0.62500000000000000        9.3750000000000000E-002   0.0000000000000000     
  0.50000000000000000       0.12500000000000000        0.0000000000000000     
  0.53125000000000000       0.12500000000000000        0.0000000000000000     
  0.56250000000000000       0.12500000000000000        0.0000000000000000     
  0.59375000000000000       0.12500000000000000        0.0000000000000000     
  0.62500000000000000       0.12500000000000000        0.0000000000000000     
  0.62500000000000000        0.0000000000000000        0.0000000000000000     
  0.65625000000000000        0.0000000000000000        0.0000000000000000     
  0.68750000000000000        0.0000000000000000        0.0000000000000000     
  0.71875000000000000        0.0000000000000000        0.0000000000000000     
  0.75000000000000000        0.0000000000000000        0.0000000000000000     
  0.62500000000000000        3.1250000000000000E-002   0.0000000000000000     
  0.65625000000000000        3.1250000000000000E-002   0.0000000000000000     
  0.68750000000000000        3.1250000000000000E-002   0.0000000000000000     
  0.71875000000000000        3.1250000000000000E-002   0.0000000000000000     
  0.75000000000000000        3.1250000000000000E-002   0.0000000000000000     
  0.62500000000000000        6.2500000000000000E-002   0.0000000000000000     
  0.65625000000000000        6.2500000000000000E-002   0.0000000000000000     
  0.68750000000000000        6.2500000000000000E-002   0.0000000000000000     
  0.71875000000000000        6.2500000000000000E-002   0.0000000000000000     
  0.75000000000000000        6.2500000000000000E-002   0.0000000000000000     
  0.62500000000000000        9.3750000000000000E-002   0.0000000000000000     
  0.65625000000000000        9.3750000000000000E-002   0.0000000000000000     
  0.68750000000000000        9.3750000000000000E-002   0.0000000000000000     
  0.71875000000000000        9.3750000000000000E-002   0.0000000000000000     
  0.75000000000000000        9.3750000000000000E-002   0.0000000000000000     
  0.62500000000000000       0.12500000000000000        0.0000000000000000     
  0.65625000000000000       0.12500000000000000        0.0000000000000000     
  0.68750000000000000       0.12500000000000000        0.0000000000000000     
  0.71875000000000000       0.12500000000000000        0.0000000000000000     
  0.75000000000000000       0.12500000000000000        0.0000000000000000     
  0.75000000000000000        0.0000000000000000        0.0000000000000000     
  0.78125000000000000        0.0000000000000000        0.0000000000000000     
  0.81250000000000000        0.0000000000000000        0.0000000000000000     
  0.84375000000000000        0.0000000000000000        0.0000000000000000     
  0.87500000000000000        0.0000000000000000        0.0000000000000000     
  0.75000000000000000        3.1250000000000000E-002   0.0000000000000000     
  0.78125000000000000        3.1250000000000000E-002   0.0000000000000000     
  0.81250000000000000        3.1250000000000000E-002   0.0000000000000000     
  0.84375000000000000        3.1250000000000000E-002   0.0000000000000000     
  0.87500000000000000        3.1250000000000000E-002   0.0000000000000000     
  0.75000000000000000        6.2500000000000000E-002   0.0000000000000000     
  0.78125000000000000        6.2500000000000000E-002   0.0000000000000000     
  0.81250000000000000        6.2500000000000000E-002   0.0000000000000000     
  0.84375000000000000        6.2500000000000000E-002   0.0000000000000000     
  0.87500000000000000        6.2500000000000000E-002   0.0000000000000000     
  0.75000000000000000        9.3750000000000000E-002   0.0000000000000000     
  0.78125000000000000        9.3750000000000000E-002   0.0000000000000000     
  0.81250000000000000        9.3750000000000000E-002   0.0000000000000000     
  0.84375000000000000        9.3750000000000000E-002   0.0000000000000000     
  0.87500000000000000        9.3750000000000000E-002   0.0000000000000000     
  0.75000000000000000       0.12500000000000000        0.0000000000000000     
  0.78125000000000000       0.12500000000000000        0.0000000000000000     
  0.81250000000000000       0.12500000000000000        0.0000000000000000     
  0.84375000000000000       0.12500000000000000        0.0000000000000000     
  0.87500000000000000       0.12500000000000000        0.0000000000000000     
  0.87500000000000000        0.0000000000000000        0.0000000000000000     
  0.90625000000000000        0.0000000000000000        0.0000000000000000     
  0.93750000000000000        0.0000000000000000        0.0000000000000000     
  0.96875000000000000        0.0000000000000000        0.0000000000000000     
   1.0000000000000000        0.0000000000000000        0.0000000000000000     
  0.87500000000000000        3.1250000000000000E-002   0.0000000000000000     
  0.90625000000000000        3.1250000000000000E-002   0.0000000000000000     
  0.93750000000000000        3.1250000000000000E-002   0.0000000000000000     
  0.96875000000000000        3.1250000000000000E-002   0.0000000000000000     
   1.0000000000000000        3.1250000000000000E-002   0.0000000000000000     
  0.87500000000000000        6.2500000000000000E-002   0.0000000000000000     
  0.90625000000000000        6.2500000000000000E-002   0.0000000000000000     
  0.93750000000000000        6.2500000000000000E-002   0.0000000000000000     
  0.96875000000000000        6.2500000000000000E-002   0.0000000000000000     
   1.0000000000000000        6.2500000000000000E-002   0.0000000000000000     
  0.87500000000000000        9.3750000000000000E-002   0.0000000000000000     
  0.90625000000000000        9.3750000000000000E-002   0.0000000000000000     
  0.93750000000000000        9.3750000000000000E-002   0.0000000000000000     
  0.96875000000000000        9.3750000000000000E-002   0.0000000000000000     
   1.0000000000000000        9.3750000000000000E-002   0.0000000000000000     
  0.87500000000000000       0.12500000000000000        0.0000000000000000     
  0.90625000000000000       0.12500000000000000        0.0000000000000000     
  0.93750000000000000       0.12500000000000000        0.0000000000000000     
  0.96875000000000000       0.12500000000000000        0.0000000000000000     
   1.0000000000000000       0.12500000000000000        0.0000000000000000     
   1.0000000000000000        0.0000000000000000        0.0000000000000000     
   1.0312500000000000        0.0000000000000000        0.0000000000000000     
   1.0625000000000000        0.0000000000000000        0.0000000000000000     
   1.0937500000000000        0.0000000000000000        0.0000000000000000     
   1.1250000000000000        0.0000000000000000        0.0000000000000000     
   1.0000000000000000        3.1250000000000000E-002   0.0000000000000000     
   1.0312500000000000        3.1250000000000000E-002   0.0000000000000000     
   1.0625000000000000        3.1250000000000000E-002   0.0000000000000000     
   1.0937500000000000        3.1250000000000000E-002   0.0000000000000000     
   1.1250000000000000        3.1250000000000000E-002   0.0000000000000000     
   1.0000000000000000        6.2500000000000000E-002   0.0000000000000000     
   1.0312500000000000        6.2500000000000000E-002   0.0000000000000000     
   1.0625000000000000        6.2500000000000000E-002   0.0000000000000000     
   1.0937500000000000        6.2500000000000000E-002   0.0000000000000000     
   1.1250000000000000        6.2500000000000000E-002   0.0000000000000000     
   1.0000000000000000        9.3750000000000000E-002   0.0000000000000000     
   1.0312500000000000        9.3750000000000000E-002   0.0000000000000000     
   1.0625000000000000        9.3750000000000000E-002   0.0000000000000000     
   1.0937500000000000        9.3750000000000000E-002   0.0000000000000000     
   1.1250000000000000        9.3750000000000000E-002   0.0000000000000000     
   1.0000000000000000       0.12500000000000000        0.0000000000000000     
   1.0312500000000000       0.12500000000000000        0.0000000000000000     
   1.0625000000000000       0.12500000000000000        0.0000000000000000     
   1.0937500000000000       0.12500000000000000        0.0000000000000000     
   1.1250000000000000       0.12500000000000000        0.0000000000000000     
   1.1250000000000000        0.0000000000000000        0.0000000000000000     
   1.1562500000000000        0.0000000000000000        0.0000000000000000     
   1.1875000000000000        0.0000000000000000        0.0000000000000000     
   1.2187500000000000        0.0000000000000000        0.0000000000000000     
   1.2500000000000000        0.0000000000000000        0.0000000000000000     
   1.1250000000000000        3.1250000000000000E-002   0.0000000000000000     
   1.1562500000000000        3.1250000000000000E-002   0.0000000000000000     
   1.1875000000000000        3.1250000000000000E-002   0.0000000000000000     
   1.2187500000000000        3.1250000000000000E-002   0.0000000000000000     
   1.2500000000000000        3.1250000000000000E-002   0.0000000000000000     
   1.1250000000000000        6.2500000000000000E-002   0.0000000000000000     
   1.1562500000000000        6.2500000000000000E-002   0.0000000000000000     
   1.1875000000000000        6.2500000000000000E-002   0.0000000000000000     
   1.2187500000000000        6.2500000000000000E-002   0.0000000000000000     
   1.2500000000000000        6.2500000000000000E-002   0.0000000000000000     
   1.1250000000000000        9.3750000000000000E-002   0.0000000000000000     
   1.1562500000000000        9.3750000000000000E-002   0.0000000000000000     
   1.1875000000000000        9.3750000000000000E-002   0.0000000000000000     
   1.2187500000000000        9.3750000000000000E-002   0.0000000000000000     
   1.2500000000000000        9.3750000000000000E-002   0.0000000000000000     
   1.1250000000000000       0.12500000000000000        0.0000000000000000     
   1.1562500000000000       0.12500000000000000        0.0000000000000000     
   1.1875000000000000       0.12500000000000000        0.0000000000000000     
   1.2187500000000000       0.12500000000000000        0.0000000000000000     
   1.2500000000000000       0.12500000000000000        0.0000000000000000     
   1.2500000000000000        0.0000000000000000        0.0000000000000000     
   1.2812500000000000        0.0000000000000000        0.0000000000000000     
   1.3125000000000000        0.0000000000000000        0.0000000000000000     
   1.3437500000000000        0.0000000000000000        0.0000000000000000     
   1.3750000000000000        0.0000000000000000        0.0000000000000000     
   1.2500000000000000        3.1250000000000000E-002   0.0000000000000000     
   1.2812500000000000        3.1250000000000000E-002   0.0000000000000000     
   1.3125000000000000        3.1250000000000000E-002   0.0000000000000000     
   1.3437500000000000        3.1250000000000000E-002   0.0000000000000000     
   1.3750000000000000        3.1250000000000000E-002   0.0000000000000000     
   1.2500000000000000        6.2500000000000000E-002   0.0000000000000000     
   1.2812500000000000        6.2500000000000000E-002   0.0000000000000000     
   1.3125000000000000        6.2500000000000000E-002   0.0000000000000000     
   1.3437500000000000        6.2500000000000000E-002   0.0000000000000000     
   1.3750000000000000        6.2500000000000000E-002   0.0000000000000000     
   1.2500000000000000        9.3750000000000000E-002   0.0000000000000000     
   1.2812500000000000        9.3750000000000000E-002   0.0000000000000000     
   1.3125000000000000        9.3750000000000000E-002   0.0000000000000000     
   1.3437500000000000        9.3750000000000000E-002   0.0000000000000000     
   1.3750000000000000        9.3750000000000000E-002   0.0000000000000000     
   1.2500000000000000       0.12500000000000000        0.0000000000000000     
   1.2812500000000000       0.12500000000000000        0.0000000000000000     
   1.3125000000000000       0.12500000000000000        0.0000000000000000     
   1.3437500000000000       0.12500000000000000        0.0000000000000000     
   1.3750000000000000       0.12500000000000000        0.0000000000000000     
   1.3750000000000000        0.0000000000000000        0.0000000000000000     
   1.4062500000000000        0.0000000000000000        0.0000000000000000     
   1.4375000000000000        0.0000000000000000        0.0000000000000000     
   1.4687500000000000        0.0000000000000000        0.0000000000000000     
   1.5000000000000000        0.0000000000000000        0.0000000000000000     
   1.3750000000000000        3.1250000000000000E-002   0.0000000000000000     
   1.4062500000000000        3.1250000000000000E-002   0.0000000000000000     
   1.4375000000000000        3.1250000000000000E-002   0.0000000000000000     
   1.4687500000000000        3.1250000000000000E-002   0.0000000000000000     
   1.5000000000000000        3.1250000000000000E-002   0.0000000000000000     
   1.3750000000000000        6.2500000000000000E-002   0.0000000000000000     
   1.4062500000000000        6.2500000000000000E-002   0.0000000000000000     
   1.4375000000000000        6.2500000000000000E-002   0.0000000000000000     
   1.4687500000000000        6.2500000000000000E-002   0.0000000000000000     
   1.5000000000000000        6.2500000000000000E-002   0.0000000000000000     
   1.3750000000000000        9.3750000000000000E-002   0.0000000000000000     
   1.4062500000000000        9.3750000000000000E-002   0.0000000000000000     
   1.4375000000000000        9.3750000000000000E-002   0.0000000000000000     
   1.4687500000000000        9.3750000000000000E-002   0.0000000000000000     
   1.5000000000000000        9.3750000000000000E-002   0.0000000000000000     
   1.3750000000000000       0.12500000000000000        0.0000000000000000     
   1.4062500000000000       0.12500000000000000        0.0000000000000000     
   1.4375000000000000       0.12500000000000000        0.0000000000000000     
   1.4687500000000000       0.12500000000000000        0.0000000000000000     
   1.5000000000000000       0.12500000000000000        0.0000000000000000     
  0.50000000000000000       0.12500000000000000        0.0000000000000000     
  0.53125000000000000       0.12500000000000000        0.0000000000000000     
  0.56250000000000000       0.12500000000000000        0.0000000000000000     
  0.59375000000000000       0.12500000000000000        0.0000000000000000     
  0.62500000000000000       0.12500000000000000        0.0000000000000000     
  0.50000000000000000       0.15625000000000000        0.0000000000000000     
  0.53125000000000000       0.15625000000000000        0.0000000000000000     
  0.56250000000000000       0.15625000000000000        0.0000000000000000     
  0.59375000000000000       0.15625000000000000        0.0000000000000000     
  0.62500000000000000       0.15625000000000000        0.0000000000000000     
  0.50000000000000000       0.18750000000000000        0.0000000000000000     
  0.53125000000000000       0.18750000000000000        0.0000000000000000     
  0.56250000000000000       0.18750000000000000        0.0000000000000000     
  0.59375000000000000       0.18750000000000000        0.0000000000000000     
  0.62500000000000000       0.18750000000000000        0.0000000000000000     
  0.50000000000000000       0.21875000000000000        0.0000000000000000     
  0.53125000000000000       0.21875000000000000        0.0000000000000000     
  0.56250000000000000       0.21875000000000000        0.0000000000000000     
  0.59375000000000000       0.21875000000000000        0.0000000000000000     
  0.62500000000000000       0.21875000000000000        0.0000000000000000     
  0.50000000000000000       0.25000000000000000        0.0000000000000000     
  0.53125000000000000       0.25000000000000000        0.0000000000000000     
  0.56250000000000000       0.25000000000000000        0.0000000000000000     
  0.59375000000000000       0.25000000000000000        0.0000000000000000     
  0.62500000000000000       0.25000000000000000        0.0000000000000000     
  0.62500000000000000       0.12500000000000000        0.0000000000000000     
  0.65625000000000000       0.12500000000000000        0.0000000000000000     
  0.68750000000000000       0.12500000000000000        0.0000000000000000     
  0.71875000000000000       0.12500000000000000        0.0000000000000000     
  0.75000000000000000       0.12500000000000000        0.0000000000000000     
  0.62500000000000000       0.15625000000000000        0.0000000000000000     
  0.65625000000000000       0.15625000000000000        0.0000000000000000     
  0.68750000000000000       0.15625000000000000        0.0000000000000000     
  0.71875000000000000       0.15625000000000000        0.0000000000000000     
  0.75000000000000000       0.15625000000000000        0.0000000000000000     
  0.62500000000000000       0.18750000000000000        0.0000000000000000     
  0.65625000000000000       0.18750000000000000        0.0000000000000000     
  0.68750000000000000       0.18750000000000000        0.0000000000000000     
  0.71875000000000000       0.18750000000000000        0.0000000000000000     
  0.75000000000000000       0.18750000000000000        0.0000000000000000     
  0.62500000000000000       0.21875000000000000        0.0000000000000000     
  0.65625000000000000       0.21875000000000000        0.0000000000000000     
  0.68750000000000000       0.21875000000000000        0.0000000000000000     
  0.71875000000000000       0.21875000000000000        0.0000000000000000     
  0.75000000000000000       0.21875000000000000        0.0000000000000000     
  0.62500000000000000       0.25000000000000000        0.0000000000000000     
  0.65625000000000000       0.25000000000000000        0.0000000000000000     
  0.68750000000000000       0.25000000000000000        0.0000000000000000     
  0.71875000000000000       0.25000000000000000        0.0000000000000000     
  0.75000000000000000       0.25000000000000000        0.0000000000000000     
  0.75000000000000000       0.12500000000000000        0.0000000000000000     
  0.78125000000000000       0.12500000000000000        0.0000000000000000     
  0.81250000000000000       0.12500000000000000        0.0000000000000000     
  0.84375000000000000       0.12500000000000000        0.0000000000000000     
  0.87500000000000000       0.12500000000000000        0.0000000000000000     
  0.75000000000000000       0.15625000000000000        0.0000000000000000     
  0.78125000000000000       0.15625000000000000        0.0000000000000000     
  0.81250000000000000       0.15625000000000000        0.0000000000000000     
  0.84375000000000000       0.15625000000000000        0.0000000000000000     
  0.87500000000000000       0.15625000000000000        0.0000000000000000     
  0.75000000000000000       0.18750000000000000        0.0000000000000000     
  0.78125000000000000       0.18750000000000000        0.0000000000000000     
  0.81250000000000000       0.18750000000000000        0.0000000000000000     
  0.84375000000000000       0.18750000000000000        0.0000000000000000     
  0.87500000000000000       0.18750000000000000        0.0000000000000000     
  0.75000000000000000       0.21875000000000000        0.0000000000000000     
  0.78125000000000000       0.21875000000000000        0.0000000000000000     
  0.81250000000000000       0.21875000000000000        0.0000000000000000     
  0.84375000000000000       0.21875000000000000        0.0000000000000000     
  0.87500000000000000       0.21875000000000000        0.0000000000000000     
  0.75000000000000000       0.25000000000000000        0.0000000000000000     
  0.78125000000000000       0.25000000000000000        0.0000000000000000     
  0.81250000000000000       0.25000000000000000        0.0000000000000000     
  0.84375000000000000       0.25000000000000000        0.0000000000000000     
  0.87500000000000000       0.25000000000000000        0.0000000000000000     
  0.87500000000000000       0.12500000000000000        0.0000000000000000     
  0.90625000000000000       0.12500000000000000        0.0000000000000000     
  0.93750000000000000       0.12500000000000000        0.0000000000000000     
  0.96875000000000000       0.12500000000000000        0.0000000000000000     
   1.0000000000000000       0.12500000000000000        0.0000000000000000     
  0.87500000000000000       0.15625000000000000        0.0000000000000000     
  0.90625000000000000       0.15625000000000000        0.0000000000000000     
  0.93750000000000000       0.15625000000000000        0.0000000000000000     
  0.96875000000000000       0.15625000000000000        0.0000000000000000     
   1.0000000000000000       0.15625000000000000        0.0000000000000000     
  0.87500000000000000       0.18750000000000000        0.0000000000000000     
  0.90625000000000000       0.18750000000000000        0.0000000000000000     
  0.93750000000000000       0.18750000000000000        0.0000000000000000     
  0.96875000000000000       0.18750000000000000        0.0000000000000000     
   1.0000000000000000       0.18750000000000000        0.0000000000000000     
  0.87500000000000000       0.21875000000000000        0.0000000000000000     
  0.90625000000000000       0.21875000000000000        0.0000000000000000     
  0.93750000000000000       0.21875000000000000        0.0000000000000000     
  0.96875000000000000       0.21875000000000000        0.0000000000000000     
   1.0000000000000000       0.21875000000000000        0.0000000000000000     
  0.87500000000000000       0.25000000000000000        0.0000000000000000     
  0.90625000000000000       0.25000000000000000        0.0000000000000000     
  0.93750000000000000       0.25000000000000000        0.0000000000000000     
  0.96875000000000000       0.25000000000000000        0.0000000000000000     
   1.0000000000000000       0.25000000000000000        0.0000000000000000     
   1.0000000000000000       0.12500000000000000        0.0000000000000000     
   1.0312500000000000       0.12500000000000000        0.0000000000000000     
   1.0625000000000000       0.12500000000000000        0.0000000000000000     
   1.0937500000000000       0.12500000000000000        0.0000000000000000     
   1.1250000000000000       0.12500000000000000        0.0000000000000000     
   1.0000000000000000       0.15625000000000000        0.0000000000000000     
   1.0312500000000000       0.15625000000000000        0.0000000000000000     
   1.0625000000000000       0.15625000000000000        0.0000000000000000     
   1.0937500000000000       0.15625000000000000        0.0000000000000000     
   1.1250000000000000       0.15625000000000000        0.0000000000000000     
   1.0000000000000000       0.18750000000000000        0.0000000000000000     
   1.0312500000000000       0.18750000000000000        0.0000000000000000     
   1.0625000000000000       0.18750000000000000        0.0000000000000000     
   1.0937500000000000       0.18750000000000000        0.0000000000000000     
   1.1250000000000000       0.18750000000000000        0.0000000000000000     
   1.0000000000000000       0.21875000000000000        0.0000000000000000     
   1.0312500000000000       0.21875000000000000        0.0000000000000000     
   1.0625000000000000       0.21875000000000000        0.0000000000000000     
   1.0937500000000000       0.21875000000000000        0.0000000000000000     
   1.1250000000000000       0.21875000000000000        0.0000000000000000     
   1.0000000000000000       0.25000000000000000        0.0000000000000000     
   1.0312500000000000       0.25000000000000000        0.0000000000000000     
   1.0625000000000000       0.25000000000000000        0.0000000000000000     
   1.0937500000000000       0.25000000000000000        0.0000000000000000     
   1.1250000000000000       0.25000000000000000        0.0000000000000000     
   1.1250000000000000       0.12500000000000000        0.0000000000000000     
   1.1562500000000000       0.12500000000000000        0.0000000000000000     
   1.1875000000000000       0.12500000000000000        0.0000000000000000     
   1.2187500000000000       0.12500000000000000        0.0000000000000000     
   1.2500000000000000       0.12500000000000000        0.0000000000000000     
   1.1250000000000000       0.15625000000000000        0.0000000000000000     
   1.1562500000000000       0.15625000000000000        0.0000000000000000     
   1.1875000000000000       0.15625000000000000        0.0000000000000000     
   1.2187500000000000       0.15625000000000000        0.0000000000000000     
   1.2500000000000000       0.15625000000000000        0.0000000000000000     
   1.1250000000000000       0.18750000000000000        0.0000000000000000     
   1.1562500000000000       0.18750000000000000        0.0000000000000000     
   1.1875000000000000       0.18750000000000000        0.0000000000000000     
   1.2187500000000000       0.18750000000000000        0.0000000000000000     
   1.2500000000000000       0.18750000000000000        0.0000000000000000     
   1.1250000000000000       0.21875000000000000        0.0000000000000000     
   1.1562500000000000       0.21875000000000000        0.0000000000000000     
   1.1875000000000000       0.21875000000000000        0.0000000000000000     
   1.2187500000000000       0.21875000000000000        0.0000000000000000     
   1.2500000000000000       0.21875000000000000        0.0000000000000000     
   1.1250000000000000       0.25000000000000000        0.0000000000000000     
   1.1562500000000000       0.25000000000000000        0.0000000000000000     
   1.1875000000000000       0.25000000000000000        0.0000000000000000     
   1.2187500000000000       0.25000000000000000        0.0000000000000000     
   1.2500000000000000       0.25000000000000000        0.0000000000000000     
   1.2500000000000000       0.12500000000000000        0.0000000000000000     
   1.2812500000000000       0.12500000000000000        0.0000000000000000     
   1.3125000000000000       0.12500000000000000        0.0000000000000000     
   1.3437500000000000       0.12500000000000000        0.0000000000000000     
   1.3750000000000000       0.12500000000000000        0.0000000000000000     
   1.2500000000000000       0.15625000000000000        0.0000000000000000     
   1.2812500000000000       0.15625000000000000        0.0000000000000000     
   1.3125000000000000       0.15625000000000000        0.0000000000000000     
   1.3437500000000000       0.15625000000000000        0.0000000000000000     
   1.3750000000000000       0.15625000000000000        0.0000000000000000     
   1.2500000000000000       0.18750000000000000        0.0000000000000000     
   1.2812500000000000       0.18750000000000000        0.0000000000000000     
   1.3125000000000000       0.18750000000000000        0.0000000000000000     
   1.3437500000000000       0.18750000000000000        0.0000000000000000     
   1.3750000000000000       0.18750000000000000        0.0000000000000000     
   1.2500000000000000       0.21875000000000000        0.0000000000000000     
   1.2812500000000000       0.21875000000000000        0.0000000000000000     
   1.3125000000000000       0.21875000000000000        0.0000000000000000     
   1.3437500000000000       0.21875000000000000        0.0000000000000000     
   1.3750000000000000       0.21875000000000000        0.0000000000000000     
   1.2500000000000000       0.25000000000000000        0.0000000000000000     
   1.2812500000000000       0.25000000000000000        0.0000000000000000     
   1.3125000000000000       0.25000000000000000        0.0000000000000000     
   1.3437500000000000       0.25000000000000000        0.0000000000000000     
   1.3750000000000000       0.25000000000000000        0.0000000000000000     
   1.3750000000000000       0.12500000000000000        0.0000000000000000     
   1.4062500000000000       0.12500000000000000        0.0000000000000000     
   1.4375000000000000       0.12500000000000000        0.0000000000000000     
   1.4687500000000000       0.12500000000000000        0.0000000000000000     
   1.5000000000000000       0.12500000000000000        0.0000000000000000     
   1.3750000000000000       0.15625000000000000        0.0000000000000000     
   1.4062500000000000       0.15625000000000000        0.0000000000000000     
   1.4375000000000000       0.15625000000000000        0.0000000000000000     
   1.4687500000000000       0.15625000000000000        0.0000000000000000     
   1.5000000000000000       0.15625000000000000        0.0000000000000000     
   1.3750000000000000       0.18750000000000000        0.0000000000000000     
   1.4062500000000000       0.18750000000000000        0.0000000000000000     
   1.4375000000000000       0.18750000000000000        0.0000000000000000     
   1.4687500000000000       0.18750000000000000        0.0000000000000000     
   1.5000000000000000       0.18750000000000000        0.0000000000000000     
   1.3750000000000000       0.21875000000000000        0.0000000000000000     
   1.4062500000000000       0.21875000000000000        0.0000000000000000     
   1.4375000000000000       0.21875000000000000        0.0000000000000000     
   1.4687500000000000       0.21875000000000000        0.0000000000000000     
   1.5000000000000000       0.21875000000000000        0.0000000000000000     
   1.3750000000000000       0.25000000000000000        0.0000000000000000     
   1.4062500000000000       0.25000000000000000        0.0000000000000000     
   1.4375000000000000       0.25000000000000000        0.0000000000000000     
   1.4687500000000000       0.25000000000000000        0.0000000000000000     
   1.5000000000000000       0.25000000000000000        0.0000000000000000     
  0.50000000000000000       0.25000000000000000        0.0000000000000000     
  0.53125000000000000       0.25000000000000000        0.0000000000000000     
  0.56250000000000000       0.25000000000000000        0.0000000000000000     
  0.59375000000000000       0.25000000000000000        0.0000000000000000     
  0.62500000000000000       0.25000000000000000        0.0000000000000000     
  0.50000000000000000       0.28125000000000000        0.0000000000000000     
  0.53125000000000000       0.28125000000000000        0.0000000000000000     
  0.56250000000000000       0.28125000000000000        0.0000000000000000     
  0.59375000000000000       0.28125000000000000        0.0000000000000000     
  0.62500000000000000       0.28125000000000000        0.0000000000000000     
  0.50000000000000000       0.31250000000000000        0.0000000000000000     
  0.53125000000000000       0.31250000000000000        0.0000000000000000     
  0.56250000000000000       0.31250000000000000        0.0000000000000000     
  0.59375000000000000       0.31250000000000000        0.0000000000000000     
  0.62500000000000000       0.31250000000000000        0.0000000000000000     
  0.50000000000000000       0.34375000000000000        0.0000000000000000     
  0.53125000000000000       0.34375000000000000        0.0000000000000000     
  0.56250000000000000       0.34375000000000000        0.0000000000000000     
  0.59375000000000000       0.34375000000000000        0.0000000000000000     
  0.62500000000000000       0.34375000000000000        0.0000000000000000     
  0.50000000000000000       0.37500000000000000        0.0000000000000000     
  0.53125000000000000       0.37500000000000000        0.0000000000000000     
  0.56250000000000000       0.37500000000000000        0.0000000000000000     
  0.59375000000000000       0.37500000000000000        0.0000000000000000     
  0.62500000000000000       0.37500000000000000        0.0000000000000000     
  0.62500000000000000       0.25000000000000000        0.0000000000000000     
  0.65625000000000000       0.25000000000000000        0.0000000000000000     
  0.68750000000000000       0.25000000000000000        0.0000000000000000     
  0.71875000000000000       0.25000000000000000        0.0000000000000000     
  0.75000000000000000       0.25000000000000000        0.0000000000000000     
  0.62500000000000000       0.28125000000000000        0.0000000000000000     
  0.65625000000000000       0.28125000000000000        0.0000000000000000     
  0.68750000000000000       0.28125000000000000        0.0000000000000000     
  0.71875000000000000       0.28125000000000000        0.0000000000000000     
  0.75000000000000000       0.28125000000000000        0.0000000000000000     
  0.62500000000000000       0.31250000000000000        0.0000000000000000     
  0.65625000000000000       0.31250000000000000        0.0000000000000000     
  0.68750000000000000       0.31250000000000000        0.0000000000000000     
  0.71875000000000000       0.31250000000000000        0.0000000000000000     
  0.75000000000000000       0.31250000000000000        0.0000000000000000     
  0.62500000000000000       0.34375000000000000        0.0000000000000000     
  0.65625000000000000       0.34375000000000000        0.0000000000000000     
  0.68750000000000000       0.34375000000000000        0.0000000000000000     
  0.71875000000000000       0.34375000000000000        0.0000000000000000     
  0.75000000000000000       0.34375000000000000        0.0000000000000000     
  0.62500000000000000       0.37500000000000000        0.0000000000000000     
  0.65625000000000000       0.37500000000000000        0.0000000000000000     
  0.68750000000000000       0.37500000000000000        0.0000000000000000     
  0.71875000000000000       0.37500000000000000        0.0000000000000000     
  0.75000000000000000       0.37500000000000000        0.0000000000000000     
  0.75000000000000000       0.25000000000000000        0.0000000000000000     
  0.78125000000000000       0.25000000000000000        0.0000000000000000     
  0.81250000000000000       0.25000000000000000        0.0000000000000000     
  0.84375000000000000       0.25000000000000000        0.0000000000000000     
  0.87500000000000000       0.25000000000000000        0.0000000000000000     
  0.75000000000000000       0.28125000000000000        0.0000000000000000     
  0.78125000000000000       0.28125000000000000        0.0000000000000000     
  0.81250000000000000       0.28125000000000000        0.0000000000000000     
  0.84375000000000000       0.28125000000000000        0.0000000000000000     
  0.87500000000000000       0.28125000000000000        0.0000000000000000     
  0.75000000000000000       0.31250000000000000        0.0000000000000000     
  0.78125000000000000       0.31250000000000000        0.0000000000000000     
  0.81250000000000000       0.31250000000000000        0.0000000000000000     
  0.84375000000000000       0.31250000000000000        0.0000000000000000     
  0.87500000000000000       0.31250000000000000        0.0000000000000000     
  0.75000000000000000       0.34375000000000000        0.0000000000000000     
  0.78125000000000000       0.34375000000000000        0.0000000000000000     
  0.81250000000000000       0.34375000000000000        0.0000000000000000     
  0.84375000000000000       0.34375000000000000        0.0000000000000000     
  0.87500000000000000       0.34375000000000000        0.0000000000000000     
  0.75000000000000000       0.37500000000000000        0.0000000000000000     
  0.78125000000000000       0.37500000000000000        0.0000000000000000     
  0.81250000000000000       0.37500000000000000        0.0000000000000000     
  0.84375000000000000       0.37500000000000000        0.0000000000000000     
  0.87500000000000000       0.37500000000000000        0.0000000000000000     
  0.87500000000000000       0.25000000000000000        0.0000000000000000     
  0.90625000000000000       0.25000000000000000        0.0000000000000000     
  0.93750000000000000       0.25000000000000000        0.0000000000000000     
  0.96875000000000000       0.25000000000000000        0.0000000000000000     
   1.0000000000000000       0.25000000000000000        0.0000000000000000     
  0.87500000000000000       0.28125000000000000        0.0000000000000000     
  0.90625000000000000       0.28125000000000000        0.0000000000000000     
  0.93750000000000000       0.28125000000000000        0.0000000000000000     
  0.96875000000000000       0.28125000000000000        0.0000000000000000     
   1.0000000000000000       0.28125000000000000        0.0000000000000000     
  0.87500000000000000       0.31250000000000000        0.0000000000000000     
  0.90625000000000000       0.31250000000000000        0.0000000000000000     
  0.93750000000000000       0.31250000000000000        0.0000000000000000     
  0.96875000000000000       0.31250000000000000        0.0000000000000000     
   1.0000000000000000       0.31250000000000000        0.0000000000000000     
  0.87500000000000000       0.34375000000000000        0.0000000000000000     
  0.90625000000000000       0.34375000000000000        0.0000000000000000     
  0.93750000000000000       0.34375000000000000        0.0000000000000000     
  0.96875000000000000       0.34375000000000000        0.0000000000000000     
   1.0000000000000000       0.34375000000000000        0.0000000000000000     
  0.87500000000000000       0.37500000000000000        0.0000000000000000     
  0.90625000000000000       0.37500000000000000        0.0000000000000000     
  0.93750000000000000       0.37500000000000000        0.0000000000000000     
  0.96875000000000000       0.37500000000000000        0.0000000000000000     
   1.0000000000000000       0.37500000000000000        0.0000000000000000     
   1.0000000000000000       0.25000000000000000        0.0000000000000000     
   1.0312500000000000       0.25000000000000000        0.0000000000000000     
   1.0625000000000000       0.25000000000000000        0.0000000000000000     
   1.0937500000000000       0.25000000000000000        0.0000000000000000     
   1.1250000000000000       0.25000000000000000        0.0000000000000000     
   1.0000000000000000       0.28125000000000000        0.0000000000000000     
   1.0312500000000000       0.28125000000000000        0.0000000000000000     
   1.0625000000000000       0.28125000000000000        0.0000000000000000     
   1.0937500000000000       0.28125000000000000        0.0000000000000000     
   1.1250000000000000       0.28125000000000000        0.0000000000000000     
   1.0000000000000000       0.31250000000000000        0.0000000000000000     
   1.0312500000000000       0.31250000000000000        0.0000000000000000     
   1.0625000000000000       0.31250000000000000        0.0000000000000000     
   1.0937500000000000       0.31250000000000000        0.0000000000000000     
   1.1250000000000000       0.31250000000000000        0.0000000000000000     
   1.0000000000000000       0.34375000000000000        0.0000000000000000     
   1.0312500000000000       0.34375000000000000        0.0000000000000000     
   1.0625000000000000       0.34375000000000000        0.0000000000000000     
   1.0937500000000000       0.34375000000000000        0.0000000000000000     
   1.1250000000000000       0.34375000000000000        0.0000000000000000     
   1.0000000000000000       0.37500000000000000        0.0000000000000000     
   1.0312500000000000       0.37500000000000000        0.0000000000000000     
   1.0625000000000000       0.37500000000000000        0.0000000000000000     
   1.0937500000000000       0.37500000000000000        0.0000000000000000     
   1.1250000000000000       0.37500000000000000        0.0000000000000000     
   1.1250000000000000       0.25000000000000000        0.0000000000000000     
   1.1562500000000000       0.25000000000000000        0.0000000000000000     
   1.1875000000000000       0.25000000000000000        0.0000000000000000     
   1.2187500000000000       0.25000000000000000        0.0000000000000000     
   1.2500000000000000       0.25000000000000000        0.0000000000000000     
   1.1250000000000000       0.28125000000000000        0.0000000000000000     
   1.1562500000000000       0.28125000000000000        0.0000000000000000     
   1.1875000000000000       0.28125000000000000        0.0000000000000000     
   1.2187500000000000       0.28125000000000000        0.0000000000000000     
   1.2500000000000000       0.28125000000000000        0.0000000000000000     
   1.1250000000000000       0.31250000000000000        0.0000000000000000     
   1.1562500000000000       0.31250000000000000        0.0000000000000000     
   1.1875000000000000       0.31250000000000000        0.0000000000000000     
   1.2187500000000000       0.31250000000000000        0.0000000000000000     
   1.2500000000000000       0.31250000000000000        0.0000000000000000     
   1.1250000000000000       0.34375000000000000        0.0000000000000000     
   1.1562500000000000       0.34375000000000000        0.0000000000000000     
   1.1875000000000000       0.34375000000000000        0.0000000000000000     
   1.2187500000000000       0.34375000000000000        0.0000000000000000     
   1.2500000000000000       0.34375000000000000        0.0000000000000000     
   1.1250000000000000       0.37500000000000000        0.0000000000000000     
   1.1562500000000000       0.37500000000000000        0.0000000000000000     
   1.1875000000000000       0.37500000000000000        0.0000000000000000     
   1.2187500000000000       0.37500000000000000        0.0000000000000000     
   1.2500000000000000       0.37500000000000000        0.0000000000000000     
   1.2500000000000000       0.25000000000000000        0.0000000000000000     
   1.2812500000000000       0.25000000000000000        0.0000000000000000     
   1.3125000000000000       0.25000000000000000        0.0000000000000000     
   1.3437500000000000       0.25000000000000000        0.0000000000000000     
   1.3750000000000000       0.25000000000000000        0.0000000000000000     
   1.2500000000000000       0.28125000000000000        0.0000000000000000     
   1.2812500000000000       0.28125000000000000        0.0000000000000000     
   1.3125000000000000       0.28125000000000000        0.0000000000000000     
   1.3437500000000000       0.28125000000000000        0.0000000000000000     
   1.3750000000000000       0.28125000000000000        0.0000000000000000     
   1.2500000000000000       0.31250000000000000        0.0000000000000000     
   1.2812500000000000       0.31250000000000000        0.0000000000000000     
   1.3125000000000000       0.31250000000000000        0.0000000000000000     
   1.3437500000000000       0.31250000000000000        0.0000000000000000     
   1.3750000000000000       0.31250000000000000        0.0000000000000000     
   1.2500000000000000       0.34375000000000000        0.0000000000000000     
   1.2812500000000000       0.34375000000000000        0.0000000000000000     
   1.3125000000000000       0.34375000000000000        0.0000000000000000     
   1.3437500000000000       0.34375000000000000        0.0000000000000000     
   1.3750000000000000       0.34375000000000000        0.0000000000000000     
   1.2500000000000000       0.37500000000000000        0.0000000000000000     
   1.2812500000000000       0.37500000000000000        0.0000000000000000     
   1.3125000000000000       0.37500000000000000        0.0000000000000000     
   1.3437500000000000       0.37500000000000000        0.0000000000000000     
   1.3750000000000000       0.37500000000000000        0.0000000000000000     
   1.3750000000000000       0.25000000000000000        0.0000000000000000     
   1.4062500000000000       0.25000000000000000        0.0000000000000000     
   1.4375000000000000       0.25000000000000000        0.0000000000000000     
   1.4687500000000000       0.25000000000000000        0.0000000000000000     
   1.5000000000000000       0.25000000000000000        0.0000000000000000     
   1.3750000000000000       0.28125000000000000        0.0000000000000000     
   1.4062500000000000       0.28125000000000000        0.0000000000000000     
   1.4375000000000000       0.28125000000000000        0.0000000000000000     
   1.4687500000000000       0.28125000000000000        0.0000000000000000     
   1.5000000000000000       0.28125000000000000        0.0000000000000000     
   1.3750000000000000       0.31250000000000000        0.0000000000000000     
   1.4062500000000000       0.31250000000000000        0.0000000000000000     
   1.4375000000000000       0.31250000000000000        0.0000000000000000     
   1.4687500000000000       0.31250000000000000        0.0000000000000000     
   1.5000000000000000       0.31250000000000000        0.0000000000000000     
   1.3750000000000000       0.34375000000000000        0.0000000000000000     
   1.4062500000000000       0.34375000000000000        0.0000000000000000     
   1.4375000000000000       0.34375000000000000        0.0000000000000000     
   1.4687500000000000       0.34375000000000000        0.0000000000000000     
   1.5000000000000000       0.34375000000000000        0.0000000000000000     
   1.3750000000000000       0.37500000000000000        0.0000000000000000     
   1.4062500000000000       0.37500000000000000        0.0000000000000000     
   1.4375000000000000       0.37500000000000000        0.0000000000000000     
   1.4687500000000000       0.37500000000000000        0.0000000000000000     
   1.5000000000000000       0.37500000000000000        0.0000000000000000     
  0.50000000000000000       0.37500000000000000        0.0000000000000000     
  0.53125000000000000       0.37500000000000000        0.0000000000000000     
  0.56250000000000000       0.37500000000000000        0.0000000000000000     
  0.59375000000000000       0.37500000000000000        0.0000000000000000     
  0.62500000000000000       0.37500000000000000        0.0000000000000000     
  0.50000000000000000       0.40625000000000000        0.0000000000000000     
  0.53125000000000000       0.40625000000000000        0.0000000000000000     
  0.56250000000000000       0.40625000000000000        0.0000000000000000     
  0.59375000000000000       0.40625000000000000        0.0000000000000000     
  0.62500000000000000       0.40625000000000000        0.0000000000000000     
  0.50000000000000000       0.43750000000000000        0.0000000000000000     
  0.53125000000000000       0.43750000000000000        0.0000000000000000     
  0.56250000000000000       0.43750000000000000        0.0000000000000000     
  0.59375000000000000       0.43750000000000000        0.0000000000000000     
  0.62500000000000000       0.43750000000000000        0.0000000000000000     
  0.50000000000000000       0.46875000000000000        0.0000000000000000     
  0.53125000000000000       0.46875000000000000        0.0000000000000000     
  0.56250000000000000       0.46875000000000000        0.0000000000000000     
  0.59375000000000000       0.46875000000000000        0.0000000000000000     
  0.62500000000000000       0.46875000000000000        0.0000000000000000     
  0.50000000000000000       0.50000000000000000        0.0000000000000000     
  0.53125000000000000       0.50000000000000000        0.0000000000000000     
  0.56250000000000000       0.50000000000000000        0.0000000000000000     
  0.59375000000000000       0.50000000000000000        0.0000000000000000     
  0.62500000000000000       0.50000000000000000        0.0000000000000000     
  0.62500000000000000       0.37500000000000000        0.0000000000000000     
  0.65625000000000000       0.37500000000000000        0.0000000000000000     
  0.68750000000000000       0.37500000000000000        0.0000000000000000     
  0.71875000000000000       0.37500000000000000        0.0000000000000000     
  0.75000000000000000       0.37500000000000000        0.0000000000000000     
  0.62500000000000000       0.40625000000000000        0.0000000000000000     
  0.65625000000000000       0.40625000000000000        0.0000000000000000     
  0.68750000000000000       0.40625000000000000        0.0000000000000000     
  0.71875000000000000       0.40625000000000000        0.0000000000000000     
  0.75000000000000000       0.40625000000000000        0.0000000000000000     
  0.62500000000000000       0.43750000000000000        0.0000000000000000     
  0.65625000000000000       0.43750000000000000        0.0000000000000000     
  0.68750000000000000       0.43750000000000000        0.0000000000000000     
  0.71875000000000000       0.43750000000000000        0.0000000000000000     
  0.75000000000000000       0.43750000000000000        0.0000000000000000     
  0.62500000000000000       0.46875000000000000        0.0000000000000000     
  0.65625000000000000       0.46875000000000000        0.0000000000000000     
  0.68750000000000000       0.46875000000000000        0.0000000000000000     
  0.71875000000000000       0.46875000000000000        0.0000000000000000     
  0.75000000000000000       0.46875000000000000        0.0000000000000000     
  0.62500000000000000       0.50000000000000000        0.0000000000000000     
  0.65625000000000000       0.50000000000000000        0.0000000000000000     
  0.68750000000000000       0.50000000000000000        0.0000000000000000     
  0.71875000000000000       0.50000000000000000        0.0000000000000000     
  0.75000000000000000       0.50000000000000000        0.0000000000000000     
  0.75000000000000000       0.37500000000000000        0.0000000000000000     
  0.78125000000000000       0.37500000000000000        0.0000000000000000     
  0.81250000000000000       0.37500000000000000        0.0000000000000000     
  0.84375000000000000       0.37500000000000000        0.0000000000000000     
  0.87500000000000000       0.37500000000000000        0.0000000000000000     
  0.75000000000000000       0.40625000000000000        0.0000000000000000     
  0.78125000000000000       0.40625000000000000        0.0000000000000000     
  0.81250000000000000       0.40625000000000000        0.0000000000000000     
  0.84375000000000000       0.40625000000000000        0.0000000000000000     
  0.87500000000000000       0.40625000000000000        0.0000000000000000     
  0.75000000000000000       0.43750000000000000        0.0000000000000000     
  0.78125000000000000       0.43750000000000000        0.0000000000000000     
  0.81250000000000000       0.43750000000000000        0.0000000000000000     
  0.84375000000000000       0.43750000000000000        0.0000000000000000     
  0.87500000000000000       0.43750000000000000        0.0000000000000000     
  0.75000000000000000       0.46875000000000000        0.0000000000000000     
  0.78125000000000000       0.46875000000000000        0.0000000000000000     
  0.81250000000000000       0.46875000000000000        0.0000000000000000     
  0.84375000000000000       0.46875000000000000        0.0000000000000000     
  0.87500000000000000       0.46875000000000000        0.0000000000000000     
  0.75000000000000000       0.50000000000000000        0.0000000000000000     
  0.78125000000000000       0.50000000000000000        0.0000000000000000     
  0.81250000000000000       0.50000000000000000        0.0000000000000000     
  0.84375000000000000       0.50000000000000000        0.0000000000000000     
  0.87500000000000000       0.50000000000000000        0.0000000000000000     
  0.87500000000000000       0.37500000000000000        0.0000000000000000     
  0.90625000000000000       0.37500000000000000        0.0000000000000000     
  0.93750000000000000       0.37500000000000000        0.0000000000000000     
  0.96875000000000000       0.37500000000000000        0.0000000000000000     
   1.0000000000000000       0.37500000000000000        0.0000000000000000     
  0.87500000000000000       0.40625000000000000        0.0000000000000000     
  0.90625000000000000       0.40625000000000000        0.0000000000000000     
  0.93750000000000000       0.40625000000000000        0.0000000000000000     
  0.96875000000000000       0.40625000000000000        0.0000000000000000     
   1.0000000000000000       0.40625000000000000        0.0000000000000000     
  0.87500000000000000       0.43750000000000000        0.0000000000000000     
  0.90625000000000000       0.43750000000000000        0.0000000000000000     
  0.93750000000000000       0.43750000000000000        0.0000000000000000     
  0.96875000000000000       0.43750000000000000        0.0000000000000000     
   1.0000000000000000       0.43750000000000000        0.0000000000000000     
  0.87500000000000000       0.46875000000000000        0.0000000000000000     
  0.90625000000000000       0.46875000000000000        0.0000000000000000     
  0.93750000000000000       0.46875000000000000        0.0000000000000000     
  0.96875000000000000       0.46875000000000000        0.0000000000000000     
   1.0000000000000000       0.46875000000000000        0.0000000000000000     
  0.87500000000000000       0.50000000000000000        0.0000000000000000     
  0.90625000000000000       0.50000000000000000        0.0000000000000000     
  0.93750000000000000       0.50000000000000000        0.0000000000000000     
  0.96875000000000000       0.50000000000000000        0.0000000000000000     
   1.0000000000000000       0.50000000000000000        0.0000000000000000     
   1.0000000000000000       0.37500000000000000        0.0000000000000000     
   1.0312500000000000       0.37500000000000000        0.0000000000000000     
   1.0625000000000000       0.37500000000000000        0.0000000000000000     
   1.0937500000000000       0.37500000000000000        0.0000000000000000     
   1.1250000000000000       0.37500000000000000        0.0000000000000000     
   1.0000000000000000       0.40625000000000000        0.0000000000000000     
   1.0312500000000000       0.40625000000000000        0.0000000000000000     
   1.0625000000000000       0.40625000000000000        0.0000000000000000     
   1.0937500000000000       0.40625000000000000        0.0000000000000000     
   1.1250000000000000       0.40625000000000000        0.0000000000000000     
   1.0000000000000000       0.43750000000000000        0.0000000000000000     
   1.0312500000000000       0.43750000000000000        0.0000000000000000     
   1.0625000000000000       0.43750000000000000        0.0000000000000000     
   1.0937500000000000       0.43750000000000000        0.0000000000000000     
   1.1250000000000000       0.43750000000000000        0.0000000000000000     
   1.0000000000000000       0.46875000000000000        0.0000000000000000     
   1.0312500000000000       0.46875000000000000        0.0000000000000000     
   1.0625000000000000       0.46875000000000000        0.0000000000000000     
   1.0937500000000000       0.46875000000000000        0.0000000000000000     
   1.1250000000000000       0.46875000000000000        0.0000000000000000     
   1.0000000000000000       0.50000000000000000        0.0000000000000000     
   1.0312500000000000       0.50000000000000000        0.0000000000000000     
   1.0625000000000000       0.50000000000000000        0.0000000000000000     
   1.0937500000000000       0.50000000000000000        0.0000000000000000     
   1.1250000000000000       0.50000000000000000        0.0000000000000000     
   1.1250000000000000       0.37500000000000000        0.0000000000000000     
   1.1562500000000000       0.37500000000000000        0.0000000000000000     
   1.1875000000000000       0.37500000000000000        0.0000000000000000     
   1.2187500000000000       0.37500000000000000        0.0000000000000000     
   1.2500000000000000       0.37500000000000000        0.0000000000000000     
   1.1250000000000000       0.40625000000000000        0.0000000000000000     
   1.1562500000000000       0.40625000000000000        0.0000000000000000     
   1.1875000000000000       0.40625000000000000        0.0000000000000000     
   1.2187500000000000       0.40625000000000000        0.0000000000000000     
   1.2500000000000000       0.40625000000000000        0.0000000000000000     
   1.1250000000000000       0.43750000000000000        0.0000000000000000     
   1.1562500000000000       0.43750000000000000        0.0000000000000000     
   1.1875000000000000       0.43750000000000000        0.0000000000000000     
   1.2187500000000000       0.43750000000000000        0.0000000000000000     
   1.2500000000000000       0.43750000000000000        0.0000000000000000     
   1.1250000000000000       0.46875000000000000        0.0000000000000000     
   1.1562500000000000       0.46875000000000000        0.0000000000000000     
   1.1875000000000000       0.46875000000000000        0.0000000000000000     
   1.2187500000000000       0.46875000000000000        0.0000000000000000     
   1.2500000000000000       0.46875000000000000        0.0000000000000000     
   1.1250000000000000       0.50000000000000000        0.0000000000000000     
   1.1562500000000000       0.50000000000000000        0.0000000000000000     
   1.1875000000000000       0.50000000000000000        0.0000000000000000     
   1.2187500000000000       0.50000000000000000        0.0000000000000000     
   1.2500000000000000       0.50000000000000000        0.0000000000000000     
   1.2500000000000000       0.37500000000000000        0.0000000000000000     
   1.2812500000000000       0.37500000000000000        0.0000000000000000     
   1.3125000000000000       0.37500000000000000        0.0000000000000000     
   1.3437500000000000       0.37500000000000000        0.0000000000000000     
   1.3750000000000000       0.37500000000000000        0.0000000000000000     
   1.2500000000000000       0.40625000000000000        0.0000000000000000     
   1.2812500000000000       0.40625000000000000        0.0000000000000000     
   1.3125000000000000       0.40625000000000000        0.0000000000000000     
   1.3437500000000000       0.40625000000000000        0.0000000000000000     
   1.3750000000000000       0.40625000000000000        0.0000000000000000     
   1.2500000000000000       0.43750000000000000        0.0000000000000000     
   1.2812500000000000       0.43750000000000000        0.0000000000000000     
   1.3125000000000000       0.43750000000000000        0.0000000000000000     
   1.3437500000000000       0.43750000000000000        0.0000000000000000     
   1.3750000000000000       0.43750000000000000        0.0000000000000000     
   1.2500000000000000       0.46875000000000000        0.0000000000000000     
   1.2812500000000000       0.46875000000000000        0.0000000000000000     
   1.3125000000000000       0.46875000000000000        0.0000000000000000     
   1.3437500000000000       0.46875000000000000        0.0000000000000000     
   1.3750000000000000       0.46875000000000000        0.0000000000000000     
   1.2500000000000000       0.50000000000000000        0.0000000000000000     
   1.2812500000000000       0.50000000000000000        0.0000000000000000     
   1.3125000000000000       0.50000000000000000        0.0000000000000000     
   1.3437500000000000       0.50000000000000000        0.0000000000000000     
   1.3750000000000000       0.50000000000000000        0.0000000000000000     
   1.3750000000000000       0.37500000000000000        0.0000000000000000     
   1.4062500000000000       0.37500000000000000        0.0000000000000000     
   1.4375000000000000       0.37500000000000000        0.0000000000000000     
   1.4687500000000000       0.37500000000000000        0.0000000000000000     
   1.5000000000000000       0.37500000000000000        0.0000000000000000     
   1.3750000000000000       0.40625000000000000        0.0000000000000000     
   1.4062500000000000       0.40625000000000000        0.0000000000000000     
   1.4375000000000000       0.40625000000000000        0.0000000000000000     
   1.4687500000000000       0.40625000000000000        0.0000000000000000     
   1.5000000000000000       0.40625000000000000        0.0000000000000000     
   1.3750000000000000       0.43750000000000000        0.0000000000000000     
   1.4062500000000000       0.43750000000000000        0.0000000000000000     
   1.4375000000000000       0.43750000000000000        0.0000000000000000     
   1.4687500000000000       0.43750000000000000        0.0000000000000000     
   1.5000000000000000       0.43750000000000000        0.0000000000000000     
   1.3750000000000000       0.46875000000000000        0.0000000000000000     
   1.4062500000000000       0.46875000000000000        0.0000000000000000     
   1.4375000000000000       0.46875000000000000        0.0000000000000000     
   1.4687500000000000       0.46875000000000000        0.0000000000000000     
   1.5000000000000000       0.46875000000000000        0.0000000000000000     
   1.3750000000000000       0.50000000000000000        0.0000000000000000     
   1.4062500000000000       0.50000000000000000        0.0000000000000000     
   1.4375000000000000       0.50000000000000000        0.0000000000000000     
   1.4687500000000000       0.50000000000000000        0.0000000000000000     
   1.5000000000000000       0.50000000000000000        0.0000000000000000     
  0.50000000000000000       0.50000000000000000        0.0000000000000000     
  0.53125000000000000       0.50000000000000000        0.0000000000000000     
  0.56250000000000000       0.50000000000000000        0.0000000000000000     
  0.59375000000000000       0.50000000000000000        0.0000000000000000     
  0.62500000000000000       0.50000000000000000        0.0000000000000000     
  0.50000000000000000       0.53125000000000000        0.0000000000000000     
  0.53125000000000000       0.53125000000000000        0.0000000000000000     
  0.56250000000000000       0.53125000000000000        0.0000000000000000     
  0.59375000000000000       0.53125000000000000        0.0000000000000000     
  0.62500000000000000       0.53125000000000000        0.0000000000000000     
  0.50000000000000000       0.56250000000000000        0.0000000000000000     
  0.53125000000000000       0.56250000000000000        0.0000000000000000     
  0.56250000000000000       0.56250000000000000        0.0000000000000000     
  0.59375000000000000       0.56250000000000000        0.0000000000000000     
  0.62500000000000000       0.56250000000000000        0.0000000000000000     
  0.50000000000000000       0.59375000000000000        0.0000000000000000     
  0.53125000000000000       0.59375000000000000        0.0000000000000000     
  0.56250000000000000       0.59375000000000000        0.0000000000000000     
  0.59375000000000000       0.59375000000000000        0.0000000000000000     
  0.62500000000000000       0.59375000000000000        0.0000000000000000     
  0.50000000000000000       0.62500000000000000        0.0000000000000000     
  0.53125000000000000       0.62500000000000000        0.0000000000000000     
  0.56250000000000000       0.62500000000000000        0.0000000000000000     
  0.59375000000000000       0.62500000000000000        0.0000000000000000     
  0.62500000000000000       0.62500000000000000        0.0000000000000000     
  0.62500000000000000       0.50000000000000000        0.0000000000000000     
  0.65625000000000000       0.50000000000000000        0.0000000000000000     
  0.68750000000000000       0.50000000000000000        0.0000000000000000     
  0.71875000000000000       0.50000000000000000        0.0000000000000000     
  0.75000000000000000       0.50000000000000000        0.0000000000000000     
  0.62500000000000000       0.53125000000000000        0.0000000000000000     
  0.65625000000000000       0.53125000000000000        0.0000000000000000     
  0.68750000000000000       0.53125000000000000        0.0000000000000000     
  0.71875000000000000       0.53125000000000000        0.0000000000000000     
  0.75000000000000000       0.53125000000000000        0.0000000000000000     
  0.62500000000000000       0.56250000000000000        0.0000000000000000     
  0.65625000000000000       0.56250000000000000        0.0000000000000000     
  0.68750000000000000       0.56250000000000000        0.0000000000000000     
  0.71875000000000000       0.56250000000000000        0.0000000000000000     
  0.75000000000000000       0.56250000000000000        0.0000000000000000     
  0.62500000000000000       0.59375000000000000        0.0000000000000000     
  0.65625000000000000       0.59375000000000000        0.0000000000000000     
  0.68750000000000000       0.59375000000000000        0.0000000000000000     
  0.71875000000000000       0.59375000000000000        0.0000000000000000     
  0.75000000000000000       0.59375000000000000        0.0000000000000000     
  0.62500000000000000       0.62500000000000000        0.0000000000000000     
  0.65625000000000000       0.62500000000000000        0.0000000000000000     
  0.68750000000000000       0.62500000000000000        0.0000000000000000     
  0.71875000000000000       0.62500000000000000        0.0000000000000000     
  0.75000000000000000       0.62500000000000000        0.0000000000000000     
  0.75000000000000000       0.50000000000000000        0.0000000000000000     
  0.78125000000000000       0.50000000000000000        0.0000000000000000     
  0.81250000000000000       0.50000000000000000        0.0000000000000000     
  0.84375000000000000       0.50000000000000000        0.0000000000000000     
  0.87500000000000000       0.50000000000000000        0.0000000000000000     
  0.75000000000000000       0.53125000000000000        0.0000000000000000     
  0.78125000000000000       0.53125000000000000        0.0000000000000000     
  0.81250000000000000       0.53125000000000000        0.0000000000000000     
  0.84375000000000000       0.53125000000000000        0.0000000000000000     
  0.87500000000000000       0.53125000000000000        0.0000000000000000     
  0.75000000000000000       0.56250000000000000        0.0000000000000000     
  0.78125000000000000       0.56250000000000000        0.0000000000000000     
  0.81250000000000000       0.56250000000000000        0.0000000000000000     
  0.84375000000000000       0.56250000000000000        0.0000000000000000     
  0.87500000000000000       0.56250000000000000        0.0000000000000000     
  0.75000000000000000       0.59375000000000000        0.0000000000000000     
  0.78125000000000000       0.59375000000000000        0.0000000000000000     
  0.81250000000000000       0.59375000000000000        0.0000000000000000     
  0.84375000000000000       0.59375000000000000        0.0000000000000000     
  0.87500000000000000       0.59375000000000000        0.0000000000000000     
  0.75000000000000000       0.62500000000000000        0.0000000000000000     
  0.78125000000000000       0.62500000000000000        0.0000000000000000     
  0.81250000000000000       0.62500000000000000        0.0000000000000000     
  0.84375000000000000       0.62500000000000000        0.0000000000000000     
  0.87500000000000000       0.62500000000000000        0.0000000000000000     
  0.87500000000000000       0.50000000000000000        0.0000000000000000     
  0.90625000000000000       0.50000000000000000        0.0000000000000000     
  0.93750000000000000       0.50000000000000000        0.0000000000000000     
  0.96875000000000000       0.50000000000000000        0.0000000000000000     
   1.0000000000000000       0.50000000000000000        0.0000000000000000     
  0.87500000000000000       0.53125000000000000        0.0000000000000000     
  0.90625000000000000       0.53125000000000000        0.0000000000000000     
  0.93750000000000000       0.53125000000000000        0.0000000000000000     
  0.96875000000000000       0.53125000000000000        0.0000000000000000     
   1.0000000000000000       0.53125000000000000        0.0000000000000000     
  0.87500000000000000       0.56250000000000000        0.0000000000000000     
  0.90625000000000000       0.56250000000000000        0.0000000000000000     
  0.93750000000000000       0.56250000000000000        0.0000000000000000     
  0.96875000000000000       0.56250000000000000        0.0000000000000000     
   1.0000000000000000       0.56250000000000000        0.0000000000000000     
  0.87500000000000000       0.59375000000000000        0.0000000000000000     
  0.90625000000000000       0.59375000000000000        0.0000000000000000     
  0.93750000000000000       0.59375000000000000        0.0000000000000000     
  0.96875000000000000       0.59375000000000000        0.0000000000000000     
   1.0000000000000000       0.59375000000000000        0.0000000000000000     
  0.87500000000000000       0.62500000000000000        0.0000000000000000     
  0.90625000000000000       0.62500000000000000        0.0000000000000000     
  0.93750000000000000       0.62500000000000000        0.0000000000000000     
  0.96875000000000000       0.62500000000000000        0.0000000000000000     
   1.0000000000000000       0.62500000000000000        0.0000000000000000     
   1.0000000000000000       0.50000000000000000        0.0000000000000000     
   1.0312500000000000       0.50000000000000000        0.0000000000000000     
   1.0625000000000000       0.50000000000000000        0.0000000000000000     
   1.0937500000000000       0.50000000000000000        0.0000000000000000     
   1.1250000000000000       0.50000000000000000        0.0000000000000000     
   1.0000000000000000       0.53125000000000000        0.0000000000000000     
   1.0312500000000000       0.53125000000000000        0.0000000000000000     
   1.0625000000000000       0.53125000000000000        0.0000000000000000     
   1.0937500000000000       0.53125000000000000        0.0000000000000000     
   1.1250000000000000       0.53125000000000000        0.0000000000000000     
   1.0000000000000000       0.56250000000000000        0.0000000000000000     
   1.0312500000000000       0.56250000000000000        0.0000000000000000     
   1.0625000000000000       0.56250000000000000        0.0000000000000000     
   1.0937500000000000       0.56250000000000000        0.0000000000000000     
   1.1250000000000000       0.56250000000000000        0.0000000000000000     
   1.0000000000000000       0.59375000000000000        0.0000000000000000     
   1.0312500000000000       0.59375000000000000        0.0000000000000000     
   1.0625000000000000       0.59375000000000000        0.0000000000000000     
   1.0937500000000000       0.59375000000000000        0.0000000000000000     
   1.1250000000000000       0.59375000000000000        0.0000000000000000     
   1.0000000000000000       0.62500000000000000        0.0000000000000000     
   1.0312500000000000       0.62500000000000000        0.0000000000000000     
   1.0625000000000000       0.62500000000000000        0.0000000000000000     
   1.0937500000000000       0.62500000000000000        0.0000000000000000     
   1.1250000000000000       0.62500000000000000        0.0000000000000000     
   1.1250000000000000       0.50000000000000000        0.0000000000000000     
   1.1562500000000000       0.50000000000000000        0.0000000000000000     
   1.1875000000000000       0.50000000000000000        0.0000000000000000     
   1.2187500000000000       0.50000000000000000        0.0000000000000000     
   1.2500000000000000       0.50000000000000000        0.0000000000000000     
   1.1250000000000000       0.53125000000000000        0.0000000000000000     
   1.1562500000000000       0.53125000000000000        0.0000000000000000     
   1.1875000000000000       0.53125000000000000        0.0000000000000000     
   1.2187500000000000       0.53125000000000000        0.0000000000000000     
   1.2500000000000000       0.53125000000000000        0.0000000000000000     
   1.1250000000000000       0.56250000000000000        0.0000000000000000     
   1.1562500000000000       0.56250000000000000        0.0000000000000000     
   1.1875000000000000       0.56250000000000000        0.0000000000000000     
   1.2187500000000000       0.56250000000000000        0.0000000000000000     
   1.2500000000000000       0.56250000000000000        0.0000000000000000     
   1.1250000000000000       0.59375000000000000        0.0000000000000000     
   1.1562500000000000       0.59375000000000000        0.0000000000000000     
   1.1875000000000000       0.59375000000000000        0.0000000000000000     
   1.2187500000000000       0.59375000000000000        0.0000000000000000     
   1.2500000000000000       0.59375000000000000        0.0000000000000000     
   1.1250000000000000       0.62500000000000000        0.0000000000000000     
   1.1562500000000000       0.62500000000000000        0.0000000000000000     
   1.1875000000000000       0.62500000000000000        0.0000000000000000     
   1.2187500000000000       0.62500000000000000        0.0000000000000000     
   1.2500000000000000       0.62500000000000000        0.0000000000000000     
   1.2500000000000000       0.50000000000000000        0.0000000000000000     
   1.2812500000000000       0.50000000000000000        0.0000000000000000     
   1.3125000000000000       0.50000000000000000        0.0000000000000000     
   1.3437500000000000       0.50000000000000000        0.0000000000000000     
   1.3750000000000000       0.50000000000000000        0.0000000000000000     
   1.2500000000000000       0.53125000000000000        0.0000000000000000     
   1.2812500000000000       0.53125000000000000        0.0000000000000000     
   1.3125000000000000       0.53125000000000000        0.0000000000000000     
   1.3437500000000000       0.53125000000000000        0.0000000000000000     
   1.3750000000000000       0.53125000000000000        0.0000000000000000     
   1.2500000000000000       0.56250000000000000        0.0000000000000000     
   1.2812500000000000       0.56250000000000000        0.0000000000000000     
   1.3125000000000000       0.56250000000000000        0.0000000000000000     
   1.3437500000000000       0.56250000000000000        0.0000000000000000     
   1.3750000000000000       0.56250000000000000        0.0000000000000000     
   1.2500000000000000       0.59375000000000000        0.0000000000000000     
   1.2812500000000000       0.59375000000000000        0.0000000000000000     
   1.3125000000000000       0.59375000000000000        0.0000000000000000     
   1.3437500000000000       0.59375000000000000        0.0000000000000000     
   1.3750000000000000       0.59375000000000000        0.0000000000000000     
   1.2500000000000000       0.62500000000000000        0.0000000000000000     
   1.2812500000000000       0.62500000000000000        0.0000000000000000     
   1.3125000000000000       0.62500000000000000        0.0000000000000000     
   1.3437500000000000       0.62500000000000000        0.0000000000000000     
   1.3750000000000000       0.62500000000000000        0.0000000000000000     
   1.3750000000000000       0.50000000000000000        0.0000000000000000     
   1.4062500000000000       0.50000000000000000        0.0000000000000000     
   1.4375000000000000       0.50000000000000000        0.0000000000000000     
   1.4687500000000000       0.50000000000000000        0.0000000000000000     
   1.5000000000000000       0.50000000000000000        0.0000000000000000     
   1.3750000000000000       0.53125000000000000        0.0000000000000000     
   1.4062500000000000       0.53125000000000000        0.0000000000000000     
   1.4375000000000000       0.53125000000000000        0.0000000000000000     
   1.4687500000000000       0.53125000000000000        0.0000000000000000     
   1.5000000000000000       0.53125000000000000        0.0000000000000000     
   1.3750000000000000       0.56250000000000000        0.0000000000000000     
   1.4062500000000000       0.56250000000000000        0.0000000000000000     
   1.4375000000000000       0.56250000000000000        0.0000000000000000     
   1.4687500000000000       0.56250000000000000        0.0000000000000000     
   1.5000000000000000       0.56250000000000000        0.0000000000000000     
   1.3750000000000000       0.59375000000000000        0.0000000000000000     
   1.4062500000000000       0.59375000000000000        0.0000000000000000     
   1.4375000000000000       0.59375000000000000        0.0000000000000000     
   1.4687500000000000       0.59375000000000000        0.0000000000000000     
   1.5000000000000000       0.59375000000000000        0.0000000000000000     
   1.3750000000000000       0.62500000000000000        0.0000000000000000     
   1.4062500000000000       0.62500000000000000        0.0000000000000000     
   1.4375000000000000       0.62500000000000000        0.0000000000000000     
   1.4687500000000000       0.62500000000000000        0.0000000000000000     
   1.5000000000000000       0.62500000000000000        0.0000000000000000     
  0.50000000000000000       0.62500000000000000        0.0000000000000000     
  0.53125000000000000       0.62500000000000000        0.0000000000000000     
  0.56250000000000000       0.62500000000000000        0.0000000000000000     
  0.59375000000000000       0.62500000000000000        0.0000000000000000     
  0.62500000000000000       0.62500000000000000        0.0000000000000000     
  0.50000000000000000       0.65625000000000000        0.0000000000000000     
  0.53125000000000000       0.65625000000000000        0.0000000000000000     
  0.56250000000000000       0.65625000000000000        0.0000000000000000     
  0.59375000000000000       0.65625000000000000        0.0000000000000000     
  0.62500000000000000       0.65625000000000000        0.0000000000000000     
  0.50000000000000000       0.68750000000000000        0.0000000000000000     
  0.53125000000000000       0.68750000000000000        0.0000000000000000     
  0.56250000000000000       0.68750000000000000        0.0000000000000000     
  0.59375000000000000       0.68750000000000000        0.0000000000000000     
  0.62500000000000000       0.68750000000000000        0.0000000000000000     
  0.50000000000000000       0.71875000000000000        0.0000000000000000     
  0.53125000000000000       0.71875000000000000        0.0000000000000000     
  0.56250000000000000       0.71875000000000000        0.0000000000000000     
  0.59375000000000000       0.71875000000000000        0.0000000000000000     
  0.62500000000000000       0.71875000000000000        0.0000000000000000     
  0.50000000000000000       0.75000000000000000        0.0000000000000000     
  0.53125000000000000       0.75000000000000000        0.0000000000000000     
  0.56250000000000000       0.75000000000000000        0.0000000000000000     
  0.59375000000000000       0.75000000000000000        0.0000000000000000     
  0.62500000000000000       0.75000000000000000        0.0000000000000000     
  0.62500000000000000       0.62500000000000000        0.0000000000000000     
  0.65625000000000000       0.62500000000000000        0.0000000000000000     
  0.68750000000000000       0.62500000000000000        0.0000000000000000     
  0.71875000000000000       0.62500000000000000        0.0000000000000000     
  0.75000000000000000       0.62500000000000000        0.0000000000000000     
  0.62500000000000000       0.65625000000000000        0.0000000000000000     
  0.65625000000000000       0.65625000000000000        0.0000000000000000     
  0.68750000000000000       0.65625000000000000        0.0000000000000000     
  0.71875000000000000       0.65625000000000000        0.0000000000000000     
  0.75000000000000000       0.65625000000000000        0.0000000000000000     
  0.62500000000000000       0.68750000000000000        0.0000000000000000     
  0.65625000000000000       0.68750000000000000        0.0000000000000000     
  0.68750000000000000       0.68750000000000000        0.0000000000000000     
  0.71875000000000000       0.68750000000000000        0.0000000000000000     
  0.75000000000000000       0.68750000000000000        0.0000000000000000     
  0.62500000000000000       0.71875000000000000        0.0000000000000000     
  0.65625000000000000       0.71875000000000000        0.0000000000000000     
  0.68750000000000000       0.71875000000000000        0.0000000000000000     
  0.71875000000000000       0.71875000000000000        0.0000000000000000     
  0.75000000000000000       0.71875000000000000        0.0000000000000000     
  0.62500000000000000       0.75000000000000000        0.0000000000000000     
  0.65625000000000000       0.75000000000000000        0.0000000000000000     
  0.68750000000000000       0.75000000000000000        0.0000000000000000     
  0.71875000000000000       0.75000000000000000        0.0000000000000000     
  0.75000000000000000       0.75000000000000000        0.0000000000000000     
  0.75000000000000000       0.62500000000000000        0.0000000000000000     
  0.78125000000000000       0.62500000000000000        0.0000000000000000     
  0.81250000000000000       0.62500000000000000        0.0000000000000000     
  0.84375000000000000       0.62500000000000000        0.0000000000000000     
  0.87500000000000000       0.62500000000000000        0.0000000000000000     
  0.75000000000000000       0.65625000000000000        0.0000000000000000     
  0.78125000000000000       0.65625000000000000        0.0000000000000000     
  0.81250000000000000       0.65625000000000000        0.0000000000000000     
  0.84375000000000000       0.65625000000000000        0.0000000000000000     
  0.87500000000000000       0.65625000000000000        0.0000000000000000     
  0.75000000000000000       0.68750000000000000        0.0000000000000000     
  0.78125000000000000       0.68750000000000000        0.0000000000000000     
  0.81250000000000000       0.68750000000000000        0.0000000000000000     
  0.84375000000000000       0.68750000000000000        0.0000000000000000     
  0.87500000000000000       0.68750000000000000        0.0000000000000000     
  0.75000000000000000       0.71875000000000000        0.0000000000000000     
  0.78125000000000000       0.71875000000000000        0.0000000000000000     
  0.81250000000000000       0.71875000000000000        0.0000000000000000     
  0.84375000000000000       0.71875000000000000        0.0000000000000000     
  0.87500000000000000       0.71875000000000000        0.0000000000000000     
  0.75000000000000000       0.75000000000000000        0.0000000000000000     
  0.78125000000000000       0.75000000000000000        0.0000000000000000     
  0.81250000000000000       0.75000000000000000        0.0000000000000000     
  0.84375000000000000       0.75000000000000000        0.0000000000000000     
  0.87500000000000000       0.75000000000000000        0.0000000000000000     
  0.87500000000000000       0.62500000000000000        0.0000000000000000     
  0.90625000000000000       0.62500000000000000        0.0000000000000000     
  0.93750000000000000       0.62500000000000000        0.0000000000000000     
  0.96875000000000000       0.62500000000000000        0.0000000000000000     
   1.0000000000000000       0.62500000000000000        0.0000000000000000     
  0.87500000000000000       0.65625000000000000        0.0000000000000000     
  0.90625000000000000       0.65625000000000000        0.0000000000000000     
  0.93750000000000000       0.65625000000000000        0.0000000000000000     
  0.96875000000000000       0.65625000000000000        0.0000000000000000     
   1.0000000000000000       0.65625000000000000        0.0000000000000000     
  0.87500000000000000       0.68750000000000000        0.0000000000000000     
  0.90625000000000000       0.68750000000000000        0.0000000000000000     
  0.93750000000000000       0.68750000000000000        0.0000000000000000     
  0.96875000000000000       0.68750000000000000        0.0000000000000000     
   1.0000000000000000       0.68750000000000000        0.0000000000000000     
  0.87500000000000000       0.71875000000000000        0.0000000000000000     
  0.90625000000000000       0.71875000000000000        0.0000000000000000     
  0.93750000000000000       0.71875000000000000        0.0000000000000000     
  0.96875000000000000       0.71875000000000000        0.0000000000000000     
   1.0000000000000000       0.71875000000000000        0.0000000000000000     
  0.87500000000000000       0.75000000000000000        0.0000000000000000     
  0.90625000000000000       0.75000000000000000        0.0000000000000000     
  0.93750000000000000       0.75000000000000000        0.0000000000000000     
  0.96875000000000000       0.75000000000000000        0.0000000000000000     
   1.0000000000000000       0.75000000000000000        0.0000000000000000     
   1.0000000000000000       0.62500000000000000        0.0000000000000000     
   1.0312500000000000       0.62500000000000000        0.0000000000000000     
   1.0625000000000000       0.62500000000000000        0.0000000000000000     
   1.0937500000000000       0.62500000000000000        0.0000000000000000     
   1.1250000000000000       0.62500000000000000        0.0000000000000000     
   1.0000000000000000       0.65625000000000000        0.0000000000000000     
   1.0312500000000000       0.65625000000000000        0.0000000000000000     
   1.0625000000000000       0.65625000000000000        0.0000000000000000     
   1.0937500000000000       0.65625000000000000        0.0000000000000000     
   1.1250000000000000       0.65625000000000000        0.0000000000000000     
   1.0000000000000000       0.68750000000000000        0.0000000000000000     
   1.0312500000000000       0.68750000000000000        0.0000000000000000     
   1.0625000000000000       0.68750000000000000        0.0000000000000000     
   1.0937500000000000       0.68750000000000000        0.0000000000000000     
   1.1250000000000000       0.68750000000000000        0.0000000000000000     
   1.0000000000000000       0.71875000000000000        0.0000000000000000     
   1.0312500000000000       0.71875000000000000        0.0000000000000000     
   1.0625000000000000       0.71875000000000000        0.0000000000000000     
   1.0937500000000000       0.71875000000000000        0.0000000000000000     
   1.1250000000000000       0.71875000000000000        0.0000000000000000     
   1.0000000000000000       0.75000000000000000        0.0000000000000000     
   1.0312500000000000       0.75000000000000000        0.0000000000000000     
   1.0625000000000000       0.75000000000000000        0.0000000000000000     
   1.0937500000000000       0.75000000000000000        0.0000000000000000     
   1.1250000000000000       0.75000000000000000        0.0000000000000000     
   1.1250000000000000       0.62500000000000000        0.0000000000000000     
   1.1562500000000000       0.62500000000000000        0.0000000000000000     
   1.1875000000000000       0.62500000000000000        0.0000000000000000     
   1.2187500000000000       0.62500000000000000        0.0000000000000000     
   1.2500000000000000       0.62500000000000000        0.0000000000000000     
   1.1250000000000000       0.65625000000000000        0.0000000000000000     
   1.1562500000000000       0.65625000000000000        0.0000000000000000     
   1.1875000000000000       0.65625000000000000        0.0000000000000000     
   1.2187500000000000       0.65625000000000000        0.0000000000000000     
   1.2500000000000000       0.65625000000000000        0.0000000000000000     
   1.1250000000000000       0.68750000000000000        0.0000000000000000     
   1.1562500000000000       0.68750000000000000        0.0000000000000000     
   1.1875000000000000       0.68750000000000000        0.0000000000000000     
   1.2187500000000000       0.68750000000000000        0.0000000000000000     
   1.2500000000000000       0.68750000000000000        0.0000000000000000     
   1.1250000000000000       0.71875000000000000        0.0000000000000000     
   1.1562500000000000       0.71875000000000000        0.0000000000000000     
   1.1875000000000000       0.71875000000000000        0.0000000000000000     
   1.2187500000000000       0.71875000000000000        0.0000000000000000     
   1.2500000000000000       0.71875000000000000        0.0000000000000000     
   1.1250000000000000       0.75000000000000000        0.0000000000000000     
   1.1562500000000000       0.75000000000000000        0.0000000000000000     
   1.1875000000000000       0.75000000000000000        0.0000000000000000     
   1.2187500000000000       0.75000000000000000        0.0000000000000000     
   1.2500000000000000       0.75000000000000000        0.0000000000000000     
   1.2500000000000000       0.62500000000000000        0.0000000000000000     
   1.2812500000000000       0.62500000000000000        0.0000000000000000     
   1.3125000000000000       0.62500000000000000        0.0000000000000000     
   1.3437500000000000       0.62500000000000000        0.0000000000000000     
   1.3750000000000000       0.62500000000000000        0.0000000000000000     
   1.2500000000000000       0.65625000000000000        0.0000000000000000     
   1.2812500000000000       0.65625000000000000        0.0000000000000000     
   1.3125000000000000       0.65625000000000000        0.0000000000000000     
   1.3437500000000000       0.65625000000000000        0.0000000000000000     
   1.3750000000000000       0.65625000000000000        0.0000000000000000     
   1.2500000000000000       0.68750000000000000        0.0000000000000000     
   1.2812500000000000       0.68750000000000000        0.0000000000000000     
   1.3125000000000000       0.68750000000000000        0.0000000000000000     
   1.3437500000000000       0.68750000000000000        0.0000000000000000     
   1.3750000000000000       0.68750000000000000        0.0000000000000000     
   1.2500000000000000       0.71875000000000000        0.0000000000000000     
   1.2812500000000000       0.71875000000000000        0.0000000000000000     
   1.3125000000000000       0.71875000000000000        0.0000000000000000     
   1.3437500000000000       0.71875000000000000        0.0000000000000000     
   1.3750000000000000       0.71875000000000000        0.0000000000000000     
   1.2500000000000000       0.75000000000000000        0.0000000000000000     
   1.2812500000000000       0.75000000000000000        0.0000000000000000     
   1.3125000000000000       0.75000000000000000        0.0000000000000000     
   1.3437500000000000       0.75000000000000000        0.0000000000000000     
   1.3750000000000000       0.75000000000000000        0.0000000000000000     
   1.3750000000000000       0.62500000000000000        0.0000000000000000     
   1.4062500000000000       0.62500000000000000        0.0000000000000000     
   1.4375000000000000       0.62500000000000000        0.0000000000000000     
   1.4687500000000000       0.62500000000000000        0.0000000000000000     
   1.5000000000000000       0.62500000000000000        0.0000000000000000     
   1.3750000000000000       0.65625000000000000        0.0000000000000000     
   1.4062500000000000       0.65625000000000000        0.0000000000000000     
   1.4375000000000000       0.65625000000000000        0.0000000000000000     
   1.4687500000000000       0.65625000000000000        0.0000000000000000     
   1.5000000000000000       0.65625000000000000        0.0000000000000000     
   1.3750000000000000       0.68750000000000000        0.0000000000000000     
   1.4062500000000000       0.68750000000000000        0.0000000000000000     
   1.4375000000000000       0.68750000000000000        0.0000000000000000     
   1.4687500000000000       0.68750000000000000        0.0000000000000000     
   1.5000000000000000       0.68750000000000000        0.0000000000000000     
   1.3750000000000000       0.71875000000000000        0.0000000000000000     
   1.4062500000000000       0.71875000000000000        0.0000000000000000     
   1.4375000000000000       0.71875000000000000        0.0000000000000000     
   1.4687500000000000       0.71875000000000000        0.0000000000000000     
   1.5000000000000000       0.71875000000000000        0.0000000000000000     
   1.3750000000000000       0.75000000000000000        0.0000000000000000     
   1.4062500000000000       0.75000000000000000        0.0000000000000000     
   1.4375000000000000       0.75000000000000000        0.0000000000000000     
   1.4687500000000000       0.75000000000000000        0.0000000000000000     
   1.5000000000000000       0.75000000000000000        0.0000000000000000     
  0.50000000000000000       0.75000000000000000        0.0000000000000000     
  0.53125000000000000       0.75000000000000000        0.0000000000000000     
  0.56250000000000000       0.75000000000000000        0.0000000000000000     
  0.59375000000000000       0.75000000000000000        0.0000000000000000     
  0.62500000000000000       0.75000000000000000        0.0000000000000000     
  0.50000000000000000       0.78125000000000000        0.0000000000000000     
  0.53125000000000000       0.78125000000000000        0.0000000000000000     
  0.56250000000000000       0.78125000000000000        0.0000000000000000     
  0.59375000000000000       0.78125000000000000        0.0000000000000000     
  0.62500000000000000       0.78125000000000000        0.0000000000000000     
  0.50000000000000000       0.81250000000000000        0.0000000000000000     
  0.53125000000000000       0.81250000000000000        0.0000000000000000     
  0.56250000000000000       0.81250000000000000        0.0000000000000000     
  0.59375000000000000       0.81250000000000000        0.0000000000000000     
  0.62500000000000000       0.81250000000000000        0.0000000000000000     
  0.50000000000000000       0.84375000000000000        0.0000000000000000     
  0.53125000000000000       0.84375000000000000        0.0000000000000000     
  0.56250000000000000       0.84375000000000000        0.0000000000000000     
  0.59375000000000000       0.84375000000000000        0.0000000000000000     
  0.62500000000000000       0.84375000000000000        0.0000000000000000     
  0.50000000000000000       0.87500000000000000        0.0000000000000000     
  0.53125000000000000       0.87500000000000000        0.0000000000000000     
  0.56250000000000000       0.87500000000000000        0.0000000000000000     
  0.59375000000000000       0.87500000000000000        0.0000000000000000     
  0.62500000000000000       0.87500000000000000        0.0000000000000000     
  0.62500000000000000       0.75000000000000000        0.0000000000000000     
  0.65625000000000000       0.75000000000000000        0.0000000000000000     
  0.68750000000000000       0.75000000000000000        0.0000000000000000     
  0.71875000000000000       0.75000000000000000        0.0000000000000000     
  0.75000000000000000       0.75000000000000000        0.0000000000000000     
  0.62500000000000000       0.78125000000000000        0.0000000000000000     
  0.65625000000000000       0.78125000000000000        0.0000000000000000     
  0.68750000000000000       0.78125000000000000        0.0000000000000000     
  0.71875000000000000       0.78125000000000000        0.0000000000000000     
  0.75000000000000000       0.78125000000000000        0.0000000000000000     
  0.62500000000000000       0.81250000000000000        0.0000000000000000     
  0.65625000000000000       0.81250000000000000        0.0000000000000000     
  0.68750000000000000       0.81250000000000000        0.0000000000000000     
  0.71875000000000000       0.81250000000000000        0.0000000000000000     
  0.75000000000000000       0.81250000000000000        0.0000000000000000     
  0.62500000000000000       0.84375000000000000        0.0000000000000000     
  0.65625000000000000       0.84375000000000000        0.0000000000000000     
  0.68750000000000000       0.84375000000000000        0.0000000000000000     
  0.71875000000000000       0.84375000000000000        0.0000000000000000     
  0.75000000000000000       0.84375000000000000        0.0000000000000000     
  0.62500000000000000       0.87500000000000000        0.0000000000000000     
  0.65625000000000000       0.87500000000000000        0.0000000000000000     
  0.68750000000000000       0.87500000000000000        0.0000000000000000     
  0.71875000000000000       0.87500000000000000        0.0000000000000000     
  0.75000000000000000       0.87500000000000000        0.0000000000000000     
  0.75000000000000000       0.75000000000000000        0.0000000000000000     
  0.78125000000000000       0.75000000000000000        0.0000000000000000     
  0.81250000000000000       0.75000000000000000        0.0000000000000000     
  0.84375000000000000       0.75000000000000000        0.0000000000000000     
  0.87500000000000000       0.75000000000000000        0.0000000000000000     
  0.75000000000000000       0.78125000000000000        0.0000000000000000     
  0.78125000000000000       0.78125000000000000        0.0000000000000000     
  0.81250000000000000       0.78125000000000000        0.0000000000000000     
  0.84375000000000000       0.78125000000000000        0.0000000000000000     
  0.87500000000000000       0.78125000000000000        0.0000000000000000     
  0.75000000000000000       0.81250000000000000        0.0000000000000000     
  0.78125000000000000       0.81250000000000000        0.0000000000000000     
  0.81250000000000000       0.81250000000000000        0.0000000000000000     
  0.84375000000000000       0.81250000000000000        0.0000000000000000     
  0.87500000000000000       0.81250000000000000        0.0000000000000000     
  0.75000000000000000       0.84375000000000000        0.0000000000000000     
  0.78125000000000000       0.84375000000000000        0.0000000000000000     
  0.81250000000000000       0.84375000000000000        0.0000000000000000     
  0.84375000000000000       0.84375000000000000        0.0000000000000000     
  0.87500000000000000       0.84375000000000000        0.0000000000000000     
  0.75000000000000000       0.87500000000000000        0.0000000000000000     
  0.78125000000000000       0.87500000000000000        0.0000000000000000     
  0.81250000000000000       0.87500000000000000        0.0000000000000000     
  0.84375000000000000       0.87500000000000000        0.0000000000000000     
  0.87500000000000000       0.87500000000000000        0.0000000000000000     
  0.87500000000000000       0.75000000000000000        0.0000000000000000     
  0.90625000000000000       0.75000000000000000        0.0000000000000000     
  0.93750000000000000       0.75000000000000000        0.0000000000000000     
  0.96875000000000000       0.75000000000000000        0.0000000000000000     
   1.0000000000000000       0.75000000000000000        0.0000000000000000     
  0.87500000000000000       0.78125000000000000        0.0000000000000000     
  0.90625000000000000       0.78125000000000000        0.0000000000000000     
  0.93750000000000000       0.78125000000000000        0.0000000000000000     
  0.96875000000000000       0.78125000000000000        0.0000000000000000     
   1.0000000000000000       0.78125000000000000        0.0000000000000000     
  0.87500000000000000       0.81250000000000000        0.0000000000000000     
  0.90625000000000000       0.81250000000000000        0.0000000000000000     
  0.93750000000000000       0.81250000000000000        0.0000000000000000     
  0.96875000000000000       0.81250000000000000        0.0000000000000000     
   1.0000000000000000       0.81250000000000000        0.0000000000000000     
  0.87500000000000000       0.84375000000000000        0.0000000000000000     
  0.90625000000000000       0.84375000000000000        0.0000000000000000     
  0.93750000000000000       0.84375000000000000        0.0000000000000000     
  0.96875000000000000       0.84375000000000000        0.0000000000000000     
   1.0000000000000000       0.84375000000000000        0.0000000000000000     
  0.87500000000000000       0.87500000000000000        0.0000000000000000     
  0.90625000000000000       0.87500000000000000        0.0000000000000000     
  0.93750000000000000       0.87500000000000000        0.0000000000000000     
  0.96875000000000000       0.87500000000000000        0.0000000000000000     
   1.0000000000000000       0.87500000000000000        0.0000000000000000     
   1.0000000000000000       0.75000000000000000        0.0000000000000000     
   1.0312500000000000       0.75000000000000000        0.0000000000000000     
   1.0625000000000000       0.75000000000000000        0.0000000000000000     
   1.0937500000000000       0.75000000000000000        0.0000000000000000     
   1.1250000000000000       0.75000000000000000        0.0000000000000000     
   1.0000000000000000       0.78125000000000000        0.0000000000000000     
   1.0312500000000000       0.78125000000000000        0.0000000000000000     
   1.0625000000000000       0.78125000000000000        0.0000000000000000     
   1.0937500000000000       0.78125000000000000        0.0000000000000000     
   1.1250000000000000       0.78125000000000000        0.0000000000000000     
   1.0000000000000000       0.81250000000000000        0.0000000000000000     
   1.0312500000000000       0.81250000000000000        0.0000000000000000     
   1.0625000000000000       0.81250000000000000        0.0000000000000000     
   1.0937500000000000       0.81250000000000000        0.0000000000000000     
   1.1250000000000000       0.81250000000000000        0.0000000000000000     
   1.0000000000000000       0.84375000000000000        0.0000000000000000     
   1.0312500000000000       0.84375000000000000        0.0000000000000000     
   1.0625000000000000       0.84375000000000000        0.0000000000000000     
   1.0937500000000000       0.84375000000000000        0.0000000000000000     
   1.1250000000000000       0.84375000000000000        0.0000000000000000     
   1.0000000000000000       0.87500000000000000        0.0000000000000000     
   1.0312500000000000       0.87500000000000000        0.0000000000000000     
   1.0625000000000000       0.87500000000000000        0.0000000000000000     
   1.0937500000000000       0.87500000000000000        0.0000000000000000     
   1.1250000000000000       0.87500000000000000        0.0000000000000000     
   1.1250000000000000       0.75000000000000000        0.0000000000000000     
   1.1562500000000000       0.75000000000000000        0.0000000000000000     
   1.1875000000000000       0.75000000000000000        0.0000000000000000     
   1.2187500000000000       0.75000000000000000        0.0000000000000000     
   1.2500000000000000       0.75000000000000000        0.0000000000000000     
   1.1250000000000000       0.78125000000000000        0.0000000000000000     
   1.1562500000000000       0.78125000000000000        0.0000000000000000     
   1.1875000000000000       0.78125000000000000        0.0000000000000000     
   1.2187500000000000       0.78125000000000000        0.0000000000000000     
   1.2500000000000000       0.78125000000000000        0.0000000000000000     
   1.1250000000000000       0.81250000000000000        0.0000000000000000     
   1.1562500000000000       0.81250000000000000        0.0000000000000000     
   1.1875000000000000       0.81250000000000000        0.0000000000000000     
   1.2187500000000000       0.81250000000000000        0.0000000000000000     
   1.2500000000000000       0.81250000000000000        0.0000000000000000     
   1.1250000000000000       0.84375000000000000        0.0000000000000000     
   1.1562500000000000       0.84375000000000000        0.0000000000000000     
   1.1875000000000000       0.84375000000000000        0.0000000000000000     
   1.2187500000000000       0.84375000000000000        0.0000000000000000     
   1.2500000000000000       0.84375000000000000        0.0000000000000000     
   1.1250000000000000       0.87500000000000000        0.0000000000000000     
   1.1562500000000000       0.87500000000000000        0.0000000000000000     
   1.1875000000000000       0.87500000000000000        0.0000000000000000     
   1.2187500000000000       0.87500000000000000        0.0000000000000000     
   1.2500000000000000       0.87500000000000000        0.0000000000000000     
   1.2500000000000000       0.75000000000000000        0.0000000000000000     
   1.2812500000000000       0.75000000000000000        0.0000000000000000     
   1.3125000000000000       0.75000000000000000        0.0000000000000000     
   1.3437500000000000       0.75000000000000000        0.0000000000000000     
   1.3750000000000000       0.75000000000000000        0.0000000000000000     
   1.2500000000000000       0.78125000000000000        0.0000000000000000     
   1.2812500000000000       0.78125000000000000        0.0000000000000000     
   1.3125000000000000       0.78125000000000000        0.0000000000000000     
   1.3437500000000000       0.78125000000000000        0.0000000000000000     
   1.3750000000000000       0.78125000000000000        0.0000000000000000     
   1.2500000000000000       0.81250000000000000        0.0000000000000000     
   1.2812500000000000       0.81250000000000000        0.0000000000000000     
   1.3125000000000000       0.81250000000000000        0.0000000000000000     
   1.3437500000000000       0.81250000000000000        0.0000000000000000     
   1.3750000000000000       0.81250000000000000        0.0000000000000000     
   1.2500000000000000       0.84375000000000000        0.0000000000000000     
   1.2812500000000000       0.84375000000000000        0.0000000000000000     
   1.3125000000000000       0.84375000000000000        0.0000000000000000     
   1.3437500000000000       0.84375000000000000        0.0000000000000000     
   1.3750000000000000       0.84375000000000000        0.0000000000000000     
   1.2500000000000000       0.87500000000000000        0.0000000000000000     
   1.2812500000000000       0.87500000000000000        0.0000000000000000     
   1.3125000000000000       0.87500000000000000        0.0000000000000000     
   1.3437500000000000       0.87500000000000000        0.0000000000000000     
   1.3750000000000000       0.87500000000000000        0.0000000000000000     
   1.3750000000000000       0.75000000000000000        0.0000000000000000     
   1.4062500000000000       0.75000000000000000        0.0000000000000000     
   1.4375000000000000       0.75000000000000000        0.0000000000000000     
   1.4687500000000000       0.75000000000000000        0.0000000000000000     
   1.5000000000000000       0.75000000000000000        0.0000000000000000     
   1.3750000000000000       0.78125000000000000        0.0000000000000000     
   1.4062500000000000       0.78125000000000000        0.0000000000000000     
   1.4375000000000000       0.78125000000000000        0.0000000000000000     
   1.4687500000000000       0.78125000000000000        0.0000000000000000     
   1.5000000000000000       0.78125000000000000        0.0000000000000000     
   1.3750000000000000       0.81250000000000000        0.0000000000000000     
   1.4062500000000000       0.81250000000000000        0.0000000000000000     
   1.4375000000000000       0.81250000000000000        0.0000000000000000     
   1.4687500000000000       0.81250000000000000        0.0000000000000000     
   1.5000000000000000       0.81250000000000000        0.0000000000000000     
   1.3750000000000000       0.84375000000000000        0.0000000000000000     
   1.4062500000000000       0.84375000000000000        0.0000000000000000     
   1.4375000000000000       0.84375000000000000        0.0000000000000000     
   1.4687500000000000       0.84375000000000000        0.0000000000000000     
   1.5000000000000000       0.84375000000000000        0.0000000000000000     
   1.3750000000000000       0.87500000000000000        0.0000000000000000     
   1.4062500000000000       0.87500000000000000        0.0000000000000000     
   1.4375000000000000       0.87500000000000000        0.0000000000000000     
   1.4687500000000000       0.87500000000000000        0.0000000000000000     
   1.5000000000000000       0.87500000000000000        0.0000000000000000     
  0.50000000000000000       0.87500000000000000        0.0000000000000000     
  0.53125000000000000       0.87500000000000000        0.0000000000000000     
  0.56250000000000000       0.87500000000000000        0.0000000000000000     
  0.59375000000000000       0.87500000000000000        0.0000000000000000     
  0.62500000000000000       0.87500000000000000        0.0000000000000000     
  0.50000000000000000       0.90625000000000000        0.0000000000000000     
  0.53125000000000000       0.90625000000000000        0.0000000000000000     
  0.56250000000000000       0.90625000000000000        0.0000000000000000     
  0.59375000000000000       0.90625000000000000        0.0000000000000000     
  0.62500000000000000       0.90625000000000000        0.0000000000000000     
  0.50000000000000000       0.93750000000000000        0.0000000000000000     
  0.53125000000000000       0.93750000000000000        0.0000000000000000     
  0.56250000000000000       0.93750000000000000        0.0000000000000000     
  0.59375000000000000       0.93750000000000000        0.0000000000000000     
  0.62500000000000000       0.93750000000000000        0.0000000000000000     
  0.50000000000000000       0.96875000000000000        0.0000000000000000     
  0.53125000000000000       0.96875000000000000        0.0000000000000000     
  0.56250000000000000       0.96875000000000000        0.0000000000000000     
  0.59375000000000000       0.96875000000000000        0.0000000000000000     
  0.62500000000000000       0.96875000000000000        0.0000000000000000     
  0.50000000000000000        1.0000000000000000        0.0000000000000000     
  0.53125000000000000        1.0000000000000000        0.0000000000000000     
  0.56250000000000000        1.0000000000000000        0.0000000000000000     
  0.59375000000000000        1.0000000000000000        0.0000000000000000     
  0.62500000000000000        1.0000000000000000        0.0000000000000000     
  0.62500000000000000       0.87500000000000000        0.0000000000000000     
  0.65625000000000000       0.87500000000000000        0.0000000000000000     
  0.68750000000000000       0.87500000000000000        0.0000000000000000     
  0.71875000000000000       0.87500000000000000        0.0000000000000000     
  0.75000000000000000       0.87500000000000000        0.0000000000000000     
  0.62500000000000000       0.90625000000000000        0.0000000000000000     
  0.65625000000000000       0.90625000000000000        0.0000000000000000     
  0.68750000000000000       0.90625000000000000        0.0000000000000000     
  0.71875000000000000       0.90625000000000000        0.0000000000000000     
  0.75000000000000000       0.90625000000000000        0.0000000000000000     
  0.62500000000000000       0.93750000000000000        0.0000000000000000     
  0.65625000000000000       0.93750000000000000        0.0000000000000000     
  0.68750000000000000       0.93750000000000000        0.0000000000000000     
  0.71875000000000000       0.93750000000000000        0.0000000000000000     
  0.75000000000000000       0.93750000000000000        0.0000000000000000     
  0.62500000000000000       0.96875000000000000        0.0000000000000000     
  0.65625000000000000       0.96875000000000000        0.0000000000000000     
  0.68750000000000000       0.96875000000000000        0.0000000000000000     
  0.71875000000000000       0.96875000000000000        0.0000000000000000     
  0.75000000000000000       0.96875000000000000        0.0000000000000000     
  0.62500000000000000        1.0000000000000000        0.0000000000000000     
  0.65625000000000000        1.0000000000000000        0.0000000000000000     
  0.68750000000000000        1.0000000000000000        0.0000000000000000     
  0.71875000000000000        1.0000000000000000        0.0000000000000000     
  0.75000000000000000        1.0000000000000000        0.0000000000000000     
  0.75000000000000000       0.87500000000000000        0.0000000000000000     
  0.78125000000000000       0.87500000000000000        0.0000000000000000     
  0.81250000000000000       0.87500000000000000        0.0000000000000000     
  0.84375000000000000       0.87500000000000000        0.0000000000000000     
  0.87500000000000000       0.87500000000000000        0.0000000000000000     
  0.75000000000000000       0.90625000000000000        0.0000000000000000     
  0.78125000000000000       0.90625000000000000        0.0000000000000000     
  0.81250000000000000       0.90625000000000000        0.0000000000000000     
  0.84375000000000000       0.90625000000000000        0.0000000000000000     
  0.87500000000000000       0.90625000000000000        0.0000000000000000     
  0.75000000000000000       0.93750000000000000        0.0000000000000000     
  0.78125000000000000       0.93750000000000000        0.0000000000000000     
  0.81250000000000000       0.93750000000000000        0.0000000000000000     
  0.84375000000000000       0.93750000000000000        0.0000000000000000     
  0.87500000000000000       0.93750000000000000        0.0000000000000000     
  0.75000000000000000       0.96875000000000000        0.0000000000000000     
  0.78125000000000000       0.96875000000000000        0.0000000000000000     
  0.81250000000000000       0.96875000000000000        0.0000000000000000     
  0.84375000000000000       0.96875000000000000        0.0000000000000000     
  0.87500000000000000       0.96875000000000000        0.0000000000000000     
  0.75000000000000000        1.0000000000000000        0.0000000000000000     
  0.78125000000000000        1.0000000000000000        0.0000000000000000     
  0.81250000000000000        1.0000000000000000        0.0000000000000000     
  0.84375000000000000        1.0000000000000000        0.0000000000000000     
  0.87500000000000000        1.0000000000000000        0.0000000000000000     
  0.87500000000000000       0.87500000000000000        0.0000000000000000     
  0.90625000000000000       0.87500000000000000        0.0000000000000000     
  0.93750000000000000       0.87500000000000000        0.0000000000000000     
  0.96875000000000000       0.87500000000000000        0.0000000000000000     
   1.0000000000000000       0.87500000000000000        0.0000000000000000     
  0.87500000000000000       0.90625000000000000        0.0000000000000000     
  0.90625000000000000       0.90625000000000000        0.0000000000000000     
  0.93750000000000000       0.90625000000000000        0.0000000000000000     
  0.96875000000000000       0.90625000000000000        0.0000000000000000     
   1.0000000000000000       0.90625000000000000        0.0000000000000000     
  0.87500000000000000       0.93750000000000000        0.0000000000000000     
  0.90625000000000000       0.93750000000000000        0.0000000000000000     
  0.93750000000000000       0.93750000000000000        0.0000000000000000     
  0.96875000000000000       0.93750000000000000        0.0000000000000000     
   1.0000000000000000       0.93750000000000000        0.0000000000000000     
  0.87500000000000000       0.96875000000000000        0.0000000000000000     
  0.90625000000000000       0.96875000000000000        0.0000000000000000     
  0.93750000000000000       0.96875000000000000        0.0000000000000000     
  0.96875000000000000       0.96875000000000000        0.0000000000000000     
   1.0000000000000000       0.96875000000000000        0.0000000000000000     
  0.87500000000000000        1.0000000000000000        0.0000000000000000     
  0.90625000000000000        1.0000000000000000        0.0000000000000000     
  0.93750000000000000        1.0000000000000000        0.0000000000000000     
  0.96875000000000000        1.0000000000000000        0.0000000000000000     
   1.0000000000000000        1.0000000000000000        0.0000000000000000     
   1.0000000000000000       0.87500000000000000        0.0000000000000000     
   1.0312500000000000       0.87500000000000000        0.0000000000000000     
   1.0625000000000000       0.87500000000000000        0.0000000000000000     
   1.0937500000000000       0.87500000000000000        0.0000000000000000     
   1.1250000000000000       0.87500000000000000        0.0000000000000000     
   1.0000000000000000       0.90625000000000000        0.0000000000000000     
   1.0312500000000000       0.90625000000000000        0.0000000000000000     
   1.0625000000000000       0.90625000000000000        0.0000000000000000     
   1.0937500000000000       0.90625000000000000        0.0000000000000000     
   1.1250000000000000       0.90625000000000000        0.0000000000000000     
   1.0000000000000000       0.93750000000000000        0.0000000000000000     
   1.0312500000000000       0.93750000000000000        0.0000000000000000     
   1.0625000000000000       0.93750000000000000        0.0000000000000000     
   1.0937500000000000       0.93750000000000000        0.0000000000000000     
   1.1250000000000000       0.93750000000000000        0.0000000000000000     
   1.0000000000000000       0.96875000000000000        0.0000000000000000     
   1.0312500000000000       0.96875000000000000        0.0000000000000000     
   1.0625000000000000       0.96875000000000000        0.0000000000000000     
   1.0937500000000000       0.96875000000000000        0.0000000000000000     
   1.1250000000000000       0.96875000000000000        0.0000000000000000     
   1.0000000000000000        1.0000000000000000        0.0000000000000000     
   1.0312500000000000        1.0000000000000000        0.0000000000000000     
   1.0625000000000000        1.0000000000000000        0.0000000000000000     
   1.0937500000000000        1.0000000000000000        0.0000000000000000     
   1.1250000000000000        1.0000000000000000        0.0000000000000000     
   1.1250000000000000       0.87500000000000000        0.0000000000000000     
   1.1562500000000000       0.87500000000000000        0.0000000000000000     
   1.1875000000000000       0.87500000000000000        0.0000000000000000     
   1.2187500000000000       0.87500000000000000        0.0000000000000000     
   1.2500000000000000       0.87500000000000000        0.0000000000000000     
   1.1250000000000000       0.90625000000000000        0.0000000000000000     
   1.1562500000000000       0.90625000000000000        0.0000000000000000     
   1.1875000000000000       0.90625000000000000        0.0000000000000000     
   1.2187500000000000       0.90625000000000000        0.0000000000000000     
   1.2500000000000000       0.90625000000000000        0.0000000000000000     
   1.1250000000000000       0.93750000000000000        0.0000000000000000     
   1.1562500000000000       0.93750000000000000        0.0000000000000000     
   1.1875000000000000       0.93750000000000000        0.0000000000000000     
   1.2187500000000000       0.93750000000000000        0.0000000000000000     
   1.2500000000000000       0.93750000000000000        0.0000000000000000     
   1.1250000000000000       0.96875000000000000        0.0000000000000000     
   1.1562500000000000       0.96875000000000000        0.0000000000000000     
   1.1875000000000000       0.96875000000000000        0.0000000000000000     
   1.2187500000000000       0.96875000000000000        0.0000000000000000     
   1.2500000000000000       0.96875000000000000        0.0000000000000000     
   1.1250000000000000        1.0000000000000000        0.0000000000000000     
   1.1562500000000000        1.0000000000000000        0.0000000000000000     
   1.1875000000000000        1.0000000000000000        0.0000000000000000     
   1.2187500000000000        1.0000000000000000        0.0000000000000000     
   1.2500000000000000        1.0000000000000000        0.0000000000000000     
   1.2500000000000000       0.87500000000000000        0.0000000000000000     
   1.2812500000000000       0.87500000000000000        0.0000000000000000     
   1.3125000000000000       0.87500000000000000        0.0000000000000000     
   1.3437500000000000       0.87500000000000000        0.0000000000000000     
   1.3750000000000000       0.87500000000000000        0.0000000000000000     
   1.2500000000000000       0.90625000000000000        0.0000000000000000     
   1.2812500000000000       0.90625000000000000        0.0000000000000000     
   1.3125000000000000       0.90625000000000000        0.0000000000000000     
   1.3437500000000000       0.90625000000000000        0.0000000000000000     
   1.3750000000000000       0.90625000000000000        0.0000000000000000     
   1.2500000000000000       0.93750000000000000        0.0000000000000000     
   1.2812500000000000       0.93750000000000000        0.0000000000000000     
   1.3125000000000000       0.93750000000000000        0.0000000000000000     
   1.3437500000000000       0.93750000000000000        0.0000000000000000     
   1.3750000000000000       0.93750000000000000        0.0000000000000000     
   1.2500000000000000       0.96875000000000000        0.0000000000000000     
   1.2812500000000000       0.96875000000000000        0.0000000000000000     
   1.3125000000000000       0.96875000000000000        0.0000000000000000     
   1.3437500000000000       0.96875000000000000        0.0000000000000000     
   1.3750000000000000       0.96875000000000000        0.0000000000000000     
   1.2500000000000000        1.0000000000000000        0.0000000000000000     
   1.2812500000000000        1.0000000000000000        0.0000000000000000     
   1.3125000000000000        1.0000000000000000        0.0000000000000000     
   1.3437500000000000        1.0000000000000000        0.0000000000000000     
   1.3750000000000000        1.0000000000000000        0.0000000000000000     
   1.3750000000000000       0.87500000000000000        0.0000000000000000     
   1.4062500000000000       0.87500000000000000        0.0000000000000000     
   1.4375000000000000       0.87500000000000000        0.0000000000000000     
   1.4687500000000000       0.87500000000000000        0.0000000000000000     
   1.5000000000000000       0.87500000000000000        0.0000000000000000     
   1.3750000000000000       0.90625000000000000        0.0000000000000000     
   1.4062500000000000       0.90625000000000000        0.0000000000000000     
   1.4375000000000000       0.90625000000000000        0.0000000000000000     
   1.4687500000000000       0.90625000000000000        0.0000000000000000     
   1.5000000000000000       0.90625000000000000        0.0000000000000000     
   1.3750000000000000       0.93750000000000000        0.0000000000000000     
   1.4062500000000000       0.93750000000000000        0.0000000000000000     
   1.4375000000000000       0.93750000000000000        0.0000000000000000     
   1.4687500000000000       0.93750000000000000        0.0000000000000000     
   1.5000000000000000       0.93750000000000000        0.0000000000000000     
   1.3750000000000000       0.96875000000000000        0.0000000000000000     
   1.4062500000000000       0.96875000000000000        0.0000000000000000     
   1.4375000000000000       0.96875000000000000        0.0000000000000000     
   1.4687500000000000       0.96875000000000000        0.0000000000000000     
   1.5000000000000000       0.96875000000000000        0.0000000000000000     
   1.3750000000000000        1.0000000000000000        0.0000000000000000     
   1.4062500000000000        1.0000000000000000        0.0000000000000000     
   1.4375000000000000        1.0000000000000000        0.0000000000000000     
   1.4687500000000000        1.0000000000000000        0.0000000000000000     
   1.5000000000000000        1.0000000000000000        0.0000000000000000     
 </DataArray>
 </Points>
 <Cells>
 <DataArray  type="Int32"  Name="connectivity"  format="ascii">
           0           1           6           5
           1           2           7           6
           2           3           8           7
           3           4           9           8
           5           6          11          10
           6           7          12          11
           7           8          13          12
           8           9          14          13
          10          11          16          15
          11          12          17          16
          12          13          18          17
          13          14          19          18
          15          16          21          20
          16          17          22          21
          17          18          23          22
          18          19          24          23
          25          26          31          30
          26          27          32          31
          27          28          33          32
          28          29          34          33
          30          31          36          35
          31          32          37          36
          32          33          38          37
          33          34          39          38
          35          36          41          40
          36          37          42          41
          37          38          43          42
          38          39          44          43
          40          41          46          45
          41          42          47          46
          42          43          48          47
          43          44          49          48
          50          51          56          55
          51          52          57          56
          52          53          58          57
          53          54          59          58
          55          56          61          60
          56          57          62          61
          57          58          63          62
          58          59          64          63
          60          61          66          65
          61          62          67          66
          62          63          68          67
          63          64          69          68
          65          66          71          70
          66          67          72          71
          67          68          73          72
          68          69          74          73
          75          76          81          80
          76          77          82          81
          77          78          83          82
          78          79          84          83
          80          81          86          85
          81          82          87          86
          82          83          88          87
          83          84          89          88
          85          86          91          90
          86          87          92          91
          87          88          93          92
          88          89          94          93
          90          91          96          95
          91          92          97          96
          92          93          98          97
          93          94          99          98
         100         101         106         105
         101         102         107         106
         102         103         108         107
         103         104         109         108
         105         106         111         110
         106         107         112         111
         107         108         113         112
         108         109         114         113
         110         111         116         115
         111         112         117         116
         112         113         118         117
         113         114         119         118
         115         116         121         120
         116         117         122         121
         117         118         123         122
         118         119         124         123
         125         126         131         130
         126         127         132         131
         127         128         133         132
         128         129         134         133
         130         131         136         135
         131         132         137         136
         132         133         138         137
         133         134         139         138
         135         136         141         140
         136         137         142         141
         137         138         143         142
         138         139         144         143
         140         141         146         145
         141         142         147         146
         142         143         148         147
         143         144         149         148
         150         151         156         155
         151         152         157         156
         152         153         158         157
         153         154         159         158
         155         156         161         160
         156         157         162         161
         157         158         163         162
         158         159         164         163
         160         161         166         165
         161         162         167         166
         162         163         168         167
         163         164         169         168
         165         166         171         170
         166         167         172         171
         167         168         173         172
         168         169         174         173
         175         176         181         180
         176         177         182         181
         177         178         183         182
         178         179         184         183
         180         181         186         185
         181         182         187         186
         182         183         188         187
         183         184         189         188
         185         186         191         190
         186         187         192         191
         187         188         193         192
         188         189         194         193
         190         191         196         195
         191         192         197         196
         192         193         198         197
         193         194         199         198
         200         201         206         205
         201         202         207         206
         202         203         208         207
         203         204         209         208
         205         206         211         210
         206         207         212         211
         207         208         213         212
         208         209         214         213
         210         211         216         215
         211         212         217         216
         212         213         218         217
         213         214         219         218
         215         216         221         220
         216         217         222         221
         217         218         223         222
         218         219         224         223
         225         226         231         230
         226         227         232         231
         227         228         233         232
         228         229         234         233
         230         231         236         235
         231         232         237         236
         232         233         238         237
         233         234         239         238
         235         236         241         240
         236         237         242         241
         237         238         243         242
         238         239         244         243
         240         241         246         245
         241         242         247         246
         242         243         248         247
         243         244         249         248
         250         251         256         255
         251         252         257         256
         252         253         258         257
         253         254         259         258
         255         256         261         260
         256         257         262         261
         257         258         263         262
         258         259         264         263
         260         261         266         265
         261         262         267         266
         262         263         268         267
         263         264         269         268
         265         266         271         270
         266         267         272         271
         267         268         273         272
         268         269         274         273
         275         276         281         280
         276         277         282         281
         277         278         283         282
         278         279         284         283
         280         281         286         285
         281         282         287         286
         282         283         288         287
         283         284         289         288
         285         286         291         290
         286         287         292         291
         287         288         293         292
         288         289         294         293
         290         291         296         295
         291         292         297         296
         292         293         298         297
         293         294         299         298
         300         301         306         305
         301         302         307         306
         302         303         308         307
         303         304         309         308
         305         306         311         310
         306         307         312         311
         307         308         313         312
         308         309         314         313
         310         311         316         315
         311         312         317         316
         312         313         318         317
         313         314         319         318
         315         316         321         320
         316         317         322         321
         317         318         323         322
         318         319         324         323
         325         326         331         330
         326         327         332         331
         327         328         333         332
         328         329         334         333
         330         331         336         335
         331         332         337         336
         332         333         338         337
         333         334         339         338
         335         336         341         340
         336         337         342         341
         337         338         343         342
         338         339         344         343
         340         341         346         345
         341         342         347         346
         342         343         348         347
         343         344         349         348
         350         351         356         355
         351         352         357         356
         352         353         358         357
         353         354         359         358
         355         356         361         360
         356         357         362         361
         357         358         363         362
         358         359         364         363
         360         361         366         365
         361         362         367         366
         362         363         368         367
         363         364         369         368
         365         366         371         370
         366         367         372         371
         367         368         373         372
         368         369         374         373
         375         376         381         380
         376         377         382         381
         377         378         383         382
         378         379         384         383
         380         381         386         385
         381         382         387         386
         382         383         388         387
         383         384         389         388
         385         386         391         390
         386         387         392         391
         387         388         393         392
         388         389         394         393
         390         391         396         395
         391         392         397         396
         392         393         398         397
         393         394         399         398
         400         401         406         405
         401         402         407         406
         402         403         408         407
         403         404         409         408
         405         406         411         410
         406         407         412         411
         407         408         413         412
         408         409         414         413
         410         411         416         415
         411         412         417         416
         412         413         418         417
         413         414         419         418
         415         416         421         420
         416         417         422         421
         417         418         423         422
         418         419         424         423
         425         426         431         430
         426         427         432         431
         427         428         433         432
         428         429         434         433
         430         431         436         435
         431         432         437         436
         432         433         438         437
         433         434         439         438
         435         436         441         440
         436         437         442         441
         437         438         443         442
         438         439         444         443
         440         441         446         445
         441         442         447         446
         442         443         448         447
         443         444         449         448
         450         451         456         455
         451         452         457         456
         452         453         458         457
         453         454         459         458
         455         456         461         460
         456         457         462         461
         457         458         463         462
         458         459         464         463
         460         461         466         465
         461         462         467         466
         462         463         468         467
         463         464         469         468
         465         466         471         470
         466         467         472         471
         467         468         473         472
         468         469         474         473
         475         476         481         480
         476         477         482         481
         477         478         483         482
         478         479         484         483
         480         481         486         485
         481         482         487         486
         482         483         488         487
         483         484         489         488
         485         486         491         490
         486         487         492         491
         487         488         493         492
         488         489         494         493
         490         491         496         495
         491         492         497         496
         492         493         498         497
         493         494         499         498
         500         501         506         505
         501         502         507         506
         502         503         508         507
         503         504         509         508
         505         506         511         510
         506         507         512         511
         507         508         513         512
         508         509         514         513
         510         511         516         515
         511         512         517         516
         512         513         518         517
         513         514         519         518
         515         516         521         520
         516         517         522         521
         517         518         523         522
         518         519         524         523
         525         526         531         530
         526         527         532         531
         527         528         533         532
         528         529         534         533
         530         531         536         535
         531         532         537         536
         532         533         538         537
         533         534         539         538
         535         536         541         540
         536         537         542         541
         537         538         543         542
         538         539         544         543
         540         541         546         545
         541         542         547         546
         542         543         548         547
         543         544         549         548
         550         551         556         555
         551         552         557         556
         552         553         558         557
         553         554         559         558
         555         556         561         560
         556         557         562         561
         557         558         563         562
         558         559         564         563
         560         561         566         565
         561         562         567         566
         562         563         568         567
         563         564         569         568
         565         566         571         570
         566         567         572         571
         567         568         573         572
         568         569         574         573
         575         576         581         580
         576         577         582         581
         577         578         583         582
         578         579         584         583
         580         581         586         585
         581         582         587         586
         582         583         588         587
         583         584         589         588
         585         586         591         590
         586         587         592         591
         587         588         593         592
         588         589         594         593
         590         591         596         595
         591         592         597         596
         592         593         598         597
         593         594         599         598
         600         601         606         605
         601         602         607         606
         602         603         608         607
         603         604         609         608
         605         606         611         610
         606         607         612         611
         607         608         613         612
         608         609         614         613
         610         611         616         615
         611         612         617         616
         612         613         618         617
         613         614         619         618
         615         616         621         620
         616         617         622         621
         617         618         623         622
         618         619         624         623
         625         626         631         630
         626         627         632         631
         627         628         633         632
         628         629         634         633
         630         631         636         635
         631         632         637         636
         632         633         638         637
         633         634         639         638
         635         636         641         640
         636         637         642         641
         637         638         643         642
         638         639         644         643
         640         641         646         645
         641         642         647         646
         642         643         648         647
         643         644         649         648
         650         651         656         655
         651         652         657         656
         652         653         658         657
         653         654         659         658
         655         656         661         660
         656         657         662         661
         657         658         663         662
         658         659         664         663
         660         661         666         665
         661         662         667         666
         662         663         668         667
         663         664         669         668
         665         666         671         670
         666         667         672         671
         667         668         673         672
         668         669         674         673
         675         676         681         680
         676         677         682         681
         677         678         683         682
         678         679         684         683
         680         681         686         685
         681         682         687         686
         682         683         688         687
         683         684         689         688
         685         686         691         690
         686         687         692         691
         687         688         693         692
         688         689         694         693
         690         691         696         695
         691         692         697         696
         692         693         698         697
         693         694         699         698
         700         701         706         705
         701         702         707         706
         702         703         708         707
         703         704         709         708
         705         706         711         710
         706         707         712         711
         707         708         713         712
         708         709         714         713
         710         711         716         715
         711         712         717         716
         712         713         718         717
         713         714         719         718
         715         716         721         720
         716         717         722         721
         717         718         723         722
         718         719         724         723
         725         726         731         730
         726         727         732         731
         727         728         733         732
         728         729         734         733
         730         731         736         735
         731         732         737         736
         732         733         738         737
         733         734         739         738
         735         736         741         740
         736         737         742         741
         737         738         743         742
         738         739         744         743
         740         741         746         745
         741         742         747         746
         742         743         748         747
         743         744         749         748
         750         751         756         755
         751         752         757         756
         752         753         758         757
         753         754         759         758
         755         756         761         760
         756         757         762         761
         757         758         763         762
         758         759         764         763
         760         761         766         765
         761         762         767         766
         762         763         768         767
         763         764         769         768
         765         766         771         770
         766         767         772         771
         767         768         773         772
         768         769         774         773
         775         776         781         780
         776         777         782         781
         777         778         783         782
         778         779         784         783
         780         781         786         785
         781         782         787         786
         782         783         788         787
         783         784         789         788
         785         786         791         790
         786         787         792         791
         787         788         793         792
         788         789         794         793
         790         791         796         795
         791         792         797         796
         792         793         798         797
         793         794         799         798
         800         801         806         805
         801         802         807         806
         802         803         808         807
         803         804         809         808
         805         806         811         810
         806         807         812         811
         807         808         813         812
         808         809         814         813
         810         811         816         815
         811         812         817         816
         812         813         818         817
         813         814         819         818
         815         816         821         820
         816         817         822         821
         817         818         823         822
         818         819         824         823
         825         826         831         830
         826         827         832         831
         827         828         833         832
         828         829         834         833
         830         831         836         835
         831         832         837         836
         832         833         838         837
         833         834         839         838
         835         836         841         840
         836         837         842         841
         837         838         843         842
         838         839         844         843
         840         841         846         845
         841         842         847         846
         842         843         848         847
         843         844         849         848
         850         851         856         855
         851         852         857         856
         852         853         858         857
         853         854         859         858
         855         856         861         860
         856         857         862         861
         857         858         863         862
         858         859         864         863
         860         861         866         865
         861         862         867         866
         862         863         868         867
         863         864         869         868
         865         866         871         870
         866         867         872         871
         867         868         873         872
         868         869         874         873
         875         876         881         880
         876         877         882         881
         877         878         883         882
         878         879         884         883
         880         881         886         885
         881         882         887         886
         882         883         888         887
         883         884         889         888
         885         886         891         890
         886         887         892         891
         887         888         893         892
         888         889         894         893
         890         891         896         895
         891         892         897         896
         892         893         898         897
         893         894         899         898
         900         901         906         905
         901         902         907         906
         902         903         908         907
         903         904         909         908
         905         906         911         910
         906         907         912         911
         907         908         913         912
         908         909         914         913
         910         911         916         915
         911         912         917         916
         912         913         918         917
         913         914         919         918
         915         916         921         920
         916         917         922         921
         917         918         923         922
         918         919         924         923
         925         926         931         930
         926         927         932         931
         927         928         933         932
         928         929         934         933
         930         931         936         935
         931         932         937         936
         932         933         938         937
         933         934         939         938
         935         936         941         940
         936         937         942         941
         937         938         943         942
         938         939         944         943
         940         941         946         945
         941         942         947         946
         942         943         948         947
         943         944         949         948
         950         951         956         955
         951         952         957         956
         952         953         958         957
         953         954         959         958
         955         956         961         960
         956         957         962         961
         957         958         963         962
         958         959         964         963
         960         961         966         965
         961         962         967         966
         962         963         968         967
         963         964         969         968
         965         966         971         970
         966         967         972         971
         967         968         973         972
         968         969         974         973
         975         976         981         980
         976         977         982         981
         977         978         983         982
         978         979         984         983
         980         981         986         985
         981         982         987         986
         982         983         988         987
         983         984         989         988
         985         986         991         990
         986         987         992         991
         987         988         993         992
         988         989         994         993
         990         991         996         995
         991         992         997         996
         992         993         998         997
         993         994         999         998
        1000        1001        1006        1005
        1001        1002        1007        1006
        1002        1003        1008        1007
        1003        1004        1009        1008
        1005        1006        1011        1010
        1006        1007        1012        1011
        1007        1008        1013        1012
        1008        1009        1014        1013
        1010        1011        1016        1015
        1011        1012        1017        1016
        1012        1013        1018        1017
        1013        1014        1019        1018
        1015        1016        1021        1020
        1016        1017        1022        1021
        1017        1018        1023        1022
        1018        1019        1024        1023
        1025        1026        1031        1030
        1026        1027        1032        1031
        1027        1028        1033        1032
        1028        1029        1034        1033
        1030        1031        1036        1035
        1031        1032        1037        1036
        1032        1033        1038        1037
        1033        1034        1039        1038
        1035        1036        1041        1040
        1036        1037        1042        1041
        1037        1038        1043        1042
        1038        1039        1044        1043
        1040        1041        1046        1045
        1041        1042        1047        1046
        1042        1043        1048        1047
        1043        1044        1049        1048
        1050        1051        1056        1055
        1051        1052        1057        1056
        1052        1053        1058        1057
        1053        1054        1059        1058
        1055        1056        1061        1060
        1056        1057        1062        1061
        1057        1058        1063        1062
        1058        1059        1064        1063
        1060        1061        1066        1065
        1061        1062        1067        1066
        1062        1063        1068        1067
        1063        1064        1069        1068
        1065        1066        1071        1070
        1066        1067        1072        1071
        1067        1068        1073        1072
        1068        1069        1074        1073
        1075        1076        1081        1080
        1076        1077        1082        1081
        1077        1078        1083        1082
        1078        1079        1084        1083
        1080        1081        1086        1085
        1081        1082        1087        1086
        1082        1083        1088        1087
        1083        1084        1089        1088
        1085        1086        1091        1090
        1086        1087        1092        1091
        1087        1088        1093        1092
        1088        1089        1094        1093
        1090        1091        1096        1095
        1091        1092        1097        1096
        1092        1093        1098        1097
        1093        1094        1099        1098
        1100        1101        1106        1105
        1101        1102        1107        1106
        1102        1103        1108        1107
        1103        1104        1109        1108
        1105        1106        1111        1110
        1106        1107        1112        1111
        1107        1108        1113        1112
        1108        1109        1114        1113
        1110        1111        1116        1115
        1111        1112        1117        1116
        1112        1113        1118        1117
        1113        1114        1119        1118
        1115        1116        1121        1120
        1116        1117        1122        1121
        1117        1118        1123        1122
        1118        1119        1124        1123
        1125        1126        1131        1130
        1126        1127        1132        1131
        1127        1128        1133        1132
        1128        1129        1134        1133
        1130        1131        1136        1135
        1131        1132        1137        1136
        1132        1133        1138        1137
        1133        1134        1139        1138
        1135        1136        1141        1140
        1136        1137        1142        1141
        1137        1138        1143        1142
        1138        1139        1144        1143
        1140        1141        1146        1145
        1141        1142        1147        1146
        1142        1143        1148        1147
        1143        1144        1149        1148
        1150        1151        1156        1155
        1151        1152        1157        1156
        1152        1153        1158        1157
        1153        1154        1159        1158
        1155        1156        1161        1160
        1156        1157        1162        1161
        1157        1158        1163        1162
        1158        1159        1164        1163
        1160        1161        1166        1165
        1161        1162        1167        1166
        1162        1163        1168        1167
        1163        1164        1169        1168
        1165        1166        1171        1170
        1166        1167        1172        1171
        1167        1168        1173        1172
        1168        1169        1174        1173
        1175        1176        1181        1180
        1176        1177        1182        1181
        1177        1178        1183        1182
        1178        1179        1184        1183
        1180        1181        1186        1185
        1181        1182        1187        1186
        1182        1183        1188        1187
        1183        1184        1189        1188
        1185        1186        1191        1190
        1186        1187        1192        1191
        1187        1188        1193        1192
        1188        1189        1194        1193
        1190        1191        1196        1195
        1191        1192        1197        1196
        1192        1193        1198        1197
        1193        1194        1199        1198
        1200        1201        1206        1205
        1201        1202        1207        1206
        1202        1203        1208        1207
        1203        1204        1209        1208
        1205        1206        1211        1210
        1206        1207        1212        1211
        1207        1208        1213        1212
        1208        1209        1214        1213
        1210        1211        1216        1215
        1211        1212        1217        1216
        1212        1213        1218        1217
        1213        1214        1219        1218
        1215        1216        1221        1220
        1216        1217        1222        1221
        1217        1218        1223        1222
        1218        1219        1224        1223
        1225        1226        1231        1230
        1226        1227        1232        1231
        1227        1228        1233        1232
        1228        1229        1234        1233
        1230        1231        1236        1235
        1231        1232        1237        1236
        1232        1233        1238        1237
        1233        1234        1239        1238
        1235        1236        1241        1240
        1236        1237        1242        1241
        1237        1238        1243        1242
        1238        1239        1244        1243
        1240        1241        1246        1245
        1241        1242        1247        1246
        1242        1243        1248        1247
        1243        1244        1249        1248
        1250        1251        1256        1255
        1251        1252        1257        1256
        1252        1253        1258        1257
        1253        1254        1259        1258
        1255        1256        1261        1260
        1256        1257        1262        1261
        1257        1258        1263        1262
        1258        1259        1264        1263
        1260        1261        1266        1265
        1261        1262        1267        1266
        1262        1263        1268        1267
        1263        1264        1269        1268
        1265        1266        1271        1270
        1266        1267        1272        1271
        1267        1268        1273        1272
        1268        1269        1274        1273
        1275        1276        1281        1280
        1276        1277        1282        1281
        1277        1278        1283        1282
        1278        1279        1284        1283
        1280        1281        1286        1285
        1281        1282        1287        1286
        1282        1283        1288        1287
        1283        1284        1289        1288
        1285        1286        1291        1290
        1286        1287        1292        1291
        1287        1288        1293        1292
        1288        1289        1294        1293
        1290        1291        1296        1295
        1291        1292        1297        1296
        1292        1293        1298        1297
        1293        1294        1299        1298
        1300        1301        1306        1305
        1301        1302        1307        1306
        1302        1303        1308        1307
        1303        1304        1309        1308
        1305        1306        1311        1310
        1306        1307        1312        1311
        1307        1308        1313        1312
        1308        1309        1314        1313
        1310        1311        1316        1315
        1311        1312        1317        1316
        1312        1313        1318        1317
        1313        1314        1319        1318
        1315        1316        1321        1320
        1316        1317        1322        1321
        1317        1318        1323        1322
        1318        1319        1324        1323
        1325        1326        1331        1330
        1326        1327        1332        1331
        1327        1328        1333        1332
        1328        1329        1334        1333
        1330        1331        1336        1335
        1331        1332        1337        1336
        1332        1333        1338        1337
        1333        1334        1339        1338
        1335        1336        1341        1340
        1336        1337        1342        1341
        1337        1338        1343        1342
        1338        1339        1344        1343
        1340        1341        1346        1345
        1341        1342        1347        1346
        1342        1343        1348        1347
        1343        1344        1349        1348
        1350        1351        1356        1355
        1351        1352        1357        1356
        1352        1353        1358        1357
        1353        1354        1359        1358
        1355        1356        1361        1360
        1356        1357        1362        1361
        1357        1358        1363        1362
        1358        1359        1364        1363
        1360        1361        1366        1365
        1361        1362        1367        1366
        1362        1363        1368        1367
        1363        1364        1369        1368
        1365        1366        1371        1370
        1366        1367        1372        1371
        1367        1368        1373        1372
        1368        1369        1374        1373
        1375        1376        1381        1380
        1376        1377        1382        1381
        1377        1378        1383        1382
        1378        1379        1384        1383
        1380        1381        1386        1385
        1381        1382        1387        1386
        1382        1383        1388        1387
        1383        1384        1389        1388
        1385        1386        1391        1390
        1386        1387        1392        1391
        1387        1388        1393        1392
        1388        1389        1394        1393
        1390        1391        1396        1395
        1391        1392        1397        1396
        1392        1393        1398        1397
        1393        1394        1399        1398
        1400        1401        1406        1405
        1401        1402        1407        1406
        1402        1403        1408        1407
        1403        1404        1409        1408
        1405        1406        1411        1410
        1406        1407        1412        1411
        1407        1408        1413        1412
        1408        1409        1414        1413
        1410        1411        1416        1415
        1411        1412        1417        1416
        1412        1413        1418        1417
        1413        1414        1419        1418
        1415        1416        1421        1420
        1416        1417        1422        1421
        1417        1418        1423        1422
        1418        1419        1424        1423
        1425        1426        1431        1430
        1426        1427        1432        1431
        1427        1428        1433        1432
        1428        1429        1434        1433
        1430        1431        1436        1435
        1431        1432        1437        1436
        1432        1433        1438        1437
        1433        1434        1439        1438
        1435        1436        1441        1440
        1436        1437        1442        1441
        1437        1438        1443        1442
        1438        1439        1444        1443
        1440        1441        1446        1445
        1441        1442        1447        1446
        1442        1443        1448        1447
        1443        1444        1449        1448
        1450        1451        1456        1455
        1451        1452        1457        1456
        1452        1453        1458        1457
        1453        1454        1459        1458
        1455        1456        1461        1460
        1456        1457        1462        1461
        1457        1458        1463        1462
        1458        1459        1464        1463
        1460        1461        1466        1465
        1461        1462        1467        1466
        1462        1463        1468        1467
        1463        1464        1469        1468
        1465        1466        1471        1470
        1466        1467        1472        1471
        1467        1468        1473        1472
        1468        1469        1474        1473
        1475        1476        1481        1480
        1476        1477        1482        1481
        1477        1478        1483        1482
        1478        1479        1484        1483
        1480        1481        1486        1485
        1481        1482        1487        1486
        1482        1483        1488        1487
        1483        1484        1489        1488
        1485        1486        1491        1490
        1486        1487        1492        1491
        1487        1488        1493        1492
        1488        1489        1494        1493
        1490        1491        1496        1495
        1491        1492        1497        1496
        1492        1493        1498        1497
        1493        1494        1499        1498
        1500        1501        1506        1505
        1501        1502        1507        1506
        1502        1503        1508        1507
        1503        1504        1509        1508
        1505        1506        1511        1510
        1506        1507        1512        1511
        1507        1508        1513        1512
        1508        1509        1514        1513
        1510        1511        1516        1515
        1511        1512        1517        1516
        1512        1513        1518        1517
        1513        1514        1519        1518
        1515        1516        1521        1520
        1516        1517        1522        1521
        1517        1518        1523        1522
        1518        1519        1524        1523
        1525        1526        1531        1530
        1526        1527        1532        1531
        1527        1528        1533        1532
        1528        1529        1534        1533
        1530        1531        1536        1535
        1531        1532        1537        1536
        1532        1533        1538        1537
        1533        1534        1539        1538
        1535        1536        1541        1540
        1536        1537        1542        1541
        1537        1538        1543        1542
        1538        1539        1544        1543
        1540        1541        1546        1545
        1541        1542        1547        1546
        1542        1543        1548        1547
        1543        1544        1549        1548
        1550        1551        1556        1555
        1551        1552        1557        1556
        1552        1553        1558        1557
        1553        1554        1559        1558
        1555        1556        1561        1560
        1556        1557        1562        1561
        1557        1558        1563        1562
        1558        1559        1564        1563
        1560        1561        1566        1565
        1561        1562        1567        1566
        1562        1563        1568        1567
        1563        1564        1569        1568
        1565        1566        1571        1570
        1566        1567        1572        1571
        1567        1568        1573        1572
        1568        1569        1574        1573
        1575        1576        1581        1580
        1576        1577        1582        1581
        1577        1578        1583        1582
        1578        1579        1584        1583
        1580        1581        1586        1585
        1581        1582        1587        1586
        1582        1583        1588        1587
        1583        1584        1589        1588
        1585        1586        1591        1590
        1586        1587        1592        1591
        1587        1588        1593        1592
        1588        1589        1594        1593
        1590        1591        1596        1595
        1591        1592        1597        1596
        1592        1593        1598        1597
        1593        1594        1599        1598
 </DataArray>
 <DataArray  type="Int32"  Name="offsets"  format="ascii"> 
           4
           8
          12
          16
          20
          24
          28
          32
          36
          40
          44
          48
          52
          56
          60
          64
          68
          72
          76
          80
          84
          88
          92
          96
         100
         104
         108
         112
         116
         120
         124
         128
         132
         136
         140
         144
         148
         152
         156
         160
         164
         168
         172
         176
         180
         184
         188
         192
         196
         200
         204
         208
         212
         216
         220
         224
         228
         232
         236
         240
         244
         248
         252
         256
         260
         264
         268
         272
         276
         280
         284
         288
         292
         296
         300
         304
         308
         312
         316
         320
         324
         328
         332
         336
         340
         344
         348
         352
         356
         360
         364
         368
         372
         376
         380
         384
         388
         392
         396
         400
         404
         408
         412
         416
         420
         424
         428
         432
         436
         440
         444
         448
         452
         456
         460
         464
         468
         472
         476
         480
         484
         488
         492
         496
         500
         504
         508
         512
         516
         520
         524
         528
         532
         536
         540
         544
         548
         552
         556
         560
         564
         568
         572
         576
         580
         584
         588
         592
         596
         600
         604
         608
         612
         616
         620
         624
         628
         632
         636
         640
         644
         648
         652
         656
         660
         664
         668
         672
         676
         680
         684
         688
         692
         696
         700
         704
         708
         712
         716
         720
         724
         728
         732
         736
         740
         744
         748
         752
         756
         760
         764
         768
         772
         776
         780
         784
         788
         792
         796
         800
         804
         808
         812
         816
         820
         824
         828
         832
         836
         840
         844
         848
         852
         856
         860
         864
         868
         872
         876
         880
         884
         888
         892
         896
         900
         904
         908
         912
         916
         920
         924
         928
         932
         936
         940
         944
         948
         952
         956
         960
         964
         968
         972
         976
         980
         984
         988
         992
         996
        1000
        1004
        1008
        1012
        1016
        1020
        1024
        1028
        1032
        1036
        1040
        1044
        1048
        1052
        1056
        1060
        1064
        1068
        1072
        1076
        1080
        1084
        1088
        1092
        1096
        1100
        1104
        1108
        1112
        1116
        1120
        1124
        1128
        1132
        1136
        1140
        1144
        1148
        1152
        1156
        1160
        1164
        1168
        1172
        1176
        1180
        1184
        1188
        1192
        1196
        1200
        1204
        1208
        1212
        1216
        1220
        1224
        1228
        1232
        1236
        1240
        1244
        1248
        1252
        1256
        1260
        1264
        1268
        1272
        1276
        1280
        1284
        1288
        1292
        1296
        1300
        1304
        1308
        1312
        1316
        1320
        1324
        1328
        1332
        1336
        1340
        1344
        1348
        1352
        1356
        1360
        1364
        1368
        1372
        1376
        1380
        1384
        1388
        1392
        1396
        1400
        1404
        1408
        1412
        1416
        1420
        1424
        1428
        1432
        1436
        1440
        1444
        1448
        1452
        1456
        1460
        1464
        1468
        1472
        1476
        1480
        1484
        1488
        1492
        1496
        1500
        1504
        1508
        1512
        1516
        1520
        1524
        1528
        1532
        1536
        1540
        1544
        1548
        1552
        1556
        1560
        1564
        1568
        1572
        1576
        1580
        1584
        1588
        1592
        1596
        1600
        1604
        1608
        1612
        1616
        1620
        1624
        1628
        1632
        1636
        1640
        1644
        1648
        1652
        1656
        1660
        1664
        1668
        1672
        1676
        1680
        1684
        1688
        1692
        1696
        1700
        1704
        1708
        1712
        1716
        1720
        1724
        1728
        1732
        1736
        1740
        1744
        1748
        1752
        1756
        1760
        1764
        1768
        1772
        1776
        1780
        1784
        1788
        1792
        1796
        1800
        1804
        1808
        1812
        1816
        1820
        1824
        1828
        1832
        1836
        1840
        1844
        1848
        1852
        1856
        1860
        1864
        1868
        1872
        1876
        1880
        1884
        1888
        1892
        1896
        1900
        1904
        1908
        1912
        1916
        1920
        1924
        1928
        1932
        1936
        1940
        1944
        1948
        1952
        1956
        1960
        1964
        1968
        1972
        1976
        1980
        1984
        1988
        1992
        1996
        2000
        2004
        2008
        2012
        2016
        2020
        2024
        2028
        2032
        2036
        2040
        2044
        2048
        2052
        2056
        2060
        2064
        2068
        2072
        2076
        2080
        2084
        2088
        2092
        2096
        2100
        2104
        2108
        2112
        2116
        2120
        2124
        2128
        2132
        2136
        2140
        2144
        2148
        2152
        2156
        2160
        2164
        2168
        2172
        2176
        2180
        2184
        2188
        2192
        2196
        2200
        2204
        2208
        2212
        2216
        2220
        2224
        2228
        2232
        2236
        2240
        2244
        2248
        2252
        2256
        2260
        2264
        2268
        2272
        2276
        2280
        2284
        2288
        2292
        2296
        2300
        2304
        2308
        2312
        2316
        2320
        2324
        2328
        2332
        2336
        2340
        2344
        2348
        2352
        2356
        2360
        2364
        2368
        2372
        2376
        2380
        2384
        2388
        2392
        2396
        2400
        2404
        2408
        2412
        2416
        2420
        2424
        2428
        2432
        2436
        2440
        2444
        2448
        2452
        2456
        2460
        2464
        2468
        2472
        2476
        2480
        2484
        2488
        2492
        2496
        2500
        2504
        2508
        2512
        2516
        2520
        2524
        2528
        2532
        2536
        2540
        2544
        2548
        2552
        2556
        2560
        2564
        2568
        2572
        2576
        2580
        2584
        2588
        2592
        2596
        2600
        2604
        2608
        2612
        2616
        2620
        2624
        2628
        2632
        2636
        2640
        2644
        2648
        2652
        2656
        2660
        2664
        2668
        2672
        2676
        2680
        2684
        2688
        2692
        2696
        2700
        2704
        2708
        2712
        2716
        2720
        2724
        2728
        2732
        2736
        2740
        2744
        2748
        2752
        2756
        2760
        2764
        2768
        2772
        2776
        2780
        2784
        2788
        2792
        2796
        2800
        2804
        2808
        2812
        2816
        2820
        2824
        2828
        2832
        2836
        2840
        2844
        2848
        2852
        2856
        2860
        2864
        2868
        2872
        2876
        2880
        2884
        2888
        2892
        2896
        2900
        2904
        2908
        2912
        2916
        2920
        2924
        2928
        2932
        2936
        2940
        2944
        2948
        2952
        2956
        2960
        2964
        2968
        2972
        2976
        2980
        2984
        2988
        2992
        2996
        3000
        3004
        3008
        3012
        3016
        3020
        3024
        3028
        3032
        3036
        3040
        3044
        3048
        3052
        3056
        3060
        3064
        3068
        3072
        3076
        3080
        3084
        3088
        3092
        3096
        3100
        3104
        3108
        3112
        3116
        3120
        3124
        3128
        3132
        3136
        3140
        3144
        3148
        3152
        3156
        3160
        3164
        3168
        3172
        3176
        3180
        3184
        3188
        3192
        3196
        3200
        3204
        3208
        3212
        3216
        3220
        3224
        3228
        3232
        3236
        3240
        3244
        3248
        3252
        3256
        3260
        3264
        3268
        3272
        3276
        3280
        3284
        3288
        3292
        3296
        3300
        3304
        3308
        3312
        3316
        3320
        3324
        3328
        3332
        3336
        3340
        3344
        3348
        3352
        3356
        3360
        3364
        3368
        3372
        3376
        3380
        3384
        3388
        3392
        3396
        3400
        3404
        3408
        3412
        3416
        3420
        3424
        3428
        3432
        3436
        3440
        3444
        3448
        3452
        3456
        3460
        3464
        3468
        3472
        3476
        3480
        3484
        3488
        3492
        3496
        3500
        3504
        3508
        3512
        3516
        3520
        3524
        3528
        3532
        3536
        3540
        3544
        3548
        3552
        3556
        3560
        3564
        3568
        3572
        3576
        3580
        3584
        3588
        3592
        3596
        3600
        3604
        3608
        3612
        3616
        3620
        3624
        3628
        3632
        3636
        3640
        3644
        3648
        3652
        3656
        3660
        3664
        3668
        3672
        3676
        3680
        3684
        3688
        3692
        3696
        3700
        3704
        3708
        3712
        3716
        3720
        3724
        3728
        3732
        3736
        3740
        3744
        3748
        3752
        3756
        3760
        3764
        3768
        3772
        3776
        3780
        3784
        3788
        3792
        3796
        3800
        3804
        3808
        3812
        3816
        3820
        3824
        3828
        3832
        3836
        3840
        3844
        3848
        3852
        3856
        3860
        3864
        3868
        3872
        3876
        3880
        3884
        3888
        3892
        3896
        3900
        3904
        3908
        3912
        3916
        3920
        3924
        3928
        3932
        3936
        3940
        3944
        3948
        3952
        3956
        3960
        3964
        3968
        3972
        3976
        3980
        3984
        3988
        3992
        3996
        4000
        4004
        4008
        4012
        4016
        4020
        4024
        4028
        4032
        4036
        4040
        4044
        4048
        4052
        4056
        4060
        4064
        4068
        4072
        4076
        4080
        4084
        4088
        4092
        4096
 </DataArray>
 <DataArray  type="UInt8"  Name="types"  format="ascii">
 9
 9
 9
 9
 9
 9
 9
 9
 9
 9
 9
 9
 9
 9
 9
 9
 9
 9
 9
 9
 9
 9
 9
 9
 9
 9
 9
 9
 9
 9
 9
 9
 9
 9
 9
 9
 9
 9
 9
 9
 9
 9
 9
 9
 9
 9
 9
 9
 9
 9
 9
 9
 9
 9
 9
 9
 9
 9
 9
 9
 9
 9
 9
 9
 9
 9
 9
 9
 9
 9
 9
 9
 9
 9
 9
 9
 9
 9
 9
 9
 9
 9
 9
 9
 9
 9
 9
 9
 9
 9
 9
 9
 9
 9
 9
 9
 9
 9
 9
 9
 9
 9
 9
 9
 9
 9
 9
 9
 9
 9
 9
 9
 9
 9
 9
 9
 9
 9
 9
 9
 9
 9
 9
 9
 9
 9
 9
 9
 9
 9
 9
 9
 9
 9
 9
 9
 9
 9
 9
 9
 9
 9
 9
 9
 9
 9
 9
 9
 9
 9
 9
 9
 9
 9
 9
 9
 9
 9
 9
 9
 9
 9
 9
 9
 9
 9
 9
 9
 9
 9
 9
 9
 9
 9
 9
 9
 9
 9
 9
 9
 9
 9
 9
 9
 9
 9
 9
 9
 9
 9
 9
 9
 9
 9
 9
 9
 9
 9
 9
 9
 9
 9
 9
 9
 9
 9
 9
 9
 9
 9
 9
 9
 9
 9
 9
 9
 9
 9
 9
 9
 9
 9
 9
 9
 9
 9
 9
 9
 9
 9
 9
 9
 9
 9
 9
 9
 9
 9
 9
 9
 9
 9
 9
 9
 9
 9
 9
 9
 9
 9
 9
 9
 9
 9
 9
 9
 9
 9
 9
 9
 9
 9
 9
 9
 9
 9
 9
 9
 9
 9
 9
 9
 9
 9
 9
 9
 9
 9
 9
 9
 9
 9
 9
 9
 9
 9
 9
 9
 9
 9
 9
 9
 9
 9
 9
 9
 9
 9
 9
 9
 9
 9
 9
 9
 9
 9
 9
 9
 9
 9
 9
 9
 9
 9
 9
 9
 9
 9
 9
 9
 9
 9
 9
 9
 9
 9
 9
 9
 9
 9
 9
 9
 9
 9
 9
 9
 9
 9
 9
 9
 9
 9
 9
 9
 9
 9
 9
 9
 9
 9
 9
 9
 9
 9
 9
 9
 9
 9
 9
 9
 9
 9
 9
 9
 9
 9
 9
 9
 9
 9
 9
 9
 9
 9
 9
 9
 9
 9
 9
 9
 9
 9
 9
 9
 9
 9
 9
 9
 9
 9
 9
 9
 9
 9
 9
 9
 9
 9
 9
 9
 9
 9
 9
 9
 9
 9
 9
 9
 9
 9
 9
 9
 9
 9
 9
 9
 9
 9
 9
 9
 9
 9
 9
 9
 9
 9
 9
 9
 9
 9
 9
 9
 9
 9
 9
 9
 9
 9
 9
 9
 9
 9
 9
 9
 9
 9
 9
 9
 9
 9
 9
 9
 9
 9
 9
 9
 9
 9
 9
 9
 9
 9
 9
 9
 9
 9
 9
 9
 9
 9
 9
 9
 9
 9
 9
 9
 9
 9
 9
 9
 9
 9
 9
 9
 9
 9
 9
 9
 9
 9
 9
 9
 9
 9
 9
 9
 9
 9
 9
 9
 9
 9
 9
 9
 9
 9
 9
 9
 9
 9
 9
 9
 9
 9
 9
 9
 9
 9
 9
 9
 9
 9
 9
 9
 9
 9
 9
 9
 9
 9
 9
 9
 9
 9
 9
 9
 9
 9
 9
 9
 9
 9
 9
 9
 9
 9
 9
 9
 9
 9
 9
 9
 9
 9
 9
 9
 9
 9
 9
 9
 9
 9
 9
 9
 9
 9
 9
 9
 9
 9
 9
 9
 9
 9
 9
 9
 9
 9
 9
 9
 9
 9
 9
 9
 9
 9
 9
 9
 9
 9
 9
 9
 9
 9
 9
 9
 9
 9
 9
 9
 9
 9
 9
 9
 9
 9
 9
 9
 9
 9
 9
 9
 9
 9
 9
 9
 9
 9
 9
 9
 9
 9
 9
 9
 9
 9
 9
 9
 9
 9
 9
 9
 9
 9
 9
 9
 9
 9
 9
 9
 9
 9
 9
 9
 9
 9
 9
 9
 9
 9
 9
 9
 9
 9
 9
 9
 9
 9
 9
 9
 9
 9
 9
 9
 9
 9
 9
 9
 9
 9
 9
 9
 9
 9
 9
 9
 9
 9
 9
 9
 9
 9
 9
 9
 9
 9
 9
 9
 9
 9
 9
 9
 9
 9
 9
 9
 9
 9
 9
 9
 9
 9
 9
 9
 9
 9
 9
 9
 9
 9
 9
 9
 9
 9
 9
 9
 9
 9
 9
 9
 9
 9
 9
 9
 9
 9
 9
 9
 9
 9
 9
 9
 9
 9
 9
 9
 9
 9
 9
 9
 9
 9
 9
 9
 9
 9
 9
 9
 9
 9
 9
 9
 9
 9
 9
 9
 9
 9
 9
 9
 9
 9
 9
 9
 9
 9
 9
 9
 9
 9
 9
 9
 9
 9
 9
 9
 9
 9
 9
 9
 9
 9
 9
 9
 9
 9
 9
 9
 9
 9
 9
 9
 9
 9
 9
 9
 9
 9
 9
 9
 9
 9
 9
 9
 9
 9
 9
 9
 9
 9
 9
 9
 9
 9
 9
 9
 9
 9
 9
 9
 9
 9
 9
 9
 9
 9
 9
 9
 9
 9
 9
 9
 9
 9
 9
 9
 9
 9
 9
 9
 9
 9
 9
 9
 9
 9
 9
 9
 9
 9
 9
 9
 9
 9
 9
 9
 9
 9
 9
 9
 9
 9
 9
 9
 9
 9
 9
 9
 9
 9
 9
 9
 9
 9
 9
 9
 9
 9
 9
 9
 9
 9
 9
 9
 9
 9
 9
 9
 9
 9
 9
 9
 9
 9
 9
 9
 9
 9
 9
 9
 9
 9
 9
 9
 9
 9
 9
 9
 9
 9
 9
 9
 9
 9
 9
 9
 9
 9
 9
 9
 9
 9
 9
 9
 9
 9
 9
 9
 9
 9
 9
 9
 9
 9
 9
 9
 9
 9
 9
 9
 9
 9
 9
 9
 9
 9
 9
 9
 9
 9
 9
 9
 9
 9
 9
 9
 9
 9
 9
 9
 9
 9
 9
 9
 9
 9
 9
 9
 9
 9
 9
 9
 9
 9
 9
 9
 9
 9
 9
 9
 9
 9
 9
 9
 9
 9
 9
 9
 9
 9
 9
 9
 9
 9
 9
 9
 9
 9
 9
 9
 9
 9
 9
 9
 9
 9
 9
 9
 9
 9
 9
 9
 9
 9
 9
 9
 9
 9
 9
 9
 9
 9
 9
 9
 </DataArray>
 </Cells> 
 <PointData>
 <DataArray  type="Float64" Name="disp" NumberOfComponents="3" format="ascii">
   8.0763627329397070E-002   4.8822343944571953E-002   0.0000000000000000     
   8.0870010144710819E-002   5.8155063311988837E-002   0.0000000000000000     
   8.1377453944333447E-002   6.6837005991989482E-002   0.0000000000000000     
   8.2285958728264968E-002   7.4868171984573864E-002   0.0000000000000000     
   8.3595524496505369E-002   8.2248561289742034E-002   0.0000000000000000     
   6.9960398790340814E-002   4.9648546355303469E-002   0.0000000000000000     
   7.0868737275846722E-002   5.8390882752662812E-002   0.0000000000000000     
   7.2070970373629362E-002   6.6644796173450302E-002   0.0000000000000000     
   7.3567098083688748E-002   7.4410286617665938E-002   0.0000000000000000     
   7.5357120406024894E-002   8.1687354085309735E-002   0.0000000000000000     
   6.0789405528657893E-002   5.0749900149039490E-002   0.0000000000000000     
   6.2187413778383563E-002   5.8850112307722836E-002   0.0000000000000000     
   6.3813618975373257E-002   6.6630227287779537E-002   0.0000000000000000     
   6.5668021119626996E-002   7.4090245089209611E-002   0.0000000000000000     
   6.7750620211144780E-002   8.1230165712013067E-002   0.0000000000000000     
   5.3250647544348315E-002   5.2126405325780022E-002   0.0000000000000000     
   5.4826039652321357E-002   5.9532751977168924E-002   0.0000000000000000     
   5.6605399749565168E-002   6.6793299334977227E-002   0.0000000000000000     
   5.8588727836079713E-002   7.3908047399204910E-002   0.0000000000000000     
   6.0776023911865019E-002   8.0876996169851972E-002   0.0000000000000000     
   4.7344124837412058E-002   5.3778061885525058E-002   0.0000000000000000     
   4.8784614897660117E-002   6.0438801761001068E-002   0.0000000000000000     
   5.0446312696205059E-002   6.7134012315043304E-002   0.0000000000000000     
   5.2329218233046898E-002   7.3863693547651765E-002   0.0000000000000000     
   5.4433331508185620E-002   8.0627845458826466E-002   0.0000000000000000     
   8.3595524496505369E-002   8.2248561289742034E-002   0.0000000000000000     
   8.5158729683059722E-002   8.9283109502313718E-002   0.0000000000000000     
   8.6828152721933102E-002   9.6276752217108755E-002   0.0000000000000000     
   8.8603793613125523E-002  0.10322948943412712        0.0000000000000000     
   9.0485652356636956E-002  0.11014132115336880        0.0000000000000000     
   7.5357120406024894E-002   8.1687354085309735E-002   0.0000000000000000     
   7.7293550054255103E-002   8.8703187470354106E-002   0.0000000000000000     
   7.9228899741996664E-002   9.5684975666771449E-002   0.0000000000000000     
   8.1163169469249591E-002  0.10263271867456178        0.0000000000000000     
   8.3096359236013898E-002  0.10954641649372508        0.0000000000000000     
   6.7750620211144780E-002   8.1230165712013067E-002   0.0000000000000000     
   6.9911595582258027E-002   8.8200535385794809E-002   0.0000000000000000     
   7.2001126565298224E-002   9.5151900340159801E-002   0.0000000000000000     
   7.4019213160265329E-002  0.10208426057510808        0.0000000000000000     
   7.5965855367159357E-002  0.10899761609063963        0.0000000000000000     
   6.0776023911865019E-002   8.0876996169851972E-002   0.0000000000000000     
   6.3012866267068549E-002   8.7775153248635815E-002   0.0000000000000000     
   6.5144833191837781E-002   9.4677526237273837E-002   0.0000000000000000     
   6.7171924686172710E-002  0.10158411513576605        0.0000000000000000     
   6.9094140750073321E-002  0.10849491994411244        0.0000000000000000     
   5.4433331508185620E-002   8.0627845458826466E-002   0.0000000000000000     
   5.6597362108686648E-002   8.7427041058877136E-002   0.0000000000000000     
   5.8660019621615350E-002   9.4261853358113531E-002   0.0000000000000000     
   6.0621304046971740E-002  0.10113228235653567        0.0000000000000000     
   6.2481215384755831E-002  0.10803832805414353        0.0000000000000000     
   9.0485652356636956E-002  0.11014132115336880        0.0000000000000000     
   9.2407754488084581E-002  0.11709329770590259        0.0000000000000000     
   9.4304125543085510E-002  0.12416646942279717        0.0000000000000000     
   9.6174765521639768E-002  0.13136083630405257        0.0000000000000000     
   9.8019674423747358E-002  0.13867639834966880        0.0000000000000000     
   8.3096359236013898E-002  0.10954641649372508        0.0000000000000000     
   8.5007320006538767E-002  0.11650568430169320        0.0000000000000000     
   8.6874902745073410E-002  0.12359013727589793        0.0000000000000000     
   8.8699107451617826E-002  0.13079977541633930        0.0000000000000000     
   9.0479934126172029E-002  0.13813459872301728        0.0000000000000000     
   7.5965855367159357E-002  0.10899761609063963        0.0000000000000000     
   7.7848329483632905E-002  0.11596532603454072        0.0000000000000000     
   7.9673911807338613E-002  0.12306074955459771        0.0000000000000000     
   8.1442602338276451E-002  0.13028388665081056        0.0000000000000000     
   8.3154401076446408E-002  0.13763473732317932        0.0000000000000000     
   6.9094140750073321E-002  0.10849491994411244        0.0000000000000000     
   7.0930782919367011E-002  0.11547222290444518        0.0000000000000000     
   7.2701152729881105E-002  0.12257830625889654        0.0000000000000000     
   7.4405250181615590E-002  0.12981317000746642        0.0000000000000000     
   7.6043075274570479E-002  0.13717681415015495        0.0000000000000000     
   6.2481215384755831E-002  0.10803832805414353        0.0000000000000000     
   6.4254680313741042E-002  0.11502637491140660        0.0000000000000000     
   6.5956625512700859E-002  0.12214280738879439        0.0000000000000000     
   6.7587050981635269E-002  0.12938762548630689        0.0000000000000000     
   6.9145956720544272E-002  0.13676082920394411        0.0000000000000000     
   9.8019674423747358E-002  0.13867639834966880        0.0000000000000000     
   9.9801311464535955E-002  0.14610571708596773        0.0000000000000000     
  0.10148213585913327       0.15364135403927121        0.0000000000000000     
  0.10306214760753928       0.16128330920957928        0.0000000000000000     
  0.10454134670975399       0.16903158259689194        0.0000000000000000     
   9.0479934126172029E-002  0.13813459872301728        0.0000000000000000     
   9.2193024629549342E-002  0.14558623931279369        0.0000000000000000     
   9.3814020822563085E-002  0.15314632930253033        0.0000000000000000     
   9.5342922705213287E-002  0.16081486869222714        0.0000000000000000     
   9.6779730277499920E-002  0.16859185748188421        0.0000000000000000     
   8.3154401076446408E-002  0.13763473732317932        0.0000000000000000     
   8.4794893561471713E-002  0.14510472581009379        0.0000000000000000     
   8.6349665332975528E-002  0.15268527634994378        0.0000000000000000     
   8.7818716390957882E-002  0.16037638894272932        0.0000000000000000     
   8.9202046735418747E-002  0.16817806358845042        0.0000000000000000     
   7.6043075274570479E-002  0.13717681415015495        0.0000000000000000     
   7.7606918260303068E-002  0.14466117657786795        0.0000000000000000     
   7.9089069390370581E-002  0.15225819518151160        0.0000000000000000     
   8.0489528664773033E-002  0.15996786996108581        0.0000000000000000     
   8.1808296083510423E-002  0.16779020091659058        0.0000000000000000     
   6.9145956720544272E-002  0.13676082920394411        0.0000000000000000     
   7.0629098726043393E-002  0.14425559161611631        0.0000000000000000     
   7.2032232994748230E-002  0.15186508579723382        0.0000000000000000     
   7.3355359526658753E-002  0.15958931174729662        0.0000000000000000     
   7.4598478321774978E-002  0.16742826946630468        0.0000000000000000     
  0.10454134670975399       0.16903158259689194        0.0000000000000000     
  0.10593788310245315       0.17686355785682717        0.0000000000000000     
  0.10726990672231261       0.18475661864500306        0.0000000000000000     
  0.10853741756933229       0.19271076496141959        0.0000000000000000     
  0.10974041564351225       0.20072599680607678        0.0000000000000000     
   9.6779730277499920E-002  0.16859185748188421        0.0000000000000000     
   9.8133414570248059E-002  0.17645260976305940        0.0000000000000000     
   9.9412946614282752E-002  0.18437243962731059        0.0000000000000000     
  0.10061832640960401       0.19235134707463783        0.0000000000000000     
  0.10174955395621180       0.20038933210504112        0.0000000000000000     
   8.9202046735418747E-002  0.16817806358845042        0.0000000000000000     
   9.0502356926717487E-002  0.17606419735762061        0.0000000000000000     
   9.1722347525213521E-002  0.18400868732075343        0.0000000000000000     
   9.2862018530906781E-002  0.19201153347784891        0.0000000000000000     
   9.3921369943797336E-002  0.20007273582890700        0.0000000000000000     
   8.1808296083510423E-002  0.16779020091659058        0.0000000000000000     
   8.3044710171861449E-002  0.17569832064051089        0.0000000000000000     
   8.4198109455104878E-002  0.18366536172533160        0.0000000000000000     
   8.5268493933240624E-002  0.19169132417105283        0.0000000000000000     
   8.6255863606268787E-002  0.19977620797767451        0.0000000000000000     
   7.4598478321774978E-002  0.16742826946630468        0.0000000000000000     
   7.5760474305679962E-002  0.17535497961173016        0.0000000000000000     
   7.6840232403956821E-002  0.18334246284104513        0.0000000000000000     
   7.7837752616605568E-002  0.19139071915424954        0.0000000000000000     
   7.8753034943626191E-002  0.19949974855134353        0.0000000000000000     
  0.10974041564351225       0.20072599680607678        0.0000000000000000     
  0.11088047045545457       0.20881153916259648        0.0000000000000000     
  0.11195915151576137       0.21697661701460061        0.0000000000000000     
  0.11297645882443262       0.22522123036208913        0.0000000000000000     
  0.11393239238146838       0.23354537920506208        0.0000000000000000     
  0.10174955395621180       0.20038933210504112        0.0000000000000000     
  0.10281239790012918       0.20849507405532777        0.0000000000000000     
  0.10381262688737906       0.21667725226230516        0.0000000000000000     
  0.10475024091796149       0.22493586672597335        0.0000000000000000     
  0.10562523999187648       0.23327091744633222        0.0000000000000000     
   9.3921369943797336E-002  0.20007273582890700        0.0000000000000000     
   9.4908088549934017E-002  0.20820036228483196        0.0000000000000000     
   9.5829861135365735E-002  0.21640248075652790        0.0000000000000000     
   9.6686687700092519E-002  0.22467909124399488        0.0000000000000000     
   9.7478568244114314E-002  0.23303019374723288        0.0000000000000000     
   8.6255863606268787E-002  0.19977620797767451        0.0000000000000000     
   8.7167542404869083E-002  0.20792740385110897        0.0000000000000000     
   8.8010854259721383E-002  0.21615230249726877        0.0000000000000000     
   8.8785799170825644E-002  0.22445090391615374        0.0000000000000000     
   8.9492377138181894E-002  0.23282320810776400        0.0000000000000000     
   7.8753034943626191E-002  0.19949974855134353        0.0000000000000000     
   7.9590759464934407E-002  0.20767619875415896        0.0000000000000000     
   8.0355606260445994E-002  0.21592671748452777        0.0000000000000000     
   8.1047575330160937E-002  0.22425130474245000        0.0000000000000000     
   8.1666666674079236E-002  0.23264996052792558        0.0000000000000000     
  0.11393239238146838       0.23354537920506208        0.0000000000000000     
  0.11484999981832686       0.24196702615949633        0.0000000000000000     
  0.11575232876646632       0.25050413384136871        0.0000000000000000     
  0.11663937922588677       0.25915670225067933        0.0000000000000000     
  0.11751115119658820       0.26792473138742806        0.0000000000000000     
  0.10562523999187648       0.23327091744633222        0.0000000000000000     
  0.10643897387290971       0.24170678492353628        0.0000000000000000     
  0.10719279232484685       0.25026784965773985        0.0000000000000000     
  0.10788669534768801       0.25895411164894294        0.0000000000000000     
  0.10852068294143311       0.26776557089714564        0.0000000000000000     
   9.7478568244114314E-002  0.23303019374723288        0.0000000000000000     
   9.8193992247982004E-002  0.24148290742614753        0.0000000000000000     
   9.8821449192246433E-002  0.25006435144064454        0.0000000000000000     
   9.9360939076907573E-002  0.25877452579072391        0.0000000000000000     
   9.9812461901965466E-002  0.26761343047638553        0.0000000000000000     
   8.9492377138181894E-002  0.23282320810776400        0.0000000000000000     
   9.0115054943543785E-002  0.24129539366733013        0.0000000000000000     
   9.0638299368664979E-002  0.24989363919008276        0.0000000000000000     
   9.1062110413545477E-002  0.25861794467602206        0.0000000000000000     
   9.1386488078185280E-002  0.26746831012514777        0.0000000000000000     
   8.1666666674079236E-002  0.23264996052792558        0.0000000000000000     
   8.2202161959595066E-002  0.24114424364708403        0.0000000000000000     
   8.2643342854102547E-002  0.24975571290605461        0.0000000000000000     
   8.2990209357601735E-002  0.25848436830483740        0.0000000000000000     
   8.3242761470092574E-002  0.26733020984343236        0.0000000000000000     
  0.11751115119658820       0.26792473138742806        0.0000000000000000     
  0.11830688224191660       0.27697362983165591        0.0000000000000000     
  0.11896580992521795       0.28646880616340370        0.0000000000000000     
  0.11948793424649221       0.29641026038267154        0.0000000000000000     
  0.11987325520573942       0.30679799248945933        0.0000000000000000     
  0.10852068294143311       0.26776557089714564        0.0000000000000000     
  0.10907488055296476       0.27683537410978959        0.0000000000000000     
  0.10952941362916555       0.28629666799431641        0.0000000000000000     
  0.10988428217003551       0.29614945255072606        0.0000000000000000     
  0.11013948617557463       0.30639372777901874        0.0000000000000000     
   9.9812461901965466E-002  0.26761343047638553        0.0000000000000000     
  0.10018641908788700       0.27668051944104533        0.0000000000000000     
  0.10049321205513914       0.28607524662811901        0.0000000000000000     
  0.10073284080372194       0.29579761203760646        0.0000000000000000     
  0.10090530533363533       0.30584761566950797        0.0000000000000000     
   9.1386488078185280E-002  0.26746831012514777        0.0000000000000000     
   9.1641497846683392E-002  0.27650906582542339        0.0000000000000000     
   9.1857205203138795E-002  0.28580454206481165        0.0000000000000000     
   9.2033610147551501E-002  0.29535473884331287        0.0000000000000000     
   9.2170712679921510E-002  0.30515965616092694        0.0000000000000000     
   8.3242761470092574E-002  0.26733020984343236        0.0000000000000000     
   8.3440116829353886E-002  0.27632101326292341        0.0000000000000000     
   8.3621393073164407E-002  0.28548455430439434        0.0000000000000000     
   8.3786590201524194E-002  0.29482083296784506        0.0000000000000000     
   8.3935708214433219E-002  0.30432984925327577        0.0000000000000000     
   4.7344124837412058E-002   5.3778061885525058E-002   0.0000000000000000     
   4.8784614897660117E-002   6.0438801761001068E-002   0.0000000000000000     
   5.0446312696205059E-002   6.7134012315043304E-002   0.0000000000000000     
   5.2329218233046898E-002   7.3863693547651765E-002   0.0000000000000000     
   5.4433331508185620E-002   8.0627845458826466E-002   0.0000000000000000     
   4.2378684817016017E-002   5.5448290196696684E-002   0.0000000000000000     
   4.3557505242623952E-002   6.1413634290962610E-002   0.0000000000000000     
   4.4985265368207260E-002   6.7574173061643539E-002   0.0000000000000000     
   4.6661965193765954E-002   7.3929906508739443E-002   0.0000000000000000     
   4.8587604719300022E-002   8.0480834632250309E-002   0.0000000000000000     
   3.7663174892327053E-002   5.6880510627716978E-002   0.0000000000000000     
   3.8639076415437019E-002   6.2302622198796898E-002   0.0000000000000000     
   3.9871165318486106E-002   6.8035588408443592E-002   0.0000000000000000     
   4.1359441601474312E-002   7.4079409256657042E-002   0.0000000000000000     
   4.3103905264401624E-002   8.0434084743437245E-002   0.0000000000000000     
   3.3197595063345180E-002   5.8074723178585939E-002   0.0000000000000000     
   3.4029328416099305E-002   6.3105765484503945E-002   0.0000000000000000     
   3.5104012547041569E-002   6.8518258355443507E-002   0.0000000000000000     
   3.6421647456171963E-002   7.4312201791404603E-002   0.0000000000000000     
   3.7982233143490467E-002   8.0487595792387276E-002   0.0000000000000000     
   2.8981945330070379E-002   5.9030927849303569E-002   0.0000000000000000     
   2.9728261244610830E-002   6.3823064148083711E-002   0.0000000000000000     
   3.0683807053873670E-002   6.9022182902643239E-002   0.0000000000000000     
   3.1848582757858901E-002   7.4628284112982141E-002   0.0000000000000000     
   3.3222588356566524E-002   8.0641367779100401E-002   0.0000000000000000     
   5.4433331508185620E-002   8.0627845458826466E-002   0.0000000000000000     
   5.6597362108686648E-002   8.7427041058877136E-002   0.0000000000000000     
   5.8660019621615350E-002   9.4261853358113531E-002   0.0000000000000000     
   6.0621304046971740E-002  0.10113228235653567        0.0000000000000000     
   6.2481215384755831E-002  0.10803832805414353        0.0000000000000000     
   4.8587604719300022E-002   8.0480834632250309E-002   0.0000000000000000     
   5.0597326709641559E-002   8.7164542235960166E-002   0.0000000000000000     
   5.2526273929622676E-002   9.3918614123653030E-002   0.0000000000000000     
   5.4374446379243380E-002  0.10074305029532887        0.0000000000000000     
   5.6141844058503636E-002  0.10763785075098768        0.0000000000000000     
   4.3103905264401624E-002   8.0434084743437245E-002   0.0000000000000000     
   4.4945003672462541E-002   8.6996000199326351E-002   0.0000000000000000     
   4.6723184190851502E-002   9.3661540954866437E-002   0.0000000000000000     
   4.8438446819568506E-002  0.10043070701005759        0.0000000000000000     
   5.0090791558613547E-002  0.10730349836489972        0.0000000000000000     
   3.7982233143490467E-002   8.0487595792387276E-002   0.0000000000000000     
   3.9640392997149596E-002   8.6921414948975637E-002   0.0000000000000000     
   4.1250750405301823E-002   9.3490633851753824E-002   0.0000000000000000     
   4.2813305367947148E-002  0.10019525250072181        0.0000000000000000     
   4.4328057885085578E-002  0.10703527089587964        0.0000000000000000     
   3.3222588356566524E-002   8.0641367779100401E-002   0.0000000000000000     
   3.4683494683702708E-002   8.6940786484908036E-002   0.0000000000000000     
   3.6108972572973630E-002   9.3405892814315092E-002   0.0000000000000000     
   3.7499022024379304E-002  0.10003668676732154        0.0000000000000000     
   3.8853643037919716E-002  0.10683316834392742        0.0000000000000000     
   6.2481215384755831E-002  0.10803832805414353        0.0000000000000000     
   6.4254680313741042E-002  0.11502637491140660        0.0000000000000000     
   6.5956625512700859E-002  0.12214280738879439        0.0000000000000000     
   6.7587050981635269E-002  0.12938762548630689        0.0000000000000000     
   6.9145956720544272E-002  0.13676082920394411        0.0000000000000000     
   5.6141844058503636E-002  0.10763785075098768        0.0000000000000000     
   5.7832291167679843E-002  0.11463212035660186        0.0000000000000000     
   5.9449611907048366E-002  0.12175496397814378        0.0000000000000000     
   6.0993806276609219E-002  0.12900638161561345        0.0000000000000000     
   6.2464874276362374E-002  0.13638637326901085        0.0000000000000000     
   5.0090791558613547E-002  0.10730349836489972        0.0000000000000000     
   5.1675884982108233E-002  0.11429379754120791        0.0000000000000000     
   5.3189393664174099E-002  0.12141548706079723        0.0000000000000000     
   5.4631317604811179E-002  0.12866856692366763        0.0000000000000000     
   5.6001656804019459E-002  0.13605303712981920        0.0000000000000000     
   4.4328057885085578E-002  0.10703527089587964        0.0000000000000000     
   4.5785461757026184E-002  0.11401140646522477        0.0000000000000000     
   4.7175970784078036E-002  0.12112437663675474        0.0000000000000000     
   4.8499584966241141E-002  0.12837418141046950        0.0000000000000000     
   4.9756304303515506E-002  0.13576082078636909        0.0000000000000000     
   3.8853643037919716E-002  0.10683316834392742        0.0000000000000000     
   4.0161021492433731E-002  0.11378494712865241        0.0000000000000000     
   4.1409343266760205E-002  0.12088163270601626        0.0000000000000000     
   4.2598608360899133E-002  0.12812322507601900        0.0000000000000000     
   4.3728816774850521E-002  0.13550972423866059        0.0000000000000000     
   6.9145956720544272E-002  0.13676082920394411        0.0000000000000000     
   7.0629098726043393E-002  0.14425559161611631        0.0000000000000000     
   7.2032232994748230E-002  0.15186508579723382        0.0000000000000000     
   7.3355359526658753E-002  0.15958931174729662        0.0000000000000000     
   7.4598478321774978E-002  0.16742826946630468        0.0000000000000000     
   6.2464874276362374E-002  0.13638637326901085        0.0000000000000000     
   6.3860032452222826E-002  0.14388891535152845        0.0000000000000000     
   6.5176497350105542E-002  0.15150798427635873        0.0000000000000000     
   6.6414268970010515E-002  0.15924358004350164        0.0000000000000000     
   6.7573347311937787E-002  0.16709570265295723        0.0000000000000000     
   5.6001656804019459E-002  0.13605303712981920        0.0000000000000000     
   5.7298316932371411E-002  0.14356209221079408        0.0000000000000000     
   5.8519203660439528E-002  0.15118892669813466        0.0000000000000000     
   5.9664316988223796E-002  0.15893354059184087        0.0000000000000000     
   6.0733656915724230E-002  0.16679593389191275        0.0000000000000000     
   4.9756304303515506E-002  0.13576082078636909        0.0000000000000000     
   5.0943952166489156E-002  0.14327512219391322        0.0000000000000000     
   5.2060351925750190E-002  0.15090791306256163        0.0000000000000000     
   5.3105503581298563E-002  0.15865919339231430        0.0000000000000000     
   5.4079407133134305E-002  0.16652896318317126        0.0000000000000000     
   4.3728816774850521E-002  0.13550972423866059        0.0000000000000000     
   4.4796938154576069E-002  0.14302800530088583        0.0000000000000000     
   4.5799942146037526E-002  0.15066494336963962        0.0000000000000000     
   4.6737828749234836E-002  0.15842053844492193        0.0000000000000000     
   4.7610597964168042E-002  0.16629479052673274        0.0000000000000000     
   7.4598478321774978E-002  0.16742826946630468        0.0000000000000000     
   7.5760474305679962E-002  0.17535497961173016        0.0000000000000000     
   7.6840232403956821E-002  0.18334246284104513        0.0000000000000000     
   7.7837752616605568E-002  0.19139071915424954        0.0000000000000000     
   7.8753034943626191E-002  0.19949974855134353        0.0000000000000000     
   6.7573347311937787E-002  0.16709570265295723        0.0000000000000000     
   6.8653451273209362E-002  0.17503786036473715        0.0000000000000000     
   6.9654299751147342E-002  0.18304356143885311        0.0000000000000000     
   7.0575892745751725E-002  0.19111280587530508        0.0000000000000000     
   7.1418230257022486E-002  0.19924559367409309        0.0000000000000000     
   6.0733656915724230E-002  0.16679593389191275        0.0000000000000000     
   6.1727443019486010E-002  0.17475064899299059        0.0000000000000000     
   6.2645894876054334E-002  0.18277222828971479        0.0000000000000000     
   6.3489012485429236E-002  0.19086067178208527        0.0000000000000000     
   6.4256795847610682E-002  0.19901597947010208        0.0000000000000000     
   5.4079407133134305E-002  0.16652896318317126        0.0000000000000000     
   5.4982449544509905E-002  0.17449334549649054        0.0000000000000000     
   5.5815017778677853E-002  0.18252846339363013        0.0000000000000000     
   5.6577111835638134E-002  0.19063431687459012        0.0000000000000000     
   5.7268731715390757E-002  0.19881090593937048        0.0000000000000000     
   4.7610597964168042E-002  0.16629479052673274        0.0000000000000000     
   4.8418470848281062E-002  0.17426594987523686        0.0000000000000000     
   4.9161668459017843E-002  0.18231226675059919        0.0000000000000000     
   4.9840190796378393E-002  0.19043374115281966        0.0000000000000000     
   5.0454037860362719E-002  0.19863037308189835        0.0000000000000000     
   7.8753034943626191E-002  0.19949974855134353        0.0000000000000000     
   7.9590759464934407E-002  0.20767619875415896        0.0000000000000000     
   8.0355606260445994E-002  0.21592671748452777        0.0000000000000000     
   8.1047575330160937E-002  0.22425130474245000        0.0000000000000000     
   8.1666666674079236E-002  0.23264996052792558        0.0000000000000000     
   7.1418230257022486E-002  0.19924559367409309        0.0000000000000000     
   7.2182778498899480E-002  0.20744739502125342        0.0000000000000000     
   7.2871003685322469E-002  0.21572368010282231        0.0000000000000000     
   7.3482905816291522E-002  0.22407444891879974        0.0000000000000000     
   7.4018484891806541E-002  0.23249970146918578        0.0000000000000000     
   6.4256795847610682E-002  0.19901597947010208        0.0000000000000000     
   6.4948638275533821E-002  0.20724164067966397        0.0000000000000000     
   6.5563933082133763E-002  0.21554114473666969        0.0000000000000000     
   6.6102680267410494E-002  0.22391449164111923        0.0000000000000000     
   6.6564879831364054E-002  0.23236168139301261        0.0000000000000000     
   5.7268731715390757E-002  0.19881090593937048        0.0000000000000000     
   5.7888338794837430E-002  0.20705893572939058        0.0000000000000000     
   5.8434394450879806E-002  0.21537911138606994        0.0000000000000000     
   5.8906898683517915E-002  0.22377143290940843        0.0000000000000000     
   5.9305851492751756E-002  0.23223590029940611        0.0000000000000000     
   5.0454037860362719E-002  0.19863037308189835        0.0000000000000000     
   5.1001880056810292E-002  0.20689928017043341        0.0000000000000000     
   5.1482387791560641E-002  0.21523758005102306        0.0000000000000000     
   5.1895561064613759E-002  0.22364527272366735        0.0000000000000000     
   5.2241399875969652E-002  0.23212235818836630        0.0000000000000000     
   8.1666666674079236E-002  0.23264996052792558        0.0000000000000000     
   8.2202161959595066E-002  0.24114424364708403        0.0000000000000000     
   8.2643342854102547E-002  0.24975571290605461        0.0000000000000000     
   8.2990209357601735E-002  0.25848436830483740        0.0000000000000000     
   8.3242761470092574E-002  0.26733020984343236        0.0000000000000000     
   7.4018484891806541E-002  0.23249970146918578        0.0000000000000000     
   7.4475216708067185E-002  0.24101432611555526        0.0000000000000000     
   7.4850577061272960E-002  0.24963321121948304        0.0000000000000000     
   7.5144565951423908E-002  0.25835635678096902        0.0000000000000000     
   7.5357183378520015E-002  0.26718376280001327        0.0000000000000000     
   6.6564879831364054E-002  0.23236168139301261        0.0000000000000000     
   6.6954122600891536E-002  0.24089050982288984        0.0000000000000000     
   6.7273999402890070E-002  0.24950877276129088        0.0000000000000000     
   6.7524510237359656E-002  0.25821647020821581        0.0000000000000000     
   6.7705655104300294E-002  0.26701360216366460        0.0000000000000000     
   5.9305851492751756E-002  0.23223590029940611        0.0000000000000000     
   5.9638879638068132E-002  0.24077279476908786        0.0000000000000000     
   5.9913609878953868E-002  0.24938239753147845        0.0000000000000000     
   6.0130042215408956E-002  0.25806470858657787        0.0000000000000000     
   6.0288176647433397E-002  0.26681972793438630        0.0000000000000000     
   5.2241399875969652E-002  0.23212235818836630        0.0000000000000000     
   5.2529487819596973E-002  0.24066118095414921        0.0000000000000000     
   5.2769408489464348E-002  0.24925408553004549        0.0000000000000000     
   5.2961161885571810E-002  0.25790107191605521        0.0000000000000000     
   5.3104748007919339E-002  0.26660214011217831        0.0000000000000000     
   8.3242761470092574E-002  0.26733020984343236        0.0000000000000000     
   8.3440116829353886E-002  0.27632101326292341        0.0000000000000000     
   8.3621393073164407E-002  0.28548455430439434        0.0000000000000000     
   8.3786590201524194E-002  0.29482083296784506        0.0000000000000000     
   8.3935708214433219E-002  0.30432984925327577        0.0000000000000000     
   7.5357183378520015E-002  0.26718376280001327        0.0000000000000000     
   7.5529927233062108E-002  0.27611050979515606        0.0000000000000000     
   7.5704295405551042E-002  0.28513167828493730        0.0000000000000000     
   7.5880287895986845E-002  0.29424726826935726        0.0000000000000000     
   7.6057904704369461E-002  0.30345727974841580        0.0000000000000000     
   6.7705655104300294E-002  0.26701360216366460        0.0000000000000000     
   6.7858580254971712E-002  0.27587170346373152        0.0000000000000000     
   6.8024431940633706E-002  0.28476230894451121        0.0000000000000000     
   6.8203210161286235E-002  0.29368541860600350        0.0000000000000000     
   6.8394914916929325E-002  0.30264103244820845        0.0000000000000000     
   6.0288176647433397E-002  0.26681972793438630        0.0000000000000000     
   6.0426075895082698E-002  0.27560459426865003        0.0000000000000000     
   6.0581802678412379E-002  0.28437644628311592        0.0000000000000000     
   6.0755356997422405E-002  0.29313528397778377        0.0000000000000000     
   6.0946738852112811E-002  0.30188110735265378        0.0000000000000000     
   5.3104748007919339E-002  0.26660214011217831        0.0000000000000000     
   5.3232414153395052E-002  0.27530918220991146        0.0000000000000000     
   5.3376407618887053E-002  0.28397409030075144        0.0000000000000000     
   5.3536728404395342E-002  0.29259686438469817        0.0000000000000000     
   5.3713376509919919E-002  0.30117750446175173        0.0000000000000000     
   2.8981945330070379E-002   5.9030927849303569E-002   0.0000000000000000     
   2.9728261244610830E-002   6.3823064148083711E-002   0.0000000000000000     
   3.0683807053873670E-002   6.9022182902643239E-002   0.0000000000000000     
   3.1848582757858901E-002   7.4628284112982141E-002   0.0000000000000000     
   3.3222588356566524E-002   8.0641367779100401E-002   0.0000000000000000     
   2.4962494962880111E-002   5.9820268556292286E-002   0.0000000000000000     
   2.5645376942523931E-002   6.4457594098971449E-002   0.0000000000000000     
   2.6496960668436435E-002   6.9506030962441206E-002   0.0000000000000000     
   2.7517246140617613E-002   7.4965579146701572E-002   0.0000000000000000     
   2.8706233359067475E-002   8.0836238651752518E-002   0.0000000000000000     
   2.1085513232151812E-002   6.0513889215974531E-002   0.0000000000000000     
   2.1690177551390976E-002   6.5012431246602359E-002   0.0000000000000000     
   2.2429885220183892E-002   6.9928471447235824E-002   0.0000000000000000     
   2.3304636238530567E-002   7.5262009817874898E-002   0.0000000000000000     
   2.4314430606430990E-002   8.1013046358519566E-002   0.0000000000000000     
   1.7351000137885493E-002   6.1111789828350284E-002   0.0000000000000000     
   1.7862663071211954E-002   6.5487575590976441E-002   0.0000000000000000     
   1.8482580709116042E-002   7.0289504357027049E-002   0.0000000000000000     
   1.9210753051597744E-002   7.5517576126502076E-002   0.0000000000000000     
   2.0047180098657077E-002   8.1171790899401533E-002   0.0000000000000000     
   1.3758955680081144E-002   6.1613970393419565E-002   0.0000000000000000     
   1.4162833501986870E-002   6.5883027132093708E-002   0.0000000000000000     
   1.4655047135232878E-002   7.0589129691814884E-002   0.0000000000000000     
   1.5235596579819167E-002   7.5732278072583134E-002   0.0000000000000000     
   1.5904481835745738E-002   8.1312472274398417E-002   0.0000000000000000     
   3.3222588356566524E-002   8.0641367779100401E-002   0.0000000000000000     
   3.4683494683702708E-002   8.6940786484908036E-002   0.0000000000000000     
   3.6108972572973630E-002   9.3405892814315092E-002   0.0000000000000000     
   3.7499022024379304E-002  0.10003668676732154        0.0000000000000000     
   3.8853643037919716E-002  0.10683316834392742        0.0000000000000000     
   2.8706233359067475E-002   8.0836238651752518E-002   0.0000000000000000     
   2.9966740660723423E-002   8.7008706278859649E-002   0.0000000000000000     
   3.1201586382522885E-002   9.3373678829288528E-002   0.0000000000000000     
   3.2410770524465851E-002   9.9931156303039170E-002   0.0000000000000000     
   3.3594293086552339E-002  0.10668113870011157        0.0000000000000000     
   2.4314430606430990E-002   8.1013046358519566E-002   0.0000000000000000     
   2.5382562856813271E-002   8.7079765802566489E-002   0.0000000000000000     
   2.6432327522605503E-002   9.3360352883412309E-002   0.0000000000000000     
   2.7463724603807693E-002   9.9854807601057027E-002   0.0000000000000000     
   2.8476754100419818E-002  0.10656312995550064        0.0000000000000000     
   2.0047180098657077E-002   8.1171790899401533E-002   0.0000000000000000     
   2.0930961271972255E-002   8.7153965056028598E-002   0.0000000000000000     
   2.1801195993221494E-002   9.3365914976686490E-002   0.0000000000000000     
   2.2657884262404792E-002   9.9807640661375152E-002   0.0000000000000000     
   2.3501026079522151E-002  0.10647914211009460        0.0000000000000000     
   1.5904481835745738E-002   8.1312472274398417E-002   0.0000000000000000     
   1.6611935906200370E-002   8.7231304039245977E-002   0.0000000000000000     
   1.7308191794370847E-002   9.3390365109111001E-002   0.0000000000000000     
   1.7993249500257172E-002   9.9789655483993489E-002   0.0000000000000000     
   1.8667109023859339E-002  0.10642917516389346        0.0000000000000000     
   3.8853643037919716E-002  0.10683316834392742        0.0000000000000000     
   4.0161021492433731E-002  0.11378494712865241        0.0000000000000000     
   4.1409343266760205E-002  0.12088163270601626        0.0000000000000000     
   4.2598608360899133E-002  0.12812322507601900        0.0000000000000000     
   4.3728816774850521E-002  0.13550972423866059        0.0000000000000000     
   3.3594293086552339E-002  0.10668113870011157        0.0000000000000000     
   3.4740023381177793E-002  0.11360426791697235        0.0000000000000000     
   3.5835830720737677E-002  0.12068118585008816        0.0000000000000000     
   3.6881715105231992E-002  0.12791189249945897        0.0000000000000000     
   3.7877676534660752E-002  0.13529638786508474        0.0000000000000000     
   2.8476754100419818E-002  0.10656312995550064        0.0000000000000000     
   2.9459926616105313E-002  0.11345921721566619        0.0000000000000000     
   3.0401752754527576E-002  0.12051696665047670        0.0000000000000000     
   3.1302232515686618E-002  0.12773637825993220        0.0000000000000000     
   3.2161365899582434E-002  0.13511745204403267        0.0000000000000000     
   2.3501026079522151E-002  0.10647914211009460        0.0000000000000000     
   2.4320731197216287E-002  0.11334979502473386        0.0000000000000000     
   2.5107109368129901E-002  0.12038897510718191        0.0000000000000000     
   2.5860160592262999E-002  0.12759668235743873        0.0000000000000000     
   2.6579884869615582E-002  0.13497291677550438        0.0000000000000000     
   1.8667109023859339E-002  0.10642917516389346        0.0000000000000000     
   1.9322437124510712E-002  0.11327600134417537        0.0000000000000000     
   1.9951900561544646E-002  0.12029721122020375        0.0000000000000000     
   2.0555499334961137E-002  0.12749280479197855        0.0000000000000000     
   2.1133233444760188E-002  0.13486278205949981        0.0000000000000000     
   4.3728816774850521E-002  0.13550972423866059        0.0000000000000000     
   4.4796938154576069E-002  0.14302800530088583        0.0000000000000000     
   4.5799942146037526E-002  0.15066494336963962        0.0000000000000000     
   4.6737828749234836E-002  0.15842053844492193        0.0000000000000000     
   4.7610597964168042E-002  0.16629479052673274        0.0000000000000000     
   3.7877676534660752E-002  0.13529638786508474        0.0000000000000000     
   3.8819678864722158E-002  0.14281713461879392        0.0000000000000000     
   3.9703685951114447E-002  0.15045659543241488        0.0000000000000000     
   4.0529697793837624E-002  0.15821477030594761        0.0000000000000000     
   4.1297714392891677E-002  0.16609165923939209        0.0000000000000000     
   3.2161365899582434E-002  0.13511745204403267        0.0000000000000000     
   3.2974578265017408E-002  0.14263890323471934        0.0000000000000000     
   3.3737294970793905E-002  0.15027944706393351        0.0000000000000000     
   3.4449516016911930E-002  0.15803908353167515        0.0000000000000000     
   3.5111241403371497E-002  0.16591781263794420        0.0000000000000000     
   2.6579884869615582E-002  0.13497291677550438        0.0000000000000000     
   2.7261636355461822E-002  0.14249331114866218        0.0000000000000000     
   2.7900769205075886E-002  0.15013349826419556        0.0000000000000000     
   2.8497283418457781E-002  0.15789347812210455        0.0000000000000000     
   2.9051178995607496E-002  0.16577325072238910        0.0000000000000000     
   2.1133233444760188E-002  0.13486278205949981        0.0000000000000000     
   2.1680853136055410E-002  0.14238035836062235        0.0000000000000000     
   2.2194108653960397E-002  0.15001874903320103        0.0000000000000000     
   2.2672999998475156E-002  0.15777795407723583        0.0000000000000000     
   2.3117527169599684E-002  0.16565797349272673        0.0000000000000000     
   4.7610597964168042E-002  0.16629479052673274        0.0000000000000000     
   4.8418470848281062E-002  0.17426594987523686        0.0000000000000000     
   4.9161668459017843E-002  0.18231226675059919        0.0000000000000000     
   4.9840190796378393E-002  0.19043374115281966        0.0000000000000000     
   5.0454037860362719E-002  0.19863037308189835        0.0000000000000000     
   4.1297714392891677E-002  0.16609165923939209        0.0000000000000000     
   4.2007668053368349E-002  0.17406766733202655        0.0000000000000000     
   4.2659491080359387E-002  0.18212319968312921        0.0000000000000000     
   4.3253183473864774E-002  0.19025825629269996        0.0000000000000000     
   4.3788745233884527E-002  0.19847283716073888        0.0000000000000000     
   3.5111241403371497E-002  0.16591781263794420        0.0000000000000000     
   3.5722202282340652E-002  0.17389770306965643        0.0000000000000000     
   3.6282129805987488E-002  0.18196082351372728        0.0000000000000000     
   3.6791023974312005E-002  0.19010717397015700        0.0000000000000000     
   3.7248884787314189E-002  0.19833675443894544        0.0000000000000000     
   2.9051178995607496E-002  0.16577325072238910        0.0000000000000000     
   2.9562073535197984E-002  0.17375605708812639        0.0000000000000000     
   3.0029584635902183E-002  0.18182513824239366        0.0000000000000000     
   3.0453712297720086E-002  0.18998049418519086        0.0000000000000000     
   3.0834456520651702E-002  0.19822212491651797        0.0000000000000000     
   2.3117527169599684E-002  0.16565797349272673        0.0000000000000000     
   2.3527281811940325E-002  0.17364272938743658        0.0000000000000000     
   2.3901855570103436E-002  0.18171614386912815        0.0000000000000000     
   2.4241248444089016E-002  0.18987821693780146        0.0000000000000000     
   2.4545460433897062E-002  0.19812894859345648        0.0000000000000000     
   5.0454037860362719E-002  0.19863037308189835        0.0000000000000000     
   5.1001880056810292E-002  0.20689928017043341        0.0000000000000000     
   5.1482387791560641E-002  0.21523758005102306        0.0000000000000000     
   5.1895561064613759E-002  0.22364527272366735        0.0000000000000000     
   5.2241399875969652E-002  0.23212235818836630        0.0000000000000000     
   4.3788745233884527E-002  0.19847283716073888        0.0000000000000000     
   4.4265550549583470E-002  0.20676025872883855        0.0000000000000000     
   4.4682973610126422E-002  0.21511383743859155        0.0000000000000000     
   4.5041014415513399E-002  0.22353357328999787        0.0000000000000000     
   4.5339672965744399E-002  0.23201946628305753        0.0000000000000000     
   3.7248884787314189E-002  0.19833675443894544        0.0000000000000000     
   3.7655638761287982E-002  0.20663945613065249        0.0000000000000000     
   3.8011212412527320E-002  0.21500517025583799        0.0000000000000000     
   3.8315605741032197E-002  0.22343389681450193        0.0000000000000000     
   3.8568818746802624E-002  0.23192563580664433        0.0000000000000000     
   3.0834456520651702E-002  0.19822212491651797        0.0000000000000000     
   3.1172144691923850E-002  0.20653687237587506        0.0000000000000000     
   3.1467104198763335E-002  0.21491157850276224        0.0000000000000000     
   3.1719335041170166E-002  0.22334624329717945        0.0000000000000000     
   3.1928837219144343E-002  0.23184086675912671        0.0000000000000000     
   2.4545460433897062E-002  0.19812894859345648        0.0000000000000000     
   2.4815068341491053E-002  0.20645250746450641        0.0000000000000000     
   2.5050648968834462E-002  0.21483306217936440        0.0000000000000000     
   2.5252202315927300E-002  0.22327061273803048        0.0000000000000000     
   2.5419728382769555E-002  0.23176515914050458        0.0000000000000000     
   5.2241399875969652E-002  0.23212235818836630        0.0000000000000000     
   5.2529487819596973E-002  0.24066118095414921        0.0000000000000000     
   5.2769408489464348E-002  0.24925408553004549        0.0000000000000000     
   5.2961161885571810E-002  0.25790107191605521        0.0000000000000000     
   5.3104748007919339E-002  0.26660214011217831        0.0000000000000000     
   4.5339672965744399E-002  0.23201946628305753        0.0000000000000000     
   4.5589057799882503E-002  0.24055644021406689        0.0000000000000000     
   4.5799277456990820E-002  0.24912941887932230        0.0000000000000000     
   4.5970331937069342E-002  0.25773840227882377        0.0000000000000000     
   4.6102221240118091E-002  0.26638339041257131        0.0000000000000000     
   3.8568818746802624E-002  0.23192563580664433        0.0000000000000000     
   3.8780700233329211E-002  0.24045934438483377        0.0000000000000000     
   3.8961099004102565E-002  0.24901397970163880        0.0000000000000000     
   3.9110015059122698E-002  0.25758954175705950        0.0000000000000000     
   3.9227448398389597E-002  0.26618603055109569        0.0000000000000000     
   3.1928837219144343E-002  0.23184086675912671        0.0000000000000000     
   3.2104415119937071E-002  0.24036989346644996        0.0000000000000000     
   3.2254873130799583E-002  0.24890776799699518        0.0000000000000000     
   3.2380211251731843E-002  0.25745449035076240        0.0000000000000000     
   3.2480429482733893E-002  0.26601006052775156        0.0000000000000000     
   2.5419728382769555E-002  0.23176515914050458        0.0000000000000000     
   2.5560202459706121E-002  0.24028808745891536        0.0000000000000000     
   2.5680599837081871E-002  0.24881078376539131        0.0000000000000000     
   2.5780920514896812E-002  0.25733324805993252        0.0000000000000000     
   2.5861164493150943E-002  0.26585548034253886        0.0000000000000000     
   5.3104748007919339E-002  0.26660214011217831        0.0000000000000000     
   5.3232414153395052E-002  0.27530918220991146        0.0000000000000000     
   5.3376407618887053E-002  0.28397409030075144        0.0000000000000000     
   5.3536728404395342E-002  0.29259686438469817        0.0000000000000000     
   5.3713376509919919E-002  0.30117750446175173        0.0000000000000000     
   4.6102221240118091E-002  0.26638339041257131        0.0000000000000000     
   4.6220634106518672E-002  0.27501532019984454        0.0000000000000000     
   4.6351259276652755E-002  0.28358512855992313        0.0000000000000000     
   4.6494096750520325E-002  0.29209281549280719        0.0000000000000000     
   4.6649146528121396E-002  0.30053838099849656        0.0000000000000000     
   3.9227448398389597E-002  0.26618603055109569        0.0000000000000000     
   3.9333774831063470E-002  0.27475286115077785        0.0000000000000000     
   3.9449370166304482E-002  0.28323944862313644        0.0000000000000000     
   3.9574234404112646E-002  0.29164579296817134        0.0000000000000000     
   3.9708367544487956E-002  0.29997189418588249        0.0000000000000000     
   3.2480429482733893E-002  0.26601006052775156        0.0000000000000000     
   3.2571836327029431E-002  0.27452180506271157        0.0000000000000000     
   3.2670740287842240E-002  0.28293705049039114        0.0000000000000000     
   3.2777141365172298E-002  0.29125579681079056        0.0000000000000000     
   3.2891039559019626E-002  0.29947804402390948        0.0000000000000000     
   2.5861164493150943E-002  0.26585548034253886        0.0000000000000000     
   2.5934818594416573E-002  0.27432215193564552        0.0000000000000000     
   2.6015369641266030E-002  0.28267793416168757        0.0000000000000000     
   2.6102817633699295E-002  0.29092282702066491        0.0000000000000000     
   2.6197162571716386E-002  0.29905683051257770        0.0000000000000000     
   1.3758955680081144E-002   6.1613970393419565E-002   0.0000000000000000     
   1.4162833501986870E-002   6.5883027132093708E-002   0.0000000000000000     
   1.4655047135232878E-002   7.0589129691814884E-002   0.0000000000000000     
   1.5235596579819167E-002   7.5732278072583134E-002   0.0000000000000000     
   1.5904481835745738E-002   8.1312472274398417E-002   0.0000000000000000     
   1.0258413345396053E-002   6.2011500867158578E-002   0.0000000000000000     
   1.0550666072801610E-002   6.6194181629146406E-002   0.0000000000000000     
   1.0913370610312719E-002   7.0824436045690248E-002   0.0000000000000000     
   1.1346526957929377E-002   7.5902264116790075E-002   0.0000000000000000     
   1.1850135115651590E-002   8.1427665842445929E-002   0.0000000000000000     
   6.7984066204875059E-003   6.2295451205543542E-002   0.0000000000000000     
   6.9861380127420568E-003   6.6416434841326824E-002   0.0000000000000000     
   7.2236372461338648E-003   7.0992512012743952E-002   0.0000000000000000     
   7.5109043206629342E-003   7.6023682719794927E-002   0.0000000000000000     
   7.8479392363292634E-003   8.1509946962479762E-002   0.0000000000000000     
   3.3789355053555014E-003   6.2465821408574464E-002   0.0000000000000000     
   3.4692493218082088E-003   6.6549786768634947E-002   0.0000000000000000     
   3.5858470426963188E-003   7.1093357592976053E-002   0.0000000000000000     
   3.7287286680198354E-003   7.6096533881597692E-002   0.0000000000000000     
   3.8978941977787550E-003   8.1559315634499890E-002   0.0000000000000000     
   3.9031278209478160E-017   6.2522611476251322E-002   0.0000000000000000     
   6.6353172956112871E-017   6.6594237411070817E-002   0.0000000000000000     
   8.0989902284667181E-017   7.1126972786386466E-002   0.0000000000000000     
   8.1288057882100695E-017   7.6120817602198312E-002   0.0000000000000000     
   6.8304736866586779E-017   8.1575771858506327E-002   0.0000000000000000     
   1.5904481835745738E-002   8.1312472274398417E-002   0.0000000000000000     
   1.6611935906200370E-002   8.7231304039245977E-002   0.0000000000000000     
   1.7308191794370847E-002   9.3390365109111001E-002   0.0000000000000000     
   1.7993249500257172E-002   9.9789655483993489E-002   0.0000000000000000     
   1.8667109023859339E-002  0.10642917516389346        0.0000000000000000     
   1.1850135115651590E-002   8.1427665842445929E-002   0.0000000000000000     
   1.2384136969884864E-002   8.7300349281329029E-002   0.0000000000000000     
   1.2908474407034704E-002   9.3420022492110677E-002   0.0000000000000000     
   1.3423147427101113E-002   9.9786685474790845E-002   0.0000000000000000     
   1.3928156030084097E-002  0.10640033822936955        0.0000000000000000     
   7.8479392363292634E-003   8.1509946962479762E-002   0.0000000000000000     
   8.2062146734129728E-003   8.7349667311388268E-002   0.0000000000000000     
   8.5572033121941900E-003   9.3441206337110394E-002   0.0000000000000000     
   8.9009051526729097E-003   9.9784564039646029E-002   0.0000000000000000     
   9.2373201948491336E-003  0.10637974041899530        0.0000000000000000     
   3.8978941977787550E-003   8.1559315634499890E-002   0.0000000000000000     
   4.0781690167847042E-003   8.7379258129423681E-002   0.0000000000000000     
   4.2543785098493022E-003   9.3453916644110069E-002   0.0000000000000000     
   4.4265226769725505E-003   9.9783291178559053E-002   0.0000000000000000     
   4.5946015181544501E-003  0.10636738173277062        0.0000000000000000     
   6.8304736866586779E-017   8.1575771858506327E-002   0.0000000000000000     
   5.2041704279304213E-017   8.7389121735435241E-002   0.0000000000000000     
   4.3747557659790104E-017   9.3458153413109729E-002   0.0000000000000000     
   4.1402970461790201E-017   9.9782866891529876E-002   0.0000000000000000     
   4.6837533851373792E-017  0.10636326217069561        0.0000000000000000     
   1.8667109023859339E-002  0.10642917516389346        0.0000000000000000     
   1.9322437124510712E-002  0.11327600134417537        0.0000000000000000     
   1.9951900561544646E-002  0.12029721122020375        0.0000000000000000     
   2.0555499334961137E-002  0.12749280479197855        0.0000000000000000     
   2.1133233444760188E-002  0.13486278205949981        0.0000000000000000     
   1.3928156030084097E-002  0.10640033822936955        0.0000000000000000     
   1.4418902254518411E-002  0.11322701934697525        0.0000000000000000     
   1.4890788138938823E-002  0.12023276741873637        0.0000000000000000     
   1.5343813683345330E-002  0.12741758244465295        0.0000000000000000     
   1.5777978887737937E-002  0.13478146442472494        0.0000000000000000     
   9.2373201948491336E-003  0.10637974041899530        0.0000000000000000     
   9.5639844437692013E-003  0.11319203220611795        0.0000000000000000     
   9.8784339044794556E-003  0.12018673613197392        0.0000000000000000     
   1.0180668576979890E-002  0.12736385219656321        0.0000000000000000     
   1.0470688461270510E-002  0.13472338039988574        0.0000000000000000     
   4.5946015181544501E-003  0.10636738173277062        0.0000000000000000     
   4.7576836922630841E-003  0.11317103992160353        0.0000000000000000     
   4.9148378581665396E-003  0.12015911735991641        0.0000000000000000     
   5.0660640158648133E-003  0.12733161404770929        0.0000000000000000     
   5.2113621653579103E-003  0.13468852998498215        0.0000000000000000     
   4.6837533851373792E-017  0.10636326217069561        0.0000000000000000     
   5.9847959921199845E-017  0.11316404249343193        0.0000000000000000     
   7.7412035115465017E-017  0.12014991110256380        0.0000000000000000     
   1.0359551758098995E-016  0.12732086799809123        0.0000000000000000     
   1.3487475025719675E-016  0.13467691318001418        0.0000000000000000     
   2.1133233444760188E-002  0.13486278205949981        0.0000000000000000     
   2.1680853136055410E-002  0.14238035836062235        0.0000000000000000     
   2.2194108653960397E-002  0.15001874903320103        0.0000000000000000     
   2.2672999998475156E-002  0.15777795407723583        0.0000000000000000     
   2.3117527169599684E-002  0.16565797349272673        0.0000000000000000     
   1.5777978887737937E-002  0.13478146442472494        0.0000000000000000     
   1.6189771909303083E-002  0.14229580436397010        0.0000000000000000     
   1.6575680905227215E-002  0.14993199326740606        0.0000000000000000     
   1.6935705875510330E-002  0.15769003113503274        0.0000000000000000     
   1.7269846820152430E-002  0.16556991796685025        0.0000000000000000     
   1.0470688461270510E-002  0.13472338039988574        0.0000000000000000     
   1.0745935977709771E-002  0.14223540865207560        0.0000000000000000     
   1.1003853546656124E-002  0.14987002486326667        0.0000000000000000     
   1.1244441168109571E-002  0.15762722903345908        0.0000000000000000     
   1.1467698842070113E-002  0.16550702116265273        0.0000000000000000     
   5.2113621653579103E-003  0.13468852998498215        0.0000000000000000     
   5.3493453412754672E-003  0.14219917122493883        0.0000000000000000     
   5.4786265782471215E-003  0.14983284382078302        0.0000000000000000     
   5.5992058762728792E-003  0.15758954777251480        0.0000000000000000     
   5.7110832353527360E-003  0.16546928308013414        0.0000000000000000     
   1.3487475025719675E-016  0.13467691318001418        0.0000000000000000     
   1.7173762412170390E-016  0.14218709208255978        0.0000000000000000     
   2.1185310450366757E-016  0.14982045013995504        0.0000000000000000     
   2.5289015673224391E-016  0.15757698735219997        0.0000000000000000     
   2.9750507613002242E-016  0.16545670371929455        0.0000000000000000     
   2.3117527169599684E-002  0.16565797349272673        0.0000000000000000     
   2.3527281811940325E-002  0.17364272938743658        0.0000000000000000     
   2.3901855570103436E-002  0.18171614386912815        0.0000000000000000     
   2.4241248444089016E-002  0.18987821693780146        0.0000000000000000     
   2.4545460433897062E-002  0.19812894859345648        0.0000000000000000     
   1.7269846820152430E-002  0.16556991796685025        0.0000000000000000     
   1.7577734290207720E-002  0.17355595689720055        0.0000000000000000     
   1.7858998836730408E-002  0.18163245106042566        0.0000000000000000     
   1.8113640459720498E-002  0.18979940045652557        0.0000000000000000     
   1.8341659159177983E-002  0.19805680508550033        0.0000000000000000     
   1.1467698842070113E-002  0.16550702116265273        0.0000000000000000     
   1.1673338147640183E-002  0.17349397654703194        0.0000000000000000     
   1.1861070663922219E-002  0.18157267048278100        0.0000000000000000     
   1.2030896390916219E-002  0.18974310296989996        0.0000000000000000     
   1.2182815328622185E-002  0.19800527400838874        0.0000000000000000     
   5.7110832353527360E-003  0.16546928308013414        0.0000000000000000     
   5.8140933842377243E-003  0.17345678833693076        0.0000000000000000     
   5.9080710516788730E-003  0.18153680213619419        0.0000000000000000     
   5.9930162376761855E-003  0.18970932447792457        0.0000000000000000     
   6.0689289422296575E-003  0.19797435536212182        0.0000000000000000     
   2.9750507613002242E-016  0.16545670371929455        0.0000000000000000     
   3.3892159911896869E-016  0.17344439226689692        0.0000000000000000     
   3.7133924407628527E-016  0.18152484602066524        0.0000000000000000     
   3.9597773844601836E-016  0.18969806498059941        0.0000000000000000     
   4.0982842119952068E-016  0.19796404914669949        0.0000000000000000     
   2.4545460433897062E-002  0.19812894859345648        0.0000000000000000     
   2.4815068341491053E-002  0.20645250746450641        0.0000000000000000     
   2.5050648968834462E-002  0.21483306217936440        0.0000000000000000     
   2.5252202315927300E-002  0.22327061273803048        0.0000000000000000     
   2.5419728382769555E-002  0.23176515914050458        0.0000000000000000     
   1.8341659159177983E-002  0.19805680508550033        0.0000000000000000     
   1.8543725951922548E-002  0.20638665891105015        0.0000000000000000     
   1.8720511854773851E-002  0.21477095589687537        0.0000000000000000     
   1.8872016867731902E-002  0.22320969604297600        0.0000000000000000     
   1.8998240990796698E-002  0.23170287934935210        0.0000000000000000     
   1.2182815328622185E-002  0.19800527400838874        0.0000000000000000     
   1.2317433765151270E-002  0.20633962423000993        0.0000000000000000     
   1.2435357988614636E-002  0.21472659426652607        0.0000000000000000     
   1.2536587999012284E-002  0.22316618411793709        0.0000000000000000     
   1.2621123796344213E-002  0.23165839378424311        0.0000000000000000     
   6.0689289422296575E-003  0.19797435536212182        0.0000000000000000     
   6.1361917811772262E-003  0.20631140342138582        0.0000000000000000     
   6.1951873703568220E-003  0.21469997728831647        0.0000000000000000     
   6.2459157097684457E-003  0.22314007696291380        0.0000000000000000     
   6.2883767994120965E-003  0.23163170244517781        0.0000000000000000     
   4.0982842119952068E-016  0.19796404914669949        0.0000000000000000     
   4.1459891075845690E-016  0.20630199648517780        0.0000000000000000     
   4.0690107533380981E-016  0.21469110496224664        0.0000000000000000     
   3.8752096150063142E-016  0.22313137457790608        0.0000000000000000     
   3.5475095083725705E-016  0.23162280533215604        0.0000000000000000     
   2.5419728382769555E-002  0.23176515914050458        0.0000000000000000     
   2.5560202459706121E-002  0.24028808745891536        0.0000000000000000     
   2.5680599837081871E-002  0.24881078376539131        0.0000000000000000     
   2.5780920514896812E-002  0.25733324805993252        0.0000000000000000     
   2.5861164493150943E-002  0.26585548034253886        0.0000000000000000     
   1.8998240990796698E-002  0.23170287934935210        0.0000000000000000     
   1.9104057480736725E-002  0.24021985185081909        0.0000000000000000     
   1.9194339594320469E-002  0.24872995958219279        0.0000000000000000     
   1.9269087331547936E-002  0.25723320254347326        0.0000000000000000     
   1.9328300692419115E-002  0.26572958073466024        0.0000000000000000     
   1.2621123796344213E-002  0.23165839378424311        0.0000000000000000     
   1.2691975411129295E-002  0.24017111213075040        0.0000000000000000     
   1.2752152873886412E-002  0.24867222802276540        0.0000000000000000     
   1.2801656184615560E-002  0.25716174146028808        0.0000000000000000     
   1.2840485343316745E-002  0.26563965244331839        0.0000000000000000     
   6.2883767994120965E-003  0.23163170244517781        0.0000000000000000     
   6.3239562508838297E-003  0.24014186829870920        0.0000000000000000     
   6.3540396757796958E-003  0.24863758908710890        0.0000000000000000     
   6.3786270740996999E-003  0.25711886481037693        0.0000000000000000     
   6.3977184458438360E-003  0.26558569546851329        0.0000000000000000     
   3.5475095083725705E-016  0.23162280533215604        0.0000000000000000     
   3.2742905609062234E-016  0.24013212035469553        0.0000000000000000     
   3.2352592826967452E-016  0.24862604277522349        0.0000000000000000     
   3.4304156737441360E-016  0.25710457259373992        0.0000000000000000     
   3.8554229253584538E-016  0.26556770981024486        0.0000000000000000     
   2.5861164493150943E-002  0.26585548034253886        0.0000000000000000     
   2.5934818594416573E-002  0.27432215193564552        0.0000000000000000     
   2.6015369641266030E-002  0.28267793416168757        0.0000000000000000     
   2.6102817633699295E-002  0.29092282702066491        0.0000000000000000     
   2.6197162571716386E-002  0.29905683051257770        0.0000000000000000     
   1.9328300692419115E-002  0.26572958073466024        0.0000000000000000     
   1.9382974422088861E-002  0.27416119424490037        0.0000000000000000     
   1.9444103265712030E-002  0.28247014316334002        0.0000000000000000     
   1.9511687223288617E-002  0.29065642748997916        0.0000000000000000     
   1.9585726294818626E-002  0.29872004722481776        0.0000000000000000     
   1.2840485343316745E-002  0.26563965244331839        0.0000000000000000     
   1.2876556598910268E-002  0.27404622446579668        0.0000000000000000     
   1.2917786200316436E-002  0.28232172102166314        0.0000000000000000     
   1.2964174147535252E-002  0.29046614211091787        0.0000000000000000     
   1.3015720440566710E-002  0.29847948773356070        0.0000000000000000     
   6.3977184458438360E-003  0.26558569546851329        0.0000000000000000     
   6.4155651248807904E-003  0.27397724259833445        0.0000000000000000     
   6.4364184450792427E-003  0.28223266773665712        0.0000000000000000     
   6.4602784064391955E-003  0.29035197088348103        0.0000000000000000     
   6.4871450089606479E-003  0.29833515203880651        0.0000000000000000     
   3.8554229253584538E-016  0.26556770981024486        0.0000000000000000     
   4.2804301769727715E-016  0.27395424864251366        0.0000000000000000     
   4.5059442288497564E-016  0.28220298330832161        0.0000000000000000     
   4.5438913048867491E-016  0.29031391380766880        0.0000000000000000     
   4.3368086899420177E-016  0.29828704014055518        0.0000000000000000     
   3.9031278209478160E-017   6.2522611476251322E-002   0.0000000000000000     
   6.6353172956112871E-017   6.6594237411070817E-002   0.0000000000000000     
   8.0989902284667181E-017   7.1126972786386466E-002   0.0000000000000000     
   8.1288057882100695E-017   7.6120817602198312E-002   0.0000000000000000     
   6.8304736866586779E-017   8.1575771858506327E-002   0.0000000000000000     
  -3.3789355053554923E-003   6.2465821408574138E-002   0.0000000000000000     
  -3.4692493218081541E-003   6.6549786768634406E-002   0.0000000000000000     
  -3.5858470426962420E-003   7.1093357592975318E-002   0.0000000000000000     
  -3.7287286680197538E-003   7.6096533881596887E-002   0.0000000000000000     
  -3.8978941977786904E-003   8.1559315634499127E-002   0.0000000000000000     
  -6.7984066204877036E-003   6.2295451205542869E-002   0.0000000000000000     
  -6.9861380127422407E-003   6.6416434841325728E-002   0.0000000000000000     
  -7.2236372461340365E-003   7.0992512012742578E-002   0.0000000000000000     
  -7.5109043206630947E-003   7.6023682719793442E-002   0.0000000000000000     
  -7.8479392363294126E-003   8.1509946962478291E-002   0.0000000000000000     
  -1.0258413345396594E-002   6.2011500867157530E-002   0.0000000000000000     
  -1.0550666072802190E-002   6.6194181629144783E-002   0.0000000000000000     
  -1.0913370610313307E-002   7.0824436045688249E-002   0.0000000000000000     
  -1.1346526957929943E-002   7.5902264116787937E-002   0.0000000000000000     
  -1.1850135115652098E-002   8.1427665842443861E-002   0.0000000000000000     
  -1.3758955680082166E-002   6.1613970393418122E-002   0.0000000000000000     
  -1.4162833501988005E-002   6.5883027132091571E-002   0.0000000000000000     
  -1.4655047135234049E-002   7.0589129691812330E-002   0.0000000000000000     
  -1.5235596579820296E-002   7.5732278072580400E-002   0.0000000000000000     
  -1.5904481835746748E-002   8.1312472274395795E-002   0.0000000000000000     
   6.8304736866586779E-017   8.1575771858506327E-002   0.0000000000000000     
   5.2041704279304213E-017   8.7389121735435241E-002   0.0000000000000000     
   4.3747557659790104E-017   9.3458153413109729E-002   0.0000000000000000     
   4.1402970461790201E-017   9.9782866891529876E-002   0.0000000000000000     
   4.6837533851373792E-017  0.10636326217069561        0.0000000000000000     
  -3.8978941977786904E-003   8.1559315634499127E-002   0.0000000000000000     
  -4.0781690167846583E-003   8.7379258129422988E-002   0.0000000000000000     
  -4.2543785098492640E-003   9.3453916644109444E-002   0.0000000000000000     
  -4.4265226769725080E-003   9.9783291178558511E-002   0.0000000000000000     
  -4.5946015181543877E-003  0.10636738173277020        0.0000000000000000     
  -7.8479392363294126E-003   8.1509946962478291E-002   0.0000000000000000     
  -8.2062146734131081E-003   8.7349667311386950E-002   0.0000000000000000     
  -8.5572033121943010E-003   9.3441206337109187E-002   0.0000000000000000     
  -8.9009051526729877E-003   9.9784564039644988E-002   0.0000000000000000     
  -9.2373201948491700E-003  0.10637974041899440        0.0000000000000000     
  -1.1850135115652098E-002   8.1427665842443861E-002   0.0000000000000000     
  -1.2384136969885299E-002   8.7300349281327141E-002   0.0000000000000000     
  -1.2908474407035063E-002   9.3420022492108970E-002   0.0000000000000000     
  -1.3423147427101399E-002   9.9786685474789347E-002   0.0000000000000000     
  -1.3928156030084295E-002  0.10640033822936824        0.0000000000000000     
  -1.5904481835746748E-002   8.1312472274395795E-002   0.0000000000000000     
  -1.6611935906201226E-002   8.7231304039243562E-002   0.0000000000000000     
  -1.7308191794371555E-002   9.3390365109108808E-002   0.0000000000000000     
  -1.7993249500257734E-002   9.9789655483991491E-002   0.0000000000000000     
  -1.8667109023859770E-002  0.10642917516389168        0.0000000000000000     
   4.6837533851373792E-017  0.10636326217069561        0.0000000000000000     
   5.9847959921199845E-017  0.11316404249343193        0.0000000000000000     
   7.7412035115465017E-017  0.12014991110256380        0.0000000000000000     
   1.0359551758098995E-016  0.12732086799809123        0.0000000000000000     
   1.3487475025719675E-016  0.13467691318001418        0.0000000000000000     
  -4.5946015181543877E-003  0.10636738173277020        0.0000000000000000     
  -4.7576836922629930E-003  0.11317103992160317        0.0000000000000000     
  -4.9148378581664052E-003  0.12015911735991611        0.0000000000000000     
  -5.0660640158646242E-003  0.12733161404770899        0.0000000000000000     
  -5.2113621653576536E-003  0.13468852998498188        0.0000000000000000     
  -9.2373201948491700E-003  0.10637974041899440        0.0000000000000000     
  -9.5639844437691874E-003  0.11319203220611722        0.0000000000000000     
  -9.8784339044793810E-003  0.12018673613197327        0.0000000000000000     
  -1.0180668576979751E-002  0.12736385219656260        0.0000000000000000     
  -1.0470688461270295E-002  0.13472338039988513        0.0000000000000000     
  -1.3928156030084295E-002  0.10640033822936824        0.0000000000000000     
  -1.4418902254518527E-002  0.11322701934697409        0.0000000000000000     
  -1.4890788138938852E-002  0.12023276741873534        0.0000000000000000     
  -1.5343813683345272E-002  0.12741758244465198        0.0000000000000000     
  -1.5777978887737788E-002  0.13478146442472402        0.0000000000000000     
  -1.8667109023859770E-002  0.10642917516389168        0.0000000000000000     
  -1.9322437124511010E-002  0.11327600134417377        0.0000000000000000     
  -1.9951900561544816E-002  0.12029721122020229        0.0000000000000000     
  -2.0555499334961196E-002  0.12749280479197719        0.0000000000000000     
  -2.1133233444760136E-002  0.13486278205949850        0.0000000000000000     
   1.3487475025719675E-016  0.13467691318001418        0.0000000000000000     
   1.7173762412170390E-016  0.14218709208255978        0.0000000000000000     
   2.1185310450366757E-016  0.14982045013995504        0.0000000000000000     
   2.5289015673224391E-016  0.15757698735219997        0.0000000000000000     
   2.9750507613002242E-016  0.16545670371929455        0.0000000000000000     
  -5.2113621653576536E-003  0.13468852998498188        0.0000000000000000     
  -5.3493453412751333E-003  0.14219917122493850        0.0000000000000000     
  -5.4786265782467095E-003  0.14983284382078274        0.0000000000000000     
  -5.5992058762723857E-003  0.15758954777251452        0.0000000000000000     
  -5.7110832353521532E-003  0.16546928308013395        0.0000000000000000     
  -1.0470688461270295E-002  0.13472338039988513        0.0000000000000000     
  -1.0745935977709472E-002  0.14223540865207496        0.0000000000000000     
  -1.1003853546655742E-002  0.14987002486326609        0.0000000000000000     
  -1.1244441168109107E-002  0.15762722903345852        0.0000000000000000     
  -1.1467698842069565E-002  0.16550702116265228        0.0000000000000000     
  -1.5777978887737788E-002  0.13478146442472402        0.0000000000000000     
  -1.6189771909302847E-002  0.14229580436396919        0.0000000000000000     
  -1.6575680905226889E-002  0.14993199326740517        0.0000000000000000     
  -1.6935705875509920E-002  0.15769003113503199        0.0000000000000000     
  -1.7269846820151938E-002  0.16556991796684964        0.0000000000000000     
  -2.1133233444760136E-002  0.13486278205949850        0.0000000000000000     
  -2.1680853136055250E-002  0.14238035836062113        0.0000000000000000     
  -2.2194108653960147E-002  0.15001874903319989        0.0000000000000000     
  -2.2672999998474819E-002  0.15777795407723483        0.0000000000000000     
  -2.3117527169599274E-002  0.16565797349272593        0.0000000000000000     
   2.9750507613002242E-016  0.16545670371929455        0.0000000000000000     
   3.3892159911896869E-016  0.17344439226689692        0.0000000000000000     
   3.7133924407628527E-016  0.18152484602066524        0.0000000000000000     
   3.9597773844601836E-016  0.18969806498059941        0.0000000000000000     
   4.0982842119952068E-016  0.19796404914669949        0.0000000000000000     
  -5.7110832353521532E-003  0.16546928308013395        0.0000000000000000     
  -5.8140933842370573E-003  0.17345678833693057        0.0000000000000000     
  -5.9080710516781461E-003  0.18153680213619411        0.0000000000000000     
  -5.9930162376754118E-003  0.18970932447792449        0.0000000000000000     
  -6.0689289422288569E-003  0.19797435536212180        0.0000000000000000     
  -1.1467698842069565E-002  0.16550702116265228        0.0000000000000000     
  -1.1673338147639560E-002  0.17349397654703161        0.0000000000000000     
  -1.1861070663921534E-002  0.18157267048278083        0.0000000000000000     
  -1.2030896390915494E-002  0.18974310296989982        0.0000000000000000     
  -1.2182815328621434E-002  0.19800527400838869        0.0000000000000000     
  -1.7269846820151938E-002  0.16556991796684964        0.0000000000000000     
  -1.7577734290207155E-002  0.17355595689720008        0.0000000000000000     
  -1.7858998836729797E-002  0.18163245106042533        0.0000000000000000     
  -1.8113640459719853E-002  0.18979940045652535        0.0000000000000000     
  -1.8341659159177327E-002  0.19805680508550016        0.0000000000000000     
  -2.3117527169599274E-002  0.16565797349272593        0.0000000000000000     
  -2.3527281811939860E-002  0.17364272938743597        0.0000000000000000     
  -2.3901855570102930E-002  0.18171614386912771        0.0000000000000000     
  -2.4241248444088485E-002  0.18987821693780113        0.0000000000000000     
  -2.4545460433896524E-002  0.19812894859345631        0.0000000000000000     
   4.0982842119952068E-016  0.19796404914669949        0.0000000000000000     
   4.1459891075845690E-016  0.20630199648517780        0.0000000000000000     
   4.0690107533380981E-016  0.21469110496224664        0.0000000000000000     
   3.8752096150063142E-016  0.22313137457790608        0.0000000000000000     
   3.5475095083725705E-016  0.23162280533215604        0.0000000000000000     
  -6.0689289422288569E-003  0.19797435536212180        0.0000000000000000     
  -6.1361917811764161E-003  0.20631140342138582        0.0000000000000000     
  -6.1951873703560249E-003  0.21469997728831650        0.0000000000000000     
  -6.2459157097676851E-003  0.22314007696291385        0.0000000000000000     
  -6.2883767994113930E-003  0.23163170244517783        0.0000000000000000     
  -1.2182815328621434E-002  0.19800527400838869        0.0000000000000000     
  -1.2317433765150512E-002  0.20633962423000993        0.0000000000000000     
  -1.2435357988613888E-002  0.21472659426652610        0.0000000000000000     
  -1.2536587999011559E-002  0.22316618411793721        0.0000000000000000     
  -1.2621123796343524E-002  0.23165839378424327        0.0000000000000000     
  -1.8341659159177327E-002  0.19805680508550016        0.0000000000000000     
  -1.8543725951921879E-002  0.20638665891105010        0.0000000000000000     
  -1.8720511854773181E-002  0.21477095589687542        0.0000000000000000     
  -1.8872016867731236E-002  0.22320969604297611        0.0000000000000000     
  -1.8998240990796042E-002  0.23170287934935224        0.0000000000000000     
  -2.4545460433896524E-002  0.19812894859345631        0.0000000000000000     
  -2.4815068341490512E-002  0.20645250746450636        0.0000000000000000     
  -2.5050648968833911E-002  0.21483306217936440        0.0000000000000000     
  -2.5252202315926720E-002  0.22327061273803056        0.0000000000000000     
  -2.5419728382768937E-002  0.23176515914050472        0.0000000000000000     
   3.5475095083725705E-016  0.23162280533215604        0.0000000000000000     
   3.2742905609062234E-016  0.24013212035469553        0.0000000000000000     
   3.2352592826967452E-016  0.24862604277522349        0.0000000000000000     
   3.4304156737441360E-016  0.25710457259373992        0.0000000000000000     
   3.8554229253584538E-016  0.26556770981024486        0.0000000000000000     
  -6.2883767994113930E-003  0.23163170244517783        0.0000000000000000     
  -6.3239562508831740E-003  0.24014186829870932        0.0000000000000000     
  -6.3540396757790461E-003  0.24863758908710903        0.0000000000000000     
  -6.3786270740990103E-003  0.25711886481037705        0.0000000000000000     
  -6.3977184458430657E-003  0.26558569546851324        0.0000000000000000     
  -1.2621123796343524E-002  0.23165839378424327        0.0000000000000000     
  -1.2691975411128639E-002  0.24017111213075060        0.0000000000000000     
  -1.2752152873885755E-002  0.24867222802276551        0.0000000000000000     
  -1.2801656184614865E-002  0.25716174146028820        0.0000000000000000     
  -1.2840485343315979E-002  0.26563965244331839        0.0000000000000000     
  -1.8998240990796042E-002  0.23170287934935224        0.0000000000000000     
  -1.9104057480736066E-002  0.24021985185081934        0.0000000000000000     
  -1.9194339594319796E-002  0.24872995958219299        0.0000000000000000     
  -1.9269087331547224E-002  0.25723320254347332        0.0000000000000000     
  -1.9328300692418355E-002  0.26572958073466024        0.0000000000000000     
  -2.5419728382768937E-002  0.23176515914050472        0.0000000000000000     
  -2.5560202459705462E-002  0.24028808745891547        0.0000000000000000     
  -2.5680599837081181E-002  0.24881078376539142        0.0000000000000000     
  -2.5780920514896083E-002  0.25733324805993263        0.0000000000000000     
  -2.5861164493150186E-002  0.26585548034253897        0.0000000000000000     
   3.8554229253584538E-016  0.26556770981024486        0.0000000000000000     
   4.2804301769727715E-016  0.27395424864251366        0.0000000000000000     
   4.5059442288497564E-016  0.28220298330832161        0.0000000000000000     
   4.5438913048867491E-016  0.29031391380766880        0.0000000000000000     
   4.3368086899420177E-016  0.29828704014055518        0.0000000000000000     
  -6.3977184458430657E-003  0.26558569546851324        0.0000000000000000     
  -6.4155651248799378E-003  0.27397724259833434        0.0000000000000000     
  -6.4364184450783485E-003  0.28223266773665695        0.0000000000000000     
  -6.4602784064383004E-003  0.29035197088348103        0.0000000000000000     
  -6.4871450089597901E-003  0.29833515203880667        0.0000000000000000     
  -1.2840485343315979E-002  0.26563965244331839        0.0000000000000000     
  -1.2876556598909435E-002  0.27404622446579657        0.0000000000000000     
  -1.2917786200315567E-002  0.28232172102166309        0.0000000000000000     
  -1.2964174147534382E-002  0.29046614211091787        0.0000000000000000     
  -1.3015720440565884E-002  0.29847948773356087        0.0000000000000000     
  -1.9328300692418355E-002  0.26572958073466024        0.0000000000000000     
  -1.9382974422088060E-002  0.27416119424490032        0.0000000000000000     
  -1.9444103265711200E-002  0.28247014316333990        0.0000000000000000     
  -1.9511687223287798E-002  0.29065642748997911        0.0000000000000000     
  -1.9585726294817845E-002  0.29872004722481793        0.0000000000000000     
  -2.5861164493150186E-002  0.26585548034253897        0.0000000000000000     
  -2.5934818594415807E-002  0.27432215193564558        0.0000000000000000     
  -2.6015369641265260E-002  0.28267793416168757        0.0000000000000000     
  -2.6102817633698549E-002  0.29092282702066496        0.0000000000000000     
  -2.6197162571715678E-002  0.29905683051257770        0.0000000000000000     
  -1.3758955680082166E-002   6.1613970393418122E-002   0.0000000000000000     
  -1.4162833501988005E-002   6.5883027132091571E-002   0.0000000000000000     
  -1.4655047135234049E-002   7.0589129691812330E-002   0.0000000000000000     
  -1.5235596579820296E-002   7.5732278072580400E-002   0.0000000000000000     
  -1.5904481835746748E-002   8.1312472274395795E-002   0.0000000000000000     
  -1.7351000137887079E-002   6.1111789828348390E-002   0.0000000000000000     
  -1.7862663071213706E-002   6.5487575590973762E-002   0.0000000000000000     
  -1.8482580709117836E-002   7.0289504357023899E-002   0.0000000000000000     
  -1.9210753051599472E-002   7.5517576126498731E-002   0.0000000000000000     
  -2.0047180098658610E-002   8.1171790899398327E-002   0.0000000000000000     
  -2.1085513232153998E-002   6.0513889215972089E-002   0.0000000000000000     
  -2.1690177551393304E-002   6.5012431246599056E-002   0.0000000000000000     
  -2.2429885220186230E-002   6.9928471447231966E-002   0.0000000000000000     
  -2.3304636238532773E-002   7.5262009817870845E-002   0.0000000000000000     
  -2.4314430606432933E-002   8.1013046358515695E-002   0.0000000000000000     
  -2.4962494962882921E-002   5.9820268556289226E-002   0.0000000000000000     
  -2.5645376942526808E-002   6.4457594098967411E-002   0.0000000000000000     
  -2.6496960668439241E-002   6.9506030962436571E-002   0.0000000000000000     
  -2.7517246140620209E-002   7.4965579146696756E-002   0.0000000000000000     
  -2.8706233359069709E-002   8.0836238651747896E-002   0.0000000000000000     
  -2.8981945330073849E-002   5.9030927849299794E-002   0.0000000000000000     
  -2.9728261244614217E-002   6.3823064148078867E-002   0.0000000000000000     
  -3.0683807053876865E-002   6.9022182902637744E-002   0.0000000000000000     
  -3.1848582757861774E-002   7.4628284112976409E-002   0.0000000000000000     
  -3.3222588356568952E-002   8.0641367779094919E-002   0.0000000000000000     
  -1.5904481835746748E-002   8.1312472274395795E-002   0.0000000000000000     
  -1.6611935906201226E-002   8.7231304039243562E-002   0.0000000000000000     
  -1.7308191794371555E-002   9.3390365109108808E-002   0.0000000000000000     
  -1.7993249500257734E-002   9.9789655483991491E-002   0.0000000000000000     
  -1.8667109023859770E-002  0.10642917516389168        0.0000000000000000     
  -2.0047180098658610E-002   8.1171790899398327E-002   0.0000000000000000     
  -2.0930961271973546E-002   8.7153965056025684E-002   0.0000000000000000     
  -2.1801195993222555E-002   9.3365914976683798E-002   0.0000000000000000     
  -2.2657884262405645E-002   9.9807640661372696E-002   0.0000000000000000     
  -2.3501026079522813E-002  0.10647914211009236        0.0000000000000000     
  -2.4314430606432933E-002   8.1013046358515695E-002   0.0000000000000000     
  -2.5382562856814887E-002   8.7079765802562950E-002   0.0000000000000000     
  -2.6432327522606831E-002   9.3360352883409076E-002   0.0000000000000000     
  -2.7463724603808765E-002   9.9854807601054071E-002   0.0000000000000000     
  -2.8476754100420682E-002  0.10656312995549792        0.0000000000000000     
  -2.8706233359069709E-002   8.0836238651747896E-002   0.0000000000000000     
  -2.9966740660725268E-002   8.7008706278855402E-002   0.0000000000000000     
  -3.1201586382524394E-002   9.3373678829284656E-002   0.0000000000000000     
  -3.2410770524467093E-002   9.9931156303035645E-002   0.0000000000000000     
  -3.3594293086553352E-002  0.10668113870010837        0.0000000000000000     
  -3.3222588356568952E-002   8.0641367779094919E-002   0.0000000000000000     
  -3.4683494683704685E-002   8.6940786484903013E-002   0.0000000000000000     
  -3.6108972572975240E-002   9.3405892814310512E-002   0.0000000000000000     
  -3.7499022024380622E-002  0.10003668676731742        0.0000000000000000     
  -3.8853643037920833E-002  0.10683316834392370        0.0000000000000000     
  -1.8667109023859770E-002  0.10642917516389168        0.0000000000000000     
  -1.9322437124511010E-002  0.11327600134417377        0.0000000000000000     
  -1.9951900561544816E-002  0.12029721122020229        0.0000000000000000     
  -2.0555499334961196E-002  0.12749280479197719        0.0000000000000000     
  -2.1133233444760136E-002  0.13486278205949850        0.0000000000000000     
  -2.3501026079522813E-002  0.10647914211009236        0.0000000000000000     
  -2.4320731197216776E-002  0.11334979502473180        0.0000000000000000     
  -2.5107109368130241E-002  0.12038897510718002        0.0000000000000000     
  -2.5860160592263193E-002  0.12759668235743699        0.0000000000000000     
  -2.6579884869615648E-002  0.13497291677550272        0.0000000000000000     
  -2.8476754100420682E-002  0.10656312995549792        0.0000000000000000     
  -2.9459926616105987E-002  0.11345921721566371        0.0000000000000000     
  -3.0401752754528080E-002  0.12051696665047441        0.0000000000000000     
  -3.1302232515686972E-002  0.12773637825993012        0.0000000000000000     
  -3.2161365899582663E-002  0.13511745204403072        0.0000000000000000     
  -3.3594293086553352E-002  0.10668113870010837        0.0000000000000000     
  -3.4740023381178618E-002  0.11360426791696948        0.0000000000000000     
  -3.5835830720738343E-002  0.12068118585008554        0.0000000000000000     
  -3.6881715105232513E-002  0.12791189249945656        0.0000000000000000     
  -3.7877676534661141E-002  0.13529638786508258        0.0000000000000000     
  -3.8853643037920833E-002  0.10683316834392370        0.0000000000000000     
  -4.0161021492434695E-002  0.11378494712864912        0.0000000000000000     
  -4.1409343266761038E-002  0.12088163270601332        0.0000000000000000     
  -4.2598608360899848E-002  0.12812322507601634        0.0000000000000000     
  -4.3728816774851124E-002  0.13550972423865817        0.0000000000000000     
  -2.1133233444760136E-002  0.13486278205949850        0.0000000000000000     
  -2.1680853136055250E-002  0.14238035836062113        0.0000000000000000     
  -2.2194108653960147E-002  0.15001874903319989        0.0000000000000000     
  -2.2672999998474819E-002  0.15777795407723483        0.0000000000000000     
  -2.3117527169599274E-002  0.16565797349272593        0.0000000000000000     
  -2.6579884869615648E-002  0.13497291677550272        0.0000000000000000     
  -2.7261636355461784E-002  0.14249331114866065        0.0000000000000000     
  -2.7900769205075747E-002  0.15013349826419417        0.0000000000000000     
  -2.8497283418457559E-002  0.15789347812210333        0.0000000000000000     
  -2.9051178995607205E-002  0.16577325072238813        0.0000000000000000     
  -3.2161365899582663E-002  0.13511745204403072        0.0000000000000000     
  -3.2974578265017519E-002  0.14263890323471759        0.0000000000000000     
  -3.3737294970793905E-002  0.15027944706393195        0.0000000000000000     
  -3.4449516016911867E-002  0.15803908353167379        0.0000000000000000     
  -3.5111241403371352E-002  0.16591781263794309        0.0000000000000000     
  -3.7877676534661141E-002  0.13529638786508258        0.0000000000000000     
  -3.8819678864722443E-002  0.14281713461879192        0.0000000000000000     
  -3.9703685951114655E-002  0.15045659543241310        0.0000000000000000     
  -4.0529697793837742E-002  0.15821477030594608        0.0000000000000000     
  -4.1297714392891718E-002  0.16609165923939084        0.0000000000000000     
  -4.3728816774851124E-002  0.13550972423865817        0.0000000000000000     
  -4.4796938154576589E-002  0.14302800530088372        0.0000000000000000     
  -4.5799942146037942E-002  0.15066494336963773        0.0000000000000000     
  -4.6737828749235183E-002  0.15842053844492027        0.0000000000000000     
  -4.7610597964168305E-002  0.16629479052673141        0.0000000000000000     
  -2.3117527169599274E-002  0.16565797349272593        0.0000000000000000     
  -2.3527281811939860E-002  0.17364272938743597        0.0000000000000000     
  -2.3901855570102930E-002  0.18171614386912771        0.0000000000000000     
  -2.4241248444088485E-002  0.18987821693780113        0.0000000000000000     
  -2.4545460433896524E-002  0.19812894859345631        0.0000000000000000     
  -2.9051178995607205E-002  0.16577325072238813        0.0000000000000000     
  -2.9562073535197637E-002  0.17375605708812566        0.0000000000000000     
  -3.0029584635901801E-002  0.18182513824239313        0.0000000000000000     
  -3.0453712297719687E-002  0.18998049418519045        0.0000000000000000     
  -3.0834456520651296E-002  0.19822212491651775        0.0000000000000000     
  -3.5111241403371352E-002  0.16591781263794309        0.0000000000000000     
  -3.5722202282340465E-002  0.17389770306965552        0.0000000000000000     
  -3.6282129805987266E-002  0.18196082351372667        0.0000000000000000     
  -3.6791023974311755E-002  0.19010717397015656        0.0000000000000000     
  -3.7248884787313925E-002  0.19833675443894516        0.0000000000000000     
  -4.1297714392891718E-002  0.16609165923939084        0.0000000000000000     
  -4.2007668053368336E-002  0.17406766733202556        0.0000000000000000     
  -4.2659491080359324E-002  0.18212319968312843        0.0000000000000000     
  -4.3253183473864677E-002  0.19025825629269946        0.0000000000000000     
  -4.3788745233884388E-002  0.19847283716073860        0.0000000000000000     
  -4.7610597964168305E-002  0.16629479052673141        0.0000000000000000     
  -4.8418470848281270E-002  0.17426594987523580        0.0000000000000000     
  -4.9161668459017982E-002  0.18231226675059839        0.0000000000000000     
  -4.9840190796378456E-002  0.19043374115281911        0.0000000000000000     
  -5.0454037860362691E-002  0.19863037308189796        0.0000000000000000     
  -2.4545460433896524E-002  0.19812894859345631        0.0000000000000000     
  -2.4815068341490512E-002  0.20645250746450636        0.0000000000000000     
  -2.5050648968833911E-002  0.21483306217936440        0.0000000000000000     
  -2.5252202315926720E-002  0.22327061273803056        0.0000000000000000     
  -2.5419728382768937E-002  0.23176515914050472        0.0000000000000000     
  -3.0834456520651296E-002  0.19822212491651775        0.0000000000000000     
  -3.1172144691923444E-002  0.20653687237587501        0.0000000000000000     
  -3.1467104198762898E-002  0.21491157850276224        0.0000000000000000     
  -3.1719335041169680E-002  0.22334624329717950        0.0000000000000000     
  -3.1928837219143781E-002  0.23184086675912677        0.0000000000000000     
  -3.7248884787313925E-002  0.19833675443894516        0.0000000000000000     
  -3.7655638761287698E-002  0.20663945613065232        0.0000000000000000     
  -3.8011212412526987E-002  0.21500517025583793        0.0000000000000000     
  -3.8315605741031801E-002  0.22343389681450193        0.0000000000000000     
  -3.8568818746802132E-002  0.23192563580664441        0.0000000000000000     
  -4.3788745233884388E-002  0.19847283716073860        0.0000000000000000     
  -4.4265550549583289E-002  0.20676025872883844        0.0000000000000000     
  -4.4682973610126180E-002  0.21511383743859155        0.0000000000000000     
  -4.5041014415513086E-002  0.22353357328999796        0.0000000000000000     
  -4.5339672965743982E-002  0.23201946628305758        0.0000000000000000     
  -5.0454037860362691E-002  0.19863037308189796        0.0000000000000000     
  -5.1001880056810202E-002  0.20689928017043319        0.0000000000000000     
  -5.1482387791560474E-002  0.21523758005102300        0.0000000000000000     
  -5.1895561064613530E-002  0.22364527272366738        0.0000000000000000     
  -5.2241399875969340E-002  0.23212235818836632        0.0000000000000000     
  -2.5419728382768937E-002  0.23176515914050472        0.0000000000000000     
  -2.5560202459705462E-002  0.24028808745891547        0.0000000000000000     
  -2.5680599837081181E-002  0.24881078376539142        0.0000000000000000     
  -2.5780920514896083E-002  0.25733324805993263        0.0000000000000000     
  -2.5861164493150186E-002  0.26585548034253897        0.0000000000000000     
  -3.1928837219143781E-002  0.23184086675912677        0.0000000000000000     
  -3.2104415119936440E-002  0.24036989346645002        0.0000000000000000     
  -3.2254873130798889E-002  0.24890776799699529        0.0000000000000000     
  -3.2380211251731128E-002  0.25745449035076251        0.0000000000000000     
  -3.2480429482733143E-002  0.26601006052775172        0.0000000000000000     
  -3.8568818746802132E-002  0.23192563580664441        0.0000000000000000     
  -3.8780700233328615E-002  0.24045934438483388        0.0000000000000000     
  -3.8961099004101905E-002  0.24901397970163897        0.0000000000000000     
  -3.9110015059122004E-002  0.25758954175705961        0.0000000000000000     
  -3.9227448398388896E-002  0.26618603055109591        0.0000000000000000     
  -4.5339672965743982E-002  0.23201946628305758        0.0000000000000000     
  -4.5589057799881996E-002  0.24055644021406697        0.0000000000000000     
  -4.5799277456990244E-002  0.24912941887932236        0.0000000000000000     
  -4.5970331937068717E-002  0.25773840227882394        0.0000000000000000     
  -4.6102221240117425E-002  0.26638339041257159        0.0000000000000000     
  -5.2241399875969340E-002  0.23212235818836632        0.0000000000000000     
  -5.2529487819596585E-002  0.24066118095414926        0.0000000000000000     
  -5.2769408489463904E-002  0.24925408553004563        0.0000000000000000     
  -5.2961161885571290E-002  0.25790107191605538        0.0000000000000000     
  -5.3104748007918749E-002  0.26660214011217870        0.0000000000000000     
  -2.5861164493150186E-002  0.26585548034253897        0.0000000000000000     
  -2.5934818594415807E-002  0.27432215193564558        0.0000000000000000     
  -2.6015369641265260E-002  0.28267793416168757        0.0000000000000000     
  -2.6102817633698549E-002  0.29092282702066496        0.0000000000000000     
  -2.6197162571715678E-002  0.29905683051257770        0.0000000000000000     
  -3.2480429482733143E-002  0.26601006052775172        0.0000000000000000     
  -3.2571836327028703E-002  0.27452180506271173        0.0000000000000000     
  -3.2670740287841525E-002  0.28293705049039136        0.0000000000000000     
  -3.2777141365171618E-002  0.29125579681079056        0.0000000000000000     
  -3.2891039559018981E-002  0.29947804402390948        0.0000000000000000     
  -3.9227448398388896E-002  0.26618603055109591        0.0000000000000000     
  -3.9333774831062769E-002  0.27475286115077818        0.0000000000000000     
  -3.9449370166303808E-002  0.28323944862313671        0.0000000000000000     
  -3.9574234404112001E-002  0.29164579296817150        0.0000000000000000     
  -3.9708367544487352E-002  0.29997189418588244        0.0000000000000000     
  -4.6102221240117425E-002  0.26638339041257159        0.0000000000000000     
  -4.6220634106518006E-002  0.27501532019984498        0.0000000000000000     
  -4.6351259276652103E-002  0.28358512855992357        0.0000000000000000     
  -4.6494096750519694E-002  0.29209281549280747        0.0000000000000000     
  -4.6649146528120806E-002  0.30053838099849678        0.0000000000000000     
  -5.3104748007918749E-002  0.26660214011217870        0.0000000000000000     
  -5.3232414153394414E-002  0.27530918220991202        0.0000000000000000     
  -5.3376407618886394E-002  0.28397409030075205        0.0000000000000000     
  -5.3536728404394704E-002  0.29259686438469878        0.0000000000000000     
  -5.3713376509919322E-002  0.30117750446175218        0.0000000000000000     
  -2.8981945330073849E-002   5.9030927849299794E-002   0.0000000000000000     
  -2.9728261244614217E-002   6.3823064148078867E-002   0.0000000000000000     
  -3.0683807053876865E-002   6.9022182902637744E-002   0.0000000000000000     
  -3.1848582757861774E-002   7.4628284112976409E-002   0.0000000000000000     
  -3.3222588356568952E-002   8.0641367779094919E-002   0.0000000000000000     
  -3.3197595063349128E-002   5.8074723178581020E-002   0.0000000000000000     
  -3.4029328416103018E-002   6.3105765484498005E-002   0.0000000000000000     
  -3.5104012547044955E-002   6.8518258355436998E-002   0.0000000000000000     
  -3.6421647456174940E-002   7.4312201791397983E-002   0.0000000000000000     
  -3.7982233143492986E-002   8.0487595792380975E-002   0.0000000000000000     
  -3.7663174892331092E-002   5.6880510627710101E-002   0.0000000000000000     
  -3.8639076415440690E-002   6.2302622198789487E-002   0.0000000000000000     
  -3.9871165318489395E-002   6.8035588408435974E-002   0.0000000000000000     
  -4.1359441601477205E-002   7.4079409256649548E-002   0.0000000000000000     
  -4.3103905264404142E-002   8.0434084743430237E-002   0.0000000000000000     
  -4.2378684817019757E-002   5.5448290196687046E-002   0.0000000000000000     
  -4.3557505242627220E-002   6.1413634290953291E-002   0.0000000000000000     
  -4.4985265368210160E-002   6.7574173061634657E-002   0.0000000000000000     
  -4.6661965193768550E-002   7.3929906508731130E-002   0.0000000000000000     
  -4.8587604719302423E-002   8.0480834632242731E-002   0.0000000000000000     
  -4.7344124837415097E-002   5.3778061885511860E-002   0.0000000000000000     
  -4.8784614897662643E-002   6.0438801760989438E-002   0.0000000000000000     
  -5.0446312696207279E-002   6.7134012315033048E-002   0.0000000000000000     
  -5.2329218233049000E-002   7.3863693547642745E-002   0.0000000000000000     
  -5.4433331508187827E-002   8.0627845458818445E-002   0.0000000000000000     
  -3.3222588356568952E-002   8.0641367779094919E-002   0.0000000000000000     
  -3.4683494683704685E-002   8.6940786484903013E-002   0.0000000000000000     
  -3.6108972572975240E-002   9.3405892814310512E-002   0.0000000000000000     
  -3.7499022024380622E-002  0.10003668676731742        0.0000000000000000     
  -3.8853643037920833E-002  0.10683316834392370        0.0000000000000000     
  -3.7982233143492986E-002   8.0487595792380975E-002   0.0000000000000000     
  -3.9640392997151649E-002   8.6921414948969863E-002   0.0000000000000000     
  -4.1250750405303516E-002   9.3490633851748564E-002   0.0000000000000000     
  -4.2813305367948570E-002  0.10019525250071709        0.0000000000000000     
  -4.4328057885086827E-002  0.10703527089587546        0.0000000000000000     
  -4.3103905264404142E-002   8.0434084743430237E-002   0.0000000000000000     
  -4.4945003672464692E-002   8.6996000199319967E-002   0.0000000000000000     
  -4.6723184190853362E-002   9.3661540954860678E-002   0.0000000000000000     
  -4.8438446819570137E-002  0.10043070701005244        0.0000000000000000     
  -5.0090791558615046E-002  0.10730349836489517        0.0000000000000000     
  -4.8587604719302423E-002   8.0480834632242731E-002   0.0000000000000000     
  -5.0597326709643800E-002   8.7164542235953338E-002   0.0000000000000000     
  -5.2526273929624771E-002   9.3918614123646910E-002   0.0000000000000000     
  -5.4374446379245323E-002  0.10074305029532339        0.0000000000000000     
  -5.6141844058505461E-002  0.10763785075098282        0.0000000000000000     
  -5.4433331508187827E-002   8.0627845458818445E-002   0.0000000000000000     
  -5.6597362108688987E-002   8.7427041058870003E-002   0.0000000000000000     
  -5.8660019621617758E-002   9.4261853358107203E-002   0.0000000000000000     
  -6.0621304046974127E-002  0.10113228235653002        0.0000000000000000     
  -6.2481215384758093E-002  0.10803832805413846        0.0000000000000000     
  -3.8853643037920833E-002  0.10683316834392370        0.0000000000000000     
  -4.0161021492434695E-002  0.11378494712864912        0.0000000000000000     
  -4.1409343266761038E-002  0.12088163270601332        0.0000000000000000     
  -4.2598608360899848E-002  0.12812322507601634        0.0000000000000000     
  -4.3728816774851124E-002  0.13550972423865817        0.0000000000000000     
  -4.4328057885086827E-002  0.10703527089587546        0.0000000000000000     
  -4.5785461757027322E-002  0.11401140646522111        0.0000000000000000     
  -4.7175970784079070E-002  0.12112437663675150        0.0000000000000000     
  -4.8499584966242078E-002  0.12837418141046664        0.0000000000000000     
  -4.9756304303516345E-002  0.13576082078636653        0.0000000000000000     
  -5.0090791558615046E-002  0.10730349836489517        0.0000000000000000     
  -5.1675884982109607E-002  0.11429379754120392        0.0000000000000000     
  -5.3189393664175376E-002  0.12141548706079373        0.0000000000000000     
  -5.4631317604812366E-002  0.12866856692366455        0.0000000000000000     
  -5.6001656804020562E-002  0.13605303712981642        0.0000000000000000     
  -5.6141844058505461E-002  0.10763785075098282        0.0000000000000000     
  -5.7832291167681550E-002  0.11463212035659759        0.0000000000000000     
  -5.9449611907049976E-002  0.12175496397814002        0.0000000000000000     
  -6.0993806276610704E-002  0.12900638161561015        0.0000000000000000     
  -6.2464874276363755E-002  0.13638637326900793        0.0000000000000000     
  -6.2481215384758093E-002  0.10803832805413846        0.0000000000000000     
  -6.4254680313743165E-002  0.11502637491140208        0.0000000000000000     
  -6.5956625512702829E-002  0.12214280738879037        0.0000000000000000     
  -6.7587050981637101E-002  0.12938762548630336        0.0000000000000000     
  -6.9145956720545965E-002  0.13676082920394100        0.0000000000000000     
  -4.3728816774851124E-002  0.13550972423865817        0.0000000000000000     
  -4.4796938154576589E-002  0.14302800530088372        0.0000000000000000     
  -4.5799942146037942E-002  0.15066494336963773        0.0000000000000000     
  -4.6737828749235183E-002  0.15842053844492027        0.0000000000000000     
  -4.7610597964168305E-002  0.16629479052673141        0.0000000000000000     
  -4.9756304303516345E-002  0.13576082078636653        0.0000000000000000     
  -5.0943952166489913E-002  0.14327512219391089        0.0000000000000000     
  -5.2060351925750863E-002  0.15090791306255960        0.0000000000000000     
  -5.3105503581299167E-002  0.15865919339231255        0.0000000000000000     
  -5.4079407133134826E-002  0.16652896318316981        0.0000000000000000     
  -5.6001656804020562E-002  0.13605303712981642        0.0000000000000000     
  -5.7298316932372431E-002  0.14356209221079164        0.0000000000000000     
  -5.8519203660440451E-002  0.15118892669813250        0.0000000000000000     
  -5.9664316988224636E-002  0.15893354059183903        0.0000000000000000     
  -6.0733656915724979E-002  0.16679593389191122        0.0000000000000000     
  -6.2464874276363755E-002  0.13638637326900793        0.0000000000000000     
  -6.3860032452224116E-002  0.14388891535152590        0.0000000000000000     
  -6.5176497350106735E-002  0.15150798427635645        0.0000000000000000     
  -6.6414268970011611E-002  0.15924358004349973        0.0000000000000000     
  -6.7573347311938758E-002  0.16709570265295559        0.0000000000000000     
  -6.9145956720545965E-002  0.13676082920394100        0.0000000000000000     
  -7.0629098726044989E-002  0.14425559161611362        0.0000000000000000     
  -7.2032232994749687E-002  0.15186508579723149        0.0000000000000000     
  -7.3355359526660086E-002  0.15958931174729460        0.0000000000000000     
  -7.4598478321776171E-002  0.16742826946630293        0.0000000000000000     
  -4.7610597964168305E-002  0.16629479052673141        0.0000000000000000     
  -4.8418470848281270E-002  0.17426594987523580        0.0000000000000000     
  -4.9161668459017982E-002  0.18231226675059839        0.0000000000000000     
  -4.9840190796378456E-002  0.19043374115281911        0.0000000000000000     
  -5.0454037860362691E-002  0.19863037308189796        0.0000000000000000     
  -5.4079407133134826E-002  0.16652896318316981        0.0000000000000000     
  -5.4982449544510342E-002  0.17449334549648934        0.0000000000000000     
  -5.5815017778678186E-002  0.18252846339362921        0.0000000000000000     
  -5.6577111835638363E-002  0.19063431687458948        0.0000000000000000     
  -5.7268731715390875E-002  0.19881090593937006        0.0000000000000000     
  -6.0733656915724979E-002  0.16679593389191122        0.0000000000000000     
  -6.1727443019486655E-002  0.17475064899298931        0.0000000000000000     
  -6.2645894876054875E-002  0.18277222828971379        0.0000000000000000     
  -6.3489012485429638E-002  0.19086067178208449        0.0000000000000000     
  -6.4256795847610945E-002  0.19901597947010158        0.0000000000000000     
  -6.7573347311938758E-002  0.16709570265295559        0.0000000000000000     
  -6.8653451273210236E-002  0.17503786036473579        0.0000000000000000     
  -6.9654299751148091E-002  0.18304356143885195        0.0000000000000000     
  -7.0575892745752281E-002  0.19111280587530421        0.0000000000000000     
  -7.1418230257022902E-002  0.19924559367409250        0.0000000000000000     
  -7.4598478321776171E-002  0.16742826946630293        0.0000000000000000     
  -7.5760474305681044E-002  0.17535497961172866        0.0000000000000000     
  -7.6840232403957751E-002  0.18334246284104389        0.0000000000000000     
  -7.7837752616606332E-002  0.19139071915424863        0.0000000000000000     
  -7.8753034943626746E-002  0.19949974855134281        0.0000000000000000     
  -5.0454037860362691E-002  0.19863037308189796        0.0000000000000000     
  -5.1001880056810202E-002  0.20689928017043319        0.0000000000000000     
  -5.1482387791560474E-002  0.21523758005102300        0.0000000000000000     
  -5.1895561064613530E-002  0.22364527272366738        0.0000000000000000     
  -5.2241399875969340E-002  0.23212235818836632        0.0000000000000000     
  -5.7268731715390875E-002  0.19881090593937006        0.0000000000000000     
  -5.7888338794837436E-002  0.20705893572939038        0.0000000000000000     
  -5.8434394450879716E-002  0.21537911138606985        0.0000000000000000     
  -5.8906898683517762E-002  0.22377143290940843        0.0000000000000000     
  -5.9305851492751555E-002  0.23223590029940616        0.0000000000000000     
  -6.4256795847610945E-002  0.19901597947010158        0.0000000000000000     
  -6.4948638275533932E-002  0.20724164067966364        0.0000000000000000     
  -6.5563933082133763E-002  0.21554114473666955        0.0000000000000000     
  -6.6102680267410438E-002  0.22391449164111921        0.0000000000000000     
  -6.6564879831363957E-002  0.23236168139301269        0.0000000000000000     
  -7.1418230257022902E-002  0.19924559367409250        0.0000000000000000     
  -7.2182778498899730E-002  0.20744739502125298        0.0000000000000000     
  -7.2871003685322608E-002  0.21572368010282209        0.0000000000000000     
  -7.3482905816291549E-002  0.22407444891879971        0.0000000000000000     
  -7.4018484891806555E-002  0.23249970146918589        0.0000000000000000     
  -7.8753034943626746E-002  0.19949974855134281        0.0000000000000000     
  -7.9590759464934810E-002  0.20767619875415846        0.0000000000000000     
  -8.0355606260446244E-002  0.21592671748452749        0.0000000000000000     
  -8.1047575330161103E-002  0.22425130474244995        0.0000000000000000     
  -8.1666666674079361E-002  0.23264996052792580        0.0000000000000000     
  -5.2241399875969340E-002  0.23212235818836632        0.0000000000000000     
  -5.2529487819596585E-002  0.24066118095414926        0.0000000000000000     
  -5.2769408489463904E-002  0.24925408553004563        0.0000000000000000     
  -5.2961161885571290E-002  0.25790107191605538        0.0000000000000000     
  -5.3104748007918749E-002  0.26660214011217870        0.0000000000000000     
  -5.9305851492751555E-002  0.23223590029940616        0.0000000000000000     
  -5.9638879638067882E-002  0.24077279476908792        0.0000000000000000     
  -5.9913609878953548E-002  0.24938239753147859        0.0000000000000000     
  -6.0130042215408547E-002  0.25806470858657821        0.0000000000000000     
  -6.0288176647432884E-002  0.26681972793438669        0.0000000000000000     
  -6.6564879831363957E-002  0.23236168139301269        0.0000000000000000     
  -6.6954122600891397E-002  0.24089050982288998        0.0000000000000000     
  -6.7273999402889861E-002  0.24950877276129119        0.0000000000000000     
  -6.7524510237359364E-002  0.25821647020821625        0.0000000000000000     
  -6.7705655104299878E-002  0.26701360216366510        0.0000000000000000     
  -7.4018484891806555E-002  0.23249970146918589        0.0000000000000000     
  -7.4475216708067143E-002  0.24101432611555548        0.0000000000000000     
  -7.4850577061272863E-002  0.24963321121948334        0.0000000000000000     
  -7.5144565951423728E-002  0.25835635678096946        0.0000000000000000     
  -7.5357183378519682E-002  0.26718376280001394        0.0000000000000000     
  -8.1666666674079361E-002  0.23264996052792580        0.0000000000000000     
  -8.2202161959595121E-002  0.24114424364708439        0.0000000000000000     
  -8.2643342854102547E-002  0.24975571290605519        0.0000000000000000     
  -8.2990209357601624E-002  0.25848436830483806        0.0000000000000000     
  -8.3242761470092352E-002  0.26733020984343314        0.0000000000000000     
  -5.3104748007918749E-002  0.26660214011217870        0.0000000000000000     
  -5.3232414153394414E-002  0.27530918220991202        0.0000000000000000     
  -5.3376407618886394E-002  0.28397409030075205        0.0000000000000000     
  -5.3536728404394704E-002  0.29259686438469878        0.0000000000000000     
  -5.3713376509919322E-002  0.30117750446175218        0.0000000000000000     
  -6.0288176647432884E-002  0.26681972793438669        0.0000000000000000     
  -6.0426075895082101E-002  0.27560459426865069        0.0000000000000000     
  -6.0581802678411734E-002  0.28437644628311665        0.0000000000000000     
  -6.0755356997421767E-002  0.29313528397778466        0.0000000000000000     
  -6.0946738852112201E-002  0.30188110735265461        0.0000000000000000     
  -6.7705655104299878E-002  0.26701360216366510        0.0000000000000000     
  -6.7858580254971185E-002  0.27587170346373230        0.0000000000000000     
  -6.8024431940633082E-002  0.28476230894451204        0.0000000000000000     
  -6.8203210161285596E-002  0.29368541860600456        0.0000000000000000     
  -6.8394914916928701E-002  0.30264103244820956        0.0000000000000000     
  -7.5357183378519682E-002  0.26718376280001394        0.0000000000000000     
  -7.5529927233061650E-002  0.27611050979515683        0.0000000000000000     
  -7.5704295405550515E-002  0.28513167828493829        0.0000000000000000     
  -7.5880287895986248E-002  0.29424726826935838        0.0000000000000000     
  -7.6057904704368837E-002  0.30345727974841719        0.0000000000000000     
  -8.3242761470092352E-002  0.26733020984343314        0.0000000000000000     
  -8.3440116829353539E-002  0.27632101326292430        0.0000000000000000     
  -8.3621393073163977E-002  0.28548455430439529        0.0000000000000000     
  -8.3786590201523667E-002  0.29482083296784634        0.0000000000000000     
  -8.3935708214432608E-002  0.30432984925327733        0.0000000000000000     
  -4.7344124837415097E-002   5.3778061885511860E-002   0.0000000000000000     
  -4.8784614897662643E-002   6.0438801760989438E-002   0.0000000000000000     
  -5.0446312696207279E-002   6.7134012315033048E-002   0.0000000000000000     
  -5.2329218233049000E-002   7.3863693547642745E-002   0.0000000000000000     
  -5.4433331508187827E-002   8.0627845458818445E-002   0.0000000000000000     
  -5.3250647544351624E-002   5.2126405325763008E-002   0.0000000000000000     
  -5.4826039652323924E-002   5.9532751977154817E-002   0.0000000000000000     
  -5.6605399749567326E-002   6.6793299334965528E-002   0.0000000000000000     
  -5.8588727836081822E-002   7.3908047399195084E-002   0.0000000000000000     
  -6.0776023911867420E-002   8.0876996169843576E-002   0.0000000000000000     
  -6.0789405528663798E-002   5.0749900149018937E-002   0.0000000000000000     
  -6.2187413778388073E-002   5.8850112307706384E-002   0.0000000000000000     
  -6.3813618975376935E-002   6.6630227287766408E-002   0.0000000000000000     
  -6.5668021119630299E-002   7.4090245089199050E-002   0.0000000000000000     
  -6.7750620211148249E-002   8.1230165712004282E-002   0.0000000000000000     
  -6.9960398790351638E-002   4.9648546355279675E-002   0.0000000000000000     
  -7.0868737275855090E-002   5.8390882752644105E-002   0.0000000000000000     
  -7.2070970373636037E-002   6.6644796173435730E-002   0.0000000000000000     
  -7.3567098083694452E-002   7.4410286617654559E-002   0.0000000000000000     
  -7.5357120406030334E-002   8.1687354085300590E-002   0.0000000000000000     
  -8.0763627329415111E-002   4.8822343944545196E-002   0.0000000000000000     
  -8.0870010144724974E-002   5.8155063311968007E-002   0.0000000000000000     
  -8.1377453944344702E-002   6.6837005991973480E-002   0.0000000000000000     
  -8.2285958728274267E-002   7.4868171984561638E-002   0.0000000000000000     
  -8.3595524496513682E-002   8.2248561289732472E-002   0.0000000000000000     
  -5.4433331508187827E-002   8.0627845458818445E-002   0.0000000000000000     
  -5.6597362108688987E-002   8.7427041058870003E-002   0.0000000000000000     
  -5.8660019621617758E-002   9.4261853358107203E-002   0.0000000000000000     
  -6.0621304046974127E-002  0.10113228235653002        0.0000000000000000     
  -6.2481215384758093E-002  0.10803832805413846        0.0000000000000000     
  -6.0776023911867420E-002   8.0876996169843576E-002   0.0000000000000000     
  -6.3012866267071310E-002   8.7775153248628460E-002   0.0000000000000000     
  -6.5144833191840737E-002   9.4677526237267398E-002   0.0000000000000000     
  -6.7171924686175680E-002  0.10158411513576031        0.0000000000000000     
  -6.9094140750076166E-002  0.10849491994410726        0.0000000000000000     
  -6.7750620211148249E-002   8.1230165712004282E-002   0.0000000000000000     
  -6.9911595582261829E-002   8.8200535385787301E-002   0.0000000000000000     
  -7.2001126565302137E-002   9.5151900340153348E-002   0.0000000000000000     
  -7.4019213160269146E-002  0.10208426057510236        0.0000000000000000     
  -7.5965855367162896E-002  0.10899761609063439        0.0000000000000000     
  -7.5357120406030334E-002   8.1687354085300590E-002   0.0000000000000000     
  -7.7293550054260543E-002   8.8703187470346515E-002   0.0000000000000000     
  -7.9228899742001938E-002   9.5684975666765010E-002   0.0000000000000000     
  -8.1163169469254517E-002  0.10263271867455614        0.0000000000000000     
  -8.3096359236018269E-002  0.10954641649371986        0.0000000000000000     
  -8.3595524496513682E-002   8.2248561289732472E-002   0.0000000000000000     
  -8.5158729683067480E-002   8.9283109502306043E-002   0.0000000000000000     
  -8.6828152721940180E-002   9.6276752217102454E-002   0.0000000000000000     
  -8.8603793613131795E-002  0.10322948943412166        0.0000000000000000     
  -9.0485652356642313E-002  0.11014132115336371        0.0000000000000000     
  -6.2481215384758093E-002  0.10803832805413846        0.0000000000000000     
  -6.4254680313743165E-002  0.11502637491140208        0.0000000000000000     
  -6.5956625512702829E-002  0.12214280738879037        0.0000000000000000     
  -6.7587050981637101E-002  0.12938762548630336        0.0000000000000000     
  -6.9145956720545965E-002  0.13676082920394100        0.0000000000000000     
  -6.9094140750076166E-002  0.10849491994410726        0.0000000000000000     
  -7.0930782919369620E-002  0.11547222290444048        0.0000000000000000     
  -7.2701152729883478E-002  0.12257830625889228        0.0000000000000000     
  -7.4405250181617769E-002  0.12981317000746267        0.0000000000000000     
  -7.6043075274572505E-002  0.13717681415015165        0.0000000000000000     
  -7.5965855367162896E-002  0.10899761609063439        0.0000000000000000     
  -7.7848329483636070E-002  0.11596532603453587        0.0000000000000000     
  -7.9673911807341416E-002  0.12306074955459331        0.0000000000000000     
  -8.1442602338279005E-002  0.13028388665080662        0.0000000000000000     
  -8.3154401076448739E-002  0.13763473732317591        0.0000000000000000     
  -8.3096359236018269E-002  0.10954641649371986        0.0000000000000000     
  -8.5007320006542555E-002  0.11650568430168826        0.0000000000000000     
  -8.6874902745076699E-002  0.12359013727589335        0.0000000000000000     
  -8.8699107451620740E-002  0.13079977541633520        0.0000000000000000     
  -9.0479934126174694E-002  0.13813459872301373        0.0000000000000000     
  -9.0485652356642313E-002  0.11014132115336371        0.0000000000000000     
  -9.2407754488089050E-002  0.11709329770589763        0.0000000000000000     
  -9.4304125543089284E-002  0.12416646942279252        0.0000000000000000     
  -9.6174765521643044E-002  0.13136083630404832        0.0000000000000000     
  -9.8019674423750300E-002  0.13867639834966514        0.0000000000000000     
  -6.9145956720545965E-002  0.13676082920394100        0.0000000000000000     
  -7.0629098726044989E-002  0.14425559161611362        0.0000000000000000     
  -7.2032232994749687E-002  0.15186508579723149        0.0000000000000000     
  -7.3355359526660086E-002  0.15958931174729460        0.0000000000000000     
  -7.4598478321776171E-002  0.16742826946630293        0.0000000000000000     
  -7.6043075274572505E-002  0.13717681415015165        0.0000000000000000     
  -7.7606918260304913E-002  0.14466117657786515        0.0000000000000000     
  -7.9089069390372274E-002  0.15225819518150921        0.0000000000000000     
  -8.0489528664774587E-002  0.15996786996108373        0.0000000000000000     
  -8.1808296083511839E-002  0.16779020091658878        0.0000000000000000     
  -8.3154401076448739E-002  0.13763473732317591        0.0000000000000000     
  -8.4794893561473864E-002  0.14510472581009085        0.0000000000000000     
  -8.6349665332977499E-002  0.15268527634994131        0.0000000000000000     
  -8.7818716390959659E-002  0.16037638894272718        0.0000000000000000     
  -8.9202046735420371E-002  0.16817806358844856        0.0000000000000000     
  -9.0479934126174694E-002  0.13813459872301373        0.0000000000000000     
  -9.2193024629551756E-002  0.14558623931279066        0.0000000000000000     
  -9.3814020822565306E-002  0.15314632930252772        0.0000000000000000     
  -9.5342922705215299E-002  0.16081486869222494        0.0000000000000000     
  -9.6779730277501766E-002  0.16859185748188227        0.0000000000000000     
  -9.8019674423750300E-002  0.13867639834966514        0.0000000000000000     
  -9.9801311464538689E-002  0.14610571708596462        0.0000000000000000     
 -0.10148213585913576       0.15364135403926857        0.0000000000000000     
 -0.10306214760754155       0.16128330920957701        0.0000000000000000     
 -0.10454134670975604       0.16903158259688994        0.0000000000000000     
  -7.4598478321776171E-002  0.16742826946630293        0.0000000000000000     
  -7.5760474305681044E-002  0.17535497961172866        0.0000000000000000     
  -7.6840232403957751E-002  0.18334246284104389        0.0000000000000000     
  -7.7837752616606332E-002  0.19139071915424863        0.0000000000000000     
  -7.8753034943626746E-002  0.19949974855134281        0.0000000000000000     
  -8.1808296083511839E-002  0.16779020091658878        0.0000000000000000     
  -8.3044710171862726E-002  0.17569832064050930        0.0000000000000000     
  -8.4198109455105988E-002  0.18366536172533027        0.0000000000000000     
  -8.5268493933241568E-002  0.19169132417105175        0.0000000000000000     
  -8.6255863606269509E-002  0.19977620797767365        0.0000000000000000     
  -8.9202046735420371E-002  0.16817806358844856        0.0000000000000000     
  -9.0502356926718971E-002  0.17606419735761897        0.0000000000000000     
  -9.1722347525214840E-002  0.18400868732075201        0.0000000000000000     
  -9.2862018530907905E-002  0.19201153347784777        0.0000000000000000     
  -9.3921369943798252E-002  0.20007273582890608        0.0000000000000000     
  -9.6779730277501766E-002  0.16859185748188227        0.0000000000000000     
  -9.8133414570249725E-002  0.17645260976305766        0.0000000000000000     
  -9.9412946614284251E-002  0.18437243962730912        0.0000000000000000     
 -0.10061832640960530       0.19235134707463661        0.0000000000000000     
 -0.10174955395621292       0.20038933210504012        0.0000000000000000     
 -0.10454134670975604       0.16903158259688994        0.0000000000000000     
 -0.10593788310245501       0.17686355785682542        0.0000000000000000     
 -0.10726990672231428       0.18475661864500154        0.0000000000000000     
 -0.10853741756933379       0.19271076496141834        0.0000000000000000     
 -0.10974041564351358       0.20072599680607578        0.0000000000000000     
  -7.8753034943626746E-002  0.19949974855134281        0.0000000000000000     
  -7.9590759464934810E-002  0.20767619875415846        0.0000000000000000     
  -8.0355606260446244E-002  0.21592671748452749        0.0000000000000000     
  -8.1047575330161103E-002  0.22425130474244995        0.0000000000000000     
  -8.1666666674079361E-002  0.23264996052792580        0.0000000000000000     
  -8.6255863606269509E-002  0.19977620797767365        0.0000000000000000     
  -8.7167542404869638E-002  0.20792740385110839        0.0000000000000000     
  -8.8010854259721785E-002  0.21615230249726847        0.0000000000000000     
  -8.8785799170825949E-002  0.22445090391615372        0.0000000000000000     
  -8.9492377138182116E-002  0.23282320810776425        0.0000000000000000     
  -9.3921369943798252E-002  0.20007273582890608        0.0000000000000000     
  -9.4908088549934752E-002  0.20820036228483130        0.0000000000000000     
  -9.5829861135366332E-002  0.21640248075652754        0.0000000000000000     
  -9.6686687700092949E-002  0.22467909124399482        0.0000000000000000     
  -9.7478568244114674E-002  0.23303019374723319        0.0000000000000000     
 -0.10174955395621292       0.20038933210504012        0.0000000000000000     
 -0.10281239790013011       0.20849507405532708        0.0000000000000000     
 -0.10381262688737986       0.21667725226230478        0.0000000000000000     
 -0.10475024091796216       0.22493586672597327        0.0000000000000000     
 -0.10562523999187699       0.23327091744633247        0.0000000000000000     
 -0.10974041564351358       0.20072599680607578        0.0000000000000000     
 -0.11088047045545574       0.20881153916259576        0.0000000000000000     
 -0.11195915151576238       0.21697661701460019        0.0000000000000000     
 -0.11297645882443351       0.22522123036208902        0.0000000000000000     
 -0.11393239238146910       0.23354537920506227        0.0000000000000000     
  -8.1666666674079361E-002  0.23264996052792580        0.0000000000000000     
  -8.2202161959595121E-002  0.24114424364708439        0.0000000000000000     
  -8.2643342854102547E-002  0.24975571290605519        0.0000000000000000     
  -8.2990209357601624E-002  0.25848436830483806        0.0000000000000000     
  -8.3242761470092352E-002  0.26733020984343314        0.0000000000000000     
  -8.9492377138182116E-002  0.23282320810776425        0.0000000000000000     
  -9.0115054943543951E-002  0.24129539366733063        0.0000000000000000     
  -9.0638299368665090E-002  0.24989363919008353        0.0000000000000000     
  -9.1062110413545477E-002  0.25861794467602289        0.0000000000000000     
  -9.1386488078185182E-002  0.26746831012514871        0.0000000000000000     
  -9.7478568244114674E-002  0.23303019374723319        0.0000000000000000     
  -9.8193992247982295E-002  0.24148290742614817        0.0000000000000000     
  -9.8821449192246655E-002  0.25006435144064537        0.0000000000000000     
  -9.9360939076907698E-002  0.25877452579072485        0.0000000000000000     
  -9.9812461901965521E-002  0.26761343047638653        0.0000000000000000     
 -0.10562523999187699       0.23327091744633247        0.0000000000000000     
 -0.10643897387291013       0.24170678492353684        0.0000000000000000     
 -0.10719279232484723       0.25026784965774068        0.0000000000000000     
 -0.10788669534768829       0.25895411164894394        0.0000000000000000     
 -0.10852068294143334       0.26776557089714670        0.0000000000000000     
 -0.11393239238146910       0.23354537920506227        0.0000000000000000     
 -0.11484999981832744       0.24196702615949681        0.0000000000000000     
 -0.11575232876646684       0.25050413384136944        0.0000000000000000     
 -0.11663937922588721       0.25915670225068022        0.0000000000000000     
 -0.11751115119658864       0.26792473138742912        0.0000000000000000     
  -8.3242761470092352E-002  0.26733020984343314        0.0000000000000000     
  -8.3440116829353539E-002  0.27632101326292430        0.0000000000000000     
  -8.3621393073163977E-002  0.28548455430439529        0.0000000000000000     
  -8.3786590201523667E-002  0.29482083296784634        0.0000000000000000     
  -8.3935708214432608E-002  0.30432984925327733        0.0000000000000000     
  -9.1386488078185182E-002  0.26746831012514871        0.0000000000000000     
  -9.1641497846683198E-002  0.27650906582542428        0.0000000000000000     
  -9.1857205203138476E-002  0.28580454206481276        0.0000000000000000     
  -9.2033610147551140E-002  0.29535473884331431        0.0000000000000000     
  -9.2170712679921066E-002  0.30515965616092877        0.0000000000000000     
  -9.9812461901965521E-002  0.26761343047638653        0.0000000000000000     
 -0.10018641908788699       0.27668051944104638        0.0000000000000000     
 -0.10049321205513916       0.28607524662812028        0.0000000000000000     
 -0.10073284080372188       0.29579761203760818        0.0000000000000000     
 -0.10090530533363529       0.30584761566951008        0.0000000000000000     
 -0.10852068294143334       0.26776557089714670        0.0000000000000000     
 -0.10907488055296498       0.27683537410979070        0.0000000000000000     
 -0.10952941362916586       0.28629666799431780        0.0000000000000000     
 -0.10988428217003597       0.29614945255072794        0.0000000000000000     
 -0.11013948617557527       0.30639372777902130        0.0000000000000000     
 -0.11751115119658864       0.26792473138742912        0.0000000000000000     
 -0.11830688224191713       0.27697362983165719        0.0000000000000000     
 -0.11896580992521867       0.28646880616340542        0.0000000000000000     
 -0.11948793424649330       0.29641026038267376        0.0000000000000000     
 -0.11987325520574099       0.30679799248946232        0.0000000000000000     
 </DataArray>
 <DataArray  type="Float64" Name="stress" NumberOfComponents="3" format="ascii">
   237236759.05705193        1393334328.6373029       -1448299175.3486090     
   726113665.08125997        456133715.80779183       -1221353745.8627565     
   1315865050.6234219       -144818631.96187258       -1088858082.9308820     
   2006490915.6835322       -409522714.67169821       -1050812186.5529917     
   2797991260.2616034       -337978532.32167709       -1107216056.7290759     
   2216491484.9146152        2515401401.7632265       -738877303.18103766     
   2446508605.1960425        1401199617.4634552       -622651033.17430997     
   2781180339.2482433        635846545.73294902       -570251484.53798652     
   3220506687.0712175        219342186.57167804       -581678657.27206683     
   3764487648.6649756        151686539.97968411       -656932551.37655449     
   3493110058.8978577        3426677629.3268480       -69869446.153539509     
   3551761808.2467151        2161722997.9998870       -59952178.997646913     
   3718848305.6191792        1258217526.7515903       -83238588.028583735     
   3994369551.0152407        716161215.58196187       -139728673.24635285     
   4378325544.4349098        535554064.49100399       -229422434.65094501     
   4067092481.0067892        4127163011.3281822        558724395.73387563     
   4041873274.2333040        2737703857.4170938        466742816.66722745     
   4128868949.7362461        1722294311.0940814        372180606.59732920     
   4328079507.5156107        1080934372.3591533        275037765.52417046     
   4639504947.5713921        813624041.21228993        175314293.44776776     
   3938438751.2414045        4616857547.7672186        1146904222.4812145     
   3916843003.1557951        3129142195.7150693        957433953.82031786     
   4011242271.5994325        2028076898.7604082        796006099.33974838     
   4221636556.5723166        1313661656.9032390        662620659.03949821     
   4548025858.0744505        985896470.14355516        557277632.91957271     
   2797991260.2616034       -337978532.32167709       -1107216056.7290759     
   3018718968.2973690       -282013760.37755108       -806914518.29543006     
   3241200140.0394306       -220204109.41243696       -599485230.01754737     
   3465434775.4878006       -152549579.42629528       -484928191.89543366     
   3691422874.6424642       -79050170.419175148       -463243403.92907345     
   3764487648.6649756        151686539.97968411       -656932551.37655449     
   3741897601.0719223        83298128.463409662       -461358468.67937857     
   3726238788.8279381        38013834.777388811       -331382751.66544181     
   3717511211.9330339        15833658.921627998       -267005400.33473444     
   3715714870.3872104        16757600.896145582       -268226414.68726492     
   4378325544.4349098        535554064.49100399       -229422434.65094501     
   4190343125.4202547        366190084.77651572       -132535074.10699648     
   4014469713.3974552        237189461.70153189       -73972194.773755699     
   3850705308.3665094        148552195.26605701       -53733796.651228465     
   3699049910.3274121        100278285.47008681       -71819879.739410266     
   4639504947.5713921        813624041.21228993        175314293.44776776     
   4364055541.3423758        566662108.56175923        179555665.42172045     
   4105892913.7479753        377322771.35996187        172746440.65749386     
   3865017064.7882099        245606029.60694373        154886619.15508702     
   3641427994.4630661        171511883.30266523        125976200.91449463     
   4548025858.0744505        985896470.14355516        557277632.91957271     
   4263034848.8382730        684714199.81911874        474913749.90677118     
   4000508389.8795094        458413763.75271070        408773154.62831324     
   3760446481.1981387        306995161.94428742        358855847.08420378     
   3542849122.7941732        230458394.39388275        325161827.27444500     
   3691422874.6424642       -79050170.419175148       -463243403.92907345     
   3641384020.5424204       -81167461.493971348       -375568487.00425279     
   3594333275.8533015       -73324387.865637302       -302451270.70208013     
   3550270640.5751286       -55520949.534162998       -243891755.02256063     
   3509196114.7078981       -27757146.499568701       -199889939.96568915     
   3715714870.3872104        16757600.896145582       -268226414.68726492     
   3629171348.7306828        5898600.1118154526       -190413866.68756014     
   3544690796.9609447        1916165.6168003082       -124106813.94491287     
   3462273215.0780025        4810297.4110848904       -69305256.459318265     
   3381918603.0818410        14580995.494648218       -26009194.230772834     
   3699049910.3274121        100278285.47008681       -71819879.739410266     
   3584722307.8732600        83293751.003905296       -4949030.1096673561     
   3471532535.7817440        70101984.413189530        53468529.628627814     
   3359480594.0528622        60702985.697927833        103432799.47545297     
   3248566482.6866293        55096754.858135104        144943779.43082815     
   3641427994.4630661        171511883.30266523        125976200.91449463     
   3508036897.9701333        151017991.18227279        180826022.72943613     
   3374858492.3156900        131233068.52351356        230274760.01852185     
   3241892777.4997363        112157115.32638204        274322412.78174156     
   3109139753.5222692        93790131.590869188        312968981.01910567     
   3542849122.7941732        230458394.39388275        325161827.27444500     
   3399115119.0213137        209071320.64694583        366911291.82974422     
   3254668666.5627861        185309417.94778681        406311877.22477615     
   3109509765.4186053        159172686.29643929        443363583.45954585     
   2963638415.5887532        130661125.69286335        478066410.53404957     
   3509196114.7078981       -27757146.499568701       -199889939.96568915     
   3311879198.5996451       -40279264.569420815       -170501075.91870022     
   3115917115.4768829       -48285272.687649369       -133808306.40420863     
   2921309865.3395767       -51775170.854358315       -89811631.422216326     
   2728057448.1877441       -50748959.069475651       -38511050.972722672     
   3381918603.0818410        14580995.494648218       -26009194.230772834     
   3200481034.1579289       -807314.59161496162        1961603.6118582562     
   3020386569.3528433       -11718610.948486209        35504807.363336317     
   2841635208.6665626       -18152893.575989008        74620417.023693383     
   2664226952.0991011       -20110162.474104404        119308432.59289229     
   3248566482.6866293        55096754.858135104        144943779.43082815     
   3078061119.3509321        35358110.276600242        171482827.39132911     
   2908887131.2673998        20057383.202268004        201862781.70204410     
   2741044518.4360232        9194573.6351292133        236083642.36296913     
   2574533280.8567972        2769681.5751619339        274145409.37412137     
   3109139753.5222692        93790131.590869188        312968981.01910567     
   2944619454.1786532        68217010.035220623        338062595.41971058     
   2781418801.2205448        47042709.764592886        365265616.61189395     
   2619537794.6479330        30267230.778952122        394578044.59564328     
   2458976434.4608297        17890573.078332186        425999879.37095582     
   2963638415.5887532        130661125.69286335        478066410.53404957     
   2800156038.6410980        97769384.684271574        501700907.69700283     
   2637981579.2122912        69237368.738502860        525713312.09288347     
   2477115037.3023238        45065077.855542302        550103623.72168696     
   2317556412.9112082        25252512.035393238        574871842.58340895     
   2728057448.1877441       -50748959.069475651       -38511050.972722672     
   2611232122.8651485       -27284963.970440745       -21161318.759478096     
   2492728660.6660838       -9414758.4596239328       -12211986.619518995     
   2372547061.5905743        2861657.4630428553       -11663054.552835116     
   2250687325.6386313        9544283.7975871563       -19514522.559431586     
   2664226952.0991011       -20110162.474104404        119308432.59289229     
   2524914131.3626680       -9911839.8295009136        127405281.11657627     
   2384737521.3162799       -2592814.8847515583        129665765.34622417     
   2243697121.9599319        1846912.3601319790        126089885.28184757     
   2101792933.2936118        3407341.9051096439        116677640.92344771     
   2574533280.8567972        2769681.5751619339        274145409.37412137     
   2420058781.2187023        1900076.7190533876        273939446.36914009     
   2265534839.8371234        865666.05133974552        270461154.84938377     
   2110961456.7120607       -333550.42800128460        263710534.81485522     
   1956338631.8435252       -1697572.7189012766        253687586.26553556     
   2458976434.4608297        17890573.078332186        425999879.37095582     
   2296666072.4332051        8150785.6751044989        418441176.99821377     
   2135120616.2285824        960684.34856343269        410174181.88994813     
   1974340065.8469694       -3679730.9012736082        401198894.04614985     
   1814324421.2883701       -5770460.0744327307        391515313.46683002     
   2317556412.9112082        25252512.035393238        574871842.58340895     
   2154736005.0061989        8840287.0387200117        560910473.00380397     
   1993494850.4906883       -2307759.9929689169        548804846.46792412     
   1833832949.3646541       -8191629.0597306490        538554962.97576737     
   1675750301.6281259       -8811320.1614842415        530160822.52732921     
   2250687325.6386313        9544283.7975871563       -19514522.559431586     
   2133447884.1558151        11538155.988890767       -18198685.756508883     
   2013881188.9006147        5774515.6055806875       -17397021.652032495     
   1891987239.8730588       -7746637.3522545099       -17109530.246011395     
   1767766037.0731325       -29025302.884645820       -17336211.538444299     
   2101792933.2936118        3407341.9051096439        116677640.92344771     
   1983001179.2575634        8170551.1233443022        116506431.41299675     
   1862613247.0264783        7613166.3581467867        115016230.24613439     
   1740629136.6004021        1735187.6096504927        112207037.42286125     
   1617048847.9793167       -9463385.1222431064        108078852.94318309     
   1956338631.8435252       -1697572.7189012766        253687586.26553556     
   1833695082.5172193        5145128.7051569223        252882251.94860214     
   1710186430.5732591        9104154.7370146513        249953107.01731530     
   1585812676.0116484        10179505.376712978        244900151.47167593     
   1460573818.8323705        8371180.6241936684        237723385.31165814     
   1814324421.2883701       -5770460.0744327307        391515313.46683002     
   1685529593.9348073        2461888.7343691587        390928775.85034442     
   1556600739.5409460        10247480.742154360        387413608.66154033     
   1427537858.1067846        17586315.948949218        380969811.90042710     
   1298340949.6323171        24478394.354725122        371597385.56699950     
   1675750301.6281259       -8811320.1614842415        530160822.52732921     
   1538504713.5103059        120831.21094787121        530646003.11819929     
   1401856173.9295337        11043144.373551011        527397735.17878574     
   1265804682.8858144        23955619.326333463        520416018.70911998     
   1130350240.3791568        38858256.069304287        509700853.70918208     
   1767766037.0731325       -29025302.884645820       -17336211.538444299     
   1743700242.8313189       -11462289.222336650       -10833812.314033823     
   1727760640.7973962        33188031.799597800       -43417883.473808937     
   1719947230.9713473        104925660.18111616       -115088425.01779526     
   1720260013.3532009        203750595.92231005       -225845436.94595692     
   1617048847.9793167       -9463385.1222431064        108078852.94318309     
   1500465982.9089453       -14614189.142121613        125879867.46933621     
   1388082730.0863957       -5766285.6692933440        116842025.05359414     
   1279899089.5116701        17080325.296298027        80965325.695973545     
   1175915061.1847606        53925643.754609287        18249769.396483373     
   1460573818.8323705        8371180.6241936684        237723385.31165814     
   1286467064.1972086       -8995486.6987352967        262242005.18613413     
   1112633341.8497977       -25452046.395837069        272169381.56102967     
   939072651.79014564       -40998498.467074215        267505514.43637291     
   765784994.01824737       -55634842.912460029        248250403.81214213     
   1298340949.6323171        24478394.354725122        371597385.56699950     
   1101703486.6961200        5393818.1078420877        398252600.83638334     
   901412476.08759952       -25869250.380074203        422564186.04850847     
   697467917.80678308       -69310811.108997971        444532141.20338267     
   489869811.85364884       -124930864.07898158        464156466.30101740     
   1130350240.3791568        38858256.069304287        509700853.70918208     
   946175250.40567505        28553725.277642488        533911654.42006743     
   754420132.79981637       -7017897.6219485104        568026438.51600945     
   555084887.56157565       -67856612.629482210        612045205.99701083     
   348169514.69095701       -153962419.74493116        665967956.86308432     
   1720260013.3532009        203750595.92231005       -225845436.94595692     
   1452327011.4179726        186182106.44474918       -97280797.219261140     
   1152584505.2373149        62581936.149100602        60422118.234395921     
   821032494.81120300       -167049914.96472293        247263309.41505012     
   457670980.13967240       -502713446.89663082        463242776.32264507     
   1175915061.1847606        53925643.754609287        18249769.396483373     
   971390843.65638149        10031278.110753059        151618686.69826272     
   729319127.72082233       -159021415.55705881        310700518.47056615     
   449699913.37801456       -453232437.24899352        495495264.71338332     
   132533200.62801737       -872601786.96492660        706002925.42675531     
   765784994.01824737       -55634842.912460029        248250403.81214213     
   614882814.44976497       -128791108.65665731        379729272.16692579     
   420695142.31229424       -346232349.63080227        533495693.73580009     
   183221977.60582447       -707958565.83496451        709549668.51873875     
  -97536679.669608235       -1213969757.2689869        907891196.51579249     
   489869811.85364884       -124930864.07898158        464156466.30101740     
   382802923.79806590       -230285053.85767910        587050959.18673372     
   226712549.01172990       -499050866.07220984        728807644.03008235     
   21598687.494639575       -931228300.72260737        889426520.83110273     
  -232538660.75322226       -1526817357.8088570        1068907589.5897515     
   348169514.69095701       -153962419.74493116        665967956.86308432     
   275151171.70131820       -294450557.49218214        773583747.75767446     
   147371347.81914315       -617476964.88120413        896636369.35346937     
  -35169956.955543935       -1123041641.9119716        1035125821.6504664     
  -272472742.62277716       -1811144588.5845094        1189052104.6486683     
   3938438751.2414045        4616857547.7672186        1146904222.4812145     
   3916843003.1557951        3129142195.7150693        957433953.82031786     
   4011242271.5994325        2028076898.7604082        796006099.33974838     
   4221636556.5723166        1313661656.9032390        662620659.03949821     
   4548025858.0744505        985896470.14355516        557277632.91957271     
   3206437739.4968596        3940282114.3532972        758600701.67330778     
   3339667709.0426288        2791167932.9967866        731204079.77492452     
   3560368646.1490135        1933623643.5089779        716723017.86751711     
   3868540550.8160038        1367649245.8898547        715157515.95108664     
   4264183423.0436020        1093244740.1394382        726507574.02563274     
   2620004108.1468902        3307376895.0577488        499302923.04821455     
   2864840211.9259191        2483898009.3774443        600701890.78226578     
   3168623234.2969089        1856908852.3370383        699889564.31794679     
   3531353175.2598724        1426409423.9365320        796865943.65525866     
   3953030034.8148031        1192399724.1759262        891631028.79419911     
   2179137857.1915126        2718141889.8805795        369010886.60594887     
   2492360511.8056455        2207332424.8570342        565927386.84235311     
   2836006036.0431218        1797932525.2446024        745505738.69104445     
   3210074429.9039202        1489942191.0432625        907745942.15201771     
   3614565693.3880534        1283361422.2530320        1052647997.2252721     
   1883838986.6307070        2172577098.8217783        367724592.34649414     
   2222228608.6818261        1961471179.4355574        626880567.95517623     
   2562517051.3876429        1756694662.2316449        853571540.98679912     
   2904704314.7481489        1558247547.2100391        1047797511.4413587     
   3248790398.7633533        1366129834.3707561        1209558479.3188519     
   4548025858.0744505        985896470.14355516        557277632.91957271     
   4263034848.8382730        684714199.81911874        474913749.90677118     
   4000508389.8795094        458413763.75271070        408773154.62831324     
   3760446481.1981387        306995161.94428742        358855847.08420378     
   3542849122.7941732        230458394.39388275        325161827.27444500     
   4264183423.0436020        1093244740.1394382        726507574.02563274     
   4018662279.5155230        791799458.68590045        659232389.60441482     
   3794664737.0138187        562099513.98694777        606156047.48486054     
   3592190795.5384932        404144906.04258931        567278547.66698349     
   3411240455.0895429        317935634.85281456        542599890.15077579     
   3953030034.8148031        1192399724.1759262        891631028.79419911     
   3741194627.1871667        888956192.65098047        838346768.83836496     
   3549941871.3348875        654121500.37721562        797236905.75152385     
   3379271767.2579503        487895647.35460865        768301439.53367603     
   3229184314.9563704        390278633.58317888        751540370.18482697     
   3614565693.3880534        1283361422.2530320        1052647997.2252721     
   3430631891.8532147        976184401.71438825        1012256887.6086279     
   3266339792.8427076        734479722.92350900        982015729.42830122     
   3121689396.3565211        558247385.88036704        961924522.68428946     
   2996680702.3946605        447487390.58498275        951983267.37660170     
   3248790398.7633533        1366129834.3707561        1209558479.3188519     
   3086974073.5136666        1053484085.8761225        1180962745.9151993     
   2943858501.5372825        803174181.62582660        1160492518.5151906     
   2819443682.8341970        615200121.61985719        1148147797.1188223     
   2713729617.4044113        489561905.85822815        1143928581.7260969     
   3542849122.7941732        230458394.39388275        325161827.27444500     
   3399115119.0213137        209071320.64694583        366911291.82974422     
   3254668666.5627861        185309417.94778681        406311877.22477615     
   3109509765.4186053        159172686.29643929        443363583.45954585     
   2963638415.5887532        130661125.69286335        478066410.53404957     
   3411240455.0895429        317935634.85281456        542599890.15077579     
   3257664672.5117874        274025126.36280131        567994299.88552308     
   3105039835.2846327        233284435.70811546        593364705.40978324     
   2953365943.4080701        195713562.88874841        618711106.72355986     
   2802642996.8821034        161312507.90470421        644033503.82685447     
   3229184314.9563704        390278633.58317888        751540370.18482697     
   3072409253.4302435        325837440.30706131        762520351.47465348     
   2918248531.2909703        270110711.65379107        775801203.50377965     
   2766702148.5385513        223098447.62337577        791382926.27220380     
   2617770105.1729889        184800648.21580923        809265519.77992153     
   2996680702.3946605        447487390.58498275        951983267.37660170     
   2843348861.7766786        364508262.47971350        950489446.59714437     
   2694294754.5818071        295788245.78481305        953621371.50676620     
   2549518380.8100524        241327340.50030243        961379042.10546923     
   2409019740.4614100        201125546.62616634        973762458.39325118     
   2713729617.4044113        489561905.85822815        1143928581.7260969     
   2570483497.5510888        390037592.88075322        1131901585.2529957     
   2433178505.1571441        310317038.10120273        1126825209.4187508     
   2301814640.2225661        250400241.51953888        1128699454.2233648     
   2176391902.7473645        210287203.13580012        1137524319.6668472     
   2963638415.5887532        130661125.69286335        478066410.53404957     
   2800156038.6410980        97769384.684271574        501700907.69700283     
   2637981579.2122912        69237368.738502860        525713312.09288347     
   2477115037.3023238        45065077.855542302        550103623.72168696     
   2317556412.9112082        25252512.035393238        574871842.58340895     
   2802642996.8821034        161312507.90470421        644033503.82685447     
   2641132222.0446625        126580237.50406718        661229248.12647426     
   2480585974.2149873        95063057.129309058        679988439.75303710     
   2321004253.3930712        66760966.780421615        700311078.70653522     
   2162387059.5789270        41673966.457430959        722197164.98698735     
   2617770105.1729889        184800648.21580923        809265519.77992153     
   2461618189.8572340        149244025.64654493        819621888.95328367     
   2306087411.0381613        115757858.06624269        832727245.54760456     
   2151177768.7157793        84342145.474892855        848581589.56288040     
   1996889262.8900788        54996887.872498393        867184920.99911702     
   2409019740.4614100        201125546.62616634        973762458.39325118     
   2261613942.0788169        165760749.11174262        976878830.17742825     
   2114485889.6818287        131321771.54933262        983929729.47657669     
   1967635583.2704489        97808613.938953876        994915156.29070687     
   1821063022.8446736        65221276.280585647        1009835110.6198090     
   2176391902.7473645        210287203.13580012        1137524319.6668472     
   2041119478.7094092        176130407.89964330        1133000071.7989132     
   1905781410.1459775        141754797.57856423        1133595891.5399666     
   1770377697.0570807        107160372.17260140        1139311778.8900170     
   1634908339.4427099        72347131.681725144        1150147733.8490632     
   2317556412.9112082        25252512.035393238        574871842.58340895     
   2154736005.0061989        8840287.0387200117        560910473.00380397     
   1993494850.4906883       -2307759.9929689169        548804846.46792412     
   1833832949.3646541       -8191629.0597306490        538554962.97576737     
   1675750301.6281259       -8811320.1614842415        530160822.52732921     
   2162387059.5789270        41673966.457430959        722197164.98698735     
   2004029805.9826322        21051547.804848909        707013230.65917158     
   1847600288.8544283        6854917.3792178631        694378332.06109381     
   1693098508.1943121       -915924.81943905354        684292469.19273496     
   1540524464.0022898       -2260978.7911279798        676755642.05411863     
   1996889262.8900788        54996887.872498393        867184920.99911702     
   1844975999.8482261        30758526.437697768        851184985.51479495     
   1695338956.3530662        14107563.491880536        838427378.44621611     
   1547978132.4045956        5043999.0350269675        828912099.79336929     
   1402893528.0028160        3567833.0671404600        822639149.55625153     
   1821063022.8446736        65221276.280585647        1009835110.6198090     
   1677574586.6029987        37961222.937334299        993425737.57069123     
   1536710852.9865990        19450178.345018387        980951985.62330973     
   1398471821.9954929        9688142.5036737919        972413854.77766192     
   1262857493.6296806        8675115.4133053422        967811345.03375447     
   1634908339.4427099        72347131.681725144        1150147733.8490632     
   1501825566.2469206        42659637.303675771        1133735486.8268380     
   1371715978.7550266        22882761.938608050        1121952153.5923550     
   1244579576.9670260        13016505.586525500        1114797734.1456156     
   1120416360.8829062        13060868.247378588        1112272228.4866157     
   1675750301.6281259       -8811320.1614842415        530160822.52732921     
   1538504713.5103059        120831.21094787121        530646003.11819929     
   1401856173.9295337        11043144.373551011        527397735.17878574     
   1265804682.8858144        23955619.326333463        520416018.70911998     
   1130350240.3791568        38858256.069304287        509700853.70918208     
   1540524464.0022898       -2260978.7911279798        676755642.05411863     
   1395065676.6081653        1343951.4672542810        677894857.59824991     
   1249535465.1793518        4710801.6100204587        677679034.79413188     
   1103933829.7158725        7839571.6372290254        676108173.64174807     
   958260770.21772194        10730261.548863411        673182274.14109695     
   1402893528.0028160        3567833.0671404600        822639149.55625153     
   1256016998.9952328        3884179.5102931857        823652515.38665509     
   1108400573.3812506        1734203.9321074486        825689253.05080462     
   960044251.16086817       -2882093.6674074531        828749362.54868484     
   810948032.33408535       -9964713.2882480919        832832843.88030982     
   1262857493.6296806        8675115.4133053422        967811345.03375447     
   1121358680.6715155        7741515.3400983810        967918976.48341990     
   978451498.53522778        2113351.3398278356        971428389.94881797     
   834135947.22080588       -8209376.5875613093        978339585.42995274     
   688412026.72826350       -23226668.442010105        988652562.92683578     
   1120416360.8829062        13060868.247378588        1112272228.4866157     
   991090721.63702178        12915958.956693888        1110694240.8885136     
   859688240.64128065        5848243.8331593275        1114896445.4881539     
   726208917.89568090       -8142277.1232402921        1124878842.2855380     
   590652753.40024352       -29055603.912431598        1140641431.2806621     
   1130350240.3791568        38858256.069304287        509700853.70918208     
   946175250.40567505        28553725.277642488        533911654.42006743     
   754420132.79981637       -7017897.6219485104        568026438.51600945     
   555084887.56157565       -67856612.629482210        612045205.99701083     
   348169514.69095701       -153962419.74493116        665967956.86308432     
   958260770.21772194        10730261.548863411        673182274.14109695     
   797508946.50532687       -4331787.2747920752        696173683.04997981     
   627974188.93464231       -48670282.292742997        728376817.55123830     
   449656497.50566375       -122285223.50500435        769791677.64488494     
   262555872.21839860       -225176610.91156280        820418263.33091319     
   810948032.33408535       -9964713.2882480919        832832843.88030982     
   671641495.47512400       -30377643.966171443        853201587.05695713     
   522349218.53195941       -84076374.924782604        882089798.03330708     
   363071201.50458980       -171060906.16406158        919497476.80936146     
   193807444.39301252       -291331237.68404269        965424623.38512278     
   688412026.72826350       -23226668.442010105        988652562.92683578     
   568572897.31507397       -49583844.796517342        1004995366.4410115     
   437545221.59177339       -113236175.51805025        1029165379.9622207     
   295328999.55834675       -214183660.60667634        1061162603.4904487     
   141924231.21479946       -352426300.06237078        1100987037.0256984     
   590652753.40024352       -29055603.912431598        1140641431.2806621     
   488303152.02517170       -61950389.765799016        1151555021.2021492     
   373562198.11406660       -136149684.07261086        1169603563.3379769     
   246429891.66693607       -251653486.83284056        1194787057.6881487     
   106906232.68376288       -408461798.04654580        1227105504.2526610     
   348169514.69095701       -153962419.74493116        665967956.86308432     
   275151171.70131820       -294450557.49218214        773583747.75767446     
   147371347.81914315       -617476964.88120413        896636369.35346937     
  -35169956.955543935       -1123041641.9119716        1035125821.6504664     
  -272472742.62277716       -1811144588.5845094        1189052104.6486683     
   262555872.21839860       -225176610.91156280        820418263.33091319     
   223984971.18961897       -364141915.86726701        873739905.43085063     
   141032497.54000342       -651045796.22575223        937771326.15528357     
   13698451.269552350       -1085888251.9870460        1012512525.5041870     
  -158017167.62174547       -1668669283.1511319        1097963503.4775896     
   193807444.39301252       -291331237.68404269        965424623.38512278     
   176178122.24875483       -432825468.77109134        976562009.67405498     
   124547135.75534895       -687658581.02195477        993682122.51074636     
   38914484.912793875       -1055830574.4366641        1016784961.8951981     
  -80719830.278915763       -1537341449.0152149        1045870527.8274339     
   141924231.21479946       -352426300.06237078        1100987037.0256984     
   131730624.87871635       -500501216.20365304        1082050060.4872601     
   97915262.465173036       -727315319.26981366        1064368758.4198556     
   40478143.974170923       -1032868609.2608345        1047943130.8235022     
  -40580730.594304323       -1417161086.1767702        1032773177.6981800     
   106906232.68376288       -408461798.04654580        1227105504.2526610     
   90642479.079508930       -567169158.16497862        1190204057.8704774     
   61136877.669486254       -770016010.96931267        1149831233.8826153     
   18389428.453678846       -1017002356.4595957        1105987032.2890747     
  -37599868.567902327       -1308128194.6357749        1058671453.0898604     
   1883838986.6307070        2172577098.8217783        367724592.34649414     
   2222228608.6818261        1961471179.4355574        626880567.95517623     
   2562517051.3876429        1756694662.2316449        853571540.98679912     
   2904704314.7481489        1558247547.2100391        1047797511.4413587     
   3248790398.7633533        1366129834.3707561        1209558479.3188519     
   1732167690.2191701        1943293219.0698717        357085907.68585056     
   1995192089.7883968        1740350041.5144196        608373678.61996222     
   2261544539.5742817        1548500364.6811597        832269494.41489470     
   2531225039.5768218        1367744188.5700834        1028773355.0706320     
   2804233589.7960215        1198081513.1812088        1197885260.5871823     
   1542057146.9453688        1702477565.2592905        357449009.07893181     
   1744210745.2837720        1512045455.9099250        602536009.82743847     
   1951121623.4007955        1337470945.8226306        825304102.87462807     
   2162789781.2964401        1178754034.9974079        1025753288.2205083     
   2379215218.9707074        1035894723.4342635        1203883565.8650763     
   1313507356.8092923        1450130137.3900223        368813896.52574605     
   1469284575.1679461        1276557422.6220694        609367561.57759404     
   1631248302.8671820        1123606405.6560669        832675366.36600995     
   1799398539.9070072        991277086.49202371        1038737310.8909881     
   1973735286.2874165        879569465.12993014        1227553395.1525295     
   1046518319.8109490        1186250935.4620779        391180570.02627701     
   1170413579.4409196        1033885941.6508502        628868333.87043762     
   1301924577.9734445        906906744.18146396        854383284.88903546     
   1441051315.4085176        805313343.05390882        1067725423.0820717     
   1587793791.7461433        729105738.26819539        1268894748.4495449     
   3248790398.7633533        1366129834.3707561        1209558479.3188519     
   3086974073.5136666        1053484085.8761225        1180962745.9151993     
   2943858501.5372825        803174181.62582660        1160492518.5151906     
   2819443682.8341970        615200121.61985719        1148147797.1188223     
   2713729617.4044113        489561905.85822815        1143928581.7260969     
   2804233589.7960215        1198081513.1812088        1197885260.5871823     
   2676444995.6075077        936353643.63436913        1195018467.9310434     
   2563904581.4205880        725453040.75950599        1198451067.2534394     
   2466612347.2352715        565379704.55665088        1208183058.5543773     
   2384568293.0515447        456133635.02576411        1224214441.8338518     
   2379215218.9707074        1035894723.4342635        1203883565.8650763     
   2280236887.2002153        823519492.24227202        1222717711.8061256     
   2193054162.1596117        650462950.14991701        1246025135.7006083     
   2117667043.8488991        516725097.15719736        1273805837.5485253     
   2054075532.2680802        422305933.26412404        1306059817.3498774     
   1973735286.2874165        879569465.12993014        1227553395.1525295     
   1898349748.2917871        714981631.69983780        1264060477.5404453     
   1831307243.7543449        578203909.79703617        1303214723.8566947     
   1772607772.6750877        469236299.42151701        1345016134.1012723     
   1722251335.0540230        388078800.57330799        1389464708.2741783     
   1587793791.7461433        729105738.26819539        1268894748.4495449     
   1530783578.8822238        610740062.00705802        1319046765.1340082     
   1478663826.2047873        508675919.70086139        1370019831.7216985     
   1431434533.7138317        422913311.34960514        1421813948.2126160     
   1389095701.4093637        353452236.95330453        1474429114.6067560     
   2713729617.4044113        489561905.85822815        1143928581.7260969     
   2570483497.5510888        390037592.88075322        1131901585.2529957     
   2433178505.1571441        310317038.10120273        1126825209.4187508     
   2301814640.2225661        250400241.51953888        1128699454.2233648     
   2176391902.7473645        210287203.13580012        1137524319.6668472     
   2384568293.0515447        456133635.02576411        1224214441.8338518     
   2261610894.3713102        365782551.84461695        1218074685.6547055     
   2143956297.9083958        293107476.05453420        1218474118.2476153     
   2031604503.6628020        238108407.65551853        1225412739.6125801     
   1924555511.6345272        200785346.64756787        1238890549.7495990     
   2054075532.2680802        422305933.26412404        1306059817.3498774     
   1950231335.1414893        340775423.99346721        1305062588.6822951     
   1851051614.9901695        274793171.30704159        1310193116.9199634     
   1756536371.8141105        224359175.20481992        1321451402.0628788     
   1666685605.6133201        189473435.68682945        1338837444.1110446     
   1722251335.0540230        388078800.57330799        1389464708.2741783     
   1636344819.8616323        315016209.32731199        1392865294.3357663     
   1554464456.4024570        255374123.85869658        1401982205.4357922     
   1476610244.6764908        209152544.16744614        1416815441.5742702     
   1402782184.6837430        176351470.25358760        1437365002.7511876     
   1389095701.4093637        353452236.95330453        1474429114.6067560     
   1319951348.5317287        288504907.84612954        1481482802.6151140     
   1254194822.1452579        234850333.70949912        1493841383.7951093     
   1191826122.2499430        192488514.54339081        1511504858.1467450     
   1132845248.8457899        161419450.34781975        1534473225.6700180     
   2176391902.7473645        210287203.13580012        1137524319.6668472     
   2041119478.7094092        176130407.89964330        1133000071.7989132     
   1905781410.1459775        141754797.57856423        1133595891.5399666     
   1770377697.0570807        107160372.17260140        1139311778.8900170     
   1634908339.4427099        72347131.681725144        1150147733.8490632     
   1924555511.6345272        200785346.64756787        1238890549.7495990     
   1803195213.9995646        167420580.68004608        1232436065.6386929     
   1681972786.7115173        134515382.53557408        1231380373.6283317     
   1560888229.7703946        102069752.21418446        1235723473.7185180     
   1439941543.1761954        70083689.715873659        1245465365.9092526     
   1666685605.6133201        189473435.68682945        1338837444.1110446     
   1560033790.0715029        157139605.69498056        1330690157.7749586     
   1453723359.7489979        125943726.43416923        1328220388.0309711     
   1347754314.6458097        95885797.904414594        1331428134.8790863     
   1242126654.7619333        66965820.105701268        1340313398.3193059     
   1402782184.6837430        176351470.25358760        1437365002.7511876     
   1311635206.9252250        145287482.94444507        1427762348.2077091     
   1221033129.2584207        116039829.27433884        1424115934.7478890     
   1130975951.6833210        88608509.243255079        1426425762.3717194     
   1041463674.1999350        62993522.851213038        1434691831.0792129     
   1132845248.8457899        161419450.34781975        1534473225.6700180     
   1057999464.5607362        131864212.42845291        1523652636.9369440     
   983902095.23978865        104803691.05610538        1519067013.7790787     
   910553140.88293707        80237886.230747163        1520716356.1964314     
   837952601.49018776        58166797.952393472        1528600664.1889906     
   1634908339.4427099        72347131.681725144        1150147733.8490632     
   1501825566.2469206        42659637.303675771        1133735486.8268380     
   1371715978.7550266        22882761.938608050        1121952153.5923550     
   1244579576.9670260        13016505.586525500        1114797734.1456156     
   1120416360.8829062        13060868.247378588        1112272228.4866157     
   1439941543.1761954        70083689.715873659        1245465365.9092526     
   1320055538.4195814        42499728.168600380        1231485001.0326202     
   1202724342.2609563        23431795.281288207        1222541652.0528164     
   1087947954.7003174        12879891.053934753        1218635318.9698422     
   975726375.73765981        10844015.486512363        1219766001.7836952     
   1242126654.7619333        66965820.105701268        1340313398.3193059     
   1136603424.4704559        41835193.196995676        1328276808.9647098     
   1033216625.6710597        23826004.595220566        1321685337.6160290     
   931966258.36373973        12938254.300369978        1320538984.2732570     
   832852322.54850125        9171942.3124624789        1324837748.9364078     
   1041463674.1999350        62993522.851213038        1434691831.0792129     
   951469224.39954829        40666032.388843000        1424110910.6231015     
   863192828.98534071        24065389.880406201        1419383210.2819896     
   776634487.95730448        13191595.325874567        1420508730.0558727     
   691794201.31544089        8044648.7252470851        1427487469.9447625     
   837952601.49018776        58166797.952393472        1528600664.1889906     
   764652938.20685625        38992245.744168460        1518987306.0077994     
   692652952.20379400        24149951.136838555        1515635270.0506930     
   621952643.48099613        13639914.130392700        1518544556.3176773     
   552552012.03847075        7462134.7248521149        1527715164.8087440     
   1120416360.8829062        13060868.247378588        1112272228.4866157     
   991090721.63702178        12915958.956693888        1110694240.8885136     
   859688240.64128065        5848243.8331593275        1114896445.4881539     
   726208917.89568090       -8142277.1232402921        1124878842.2855380     
   590652753.40024352       -29055603.912431598        1140641431.2806621     
   975726375.73765981        10844015.486512363        1219766001.7836952     
   861131777.73111701        8908455.1296515465        1216526393.4758296     
   744517901.40596294        241967.04408672452        1219251390.3234484     
   625884746.76220560       -15155448.770152569        1227940992.3265491     
   505232313.79983318       -37283792.313114464        1242595199.4851363     
   832852322.54850125        9171942.3124624789        1324837748.9364078     
   733515659.94628906        5603799.1389405727        1320003677.2552247     
   632217282.45670605       -4503393.6591417789        1321318623.6872714     
   528957190.07975698       -21149636.081783682        1328782588.2325439     
   423735382.81544119       -44334928.128978521        1342395570.8910456     
   691794201.31544089        8044648.7252470851        1427487469.9447625     
   608242368.28252912        3001990.9845391214        1421126092.2267132     
   522786383.79350239       -8387838.2765572667        1421098145.5796328     
   435426247.84833854       -26124839.058102310        1427403630.0035310     
   346161960.44705832       -50209011.360046476        1440042545.4983916     
   552552012.03847075        7462134.7248521149        1527715164.8087440     
   485311902.73985040        1103030.6664820910        1519893638.3902795     
   416225205.41634345       -11411366.808179289        1518589956.0005276     
   345291920.06795418       -30081057.699110746        1523804117.6394818     
   272512046.69468814       -54906042.006303996        1535536123.3071668     
   590652753.40024352       -29055603.912431598        1140641431.2806621     
   488303152.02517170       -61950389.765799016        1151555021.2021492     
   373562198.11406660       -136149684.07261086        1169603563.3379769     
   246429891.66693607       -251653486.83284056        1194787057.6881487     
   106906232.68376288       -408461798.04654580        1227105504.2526610     
   505232313.79983318       -37283792.313114464        1242595199.4851363     
   420979538.05904889       -67469245.125070065        1241045542.1527343     
   326233728.70136648       -132631476.66001374        1245656337.0074160     
   220994885.72681242       -232770486.91786018        1256427584.0491881     
   105263009.13536525       -367886275.89869487        1273359283.2780519     
   423735382.81544119       -44334928.128978521        1342395570.8910456     
   354795146.91677600       -72646333.637216121        1330597371.7104275     
   277260196.32037568       -129606788.13790554        1323985124.6896408     
   191130531.02624375       -215216291.63103372        1322558829.8286912     
   96406151.034375086       -329474844.11662161        1326318487.1275826     
   346161960.44705832       -50209011.360046476        1440042545.4983916     
   289749978.59836996       -77481655.302183762        1420210509.8752282     
   226641600.97109157       -127075618.50629114        1404589926.3846433     
   156836827.56523120       -198990900.97233677        1393180795.0266438     
   80335658.380789369       -293227502.70032042        1385983115.8012378     
   272512046.69468814       -54906042.006303996        1535536123.3071668     
   225844033.10382152       -81975210.120004147        1509884956.6471305     
   174377942.65351999       -125037967.76515134        1487470742.0924330     
   118113775.34378093       -184094314.94175833        1468293479.6430581     
   57051531.174608096       -259144251.64981115        1452353169.2990229     
   106906232.68376288       -408461798.04654580        1227105504.2526610     
   90642479.079508930       -567169158.16497862        1190204057.8704774     
   61136877.669486254       -770016010.96931267        1149831233.8826153     
   18389428.453678846       -1017002356.4595957        1105987032.2890747     
  -37599868.567902327       -1308128194.6357749        1058671453.0898604     
   105263009.13536525       -367886275.89869487        1273359283.2780519     
   86655000.047040910       -508071716.75413632        1219605720.0074978     
   55986082.514791727       -688460185.75598574        1163245971.8326426     
   13256256.538620949       -909051682.90424454        1104280038.7534764     
  -41534477.881476820       -1169846208.1989267        1042707920.7700362     
   96406151.034375086       -329474844.11662161        1326318487.1275826     
   77925865.608780086       -450396771.96501863        1257090569.5574670     
   48565611.101114541       -607585263.42032719        1186121659.7844458     
   8325387.5113707185       -801040318.48255765        1113411757.8084996     
  -42794805.160442710       -1030761937.1516827        1038960863.6296318     
   80335658.380789369       -293227502.70032042        1385983115.8012378     
   64455075.764726818       -394144323.79765201        1302658606.5204022     
   38875463.428433299       -527391243.96240306        1218458297.7380383     
   3596821.3719367087       -692968263.19450259        1133382189.4541512     
  -41380850.404793620       -890875381.49406075        1047430281.6687008     
   57051531.174608096       -259144251.64981115        1452353169.2990229     
   46242630.514877602       -339314372.25201744        1356309830.8962936     
   26915639.496774763       -447878127.38212883        1260255885.6934159     
  -929441.87969860435       -584835517.04014051        1164191333.6903794     
  -37292613.614540249       -750186541.22605777        1068116174.8871844     
   1046518319.8109490        1186250935.4620779        391180570.02627701     
   1170413579.4409196        1033885941.6508502        628868333.87043762     
   1301924577.9734445        906906744.18146396        854383284.88903546     
   1441051315.4085176        805313343.05390882        1067725423.0820717     
   1587793791.7461433        729105738.26819539        1268894748.4495449     
   757975794.29565287        881614317.92771411        353442022.08960277     
   859758675.36168826        769999003.47230148        604150039.12129438     
   967253360.60464323        677423036.27328730        840617574.84726179     
   1080459850.0245202        603886416.33067536        1062844629.2674932     
   1199378143.6213188        549389143.64447343        1270831202.3819957     
   487375232.48872560        582360289.50586438        335038484.63710493     
   561138110.76176834        509722367.13754451        596545497.67643499     
   638708858.48610044        449777342.94019240        841744360.92986119     
   720087475.66172278        402525216.91380394        1070635074.3973879     
   805273962.28863657        367965989.05838752        1283217638.0790155     
   234716634.39016485        288488850.19652295        335969957.66878581     
   274551885.64116085        253056032.64658549        606054709.53584468     
   316291071.61781317        223969664.18217200        857763643.13683379     
   359934192.32012713        201229744.80329531        1091096758.4717529     
   405481247.74809861        184836274.50994480        1306054055.5406051     
  -2.6535550313843028E-005  -3.0772088174294514E-004   356236441.18464732     
  -1.3459929141952792E-004  -5.8327884646756001E-004   632677674.69953585     
  -2.1690524834125824E-004  -7.6950808362703934E-004   888675421.46818328     
  -2.7004497539216975E-004  -8.6163905680721408E-004   1124229681.4905903     
  -2.9262306863334488E-004  -8.5051013850748604E-004   1339340454.7667613     
   1587793791.7461433        729105738.26819539        1268894748.4495449     
   1530783578.8822238        610740062.00705802        1319046765.1340082     
   1478663826.2047873        508675919.70086139        1370019831.7216985     
   1431434533.7138317        422913311.34960514        1421813948.2126160     
   1389095701.4093637        353452236.95330453        1474429114.6067560     
   1199378143.6213188        549389143.64447343        1270831202.3819957     
   1153949826.4887645        459813689.20324886        1324296153.9239502     
   1112189354.4960735        382464385.22823441        1379205308.7822111     
   1074096727.6432474        317341231.71943933        1435558666.9567764     
   1039671945.9302831        264444228.67684662        1493356228.4476478     
   805273962.28863657        367965989.05838752        1283217638.0790155     
   773207979.21052969        307714887.93400121        1338569140.2574060     
   743587226.22566783        255614553.78709984        1395987999.1651826     
   716411703.33404958        211664986.61767623        1455474214.8023407     
   691681410.53567648        175866186.42573750        1517027787.1688850     
   405481247.74809861        184836274.50994480        1306054055.5406051     
   388558037.04752213        154443658.19932643        1361865724.1343753     
   372857441.39357084        128126425.37745792        1420367902.8706079     
   358379460.78624421        105884576.04433915        1481560591.7493050     
   345124095.22554332        87718110.199972108        1545443790.7704639     
  -2.9262306863334488E-004  -8.5051013850748604E-004   1339340454.7667613     
  -2.5963663453630891E-004  -7.8565816855943004E-004   1394185905.5548565     
  -2.1786601826641466E-004  -6.9152559136851266E-004   1452345019.8984942     
  -1.7274414499567726E-004  -5.8639562985571606E-004   1513817797.7976713     
  -1.2114851246733852E-004  -4.5933952612238618E-004   1578604239.2523918     
   1389095701.4093637        353452236.95330453        1474429114.6067560     
   1319951348.5317287        288504907.84612954        1481482802.6151140     
   1254194822.1452579        234850333.70949912        1493841383.7951093     
   1191826122.2499430        192488514.54339081        1511504858.1467450     
   1132845248.8457899        161419450.34781975        1534473225.6700180     
   1039671945.9302831        264444228.67684662        1493356228.4476478     
   988949134.87912083        216074367.92861360        1504237480.1078050     
   940767193.69632685        176174073.40827605        1520158685.7646213     
   895126122.38189411        144743345.11580920        1541119845.4180956     
   852025920.93583179        121782183.05124328        1567120959.0682380     
   691681410.53567648        175866186.42573750        1517027787.1688850     
   658623172.23961747        143846703.31503081        1530748486.4209166     
   627258847.18913031        117473597.68956341        1549244200.4946268     
   597588435.38421679        96746869.549342409        1572514929.3900208     
   569611936.82487726        81666518.894364625        1600560673.1070967     
   345124095.22554332        87718110.199972108        1545443790.7704639     
   328973460.61322081        71821914.005382478        1561015821.5544431     
   313669782.62367338        58748906.553374268        1581097927.9851246     
   299213061.25691032        48499087.843981892        1605690110.0625117     
   285603296.51293045        41072457.877199955        1634792367.7866023     
  -1.2114851246733852E-004  -4.5933952612238618E-004   1578604239.2523918     
  -7.3704778544139853E-005  -3.4352099919222477E-004   1595039485.5083935     
  -4.3646405171390079E-005  -2.8704145287767441E-004   1615719868.2361193     
  -2.4636885937938732E-005  -2.6739142036078542E-004   1640645387.4355731     
  -1.7202356755180995E-005  -2.8493690923209371E-004   1669816043.1067491     
   1132845248.8457899        161419450.34781975        1534473225.6700180     
   1057999464.5607362        131864212.42845291        1523652636.9369440     
   983902095.23978865        104803691.05610538        1519067013.7790787     
   910553140.88293707        80237886.230747163        1520716356.1964314     
   837952601.49018776        58166797.952393472        1528600664.1889906     
   852025920.93583179        121782183.05124328        1567120959.0682380     
   795657605.19586468        99545561.353858531        1556533544.9853895     
   739850600.67897725        79179977.066739827        1552235691.2338605     
   684604907.38516843        60685430.189880103        1554227397.8136511     
   629920525.31443322        44061920.723271191        1562508664.7247641     
   569611936.82487726        81666518.894364625        1600560673.1070967     
   531877074.64744979        66795308.924204454        1589988145.9766169     
   494516419.95207304        53171457.227546424        1585759773.9335613     
   457529972.73875529        40794963.804419696        1587875556.9779377     
   420917733.00749117        29665828.654802695        1596335495.1097403     
   285603296.51293045        41072457.877199955        1634792367.7866023     
   266657872.91548675        33613455.139477573        1624016439.9106269     
   247899553.05907363        26778131.538524479        1619639261.8781881     
   229328336.94370157        20566487.074373797        1621660833.6892848     
   210944224.56935439        14978521.746974066        1630081155.3439147     
  -1.7202356755180995E-005  -2.8493690923209371E-004   1669816043.1067491     
  -1.9627157042480454E-005  -3.0897903283541188E-004   1658618426.7874222     
  -2.0404923172368943E-005  -3.2753104258069347E-004   1653874155.0677361     
   8.6926802752245293E-007  -2.7327041728376623E-004   1655583227.9476955     
   2.1411444046342301E-005  -2.2006206380962925E-004   1663745645.4272931     
   837952601.49018776        58166797.952393472        1528600664.1889906     
   764652938.20685625        38992245.744168460        1518987306.0077994     
   692652952.20379400        24149951.136838555        1515635270.0506930     
   621952643.48099613        13639914.130392700        1518544556.3176773     
   552552012.03847075        7462134.7248521149        1527715164.8087440     
   629920525.31443322        44061920.723271191        1562508664.7247641     
   574445184.48167241        29530828.556043774        1553940712.3477960     
   519944601.60911274        18248929.589486182        1551750887.3146405     
   466418776.69675231        10216223.823592871        1555939189.6252923     
   413867709.74458420        5432711.2583434284        1566505619.2797699     
   420917733.00749117        29665828.654802695        1596335495.1097403     
   383600443.53880531        19878315.202610791        1588433875.9969084     
   346932992.71025389        12256930.550866380        1587027189.3476210     
   310915380.52183664        6801674.6995712668        1592115435.1618786     
   275547606.97354871        3512547.6487067491        1603698613.4396760     
   210944224.56935439        14978521.746974066        1630081155.3439147     
   192118715.37825558        10034705.683878005        1622466796.9551480     
   173618125.50722903        6173954.0210205093        1621464176.1496532     
   155442454.95626006        3396266.7583548576        1627073292.9274273     
   137591703.72535571        1701643.8959044665        1639294147.2884777     
   2.1411444046342301E-005  -2.2006206380962925E-004   1663745645.4272931     
   2.1319942148708364E-005  -1.6346814012303644E-004   1656039475.2225099     
   2.1594447841610188E-005  -1.0842974869622066E-004   1655061847.7207239     
   2.1937579957737467E-005  -5.2121768439733914E-005   1660812762.9219387     
   1.4091292235626988E-005  -2.2417964920315659E-005   1673292220.8261518     
   552552012.03847075        7462134.7248521149        1527715164.8087440     
   485311902.73985040        1103030.6664820910        1519893638.3902795     
   416225205.41634345       -11411366.808179289        1518589956.0005276     
   345291920.06795418       -30081057.699110746        1523804117.6394818     
   272512046.69468814       -54906042.006303996        1535536123.3071668     
   413867709.74458420        5432711.2583434284        1566505619.2797699     
   363943094.76599050        815023.31319735944        1556867532.9361019     
   312633538.76872826       -8419134.6941799372        1553629348.3222320     
   259939041.75281006       -22269762.763743103        1556791065.4381523     
   205859603.71822175       -40736860.895541310        1566352684.2838693     
   275547606.97354871        3512547.6487067491        1603698613.4396760     
   242601508.31805772        535182.41767413914        1592782555.3447340     
   208732115.65012860       -5519829.5214826018        1588148456.6806705     
   173939428.96975696       -14652488.168781437        1589796317.4474759     
   138223448.27694133       -26862793.524226181        1597726137.6451597     
   137591703.72535571        1701643.8959044665        1639294147.2884777     
   121287143.39605896        263507.97993944585        1627638705.6161854     
   104520936.06054384       -2713451.2900874391        1622147281.0758512     
   87293081.718810380       -7229233.9141778499        1622819873.6674614     
   69603580.370851979       -13283839.892348740        1629656483.3910320     
   1.4091292235626988E-005  -2.2417964920315659E-005   1673292220.8261518     
  -8.6926802752244412E-006  -1.9261149451944680E-005   1661435983.7504408     
  -1.4457299826162752E-005   4.0626842549470012E-005   1655625821.5077565     
  -3.7492902555507517E-005   4.3291835318058561E-005   1655861734.0981071     
  -5.0692051289203579E-005   7.8051118681752077E-005   1662143721.5214911     
   272512046.69468814       -54906042.006303996        1535536123.3071668     
   225844033.10382152       -81975210.120004147        1509884956.6471305     
   174377942.65351999       -125037967.76515134        1487470742.0924330     
   118113775.34378093       -184094314.94175833        1468293479.6430581     
   57051531.174608096       -259144251.64981115        1452353169.2990229     
   205859603.71822175       -40736860.895541310        1566352684.2838693     
   169852488.86958462       -61340568.377458423        1535576560.3436232     
   130246816.37636857       -93939468.007972032        1508272146.2616549     
   87042586.238574415       -138533559.78708059        1484439442.0379698     
   40239798.456196308       -195122843.71479964        1464078447.6725616     
   138223448.27694133       -26862793.524226181        1597726137.6451597     
   113547968.60753460       -40799819.443261638        1563224495.5086958     
   86473450.508405760       -62733640.128035307        1532429320.9834592     
   56999893.979549706       -92664255.578568071        1505340614.0694516     
   25127299.020974129       -130591665.79483122        1481958374.7666769     
   69603580.370851979       -13283839.892348740        1629656483.3910320     
   56930472.317672804       -20352963.317409202        1592828762.1423483     
   43057845.049632132       -31420484.125342242        1559942266.2578416     
   27985698.566721939       -46486402.316173263        1530996995.7375183     
   11714032.868941233       -65550717.889906004        1505992950.5813692     
  -5.0692051289203579E-005   7.8051118681752077E-005   1662143721.5214911     
   2.1960455432145962E-006   1.0724022402697940E-004   1624389360.2445834     
   4.5339190277617997E-005   1.0186448754098535E-004   1590810982.0848076     
   7.6632839268425990E-005   5.8378210690454662E-005   1561408587.0421607     
   9.4155452665325778E-005  -3.1705407530160716E-005   1536182175.1166499     
   57051531.174608096       -259144251.64981115        1452353169.2990229     
   46242630.514877602       -339314372.25201744        1356309830.8962936     
   26915639.496774763       -447878127.38212883        1260255885.6934159     
  -929441.87969860435       -584835517.04014051        1164191333.6903794     
  -37292613.614540249       -750186541.22605777        1068116174.8871844     
   40239798.456196308       -195122843.71479964        1464078447.6725616     
   34838856.093114331       -254438714.22695461        1359618621.4794245     
   23049345.961259544       -335049810.63501889        1254516850.7553854     
   4871268.0606296062       -436956132.93900245        1148773135.5004644     
  -19695377.608766258       -560157681.13886821        1042387475.7146327     
   25127299.020974129       -130591665.79483122        1481958374.7666769     
   23330492.866715476       -169594432.84329236        1371566503.8043203     
   17274641.533284053       -222794017.15566203        1259901350.5803294     
   6959745.0206815749       -290190418.73193759        1146962915.0947139     
  -7614196.6710950881       -371783637.57212305        1032751197.3474565     
   11714032.868941233       -65550717.889906004        1505992950.5813692     
   11717540.835687485       -84781528.101013869        1392153477.8709950     
   9591526.2128670588       -111110746.94401014        1276409385.1682403     
   5335989.0004624799       -144538374.41895229        1158760672.4731100     
  -1049070.8015121073       -185064410.52579761        1039207339.7856342     
   9.4155452665325778E-005  -3.1705407530160716E-005   1536182175.1166499     
   2.8274086368887913E-005  -1.1808319889660146E-004   1421379543.6794429     
  -1.5784077341854902E-005  -1.2963531347288658E-004   1304040954.5191319     
  -3.6555008104759612E-005  -6.2175539442263232E-005   1184166407.6357088     
  -2.7999580675986096E-005   9.8181536161219196E-005   1061755903.0291883     
  -2.6535550313843028E-005  -3.0772088174294514E-004   356236441.18464732     
  -1.3459929141952792E-004  -5.8327884646756001E-004   632677674.69953585     
  -2.1690524834125824E-004  -7.6950808362703934E-004   888675421.46818328     
  -2.7004497539216975E-004  -8.6163905680721408E-004   1124229681.4905903     
  -2.9262306863334488E-004  -8.5051013850748604E-004   1339340454.7667613     
  -234716634.39026237       -288488850.19719666        335969957.66848302     
  -274551885.64143658       -253056032.64772487        606054709.53558791     
  -316291071.61821938       -223969664.18361491        857763643.13663137     
  -359934192.32061231       -201229744.80487150        1091096758.4716163     
  -405481247.74861503       -184836274.51149529        1306054055.5405385     
  -487375232.48892432       -582360289.50661683        335038484.63652527     
  -561138110.76207805       -509722367.13865995        596545497.67593765     
  -638708858.48648059       -449777342.94153547        841744360.92946923     
  -720087475.66213107       -402525216.91523451        1070635074.3971186     
  -805273962.28903103       -367965989.05976653        1283217638.0788872     
  -757975794.29601312       -881614317.92856336        353442022.08878851     
  -859758675.36206543       -769999003.47340667        604150039.12059391     
  -967253360.60500360       -677423036.27453911        840617574.84669912     
  -1080459850.0248284       -603886416.33195770        1062844629.2671026     
  -1199378143.6215389       -549389143.64566612        1270831202.3818026     
  -1046518319.8115280       -1186250935.4630377        391180570.02526498     
  -1170413579.4413917       -1033885941.6519476        628868333.86955500     
  -1301924577.9737830       -906906744.18261313        854383284.88832188     
  -1441051315.4086988       -805313343.05502522        1067725423.0815669     
  -1587793791.7461398       -729105738.26919019        1268894748.4492874     
  -2.9262306863334488E-004  -8.5051013850748604E-004   1339340454.7667613     
  -2.5963663453630891E-004  -7.8565816855943004E-004   1394185905.5548565     
  -2.1786601826641466E-004  -6.9152559136851266E-004   1452345019.8984942     
  -1.7274414499567726E-004  -5.8639562985571606E-004   1513817797.7976713     
  -1.2114851246733852E-004  -4.5933952612238618E-004   1578604239.2523918     
  -405481247.74861503       -184836274.51149529        1306054055.5405385     
  -388558037.04797530       -154443658.20074844        1361865724.1343355     
  -372857441.39395386       -128126425.37872858        1420367902.8705940     
  -358379460.78655100       -105884576.04543704        1481560591.7493153     
  -345124095.22577059       -87718110.200887948        1545443790.7704935     
  -805273962.28903103       -367965989.05976653        1283217638.0788872     
  -773207979.21087158       -307714887.93526459        1338569140.2573240     
  -743587226.22595525       -255614553.78823858        1395987999.1651406     
  -716411703.33428633       -211664986.61870483        1455474214.8023379     
  -691681410.53586030       -175866186.42664695        1517027787.1689148     
  -1199378143.6215389       -549389143.64566612        1270831202.3818026     
  -1153949826.4889472       -459813689.20433486        1324296153.9238167     
  -1112189354.4962242       -382464385.22923219        1379205308.7821290     
  -1074096727.6433742       -317341231.72036994        1435558666.9567432     
  -1039671945.9303935       -264444228.67774314        1493356228.4476542     
  -1587793791.7461398       -729105738.26919019        1268894748.4492874     
  -1530783578.8822045       -610740062.00795984        1319046765.1338160     
  -1478663826.2047622       -508675919.70170975        1370019831.7215626     
  -1431434533.7138176       -422913311.35044938        1421813948.2125278     
  -1389095701.4093664       -353452236.95416796        1474429114.6067135     
  -1.2114851246733852E-004  -4.5933952612238618E-004   1578604239.2523918     
  -7.3704778544139853E-005  -3.4352099919222477E-004   1595039485.5083935     
  -4.3646405171390079E-005  -2.8704145287767441E-004   1615719868.2361193     
  -2.4636885937938732E-005  -2.6739142036078542E-004   1640645387.4355731     
  -1.7202356755180995E-005  -2.8493690923209371E-004   1669816043.1067491     
  -345124095.22577059       -87718110.200887948        1545443790.7704935     
  -328973460.61337519       -71821914.006134078        1561015821.5544577     
  -313669782.62377489       -58748906.554026730        1581097927.9851248     
  -299213061.25697440       -48499087.844586663        1605690110.0624919     
  -285603296.51296937       -41072457.877799504        1634792367.7865574     
  -691681410.53586030       -175866186.42664695        1517027787.1689148     
  -658623172.23975372       -143846703.31583694        1530748486.4209259     
  -627258847.18922818       -117473597.69029595        1549244200.4946148     
  -597588435.38428152       -96746869.550016358        1572514929.3899853     
  -569611936.82491422       -81666518.895005211        1600560673.1070309     
  -1039671945.9303935       -264444228.67774314        1493356228.4476542     
  -988949134.87921619       -216074367.92947534        1504237480.1078005     
  -940767193.69639897       -176174073.40907559        1520158685.7646005     
  -895126122.38194835       -144743345.11656243        1541119845.4180577     
  -852025920.93585753       -121782183.05191711        1567120959.0681689     
  -1389095701.4093664       -353452236.95416796        1474429114.6067135     
  -1319951348.5317533       -288504907.84702456        1481482802.6150780     
  -1254194822.1452887       -234850333.71037352        1493841383.7950766     
  -1191826122.2499671       -192488514.54420042        1511504858.1467061     
  -1132845248.8457956       -161419450.34852743        1534473225.6699667     
  -1.7202356755180995E-005  -2.8493690923209371E-004   1669816043.1067491     
  -1.9627157042480454E-005  -3.0897903283541188E-004   1658618426.7874222     
  -2.0404923172368943E-005  -3.2753104258069347E-004   1653874155.0677361     
   8.6926802752245293E-007  -2.7327041728376623E-004   1655583227.9476955     
   2.1411444046342301E-005  -2.2006206380962925E-004   1663745645.4272931     
  -285603296.51296937       -41072457.877799504        1634792367.7865574     
  -266657872.91551974       -33613455.140083663        1624016439.9106054     
  -247899553.05909768       -26778131.539126210        1619639261.8781834     
  -229328336.94368953       -20566487.074881867        1621660833.6892989     
  -210944224.56930330       -14978521.747380070        1630081155.3439448     
  -569611936.82491422       -81666518.895005211        1600560673.1070309     
  -531877074.64747101       -66795308.924798682        1589988145.9765842     
  -494516419.95208085       -53171457.228102490        1585759773.9335597     
  -457529972.73873502       -40794963.804890111        1587875556.9779663     
  -420917733.00743985       -29665828.655176982        1596335495.1097901     
  -852025920.93585753       -121782183.05191711        1567120959.0681689     
  -795657605.19587123       -99545561.354445875        1556533544.9853599     
  -739850600.67896748       -79179977.067250222        1552235691.2338688     
  -684604907.38513792       -60685430.190302372        1554227397.8136930     
  -629920525.31438887       -44061920.723620951        1562508664.7248321     
  -1132845248.8457956       -161419450.34852743        1534473225.6699667     
  -1057999464.5607214       -131864212.42903143        1523652636.9369323     
  -983902095.23975956       -104803691.05657455        1519067013.7791057     
  -910553140.88290179       -80237886.231130779        1520716356.1964860     
  -837952601.49014997       -58166797.952708542        1528600664.1890700     
   2.1411444046342301E-005  -2.2006206380962925E-004   1663745645.4272931     
   2.1319942148708364E-005  -1.6346814012303644E-004   1656039475.2225099     
   2.1594447841610188E-005  -1.0842974869622066E-004   1655061847.7207239     
   2.1937579957737467E-005  -5.2121768439733914E-005   1660812762.9219387     
   1.4091292235626988E-005  -2.2417964920315659E-005   1673292220.8261518     
  -210944224.56930330       -14978521.747380070        1630081155.3439448     
  -192118715.37820917       -10034705.684185490        1622466796.9551678     
  -173618125.50718281       -6173954.0212177262        1621464176.1496668     
  -155442454.95622373       -3396266.7584741563        1627073292.9274302     
  -137591703.72534120       -1701643.8959850371        1639294147.2884700     
  -420917733.00743985       -29665828.655176982        1596335495.1097901     
  -383600443.53876108       -19878315.202898949        1588433875.9969475     
  -346932992.71021742       -12256930.551068604        1587027189.3476453     
  -310915380.52181149       -6801674.6996986121        1592115435.1618876     
  -275547606.97354120       -3512547.6487810761        1603698613.4396739     
  -629920525.31438887       -44061920.723620951        1562508664.7248321     
  -574445184.48163402       -29530828.556304544        1553940712.3478436     
  -519944601.60908604       -18248929.589673430        1551750887.3146658     
  -466418776.69673866       -10216223.823715031        1555939189.6253030     
  -413867709.74459338       -5432711.2584261000        1566505619.2797616     
  -837952601.49014997       -58166797.952708542        1528600664.1890700     
  -764652938.20683384       -38992245.744421542        1518987306.0078595     
  -692652952.20378757       -24149951.137031436        1515635270.0507276     
  -621952643.48101366       -13639914.130549908        1518544556.3176849     
  -552552012.03850567       -7462134.7249558270        1527715164.8087311     
   1.4091292235626988E-005  -2.2417964920315659E-005   1673292220.8261518     
  -8.6926802752244412E-006  -1.9261149451944680E-005   1661435983.7504408     
  -1.4457299826162752E-005   4.0626842549470012E-005   1655625821.5077565     
  -3.7492902555507517E-005   4.3291835318058561E-005   1655861734.0981071     
  -5.0692051289203579E-005   7.8051118681752077E-005   1662143721.5214911     
  -137591703.72534120       -1701643.8959850371        1639294147.2884700     
  -121287143.39606895       -263507.97995741665        1627638705.6161799     
  -104520936.06058438        2713451.2901119217        1622147281.0758460     
  -87293081.718880415        7229233.9142459296        1622819873.6674719     
  -69603580.370957643        13283839.892441936        1629656483.3910491     
  -275547606.97354120       -3512547.6487810761        1603698613.4396739     
  -242601508.31807035       -535182.41771623492        1592782555.3447256     
  -208732115.65015662        5519829.5214900076        1588148456.6806638     
  -173939428.96981001        14652488.168809451        1589796317.4474792     
  -138223448.27702159        26862793.524265386        1597726137.6451712     
  -413867709.74459338       -5432711.2584261000        1566505619.2797616     
  -363943094.76599330       -815023.31322902441        1556867532.9360824     
  -312633538.76873136        8419134.6941769123        1553629348.3222101     
  -259939041.75282121        22269762.763741732        1556791065.4381435     
  -205859603.71824509        40736860.895527646        1566352684.2838781     
  -552552012.03850567       -7462134.7249558270        1527715164.8087311     
  -485311902.73984903       -1103030.6665316522        1519893638.3902435     
  -416225205.41631854        11411366.808136791        1518589956.0004840     
  -345291920.06790984        30081057.699068278        1523804117.6394536     
  -272512046.69462097        54906042.006264180        1535536123.3071513     
  -5.0692051289203579E-005   7.8051118681752077E-005   1662143721.5214911     
   2.1960455432145962E-006   1.0724022402697940E-004   1624389360.2445834     
   4.5339190277617997E-005   1.0186448754098535E-004   1590810982.0848076     
   7.6632839268425990E-005   5.8378210690454662E-005   1561408587.0421607     
   9.4155452665325778E-005  -3.1705407530160716E-005   1536182175.1166499     
  -69603580.370957643        13283839.892441936        1629656483.3910491     
  -56930472.317684114        20352963.317541540        1592828762.1423483     
  -43057845.049557686        31420484.125484068        1559942266.2578244     
  -27985698.566569496        46486402.316298828        1530996995.7374799     
  -11714032.868733041        65550717.889941812        1505992950.5813022     
  -138223448.27702159        26862793.524265386        1597726137.6451712     
  -113547968.60754396        40799819.443317115        1563224495.5086946     
  -86473450.508342624        62733640.128117532        1532429320.9834368     
  -56999893.979417063        92664255.578665316        1505340614.0693984     
  -25127299.020776413        130591665.79492716        1481958374.7665918     
  -205859603.71824509        40736860.895527646        1566352684.2838781     
  -169852488.86957189        61340568.377452254        1535576560.3436258     
  -130246816.37631121        93939468.007996321        1508272146.2616394     
  -87042586.238463148        138533559.78716570        1484439442.0379252     
  -40239798.456030563        195122843.71495426        1464078447.6724682     
  -272512046.69462097        54906042.006264180        1535536123.3071513     
  -225844033.10377270        81975210.119925544        1509884956.6471381     
  -174377942.65346417        125037967.76511809        1487470742.0924368     
  -118113775.34370053        184094314.94182992        1468293479.6430528     
  -57051531.174491167        259144251.65002608        1452353169.2989743     
   9.4155452665325778E-005  -3.1705407530160716E-005   1536182175.1166499     
   2.8274086368887913E-005  -1.1808319889660146E-004   1421379543.6794429     
  -1.5784077341854902E-005  -1.2963531347288658E-004   1304040954.5191319     
  -3.6555008104759612E-005  -6.2175539442263232E-005   1184166407.6357088     
  -2.7999580675986096E-005   9.8181536161219196E-005   1061755903.0291883     
  -11714032.868733041        65550717.889941812        1505992950.5813022     
  -11717540.835598107        84781528.100912452        1392153477.8709643     
  -9591526.2128575146        111110746.94390059        1276409385.1682594     
  -5335989.0005180836        144538374.41888586        1158760672.4731755     
   1049070.8014266044        185064410.52588519        1039207339.7857373     
  -25127299.020776413        130591665.79492716        1481958374.7665918     
  -23330492.866602421        169594432.84333959        1371566503.8042748     
  -17274641.533251181        222794017.15567774        1259901350.5803289     
  -6959745.0207239240        290190418.73192972        1146962915.0947592     
   7614196.6709713191        371783637.57208592        1032751197.3475564     
  -40239798.456030563        195122843.71495426        1464078447.6724682     
  -34838856.092990041        254438714.22715342        1359618621.4793622     
  -23049345.961205602        335049810.63516706        1254516850.7553689     
  -4871268.0606673062        436956132.93903244        1148773135.5004864     
   19695377.608619899        560157681.13871777        1042387475.7147129     
  -57051531.174491167        259144251.65002608        1452353169.2989743     
  -46242630.514765322        339314372.25233757        1356309830.8962398     
  -26915639.496708602        447878127.38242012        1260255885.6933558     
   929441.87967026234        584835517.04024315        1164191333.6903200     
   37292613.614367485        750186541.22579277        1068116174.8871331     
  -1046518319.8115280       -1186250935.4630377        391180570.02526498     
  -1170413579.4413917       -1033885941.6519476        628868333.86955500     
  -1301924577.9737830       -906906744.18261313        854383284.88832188     
  -1441051315.4086988       -805313343.05502522        1067725423.0815669     
  -1587793791.7461398       -729105738.26919019        1268894748.4492874     
  -1313507356.8100786       -1450130137.3912117        368813896.52462238     
  -1469284575.1685367       -1276557422.6233749        609367561.57668793     
  -1631248302.8675573       -1123606405.6574111        832675366.36533618     
  -1799398539.9071348       -991277086.49330163        1038737310.8905742     
  -1973735286.2872732       -879569465.13106441        1227553395.1523931     
  -1542057146.9461975       -1702477565.2606547        357449009.07770294     
  -1744210745.2843676       -1512045455.9114110        602536009.82650006     
  -1951121623.4011314       -1337470945.8241441        825304102.87399185     
  -2162789781.2964888       -1178754034.9988585        1025753288.2201817     
  -2379215218.9704404       -1035894723.4355507        1203883565.8650646     
  -1732167690.2198834       -1943293219.0713677        357085907.68450689     
  -1995192089.7888818       -1740350041.5160508        608373678.61899531     
  -2261544539.5745058       -1548500364.6828215        832269494.41429055     
  -2531225039.5767593       -1367744188.5716879        1028773355.0703921     
  -2804233589.7956395       -1198081513.1826439        1197885260.5872917     
  -1883838986.6311378       -2172577098.8233533        367724592.34502864     
  -2222228608.6820812       -1961471179.4372959        626880567.95417321     
  -2562517051.3876801       -1756694662.2334356        853571540.98623097     
  -2904704314.7479472       -1558247547.2117915        1047797511.4412020     
  -3248790398.7628727       -1366129834.3723471        1209558479.3190877     
  -1587793791.7461398       -729105738.26919019        1268894748.4492874     
  -1530783578.8822045       -610740062.00795984        1319046765.1338160     
  -1478663826.2047622       -508675919.70170975        1370019831.7215626     
  -1431434533.7138176       -422913311.35044938        1421813948.2125278     
  -1389095701.4093664       -353452236.95416796        1474429114.6067135     
  -1973735286.2872732       -879569465.13106441        1227553395.1523931     
  -1898349748.2916481       -714981631.70087302        1264060477.5403595     
  -1831307243.7542193       -578203909.79799819        1303214723.8566427     
  -1772607772.6749830       -469236299.42243308        1345016134.1012461     
  -1722251335.0539372       -388078800.57416981        1389464708.2741690     
  -2379215218.9704404       -1035894723.4355507        1203883565.8650646     
  -2280236887.1999846       -823519492.24345577        1222717711.8061500     
  -2193054162.1594205       -650462950.15100336        1246025135.7006552     
  -2117667043.8487465       -516725097.15818620        1273805837.5485797     
  -2054075532.2679682       -422305933.26501465        1306059817.3499274     
  -2804233589.7956395       -1198081513.1826439        1197885260.5872917     
  -2676444995.6072078       -936353643.63570392        1195018467.9311881     
  -2563904581.4203668       -725453040.76073182        1198451067.2536023     
  -2466612347.2351155       -565379704.55772591        1208183058.5545373     
  -2384568293.0514555       -456133635.02669078        1224214441.8339908     
  -3248790398.7628727       -1366129834.3723471        1209558479.3190877     
  -3086974073.5133224       -1053484085.8776209        1180962745.9154758     
  -2943858501.5370617       -803174181.62719071        1160492518.5154808     
  -2819443682.8340874       -615200121.62104952        1148147797.1191075     
  -2713729617.4044037       -489561905.85921150        1143928581.7263544     
  -1389095701.4093664       -353452236.95416796        1474429114.6067135     
  -1319951348.5317533       -288504907.84702456        1481482802.6150780     
  -1254194822.1452887       -234850333.71037352        1493841383.7950766     
  -1191826122.2499671       -192488514.54420042        1511504858.1467061     
  -1132845248.8457956       -161419450.34852743        1534473225.6699667     
  -1722251335.0539372       -388078800.57416981        1389464708.2741690     
  -1636344819.8615675       -315016209.32814479        1392865294.3357561     
  -1554464456.4023986       -255374123.85945836        1401982205.4357839     
  -1476610244.6764417       -209152544.16814086        1416815441.5742519     
  -1402782184.6836884       -176351470.25417328        1437365002.7511556     
  -2054075532.2679682       -422305933.26501465        1306059817.3499274     
  -1950231335.1413834       -340775423.99425644        1305062588.6823311     
  -1851051614.9900641       -274793171.30771685        1310193116.9199846     
  -1756536371.8140142       -224359175.20541078        1321451402.0628865     
  -1666685605.6132348       -189473435.68733174        1338837444.1110361     
  -2384568293.0514555       -456133635.02669078        1224214441.8339908     
  -2261610894.3712082       -365782551.84537524        1218074685.6548054     
  -2143956297.9082837       -293107476.05513811        1218474118.2476816     
  -2031604503.6626945       -238108407.65601283        1225412739.6126099     
  -1924555511.6344283       -200785346.64797276        1238890549.7495964     
  -2713729617.4044037       -489561905.85921150        1143928581.7263544     
  -2570483497.5510364       -390037592.88149345        1131901585.2531815     
  -2433178505.1570587       -310317038.10173261        1126825209.4188719     
  -2301814640.2224717       -250400241.51994264        1128699454.2234242     
  -2176391902.7472749       -210287203.13612300        1137524319.6668460     
  -1132845248.8457956       -161419450.34852743        1534473225.6699667     
  -1057999464.5607214       -131864212.42903143        1523652636.9369323     
  -983902095.23975956       -104803691.05657455        1519067013.7791057     
  -910553140.88290179       -80237886.231130779        1520716356.1964860     
  -837952601.49014997       -58166797.952708542        1528600664.1890700     
  -1402782184.6836884       -176351470.25417328        1437365002.7511556     
  -1311635206.9251757       -145287482.94494808        1427762348.2077091     
  -1221033129.2583675       -116039829.27474320        1424115934.7479150     
  -1130975951.6832845       -88608509.243616998        1426425762.3717782     
  -1041463674.1999002       -62993522.851490676        1434691831.0792933     
  -1666685605.6132348       -189473435.68733174        1338837444.1110361     
  -1560033790.0714219       -157139605.69539082        1330690157.7749650     
  -1453723359.7489276       -125943726.43451494        1328220388.0309968     
  -1347754314.6457555       -95885797.904706478        1331428134.8791316     
  -1242126654.7618992       -66965820.105954230        1340313398.3193707     
  -1924555511.6344283       -200785346.64797276        1238890549.7495964     
  -1803195213.9994669       -167420580.68037242        1232436065.6386981     
  -1681972786.7114329       -134515382.53585821        1231380373.6283493     
  -1560888229.7703245       -102069752.21443021        1235723473.7185488     
  -1439941543.1761432       -70083689.716094434        1245465365.9093044     
  -2176391902.7472749       -210287203.13612300        1137524319.6668460     
  -2041119478.7093124       -176130407.89990073        1133000071.7989132     
  -1905781410.1458857       -141754797.57879049        1133595891.5399747     
  -1770377697.0569918       -107160372.17279482        1139311778.8900378     
  -1634908339.4426272       -72347131.681893528        1150147733.8490992     
  -837952601.49014997       -58166797.952708542        1528600664.1890700     
  -764652938.20683384       -38992245.744421542        1518987306.0078595     
  -692652952.20378757       -24149951.137031436        1515635270.0507276     
  -621952643.48101366       -13639914.130549908        1518544556.3176849     
  -552552012.03850567       -7462134.7249558270        1527715164.8087311     
  -1041463674.1999002       -62993522.851490676        1434691831.0792933     
  -951469224.39953828       -40666032.389096558        1424110910.6231577     
  -863192828.98534000       -24065389.880580902        1419383210.2820256     
  -776634487.95732653       -13191595.326014847        1420508730.0558915     
  -691794201.31548309       -8044648.7253479958        1427487469.9447646     
  -1242126654.7618992       -66965820.105954230        1340313398.3193707     
  -1136603424.4704349       -41835193.197202563        1328276808.9647570     
  -1033216625.6710517       -23826004.595391393        1321685337.6160660     
  -931966258.36374772       -12938254.300512254        1320538984.2732887     
  -832852322.54852426       -9171942.3125626147        1324837748.9364347     
  -1439941543.1761432       -70083689.716094434        1245465365.9093044     
  -1320055538.4195399       -42499728.168807805        1231485001.0326629     
  -1202724342.2609138       -23431795.281447053        1222541652.0528564     
  -1087947954.7002785       -12879891.054055929        1218635318.9698777     
  -975726375.73762476       -10844015.486600041        1219766001.7837396     
  -1634908339.4426272       -72347131.681893528        1150147733.8490992     
  -1501825566.2468288       -42659637.303828180        1133735486.8268676     
  -1371715978.7549253       -22882761.938730836        1121952153.5923884     
  -1244579576.9669106       -13016505.586602390        1114797734.1456604     
  -1120416360.8827853       -13060868.247442245        1112272228.4866796     
  -552552012.03850567       -7462134.7249558270        1527715164.8087311     
  -485311902.73984903       -1103030.6665316522        1519893638.3902435     
  -416225205.41631854        11411366.808136791        1518589956.0004840     
  -345291920.06790984        30081057.699068278        1523804117.6394536     
  -272512046.69462097        54906042.006264180        1535536123.3071513     
  -691794201.31548309       -8044648.7253479958        1427487469.9447646     
  -608242368.28251421       -3001990.9846021235        1421126092.2266958     
  -522786383.79342568        8387838.2765506804        1421098145.5796039     
  -435426247.84821725        26124839.058100522        1427403630.0034883     
  -346161960.44689018        50209011.360043630        1440042545.4983463     
  -832852322.54852426       -9171942.3125626147        1324837748.9364347     
  -733515659.94624186       -5603799.1389830112        1320003677.2552342     
  -632217282.45659924        4503393.6591363549        1321318623.6872602     
  -528957190.07959539        21149636.081791162        1328782588.2325108     
  -423735382.81522357        44334928.129003853        1342395570.8909924     
  -975726375.73762476       -10844015.486600041        1219766001.7837396     
  -861131777.73102999       -8908455.1296862364        1216526393.4758589     
  -744517901.40583539       -241967.04409927130        1219251390.3234529     
  -625884746.76202917        15155448.770188600        1227940992.3265185     
  -505232313.79962313        37283792.313144177        1242595199.4850640     
  -1120416360.8827853       -13060868.247442245        1112272228.4866796     
  -991090721.63688517       -12915958.956712842        1110694240.8885622     
  -859688240.64113259       -5848243.8331432343        1114896445.4881783     
  -726208917.89554143        8142277.1232250929        1124878842.2855144     
  -590652753.40008473        29055603.912472576        1140641431.2805748     
  -272512046.69462097        54906042.006264180        1535536123.3071513     
  -225844033.10377270        81975210.119925544        1509884956.6471381     
  -174377942.65346417        125037967.76511809        1487470742.0924368     
  -118113775.34370053        184094314.94182992        1468293479.6430528     
  -57051531.174491167        259144251.65002608        1452353169.2989743     
  -346161960.44689018        50209011.360043630        1440042545.4983463     
  -289749978.59825277        77481655.302153975        1420210509.8752122     
  -226641600.97100735        127075618.50629392        1404589926.3846414     
  -156836827.56517434        198990900.97238654        1393180795.0266562     
  -80335658.380739197        293227502.70049530        1385983115.8012378     
  -423735382.81522357        44334928.129003853        1342395570.8909924     
  -354795146.91662037        72646333.637221128        1330597371.7103910     
  -277260196.32026625        129606788.13793588        1323985124.6896296     
  -191130531.02618015        215216291.63109040        1322558829.8287063     
  -96406151.034336343        329474844.11677647        1326318487.1276190     
  -505232313.79962313        37283792.313144177        1242595199.4850640     
  -420979538.05887675        67469245.125115871        1241045542.1526756     
  -326233728.70124108        132631476.66004597        1245656337.0073912     
  -220994885.72670576        232770486.91797489        1256427584.0492041     
  -105263009.13528854        367886275.89884943        1273359283.2781155     
  -590652753.40008473        29055603.912472576        1140641431.2805748     
  -488303152.02501583        61950389.765852422        1151555021.2020724     
  -373562198.11391252        136149684.07268035        1169603563.3379333     
  -246429891.66678011        251653486.83293980        1194787057.6881540     
  -106906232.68359378        408461798.04670978        1227105504.2527354     
  -57051531.174491167        259144251.65002608        1452353169.2989743     
  -46242630.514765322        339314372.25233757        1356309830.8962398     
  -26915639.496708602        447878127.38242012        1260255885.6933558     
   929441.87967026234        584835517.04024315        1164191333.6903200     
   37292613.614367485        750186541.22579277        1068116174.8871331     
  -80335658.380739197        293227502.70049530        1385983115.8012378     
  -64455075.764661819        394144323.79793793        1302658606.5203686     
  -38875463.428396404        527391243.96267557        1218458297.7379608     
  -3596821.3719436526        692968263.19469082        1133382189.4540272     
   41380850.404700220        890875381.49403942        1047430281.6685599     
  -96406151.034336343        329474844.11677647        1326318487.1276190     
  -77925865.608728975        450396771.96528709        1257090569.5574586     
  -48565611.101066768        607585263.42064214        1186121659.7843814     
  -8325387.5113553405        801040318.48283887        1113411757.8083835     
   42794805.160419405        1030761937.1519022        1038960863.6294678     
  -105263009.13528854        367886275.89884943        1273359283.2781155     
  -86655000.046968311        508071716.75437802        1219605720.0075142     
  -55986082.514728785        688460185.75630140        1163245971.8326085     
  -13256256.538563907        909051682.90464151        1104280038.7533960     
   41534477.881518662        1169846208.1993790        1042707920.7698799     
  -106906232.68359378        408461798.04670978        1227105504.2527354     
  -90642479.079373121        567169158.16522586        1190204057.8705287     
  -61136877.669370443        770016010.96968198        1149831233.8826370     
  -18389428.453580558        1017002356.4600887        1105987032.2890470     
   37599868.567997456        1308128194.6364696        1058671453.0897682     
  -1883838986.6311378       -2172577098.8233533        367724592.34502864     
  -2222228608.6820812       -1961471179.4372959        626880567.95417321     
  -2562517051.3876801       -1756694662.2334356        853571540.98623097     
  -2904704314.7479472       -1558247547.2117915        1047797511.4412020     
  -3248790398.7628727       -1366129834.3723471        1209558479.3190877     
  -2179137857.1920576       -2718141889.8837285        369010886.60482925     
  -2492360511.8058662       -2207332424.8595567        565927386.84166706     
  -2836006036.0430317       -1797932525.2465997        745505738.69074762     
  -3210074429.9035645       -1489942191.0448508        907745942.15206993     
  -3614565693.3874602       -1283361422.2543294        1052647997.2256349     
  -2620004108.1476212       -3307376895.0624962        499302923.04777449     
  -2864840211.9262028       -2483898009.3807864        600701890.78215146     
  -3168623234.2968554       -1856908852.3393040        699889564.31810045     
  -3531353175.2595763       -1426409423.9380448        796865943.65562046     
  -3953030034.8143630       -1192399724.1770148        891631028.79471409     
  -3206437739.4978070       -3940282114.3596520        758600701.67386150     
  -3339667709.0430937       -2791167933.0009794        731204079.77562559     
  -3560368646.1491437       -1933623643.5115433        716723017.86828983     
  -3868540550.8159704       -1367649245.8913467        715157515.95185316     
  -4264183423.0435658       -1093244740.1403873        726507574.02631652     
  -3938438751.2426329       -4616857547.7751980        1146904222.4830911     
  -3916843003.1565351       -3129142195.7201443        957433953.82208824     
  -4011242271.5999064       -2028076898.7633324        796006099.34131312     
  -4221636556.5727549       -1313661656.9047627        662620659.04076612     
  -4548025858.0750761       -985896470.14444923        557277632.92045021     
  -3248790398.7628727       -1366129834.3723471        1209558479.3190877     
  -3086974073.5133224       -1053484085.8776209        1180962745.9154758     
  -2943858501.5370617       -803174181.62719071        1160492518.5154808     
  -2819443682.8340874       -615200121.62104952        1148147797.1191075     
  -2713729617.4044037       -489561905.85921150        1143928581.7263544     
  -3614565693.3874602       -1283361422.2543294        1052647997.2256349     
  -3430631891.8527751       -976184401.71556878        1012256887.6089587     
  -3266339792.8424139       -734479722.92455745        982015729.42860222     
  -3121689396.3563800       -558247385.88130081        961924522.68457329     
  -2996680702.3946700       -447487390.58580071        951983267.37686300     
  -3953030034.8143630       -1192399724.1770148        891631028.79471409     
  -3741194627.1868110       -888956192.65188861        838346768.83875883     
  -3549941871.3346272       -654121500.37798619        797236905.75183189     
  -3379271767.2578049       -487895647.35529172        768301439.53392959     
  -3229184314.9563513       -390278633.58382416        751540370.18505406     
  -4264183423.0435658       -1093244740.1403873        726507574.02631652     
  -4018662279.5154309       -791799458.68658519        659232389.60487700     
  -3794664737.0136981       -562099513.98746681        606156047.48516536     
  -3592190795.5383716       -404144906.04303014        567278547.66718102     
  -3411240455.0894504       -317935634.85326660        542599890.15092897     
  -4548025858.0750761       -985896470.14444923        557277632.92045021     
  -4263034848.8386316       -684714199.81965780        474913749.90730923     
  -4000508389.8796353       -458413763.75301993        408773154.62860405     
  -3760446481.1980729       -306995161.94450212        358855847.08432770     
  -3542849122.7939568       -230458394.39413750        325161827.27448595     
  -2713729617.4044037       -489561905.85921150        1143928581.7263544     
  -2570483497.5510364       -390037592.88149345        1131901585.2531815     
  -2433178505.1570587       -310317038.10173261        1126825209.4188719     
  -2301814640.2224717       -250400241.51994264        1128699454.2234242     
  -2176391902.7472749       -210287203.13612300        1137524319.6668460     
  -2996680702.3946700       -447487390.58580071        951983267.37686300     
  -2843348861.7766595       -364508262.48037726        950489446.59733975     
  -2694294754.5817709       -295788245.78534913        953621371.50689805     
  -2549518380.8099990       -241327340.50071371        961379042.10553885     
  -2409019740.4613481       -201125546.62649596        973762458.39326286     
  -3229184314.9563513       -390278633.58382416        751540370.18505406     
  -3072409253.4302197       -325837440.30764294        762520351.47482777     
  -2918248531.2909374       -270110711.65430200        775801203.50389898     
  -2766702148.5385051       -223098447.62379181        791382926.27227330     
  -2617770105.1729331       -184800648.21613216        809265519.77994454     
  -3411240455.0894504       -317935634.85326660        542599890.15092897     
  -3257664672.5117111       -274025126.36329091        567994299.88564742     
  -3105039835.2845607       -233284435.70859194        593364705.40988052     
  -2953365943.4079924       -195713562.88915753        618711106.72363293     
  -2802642996.8820033       -161312507.90501225        644033503.82690156     
  -3542849122.7939568       -230458394.39413750        325161827.27448595     
  -3399115119.0211420       -209071320.64731717        366911291.82979548     
  -3254668666.5626426       -185309417.94822025        406311877.22483766     
  -3109509765.4184551       -159172686.29681790        443363583.45961249     
  -2963638415.5885811       -130661125.69314480        478066410.53412896     
  -2176391902.7472749       -210287203.13612300        1137524319.6668460     
  -2041119478.7093124       -176130407.89990073        1133000071.7989132     
  -1905781410.1458857       -141754797.57879049        1133595891.5399747     
  -1770377697.0569918       -107160372.17279482        1139311778.8900378     
  -1634908339.4426272       -72347131.681893528        1150147733.8490992     
  -2409019740.4613481       -201125546.62649596        973762458.39326286     
  -2261613942.0787358       -165760749.11199975        976878830.17744088     
  -2114485889.6817336       -131321771.54953921        983929729.47659886     
  -1967635583.2703419       -97808613.939122677        994915156.29073536     
  -1821063022.8445678       -65221276.280753613        1009835110.6198530     
  -2617770105.1729331       -184800648.21613216        809265519.77994454     
  -2461618189.8571444       -149244025.64678776        819621888.95331001     
  -2306087411.0380464       -115757858.06641805        832727245.54763627     
  -2151177768.7156458       -84342145.475026846        848581589.56292236     
  -1996889262.8899391       -54996887.872636557        867184920.99916697     
  -2802642996.8820033       -161312507.90501225        644033503.82690156     
  -2641132222.0445280       -126580237.50426149        661229248.12652445     
  -2480585974.2148271       -95063057.129435301        679988439.75308657     
  -2321004253.3929038       -66760966.780532122        700311078.70658708     
  -2162387059.5787592       -41673966.457553625        722197164.98702383     
  -2963638415.5885811       -130661125.69314480        478066410.53412896     
  -2800156038.6409020       -97769384.684445977        501700907.69707710     
  -2637981579.2120805       -69237368.738604426        525713312.09294623     
  -2477115037.3021159       -45065077.855616093        550103623.72173762     
  -2317556412.9110126       -25252512.035507798        574871842.58344734     
  -1634908339.4426272       -72347131.681893528        1150147733.8490992     
  -1501825566.2468288       -42659637.303828180        1133735486.8268676     
  -1371715978.7549253       -22882761.938730836        1121952153.5923884     
  -1244579576.9669106       -13016505.586602390        1114797734.1456604     
  -1120416360.8827853       -13060868.247442245        1112272228.4866796     
  -1821063022.8445678       -65221276.280753613        1009835110.6198530     
  -1677574586.6028619       -37961222.937459052        993425737.57073092     
  -1536710852.9864452       -19450178.345133722        980951985.62334836     
  -1398471821.9953206       -9688142.5037822723        972413854.77771223     
  -1262857493.6294847       -8675115.4133914709        967811345.03381824     
  -1996889262.8899391       -54996887.872636557        867184920.99916697     
  -1844975999.8480611       -30758526.437843084        851184985.51484621     
  -1695338956.3528707       -14107563.492021799        838427378.44626546     
  -1547978132.4043610       -5043999.0351447463        828912099.79342282     
  -1402893528.0025501       -3567833.0672439337        822639149.55631566     
  -2162387059.5787592       -41673966.457553625        722197164.98702383     
  -2004029805.9824338       -21051547.804974198        707013230.65921640     
  -1847600288.8542023       -6854917.3793681860        694378332.06113684     
  -1693098508.1940460        915924.81929945946        684292469.19278967     
  -1540524464.0019920        2260978.7909840941        676755642.05417085     
  -2317556412.9110126       -25252512.035507798        574871842.58344734     
  -2154736005.0059743       -8840287.0388590097        560910473.00384367     
  -1993494850.4904323        2307759.9928174019        548804846.46796894     
  -1833832949.3643718        8191629.0595451593        538554962.97581220     
  -1675750301.6278005        8811320.1613087654        530160822.52738297     
  -1120416360.8827853       -13060868.247442245        1112272228.4866796     
  -991090721.63688517       -12915958.956712842        1110694240.8885622     
  -859688240.64113259       -5848243.8331432343        1114896445.4881783     
  -726208917.89554143        8142277.1232250929        1124878842.2855144     
  -590652753.40008473        29055603.912472576        1140641431.2805748     
  -1262857493.6294847       -8675115.4133914709        967811345.03381824     
  -1121358680.6713457       -7741515.3401556015        967918976.48346210     
  -978451498.53507984       -2113351.3398467898        971428389.94883454     
  -834135947.22068441        8209376.5875744820        978339585.42993081     
  -688412026.72816050        23226668.442079306        988652562.92675745     
  -1402893528.0025501       -3567833.0672439337        822639149.55631566     
  -1256016998.9950244       -3884179.5103822351        823652515.38670957     
  -1108400573.3810980       -1734203.9321698546        825689253.05083406     
  -960044251.16075706        2882093.6674121022        828749362.54868615     
  -810948032.33401239        9964713.2883498967        832832843.88027203     
  -1540524464.0019920        2260978.7909840941        676755642.05417085     
  -1395065676.6079335       -1343951.4673688412        677894857.59830689     
  -1249535465.1791852       -4710801.6101012230        677679034.79417562     
  -1103933829.7157567       -7839571.6372185946        676108173.64177883     
  -958260770.21763384       -10730261.548705339        673182274.14111042     
  -1675750301.6278005        8811320.1613087654        530160822.52738297     
  -1538504713.5100565       -120831.21111619473        530646003.11825567     
  -1401856173.9293528       -11043144.373678327        527397735.17886007     
  -1265804682.8856757       -23955619.326330602        520416018.70920068     
  -1130350240.3790359       -38858256.069101572        509700853.70927429     
  -590652753.40008473        29055603.912472576        1140641431.2805748     
  -488303152.02501583        61950389.765852422        1151555021.2020724     
  -373562198.11391252        136149684.07268035        1169603563.3379333     
  -246429891.66678011        251653486.83293980        1194787057.6881540     
  -106906232.68359378        408461798.04670978        1227105504.2527354     
  -688412026.72816050        23226668.442079306        988652562.92675745     
  -568572897.31492770        49583844.796618700        1004995366.4409630     
  -437545221.59156418        113236175.51825753        1029165379.9622034     
  -295328999.55810285        214183660.60688972        1061162603.4904773     
  -141924231.21451366        352426300.06261635        1100987037.0257938     
  -810948032.33401239        9964713.2883498967        832832843.88027203     
  -671641495.47496319        30377643.966387838        853201587.05693471     
  -522349218.53171945        84076374.925063610        882089798.03331256     
  -363071201.50428426        171060906.16438872        919497476.80939460     
  -193807444.39266169        291331237.68433785        965424623.38518357     
  -958260770.21763384       -10730261.548705339        673182274.14111042     
  -797508946.50513399        4331787.2751030624        696173683.04999530     
  -627974188.93436241        48670282.293139994        728376817.55126488     
  -449656497.50532985        122285223.50539178        769791677.64490807     
  -262555872.21801281        225176610.91191334        820418263.33094883     
  -1130350240.3790359       -38858256.069101572        509700853.70927429     
  -946175250.40544605       -28553725.277234018        533911654.42013663     
  -754420132.79951262        7017897.6224393249        568026438.51605046     
  -555084887.56122005        67856612.629981905        612045205.99702430     
  -348169514.69059318        153962419.74530011        665967956.86306119     
  -106906232.68359378        408461798.04670978        1227105504.2527354     
  -90642479.079373121        567169158.16522586        1190204057.8705287     
  -61136877.669370443        770016010.96968198        1149831233.8826370     
  -18389428.453580558        1017002356.4600887        1105987032.2890470     
   37599868.567997456        1308128194.6364696        1058671453.0897682     
  -141924231.21451366        352426300.06261635        1100987037.0257938     
  -131730624.87850863        500501216.20390677        1082050060.4873278     
  -97915262.465029210        727315319.27012992        1064368758.4199052     
  -40478143.974070430        1032868609.2612927        1047943130.8235166     
   40580730.594378352        1417161086.1773987        1032773177.6981652     
  -193807444.39266169        291331237.68433785        965424623.38518357     
  -176178122.24850214        432825468.77132702        976562009.67411458     
  -124547135.75517383        687658581.02221799        993682122.51080632     
  -38914484.912660956        1055830574.4370595        1016784961.8952630     
   80719830.279018223        1537341449.0157785        1045870527.8274877     
  -262555872.21801281        225176610.91191334        820418263.33094883     
  -223984971.18934005        364141915.86749554        873739905.43089986     
  -141032497.53980190        651045796.22596788        937771326.15534735     
  -13698451.269387662        1085888251.9873691        1012512525.5042963     
   158017167.62189287        1668669283.1516356        1097963503.4777331     
  -348169514.69059318        153962419.74530011        665967956.86306119     
  -275151171.70103276        294450557.49240100        773583747.75767958     
  -147371347.81890246        617476964.88140118        896636369.35353220     
   35169956.955793917        1123041641.9122944        1035125821.6506054     
   272472742.62303329        1811144588.5849860        1189052104.6488936     
  -3938438751.2426329       -4616857547.7751980        1146904222.4830911     
  -3916843003.1565351       -3129142195.7201443        957433953.82208824     
  -4011242271.5999064       -2028076898.7633324        796006099.34131312     
  -4221636556.5727549       -1313661656.9047627        662620659.04076612     
  -4548025858.0750761       -985896470.14444923        557277632.92045021     
  -4067092481.0071812       -4127163011.3353577        558724395.73515761     
  -4041873274.2336221       -2737703857.4218187        466742816.66846073     
  -4128868949.7366757       -1722294311.0969813        372180606.59839070     
  -4328079507.5163288       -1080934372.3608267        275037765.52495039     
  -4639504947.5725975       -813624041.21337938        175314293.44813943     
  -3493110058.8965392       -3426677629.3329611       -69869446.153008208     
  -3551761808.2458014       -2161722998.0040245       -59952178.997054443     
  -3718848305.6188116       -1258217526.7542381       -83238588.028076932     
  -3994369551.0155597       -716161215.58359265       -139728673.24606985     
  -4378325544.4360533       -535554064.49208319       -229422434.65102762     
  -2216491484.9106874       -2515401401.7680044       -738877303.18140566     
  -2446508605.1930666       -1401199617.4667630       -622651033.17446113     
  -2781180339.2463121       -635846545.73510027       -570251484.53809035     
  -3220506687.0704460       -219342186.57304788       -581678657.27228940     
  -3764487648.6654496       -151686539.98056602       -656932551.37705493     
  -237236759.04963881       -1393334328.6404812       -1448299175.3500335     
  -726113665.07540345       -456133715.81000841       -1221353745.8637557     
  -1315865050.6191912        144818631.96040887       -1088858082.9316442     
  -2006490915.6809838        409522714.67080021       -1050812186.5537069     
  -2797991260.2607846        337978532.32116306       -1107216056.7299430     
  -4548025858.0750761       -985896470.14444923        557277632.92045021     
  -4263034848.8386316       -684714199.81965780        474913749.90730923     
  -4000508389.8796353       -458413763.75301993        408773154.62860405     
  -3760446481.1980729       -306995161.94450212        358855847.08432770     
  -3542849122.7939568       -230458394.39413750        325161827.27448595     
  -4639504947.5725975       -813624041.21337938        175314293.44813943     
  -4364055541.3430862       -566662108.56230843        179555665.42190266     
  -4105892913.7482505       -377322771.36017585        172746440.65752694     
  -3865017064.7880940       -245606029.60696936        154886619.15501383     
  -3641427994.4626212       -171511883.30270326        125976200.91437261     
  -4378325544.4360533       -535554064.49208319       -229422434.65102762     
  -4190343125.4208112       -366190084.77694488       -132535074.10714731     
  -4014469713.3974762       -237189461.70151186       -73972194.773963556     
  -3850705308.3660684       -148552195.26583242       -53733796.651491031     
  -3699049910.3265738       -100278285.46985698       -71819879.739715472     
  -3764487648.6654496       -151686539.98056602       -656932551.37705493     
  -3741897601.0718098       -83298128.463557720       -461358468.67982918     
  -3726238788.8273234       -38013834.777059317       -331382751.66586745     
  -3717511211.9319859       -15833658.921058655       -267005400.33518532     
  -3715714870.3858080       -16757600.895582676       -268226414.68776169     
  -2797991260.2607846        337978532.32116306       -1107216056.7299430     
  -3018718968.2960882        282013760.37784541       -806914518.29614615     
  -3241200140.0377669        220204109.41325259       -599485230.01818502     
  -3465434775.4858527        152549579.42730522       -484928191.89607060     
  -3691422874.6403270        79050170.420082808       -463243403.92978573     
  -3542849122.7939568       -230458394.39413750        325161827.27448595     
  -3399115119.0211420       -209071320.64731717        366911291.82979548     
  -3254668666.5626426       -185309417.94822025        406311877.22483766     
  -3109509765.4184551       -159172686.29681790        443363583.45961249     
  -2963638415.5885811       -130661125.69314480        478066410.53412896     
  -3641427994.4626212       -171511883.30270326        125976200.91437261     
  -3508036897.9697785       -151017991.18248832        180826022.72940251     
  -3374858492.3153925       -131233068.52382219        230274760.01855436     
  -3241892777.4994621       -112157115.32668161        274322412.78182912     
  -3109139753.5220060       -93790131.591095090        312968981.01922590     
  -3699049910.3265738       -100278285.46985698       -71819879.739715472     
  -3584722307.8725882       -83293751.003910065       -4949030.1097996216     
  -3471532535.7812099       -70101984.413334370        53468529.628628291     
  -3359480594.0524535       -60702985.698150277        103432799.47555442     
  -3248566482.6862931       -55096754.858300805        144943779.43100044     
  -3715714870.3858080       -16757600.895582676       -268226414.68776169     
  -3629171348.7295732       -5898600.1115701199       -190413866.68781298     
  -3544690796.9601088       -1916165.6167793274       -124106813.94496030     
  -3462273215.0773964       -4810297.4111697674       -69305256.459208041     
  -3381918603.0814481       -14580995.494771719       -26009194.230563544     
  -3691422874.6403270        79050170.420082808       -463243403.92978573     
  -3641384020.5407481        81167461.494482994       -375568487.00463325     
  -3594333275.8520741        73324387.865865707       -302451270.70218134     
  -3550270640.5743217        55520949.534177065       -243891755.02246326     
  -3509196114.7074618        27757146.499512911       -199889939.96545088     
  -2963638415.5885811       -130661125.69314480        478066410.53412896     
  -2800156038.6409020       -97769384.684445977        501700907.69707710     
  -2637981579.2120805       -69237368.738604426        525713312.09294623     
  -2477115037.3021159       -45065077.855616093        550103623.72173762     
  -2317556412.9110126       -25252512.035507798        574871842.58344734     
  -3109139753.5220060       -93790131.591095090        312968981.01922590     
  -2944619454.1783862       -68217010.035363674        338062595.41981608     
  -2781418801.2202778       -47042709.764666200        365265616.61196947     
  -2619537794.6476851       -30267230.779025912        394578044.59569085     
  -2458976434.4605932       -17890573.078398108        425999879.37097472     
  -3248566482.6862931       -55096754.858300805        144943779.43100044     
  -3078061119.3505993       -35358110.276690245        171482827.39145657     
  -2908887131.2670741       -20057383.202314377        201862781.70213667     
  -2741044518.4357166       -9194573.6351513863        236083642.36302215     
  -2574533280.8565159       -2769681.5751972198        274145409.37412196     
  -3381918603.0814481       -14580995.494771719       -26009194.230563544     
  -3200481034.1575484        807314.59154105186        1961603.6120105381     
  -3020386569.3524704        11718610.948447466        35504807.363442801     
  -2841635208.6662073        18152893.575977325        74620417.023743823     
  -2664226952.0987649        20110162.474091887        119308432.59289502     
  -3509196114.7074618        27757146.499512911       -199889939.96545088     
  -3311879198.5992265        40279264.569373369       -170501075.91853368     
  -3115917115.4764566        48285272.687660575       -133808306.40409462     
  -2921309865.3391628        51775170.854369879       -89811631.422172770     
  -2728057448.1873388        50748959.069517374       -38511050.972722672     
  -2317556412.9110126       -25252512.035507798        574871842.58344734     
  -2154736005.0059743       -8840287.0388590097        560910473.00384367     
  -1993494850.4904323        2307759.9928174019        548804846.46796894     
  -1833832949.3643718        8191629.0595451593        538554962.97581220     
  -1675750301.6278005        8811320.1613087654        530160822.52738297     
  -2458976434.4605932       -17890573.078398108        425999879.37097472     
  -2296666072.4329391       -8150785.6751847267        418441176.99824744     
  -2135120616.2282906       -960684.34867656231        410174181.88998866     
  -1974340065.8466425        3679730.9011800289        401198894.04619652     
  -1814324421.2879994        5770460.0743374825        391515313.46687806     
  -2574533280.8565159       -2769681.5751972198        274145409.37412196     
  -2420058781.2183900       -1900076.7190778255        273939446.36916769     
  -2265534839.8367963       -865666.05137228966        270461154.84941936     
  -2110961456.7117126        333550.42794799805        263710534.81489319     
  -1956338631.8431520        1697572.7188665867        253687586.26557720     
  -2664226952.0987649        20110162.474091887        119308432.59289502     
  -2524914131.3623323        9911839.8294725418        127405281.11659756     
  -2384737521.3159375        2592814.8847348690        129665765.34627046     
  -2243697121.9595785       -1846912.3601156473        126089885.28190213     
  -2101792933.2932410       -3407341.9050583839        116677640.92348792     
  -2728057448.1873388        50748959.069517374       -38511050.972722672     
  -2611232122.8647537        27284963.970512509       -21161318.759444792     
  -2492728660.6657143        9414758.4596781731       -12211986.619469035     
  -2372547061.5902219       -2861657.4629778862       -11663054.552780993     
  -2250687325.6382918       -9544283.7974985838       -19514522.559390593     
  -1675750301.6278005        8811320.1613087654        530160822.52738297     
  -1538504713.5100565       -120831.21111619473        530646003.11825567     
  -1401856173.9293528       -11043144.373678327        527397735.17886007     
  -1265804682.8856757       -23955619.326330602        520416018.70920068     
  -1130350240.3790359       -38858256.069101572        509700853.70927429     
  -1814324421.2879994        5770460.0743374825        391515313.46687806     
  -1685529593.9345083       -2461888.7344493866        390928775.85040462     
  -1556600739.5407128       -10247480.742200971        387413608.66162360     
  -1427537858.1066084       -17586315.948927045        380969811.90052783     
  -1298340949.6321816       -24478394.354591131        371597385.56713462     
  -1956338631.8431520        1697572.7188665867        253687586.26557720     
  -1833695082.5168967       -5145128.7051651478        252882251.94866940     
  -1710186430.5729876       -9104154.7370040417        249953107.01740208     
  -1585812676.0114329       -10179505.376684368        244900151.47178593     
  -1460573818.8322134       -8371180.6241532564        237723385.31181574     
  -2101792933.2932410       -3407341.9050583839        116677640.92348792     
  -1983001179.2572112       -8170551.1232510805        116506431.41304320     
  -1862613247.0261807       -7613166.3580929041        115016230.24620315     
  -1740629136.6001382       -1735187.6095761061        112207037.42295575     
  -1617048847.9791155        9463385.1222235560        108078852.94331728     
  -2250687325.6382918       -9544283.7974985838       -19514522.559390593     
  -2133447884.1554730       -11538155.988748074       -18198685.756466608     
  -2013881188.9002824       -5774515.6054376364       -17397021.651988942     
  -1891987239.8727782        7746637.3522629738       -17109530.245957594     
  -1767766037.0728967        29025302.884543300       -17336211.538354628     
  -1130350240.3790359       -38858256.069101572        509700853.70927429     
  -946175250.40544605       -28553725.277234018        533911654.42013663     
  -754420132.79951262        7017897.6224393249        568026438.51605046     
  -555084887.56122005        67856612.629981905        612045205.99702430     
  -348169514.69059318        153962419.74530011        665967956.86306119     
  -1298340949.6321816       -24478394.354591131        371597385.56713462     
  -1101703486.6959128       -5393818.1075967550        398252600.83647138     
  -901412476.08736181        25869250.380376995        422564186.04854178     
  -697467917.80650759        69310811.109328330        444532141.20335704     
  -489869811.85337007        124930864.07925174        464156466.30091429     
  -1460573818.8322134       -8371180.6241532564        237723385.31181574     
  -1286467064.1970286        8995486.6988442540        262242005.18623468     
  -1112633341.8496153        25452046.395959258        272169381.56106710     
  -939072651.78995252        40998498.467234015        267505514.43633336     
  -765784994.01803899        55634842.912665784        248250403.81201723     
  -1617048847.9791155        9463385.1222235560        108078852.94331728     
  -1500465982.9087787        14614189.142102420        125879867.46942380     
  -1388082730.0862656        5766285.6692528725        116842025.05362946     
  -1279899089.5115511       -17080325.296283066        80965325.695946842     
  -1175915061.1846602       -53925643.754534185        18249769.396369200     
  -1767766037.0728967        29025302.884543300       -17336211.538354628     
  -1743700242.8311784        11462289.222139120       -10833812.313960804     
  -1727760640.7973223       -33188031.799795508       -43417883.473778188     
  -1719947230.9713295       -104925660.18127894       -115088425.01779398     
  -1720260013.3531964       -203750595.92229539       -225845436.94602865     
  -348169514.69059318        153962419.74530011        665967956.86306119     
  -275151171.70103276        294450557.49240100        773583747.75767958     
  -147371347.81890246        617476964.88140118        896636369.35353220     
   35169956.955793917        1123041641.9122944        1035125821.6506054     
   272472742.62303329        1811144588.5849860        1189052104.6488936     
  -489869811.85337007        124930864.07925174        464156466.30091429     
  -382802923.79780221        230285053.85792807        587050959.18669212     
  -226712549.01147100        499050866.07251561        728807644.03011179     
  -21598687.494365692        931228300.72303629        889426520.83118117     
   232538660.75353241        1526817357.8094828        1068907589.5898899     
  -765784994.01803899        55634842.912665784        248250403.81201723     
  -614882814.44959307        128791108.65690535        379729272.16687387     
  -420695142.31213188        346232349.63119650        533495693.73578948     
  -183221977.60568616        707958565.83543372        709549668.51876557     
   97536679.669771850        1213969757.2697155        907891196.51581812     
  -1175915061.1846602       -53925643.754534185        18249769.396369200     
  -971390843.65639782       -10031278.110599816        151618686.69822013     
  -729319127.72089398        159021415.55744991        310700518.47055084     
  -449699913.37818646        453232437.24950886        495495264.71337342     
  -132533200.62826657        872601786.96563792        706002925.42666507     
  -1720260013.3531964       -203750595.92229539       -225845436.94602865     
  -1452327011.4181907       -186182106.44458812       -97280797.219259858     
  -1152584505.2377419       -62581936.148725867        60422118.234405532     
  -821032494.81187248        167049914.96520072        247263309.41498655     
  -457670980.14054209        502713446.89732921        463242776.32247084     
 </DataArray>
 <DataArray  type="Float64" Name="VM" NumberOfComponents="1" format="ascii">
   2821315865.8230014     
   2208893165.0853996     
   2345180338.1371250     
   2885833849.9526052     
   3544915760.5278549     
   2702319732.0097361     
   2384072299.4270496     
   2710428243.6957159     
   3275428448.1037083     
   3862387226.6144223     
   3462487629.1212931     
   3101760124.4449425     
   3279422195.2932501     
   3696732983.3279057     
   4155674030.6020975     
   4210187759.5945568     
   3663312229.7382298     
   3649422448.3499942     
   3930554509.4987216     
   4301672091.0329580     
   4752854997.2835302     
   3953083683.0242949     
   3737503152.2325201     
   3913990100.1680207     
   4254917566.3478460     
   3544915760.5278549     
   3463646832.1526427     
   3513650724.0882912     
   3642338016.8180671     
   3816862943.5778861     
   3862387226.6144223     
   3786237984.8483963     
   3751545750.9731717     
   3738335747.6903172     
   3736360204.3928485     
   4155674030.6020975     
   4026326516.8402233     
   3903389766.2145915     
   3779765913.7078238     
   3652063235.5055814     
   4301672091.0329580     
   4121876090.9588447     
   3942208289.5389338     
   3757842111.0548964     
   3565455931.7599864     
   4254917566.3478460     
   4049687441.2813282     
   3857668845.8445544     
   3669754412.4769406     
   3479310606.9680667     
   3816862943.5778861     
   3739650077.8055677     
   3669140330.4380631     
   3603202486.5026464     
   3540127266.8666778     
   3736360204.3928485     
   3641192766.5654101     
   3550246724.7961278     
   3461952346.0965590     
   3374952405.2850652     
   3652063235.5055814     
   3543820027.1581841     
   3438265226.3137851     
   3334360395.0171828     
   3231139190.9481421     
   3565455931.7599864     
   3449267571.1438136     
   3335127931.7224050     
   3222515324.3490834     
   3110914450.5015736     
   3479310606.9680667     
   3360194728.0965824     
   3243355512.1191769     
   3128762008.2524772     
   3016394393.1846895     
   3540127266.8666778     
   3345262045.7001481     
   3148878821.7810960     
   2951640510.3704572     
   2754590400.8359556     
   3374952405.2850652     
   3200886571.0091496     
   3026887652.9081159     
   2853683358.0679054     
   2682310797.4401326     
   3231139190.9481421     
   3074913837.1987748     
   2919919129.8903279     
   2766841758.2407336     
   2616594306.4268441     
   3110914450.5015736     
   2969414607.4261265     
   2829825966.1968842     
   2692709361.9092927     
   2558773216.1941113     
   3016394393.1846895     
   2886481346.3374138     
   2758662208.6987948     
   2633313573.7609086     
   2510899082.2743063     
   2754590400.8359556     
   2625236836.4335155     
   2497538918.5116057     
   2371203578.7896385     
   2246184716.8788733     
   2682310797.4401326     
   2539490593.9471788     
   2396581436.8205190     
   2253382402.4654083     
   2109792556.8545196     
   2616594306.4268441     
   2465201468.1010246     
   2313035964.2992897     
   2159975053.9286752     
   2005905512.6208172     
   2558773216.1941113     
   2404433593.6914849     
   2249759624.9972348     
   2094798065.1913927     
   1939620739.3624799     
   2510899082.2743063     
   2359614077.2050281     
   2209567340.1983643     
   2061105725.7400253     
   1914730732.6140285     
   2246184716.8788733     
   2127935742.7941244     
   2011225887.0579965     
   1896104024.9234347     
   1782708839.7670405     
   2109792556.8545196     
   1989190656.5263031     
   1869462993.3352818     
   1750583828.8094411     
   1632569264.6193171     
   2005905512.6208172     
   1882784594.9134617     
   1759738724.4077251     
   1636670684.5421193     
   1513491477.8231518     
   1939620739.3624799     
   1815307800.3388212     
   1690392720.5320611     
   1564762753.8299060     
   1438318797.2042332     
   1914730732.6140285     
   1792084375.9661505     
   1668618259.6739993     
   1544347994.9076943     
   1419388273.7704012     
   1782708839.7670405     
   1749560182.4151051     
   1713059438.5690529     
   1681813696.4370718     
   1674312784.4541314     
   1632569264.6193171     
   1523508141.4843285     
   1405619853.8810863     
   1279155375.9981232     
   1150335338.8249242     
   1513491477.8231518     
   1368562541.9620442     
   1220306548.4860110     
   1066169072.7334131     
   903886613.26242709     
   1438318797.2042332     
   1297556426.4705350     
   1171415387.1252298     
   1064158834.8083199     
   981378463.11872840     
   1419388273.7704012     
   1313099788.9420307     
   1241956333.9651666     
   1214161412.2596347     
   1236556273.4151089     
   1674312784.4541314     
   1379097851.1856594     
   1127470206.9890387     
   1011222464.4536747     
   1155873047.1676424     
   1150335338.8249242     
   1001459527.1109829     
   981211494.67475784     
   1161040444.6435070     
   1545952142.7640276     
   903886613.26242709     
   952072699.41053116     
   1138583539.3158491     
   1474744516.4493105     
   1958986643.7099538     
   981378463.11872840     
   1149612788.0588703     
   1416712104.3919258     
   1805825176.5591371     
   2336213114.1014071     
   1236556273.4151089     
   1427838631.7727132     
   1704659750.6308596     
   2106518105.5661316     
   2665057842.8247275     
   4752854997.2835302     
   3953083683.0242949     
   3737503152.2325201     
   3913990100.1680207     
   4254917566.3478460     
   3859951025.0744157     
   3350582582.1050057     
   3327429631.1777163     
   3616574996.3103261     
   4037336745.2220316     
   3144158492.7163711     
   2888531832.2701406     
   3012303995.2917447     
   3372377446.4236374     
   3836624728.8099771     
   2573371007.8441968     
   2558032565.0831933     
   2800692865.5383382     
   3195886158.0399170     
   3660261048.2093763     
   2140518457.0805154     
   2367650638.5852442     
   2708627489.2762685     
   3103680569.1990933     
   3517353470.2618866     
   4254917566.3478460     
   4049687441.2813282     
   3857668845.8445544     
   3669754412.4769406     
   3479310606.9680667     
   4037336745.2220316     
   3859842006.1610017     
   3699288118.9830356     
   3546944749.6417494     
   3396517854.0674829     
   3836624728.8099771     
   3683679971.6670861     
   3551707895.5989184     
   3432149349.7791338     
   3318750652.5521059     
   3660261048.2093763     
   3528063752.5749354     
   3420882991.0136051     
   3330136070.5149441     
   3249335284.7930670     
   3517353470.2618866     
   3401643516.2285419     
   3314692920.4525723     
   3247759514.7764907     
   3193928373.1534505     
   3479310606.9680667     
   3360194728.0965824     
   3243355512.1191769     
   3128762008.2524772     
   3016394393.1846895     
   3396517854.0674829     
   3280646199.9100332     
   3166635685.0292382     
   3054680134.4546437     
   2945006890.4409509     
   3318750652.5521059     
   3207658733.4994493     
   3099433274.2351670     
   2994332571.6543336     
   2892721562.0098052     
   3249335284.7930670     
   3145054122.6234031     
   3045973629.6313953     
   2952247170.6756911     
   2864254206.4965377     
   3193928373.1534505     
   3098472710.0965242     
   3011777334.5563936     
   2933694488.3445868     
   2864458027.1826982     
   3016394393.1846895     
   2886481346.3374138     
   2758662208.6987948     
   2633313573.7609086     
   2510899082.2743063     
   2945006890.4409509     
   2822934498.4672971     
   2704382463.4683676     
   2589956004.2544203     
   2480372049.6069827     
   2892721562.0098052     
   2780251104.8684406     
   2672974987.9617972     
   2571675831.8738618     
   2477256093.4754233     
   2864254206.4965377     
   2762311382.5666523     
   2667390314.5285792     
   2580362980.0915484     
   2502209652.5743208     
   2864458027.1826982     
   2772860423.5853448     
   2690178894.3895855     
   2617269606.1451516     
   2555072970.7691493     
   2510899082.2743063     
   2359614077.2050281     
   2209567340.1983643     
   2061105725.7400253     
   1914730732.6140285     
   2480372049.6069827     
   2339656775.3946600     
   2201702176.5091591     
   2067100069.7825832     
   1936671997.6576328     
   2477256093.4754233     
   2349825828.1399913     
   2226957005.6679482     
   2109440576.9479623     
   1998330103.2547140     
   2502209652.5743208     
   2390125279.8526468     
   2284462660.9476638     
   2186100367.6895432     
   2096164418.9004862     
   2555072970.7691493     
   2459532680.0857406     
   2372144515.3759360     
   2293745766.2027922     
   2225380490.6868215     
   1914730732.6140285     
   1792084375.9661505     
   1668618259.6739993     
   1544347994.9076943     
   1419388273.7704012     
   1936671997.6576328     
   1822898642.7026615     
   1712664993.3101809     
   1606687206.1261117     
   1505861738.7423236     
   1998330103.2547140     
   1899454024.5638149     
   1808845176.8222847     
   1727696942.7194679     
   1657301574.4965105     
   2096164418.9004862     
   2014801638.2411160     
   1945847717.5385516     
   1890540383.5103922     
   1850065346.1736813     
   2225380490.6868215     
   2161145956.1206121     
   2112593822.5526040     
   2080724852.7452638     
   2066413632.3429008     
   1419388273.7704012     
   1313099788.9420307     
   1241956333.9651666     
   1214161412.2596347     
   1236556273.4151089     
   1505861738.7423236     
   1446881928.2018683     
   1420873824.2478788     
   1431736242.4164119     
   1482572060.3194249     
   1657301574.4965105     
   1629811900.3090441     
   1630362538.5305328     
   1661209393.5706758     
   1724827959.1063519     
   1850065346.1736813     
   1839557769.4722579     
   1852392598.1906064     
   1890647169.0401692     
   1957263902.2813637     
   2066413632.3429008     
   2061738414.5980611     
   2076743439.5481460     
   2113911173.6535287     
   2176993534.8493748     
   1236556273.4151089     
   1427838631.7727132     
   1704659750.6308596     
   2106518105.5661316     
   2665057842.8247275     
   1482572060.3194249     
   1598310103.1313343     
   1781520302.7968416     
   2066339946.2777879     
   2482402016.7734132     
   1724827959.1063519     
   1776415230.6657999     
   1880490548.1055329     
   2063718638.3369522     
   2351037210.2434521     
   1957263902.2813637     
   1961194218.6119120     
   2002107091.1292667     
   2098766081.4699092     
   2269877577.6109180     
   2176993534.8493748     
   2151990620.2525172     
   2147108369.1473274     
   2173236297.0853729     
   2241825910.3443542     
   2140518457.0805154     
   2367650638.5852442     
   2708627489.2762685     
   3103680569.1990933     
   3517353470.2618866     
   1947617711.9832339     
   2155836891.8760319     
   2467478890.2082520     
   2826814439.7560830     
   3200658089.8912849     
   1741941959.3972652     
   1944318796.5356779     
   2242658294.0390344     
   2583453687.6890574     
   2935495420.7858276     
   1526922872.5701196     
   1739757558.1132751     
   2042211089.8189640     
   2381950551.2620721     
   2730182804.8884630     
   1311497333.1383085     
   1554072097.9467762     
   1877944531.0463159     
   2232660600.9657588     
   2593317640.7572942     
   3517353470.2618866     
   3401643516.2285419     
   3314692920.4525723     
   3247759514.7764907     
   3193928373.1534505     
   3200658089.8912849     
   3133404594.5144944     
   3090105390.4309840     
   3064045859.7507687     
   3050023775.7328219     
   2935495420.7858276     
   2912895621.3028812     
   2909265206.8726206     
   2919762106.9146256     
   2940662688.6419649     
   2730182804.8884630     
   2747943225.8648195     
   2779252205.7891688     
   2820949186.3281150     
   2870578706.5981278     
   2593317640.7572942     
   2645948608.0915127     
   2706270540.5075889     
   2772571457.0751772     
   2843476746.9554057     
   3193928373.1534505     
   3098472710.0965242     
   3011777334.5563936     
   2933694488.3445868     
   2864458027.1826982     
   3050023775.7328219     
   2978681038.3202600     
   2916862785.7900500     
   2864485906.2248368     
   2821764609.2510595     
   2940662688.6419649     
   2892145280.0960565     
   2853605620.2096100     
   2824953705.3638296     
   2806315297.3508973     
   2870578706.5981278     
   2842816494.9248719     
   2825113803.6914096     
   2817336294.8798571     
   2819498085.0168962     
   2843476746.9554057     
   2833561025.5481548     
   2833425047.2596869     
   2842891011.3907270     
   2861879728.4791155     
   2864458027.1826982     
   2772860423.5853448     
   2690178894.3895855     
   2617269606.1451516     
   2555072970.7691493     
   2821764609.2510595     
   2744876428.6356926     
   2677642340.6103029     
   2620783916.2744803     
   2575068715.2086415     
   2806315297.3508973     
   2743257930.8547678     
   2690463582.6043587     
   2648491630.3605790     
   2617919600.4774389     
   2819498085.0168962     
   2768834982.4193935     
   2728922361.6064510     
   2700150985.5563440     
   2682914693.6375160     
   2861879728.4791155     
   2821664552.2671299     
   2792601717.4871764     
   2774926843.9804678     
   2768874661.4357095     
   2555072970.7691493     
   2459532680.0857406     
   2372144515.3759360     
   2293745766.2027922     
   2225380490.6868215     
   2575068715.2086415     
   2497582185.4668298     
   2429554933.5097494     
   2371708269.2699499     
   2324879794.3926191     
   2617919600.4774389     
   2557151803.8155508     
   2506799402.6237030     
   2467415675.4910817     
   2439605178.1515107     
   2682914693.6375160     
   2636765175.3883181     
   2601702139.7388153     
   2578104973.5582027     
   2566367105.9602780     
   2768874661.4357095     
   2734660176.9323158     
   2712024080.4334583     
   2701196117.6312957     
   2702403942.0978346     
   2225380490.6868215     
   2161145956.1206121     
   2112593822.5526040     
   2080724852.7452638     
   2066413632.3429008     
   2324879794.3926191     
   2274591247.5560184     
   2239162493.8094831     
   2219226038.5053883     
   2215313801.2671895     
   2439605178.1515107     
   2400249002.7973280     
   2374913643.0617599     
   2363983876.5284395     
   2367779792.2290974     
   2566367105.9602780     
   2535141014.3107457     
   2517204962.7833052     
   2512786766.5242863     
   2522081897.1681447     
   2702403942.0978346     
   2676793522.4375863     
   2663919988.0640516     
   2663917245.9129114     
   2676911206.0113564     
   2066413632.3429008     
   2061738414.5980611     
   2076743439.5481460     
   2113911173.6535287     
   2176993534.8493748     
   2215313801.2671895     
   2197899259.5748386     
   2195966198.5781059     
   2211400630.3999758     
   2247104141.4315276     
   2367779792.2290974     
   2338460978.8257108     
   2321296140.2451296     
   2317642964.5767784     
   2329586531.6266036     
   2522081897.1681447     
   2482620076.0591345     
   2452536204.3476152     
   2432747922.3434906     
   2424632013.8714757     
   2676911206.0113564     
   2629733222.4693012     
   2589508379.9019489     
   2556803254.5277886     
   2532426579.7536907     
   2176993534.8493748     
   2151990620.2525172     
   2147108369.1473274     
   2173236297.0853729     
   2241825910.3443542     
   2247104141.4315276     
   2184487869.0125289     
   2138943578.1546485     
   2120590607.5459354     
   2140886670.5972183     
   2329586531.6266036     
   2232679410.7666044     
   2149809292.9259186     
   2089847148.0598981     
   2063615598.5610049     
   2424632013.8714757     
   2296882048.0058150     
   2180384662.1323853     
   2082396695.1792769     
   2012420613.1202331     
   2532426579.7536907     
   2377328855.1220574     
   2231167606.2381864     
   2099408073.6128688     
   1989676018.3540027     
   1311497333.1383085     
   1554072097.9467762     
   1877944531.0463159     
   2232660600.9657588     
   2593317640.7572942     
   1028733486.5532261     
   1328556333.4927280     
   1690903618.3989413     
   2066038088.3254533     
   2434429474.4691043     
   793474953.04543424     
   1164589119.4730814     
   1564791551.0764930     
   1956905093.0253181     
   2329698309.5410690     
   639712451.44817924     
   1082518367.2731316     
   1512163433.5702868     
   1915487660.1980190     
   2289315058.1374450     
   617019615.63933122     
   1095829877.3941305     
   1539230981.4205792     
   1947222927.7186787     
   2319805716.2884364     
   2593317640.7572942     
   2645948608.0915127     
   2706270540.5075889     
   2772571457.0751772     
   2843476746.9554057     
   2434429474.4691043     
   2504737074.7949181     
   2581567973.1157146     
   2663835602.6547823     
   2750682048.9737840     
   2329698309.5410690     
   2414521371.7105455     
   2504902498.6054702     
   2600312306.5313478     
   2700338615.5154028     
   2289315058.1374450     
   2383034749.8020220     
   2481934950.7705812     
   2585878165.1815753     
   2694758060.7241139     
   2319805716.2884364     
   2414800823.6174359     
   2515535364.5838242     
   2622009339.1875958     
   2734222747.4287581     
   2843476746.9554057     
   2833561025.5481548     
   2833425047.2596869     
   2842891011.3907270     
   2861879728.4791155     
   2750682048.9737840     
   2756667037.2579627     
   2771820470.0072179     
   2796030936.0763779     
   2829244032.3238873     
   2700338615.5154028     
   2718328230.9264646     
   2744820601.1264119     
   2779760186.4070482     
   2823117489.5444355     
   2694758060.7241139     
   2720306160.5177636     
   2753729177.5773787     
   2795011850.7198043     
   2844145569.0118055     
   2734222747.4287581     
   2762689428.9790592     
   2798508902.5834503     
   2841681168.2419381     
   2892206225.9545121     
   2861879728.4791155     
   2821664552.2671299     
   2792601717.4871764     
   2774926843.9804678     
   2768874661.4357095     
   2829244032.3238873     
   2798600755.8297653     
   2779095887.1401935     
   2770864390.3450408     
   2774037814.2415013     
   2823117489.5444355     
   2799288276.5727272     
   2786571678.0071483     
   2785027708.9631987     
   2794713932.5602813     
   2844145569.0118055     
   2824103607.2363482     
   2815177966.9760475     
   2817383461.0865240     
   2830734164.1983685     
   2892206225.9545121     
   2872811385.5657754     
   2864594065.9023671     
   2867554266.9642944     
   2881691988.7515459     
   2768874661.4357095     
   2734660176.9323158     
   2712024080.4334583     
   2701196117.6312957     
   2702403942.0978346     
   2774037814.2415013     
   2749198194.0244946     
   2735869044.4891081     
   2734177407.0644507     
   2744246187.4729710     
   2794713932.5602813     
   2776560039.4037261     
   2769878390.7178664     
   2774724232.7821422     
   2791150063.2975416     
   2830734164.1983685     
   2816430003.2163515     
   2813636025.5901656     
   2822365757.4916158     
   2842631904.4937906     
   2881691988.7515459     
   2868344510.4250879     
   2866651209.9211178     
   2876612087.2396421     
   2898227142.3806562     
   2702403942.0978346     
   2676793522.4375863     
   2663919988.0640516     
   2663917245.9129114     
   2676911206.0113564     
   2744246187.4729710     
   2720968240.1151929     
   2709563649.5881319     
   2710101159.1521754     
   2722646862.3398762     
   2791150063.2975416     
   2769403319.8557711     
   2758876273.3561211     
   2759596937.7236218     
   2771592833.0157595     
   2842631904.4937906     
   2821755118.4536333     
   2811636712.9960084     
   2812283135.3112392     
   2823700848.7436452     
   2898227142.3806562     
   2877691537.3789430     
   2867628041.1743956     
   2868036653.7670279     
   2878917375.1568375     
   2676911206.0113564     
   2629733222.4693012     
   2589508379.9019489     
   2556803254.5277886     
   2532426579.7536907     
   2722646862.3398762     
   2667773884.6352601     
   2619671501.3589292     
   2578663927.2237630     
   2545215309.6039481     
   2771592833.0157595     
   2711125775.9709496     
   2657415442.3049560     
   2610606940.5447202     
   2570908176.8492827     
   2823700848.7436452     
   2759732672.2225494     
   2702675294.1026406     
   2652564898.7798886     
   2609453253.0873618     
   2878917375.1568375     
   2813524903.2179227     
   2755365446.2094297     
   2704439004.1313543     
   2660745576.9837079     
   2532426579.7536907     
   2377328855.1220574     
   2231167606.2381864     
   2099408073.6128688     
   1989676018.3540027     
   2545215309.6039481     
   2370760541.8012261     
   2200443117.5204268     
   2037675654.3578060     
   1887550520.4279215     
   2570908176.8492827     
   2382613549.9338846     
   2194501882.8164630     
   2008195795.8087854     
   1826246238.1315262     
   2609453253.0873618     
   2413004881.2907395     
   2213857735.4338031     
   2012428870.2573645     
   1809395334.3911135     
   2660745576.9837079     
   2461901586.4918613     
   2258665188.3777518     
   2051036382.6413658     
   1839015169.2827282     
   617019615.63933122     
   1095829877.3941305     
   1539230981.4205792     
   1947222927.7186787     
   2319805716.2884364     
   639712451.44789612     
   1082518367.2728601     
   1512163433.5700600     
   1915487660.1978688     
   2289315058.1373897     
   793474953.04507029     
   1164589119.4726179     
   1564791551.0760729     
   1956905093.0250156     
   2329698309.5409417     
   1028733486.5529130     
   1328556333.4921901     
   1690903618.3983796     
   2066038088.3250060     
   2434429474.4688611     
   1311497333.1380882     
   1554072097.9462202     
   1877944531.0456517     
   2232660600.9651608     
   2593317640.7568898     
   2319805716.2884364     
   2414800823.6174359     
   2515535364.5838242     
   2622009339.1875958     
   2734222747.4287581     
   2289315058.1373897     
   2383034749.8019891     
   2481934950.7705755     
   2585878165.1815982     
   2694758060.7241616     
   2329698309.5409417     
   2414521371.7104554     
   2504902498.6054182     
   2600312306.5313406     
   2700338615.5154366     
   2434429474.4688611     
   2504737074.7947230     
   2581567973.1155696     
   2663835602.6546955     
   2750682048.9737473     
   2593317640.7568898     
   2645948608.0911636     
   2706270540.5072989     
   2772571457.0749459     
   2843476746.9552369     
   2734222747.4287581     
   2762689428.9790592     
   2798508902.5834503     
   2841681168.2419381     
   2892206225.9545121     
   2694758060.7241616     
   2720306160.5177803     
   2753729177.5773664     
   2795011850.7197547     
   2844145569.0117106     
   2700338615.5154366     
   2718328230.9264550     
   2744820601.1263595     
   2779760186.4069514     
   2823117489.5442839     
   2750682048.9737473     
   2756667037.2578988     
   2771820470.0071211     
   2796030936.0762496     
   2829244032.3237071     
   2843476746.9552369     
   2833561025.5479908     
   2833425047.2595267     
   2842891011.3905592     
   2861879728.4789352     
   2892206225.9545121     
   2872811385.5657754     
   2864594065.9023671     
   2867554266.9642944     
   2881691988.7515459     
   2844145569.0117106     
   2824103607.2362928     
   2815177966.9760203     
   2817383461.0865307     
   2830734164.1984038     
   2823117489.5442839     
   2799288276.5726328     
   2786571678.0071077     
   2785027708.9632125     
   2794713932.5603347     
   2829244032.3237071     
   2798600755.8296552     
   2779095887.1401515     
   2770864390.3450613     
   2774037814.2415719     
   2861879728.4789352     
   2821664552.2670245     
   2792601717.4871454     
   2774926843.9804950     
   2768874661.4357891     
   2881691988.7515459     
   2868344510.4250879     
   2866651209.9211178     
   2876612087.2396421     
   2898227142.3806562     
   2830734164.1984038     
   2816430003.2163739     
   2813636025.5901804     
   2822365757.4916158     
   2842631904.4937749     
   2794713932.5603347     
   2776560039.4037695     
   2769878390.7178917     
   2774724232.7821484     
   2791150063.2975335     
   2774037814.2415719     
   2749198194.0245433     
   2735869044.4891295     
   2734177407.0644565     
   2744246187.4729519     
   2768874661.4357891     
   2734660176.9323783     
   2712024080.4334917     
   2701196117.6312957     
   2702403942.0978098     
   2898227142.3806562     
   2877691537.3789430     
   2867628041.1743956     
   2868036653.7670279     
   2878917375.1568375     
   2842631904.4937749     
   2821755118.4536238     
   2811636712.9960017     
   2812283135.3112607     
   2823700848.7436795     
   2791150063.2975335     
   2769403319.8557558     
   2758876273.3561120     
   2759596937.7236323     
   2771592833.0157852     
   2744246187.4729519     
   2720968240.1151576     
   2709563649.5880947     
   2710101159.1521611     
   2722646862.3398929     
   2702403942.0978098     
   2676793522.4375200     
   2663919988.0639696     
   2663917245.9128542     
   2676911206.0113196     
   2878917375.1568375     
   2813524903.2179227     
   2755365446.2094297     
   2704439004.1313543     
   2660745576.9837079     
   2823700848.7436795     
   2759732672.2225518     
   2702675294.1026120     
   2652564898.7798219     
   2609453253.0872436     
   2771592833.0157852     
   2711125775.9709506     
   2657415442.3049178     
   2610606940.5446272     
   2570908176.8491340     
   2722646862.3398929     
   2667773884.6352634     
   2619671501.3588996     
   2578663927.2236853     
   2545215309.6037908     
   2676911206.0113196     
   2629733222.4693036     
   2589508379.9019480     
   2556803254.5277796     
   2532426579.7536230     
   2660745576.9837079     
   2461901586.4918613     
   2258665188.3777518     
   2051036382.6413658     
   1839015169.2827282     
   2609453253.0872436     
   2413004881.2906804     
   2213857735.4338303     
   2012428870.2574751     
   1809395334.3913045     
   2570908176.8491340     
   2382613549.9338045     
   2194501882.8164616     
   2008195795.8088648     
   1826246238.1317003     
   2545215309.6037908     
   2370760541.8011332     
   2200443117.5204172     
   2037675654.3578537     
   1887550520.4280305     
   2532426579.7536230     
   2377328855.1220036     
   2231167606.2381372     
   2099408073.6128025     
   1989676018.3538520     
   1311497333.1380882     
   1554072097.9462202     
   1877944531.0456517     
   2232660600.9651608     
   2593317640.7568898     
   1526922872.5702262     
   1739757558.1130118     
   2042211089.8185391     
   2381950551.2616496     
   2730182804.8881540     
   1741941959.3975670     
   1944318796.5355971     
   2242658294.0387688     
   2583453687.6887527     
   2935495420.7855763     
   1947617711.9836009     
   2155836891.8760285     
   2467478890.2080569     
   2826814439.7558379     
   3200658089.8910532     
   2140518457.0808260     
   2367650638.5852056     
   2708627489.2760692     
   3103680569.1988564     
   3517353470.2616625     
   2593317640.7568898     
   2645948608.0911636     
   2706270540.5072989     
   2772571457.0749459     
   2843476746.9552369     
   2730182804.8881540     
   2747943225.8645353     
   2779252205.7889094     
   2820949186.3278852     
   2870578706.5979266     
   2935495420.7855763     
   2912895621.3026352     
   2909265206.8723917     
   2919762106.9144158     
   2940662688.6417785     
   3200658089.8910532     
   3133404594.5142775     
   3090105390.4307952     
   3064045859.7506123     
   3050023775.7327027     
   3517353470.2616625     
   3401643516.2283549     
   3314692920.4524322     
   3247759514.7764163     
   3193928373.1534543     
   2843476746.9552369     
   2833561025.5479908     
   2833425047.2595267     
   2842891011.3905592     
   2861879728.4789352     
   2870578706.5979266     
   2842816494.9246759     
   2825113803.6912270     
   2817336294.8796754     
   2819498085.0167127     
   2940662688.6417785     
   2892145280.0958672     
   2853605620.2094216     
   2824953705.3636475     
   2806315297.3507218     
   3050023775.7327027     
   2978681038.3201165     
   2916862785.7898951     
   2864485906.2246690     
   2821764609.2508831     
   3193928373.1534543     
   3098472710.0964737     
   3011777334.5563059     
   2933694488.3444619     
   2864458027.1825333     
   2861879728.4789352     
   2821664552.2670245     
   2792601717.4871454     
   2774926843.9804950     
   2768874661.4357891     
   2819498085.0167127     
   2768834982.4192786     
   2728922361.6063962     
   2700150985.5563588     
   2682914693.6375847     
   2806315297.3507218     
   2743257930.8546405     
   2690463582.6042829     
   2648491630.3605571     
   2617919600.4774694     
   2821764609.2508831     
   2744876428.6355510     
   2677642340.6102018     
   2620783916.2744203     
   2575068715.2086320     
   2864458027.1825333     
   2772860423.5851984     
   2690178894.3894649     
   2617269606.1450634     
   2555072970.7690969     
   2768874661.4357891     
   2734660176.9323783     
   2712024080.4334917     
   2701196117.6312957     
   2702403942.0978098     
   2682914693.6375847     
   2636765175.3883638     
   2601702139.7388463     
   2578104973.5582199     
   2566367105.9602795     
   2617919600.4774694     
   2557151803.8155727     
   2506799402.6237249     
   2467415675.4911094     
   2439605178.1515460     
   2575068715.2086320     
   2497582185.4668202     
   2429554933.5097513     
   2371708269.2699599     
   2324879794.3926563     
   2555072970.7690969     
   2459532680.0856824     
   2372144515.3758907     
   2293745766.2027750     
   2225380490.6868410     
   2702403942.0978098     
   2676793522.4375200     
   2663919988.0639696     
   2663917245.9128542     
   2676911206.0113196     
   2566367105.9602795     
   2535141014.3107057     
   2517204962.7832394     
   2512786766.5241914     
   2522081897.1680422     
   2439605178.1515460     
   2400249002.7973232     
   2374913643.0617123     
   2363983876.5283480     
   2367779792.2289686     
   2324879794.3926563     
   2274591247.5560260     
   2239162493.8094459     
   2219226038.5052929     
   2215313801.2670221     
   2225380490.6868410     
   2161145956.1206203     
   2112593822.5525856     
   2080724852.7451737     
   2066413632.3427162     
   2676911206.0113196     
   2629733222.4693036     
   2589508379.9019480     
   2556803254.5277796     
   2532426579.7536230     
   2522081897.1680422     
   2482620076.0590892     
   2452536204.3476024     
   2432747922.3435116     
   2424632013.8714952     
   2367779792.2289686     
   2338460978.8256226     
   2321296140.2450981     
   2317642964.5768032     
   2329586531.6266861     
   2215313801.2670221     
   2197899259.5747099     
   2195966198.5780454     
   2211400630.4000044     
   2247104141.4316549     
   2066413632.3427162     
   2061738414.5979011     
   2076743439.5480504     
   2113911173.6535277     
   2176993534.8495116     
   2532426579.7536230     
   2377328855.1220036     
   2231167606.2381372     
   2099408073.6128025     
   1989676018.3538520     
   2424632013.8714952     
   2296882048.0058036     
   2180384662.1323190     
   2082396695.1791387     
   2012420613.1200225     
   2329586531.6266861     
   2232679410.7666421     
   2149809292.9258971     
   2089847148.0598178     
   2063615598.5608699     
   2247104141.4316549     
   2184487869.0126057     
   2138943578.1546867     
   2120590607.5459685     
   2140886670.5972219     
   2176993534.8495116     
   2151990620.2526488     
   2147108369.1474760     
   2173236297.0855398     
   2241825910.3445969     
   2140518457.0808260     
   2367650638.5852056     
   2708627489.2760692     
   3103680569.1988564     
   3517353470.2616625     
   2573371007.8458815     
   2558032565.0838060     
   2800692865.5383101     
   3195886158.0396299     
   3660261048.2090220     
   3144158492.7194018     
   2888531832.2714453     
   3012303995.2920175     
   3372377446.4234939     
   3836624728.8097286     
   3859951025.0788932     
   3350582582.1071382     
   3327429631.1784358     
   3616574996.3105173     
   4037336745.2221227     
   4752854997.2897549     
   3953083683.0275245     
   3737503152.2339177     
   3913990100.1687536     
   4254917566.3485160     
   3517353470.2616625     
   3401643516.2283549     
   3314692920.4524322     
   3247759514.7764163     
   3193928373.1534543     
   3660261048.2090220     
   3528063752.5746055     
   3420882991.0133395     
   3330136070.5147882     
   3249335284.7930408     
   3836624728.8097286     
   3683679971.6667948     
   3551707895.5986462     
   3432149349.7789321     
   3318750652.5520048     
   4037336745.2221227     
   3859842006.1609364     
   3699288118.9828835     
   3546944749.6415553     
   3396517854.0672832     
   4254917566.3485160     
   4049687441.2816720     
   3857668845.8446465     
   3669754412.4768205     
   3479310606.9677525     
   3193928373.1534543     
   3098472710.0964737     
   3011777334.5563059     
   2933694488.3444619     
   2864458027.1825333     
   3249335284.7930408     
   3145054122.6233406     
   3045973629.6313043     
   2952247170.6755710     
   2864254206.4963846     
   3318750652.5520048     
   3207658733.4993324     
   3099433274.2350311     
   2994332571.6541867     
   2892721562.0096507     
   3396517854.0672832     
   3280646199.9098229     
   3166635685.0290270     
   3054680134.4544444     
   2945006890.4407597     
   3479310606.9677525     
   3360194728.0962663     
   3243355512.1188669     
   3128762008.2521911     
   3016394393.1844358     
   2864458027.1825333     
   2772860423.5851984     
   2690178894.3894649     
   2617269606.1450634     
   2555072970.7690969     
   2864254206.4963846     
   2762311382.5665116     
   2667390314.5284591     
   2580362980.0914435     
   2502209652.5742416     
   2892721562.0096507     
   2780251104.8682923     
   2672974987.9616623     
   2571675831.8737421     
   2477256093.4753122     
   2945006890.4407597     
   2822934498.4671278     
   2704382463.4682074     
   2589956004.2542682     
   2480372049.6068182     
   3016394393.1844358     
   2886481346.3371873     
   2758662208.6985860     
   2633313573.7607131     
   2510899082.2741013     
   2555072970.7690969     
   2459532680.0856824     
   2372144515.3758907     
   2293745766.2027750     
   2225380490.6868410     
   2502209652.5742416     
   2390125279.8525596     
   2284462660.9475727     
   2186100367.6894665     
   2096164418.9004314     
   2477256093.4753122     
   2349825828.1398630     
   2226957005.6678033     
   2109440576.9478104     
   1998330103.2545705     
   2480372049.6068182     
   2339656775.3944788     
   2201702176.5089474     
   2067100069.7823625     
   1936671997.6573932     
   2510899082.2741013     
   2359614077.2047882     
   2209567340.1980982     
   2061105725.7397254     
   1914730732.6137104     
   2225380490.6868410     
   2161145956.1206203     
   2112593822.5525856     
   2080724852.7451737     
   2066413632.3427162     
   2096164418.9004314     
   2014801638.2410672     
   1945847717.5384974     
   1890540383.5103071     
   1850065346.1735303     
   1998330103.2545705     
   1899454024.5637190     
   1808845176.8222125     
   1727696942.7194092     
   1657301574.4964430     
   1936671997.6573932     
   1822898642.7025039     
   1712664993.3100822     
   1606687206.1260748     
   1505861738.7423351     
   1914730732.6137104     
   1792084375.9659145     
   1668618259.6738660     
   1544347994.9076643     
   1419388273.7704811     
   2066413632.3427162     
   2061738414.5979011     
   2076743439.5480504     
   2113911173.6535277     
   2176993534.8495116     
   1850065346.1735303     
   1839557769.4721496     
   1852392598.1905589     
   1890647169.0402064     
   1957263902.2815316     
   1657301574.4964430     
   1629811900.3089900     
   1630362538.5305181     
   1661209393.5707178     
   1724827959.1064513     
   1505861738.7423351     
   1446881928.2018707     
   1420873824.2478926     
   1431736242.4164240     
   1482572060.3194709     
   1419388273.7704811     
   1313099788.9420907     
   1241956333.9651892     
   1214161412.2596247     
   1236556273.4150443     
   2176993534.8495116     
   2151990620.2526488     
   2147108369.1474760     
   2173236297.0855398     
   2241825910.3445969     
   1957263902.2815316     
   1961194218.6120567     
   2002107091.1294353     
   2098766081.4701340     
   2269877577.6112628     
   1724827959.1064513     
   1776415230.6659117     
   1880490548.1056893     
   2063718638.3372178     
   2351037210.2438526     
   1482572060.3194709     
   1598310103.1314120     
   1781520302.7969770     
   2066339946.2780750     
   2482402016.7738862     
   1236556273.4150443     
   1427838631.7727032     
   1704659750.6309743     
   2106518105.5664437     
   2665057842.8252678     
   4752854997.2897549     
   3953083683.0275245     
   3737503152.2339177     
   3913990100.1687536     
   4254917566.3485160     
   4210187759.5988221     
   3663312229.7398577     
   3649422448.3504314     
   3930554509.4991159     
   4301672091.0338087     
   3462487629.1235495     
   3101760124.4446945     
   3279422195.2923799     
   3696732983.3276219     
   4155674030.6028128     
   2702319732.0111322     
   2384072299.4252357     
   2710428243.6934271     
   3275428448.1025124     
   3862387226.6147351     
   2821315865.8278384     
   2208893165.0858297     
   2345180338.1351814     
   2885833849.9509945     
   3544915760.5277300     
   4254917566.3485160     
   4049687441.2816720     
   3857668845.8446465     
   3669754412.4768205     
   3479310606.9677525     
   4301672091.0338087     
   4121876090.9593568     
   3942208289.5391202     
   3757842111.0547605     
   3565455931.7595124     
   4155674030.6028128     
   4026326516.8406081     
   3903389766.2146330     
   3779765913.7075005     
   3652063235.5048718     
   3862387226.6147351     
   3786237984.8483810     
   3751545750.9728374     
   3738335747.6896544     
   3736360204.3918414     
   3544915760.5277300     
   3463646832.1521273     
   3513650724.0874581     
   3642338016.8169498     
   3816862943.5765142     
   3479310606.9677525     
   3360194728.0962663     
   3243355512.1188669     
   3128762008.2521911     
   3016394393.1844358     
   3565455931.7595124     
   3449267571.1433549     
   3335127931.7219725     
   3222515324.3486938     
   3110914450.5012441     
   3652063235.5048718     
   3543820027.1575103     
   3438265226.3131809     
   3334360395.0166764     
   3231139190.9477496     
   3736360204.3918414     
   3641192766.5644665     
   3550246724.7953095     
   3461952346.0959039     
   3374952405.2846055     
   3816862943.5765142     
   3739650077.8042965     
   3669140330.4369903     
   3603202486.5018330     
   3540127266.8661747     
   3016394393.1844358     
   2886481346.3371873     
   2758662208.6985860     
   2633313573.7607131     
   2510899082.2741013     
   3110914450.5012441     
   2969414607.4258332     
   2829825966.1966186     
   2692709361.9090390     
   2558773216.1938629     
   3231139190.9477496     
   3074913837.1984205     
   2919919129.8900013     
   2766841758.2404332     
   2616594306.4265499     
   3374952405.2846055     
   3200886571.0087318     
   3026887652.9077272     
   2853683358.0675483     
   2682310797.4397917     
   3540127266.8661747     
   3345262045.6996818     
   3148878821.7806621     
   2951640510.3700461     
   2754590400.8355718     
   2510899082.2741013     
   2359614077.2047882     
   2209567340.1980982     
   2061105725.7397254     
   1914730732.6137104     
   2558773216.1938629     
   2404433593.6912112     
   2249759624.9969263     
   2094798065.1910670     
   1939620739.3621168     
   2616594306.4265499     
   2465201468.1007156     
   2313035964.2989659     
   2159975053.9283233     
   2005905512.6204519     
   2682310797.4397917     
   2539490593.9468331     
   2396581436.8201766     
   2253382402.4650745     
   2109792556.8541827     
   2754590400.8355718     
   2625236836.4331565     
   2497538918.5112624     
   2371203578.7893181     
   2246184716.8785768     
   1914730732.6137104     
   1792084375.9659145     
   1668618259.6738660     
   1544347994.9076643     
   1419388273.7704811     
   1939620739.3621168     
   1815307800.3385453     
   1690392720.5318835     
   1564762753.8298297     
   1438318797.2042749     
   2005905512.6204519     
   1882784594.9131713     
   1759738724.4075038     
   1636670684.5419741     
   1513491477.8230944     
   2109792556.8541827     
   1989190656.5260067     
   1869462993.3350255     
   1750583828.8092339     
   1632569264.6191342     
   2246184716.8785768     
   2127935742.7938521     
   2011225887.0577343     
   1896104024.9231572     
   1782708839.7667496     
   1419388273.7704811     
   1313099788.9420907     
   1241956333.9651892     
   1214161412.2596247     
   1236556273.4150443     
   1438318797.2042749     
   1297556426.4705436     
   1171415387.1252036     
   1064158834.8082281     
   981378463.11852694     
   1513491477.8230944     
   1368562541.9619842     
   1220306548.4859259     
   1066169072.7332860     
   903886613.26224113     
   1632569264.6191342     
   1523508141.4841757     
   1405619853.8809462     
   1279155375.9980071     
   1150335338.8248537     
   1782708839.7667496     
   1749560182.4148633     
   1713059438.5688808     
   1681813696.4369805     
   1674312784.4541616     
   1236556273.4150443     
   1427838631.7727032     
   1704659750.6309743     
   2106518105.5664437     
   2665057842.8252678     
   981378463.11852694     
   1149612788.0587835     
   1416712104.3920162     
   1805825176.5594027     
   2336213114.1019044     
   903886613.26224113     
   952072699.41046011     
   1138583539.3159423     
   1474744516.4495533     
   1958986643.7103803     
   1150335338.8248537     
   1001459527.1110522     
   981211494.67501116     
   1161040444.6438956     
   1545952142.7644277     
   1674312784.4541616     
   1379097851.1859372     
   1127470206.9896357     
   1011222464.4544997     
   1155873047.1684084     
 </DataArray>
 <DataArray  type="Float64" Name="strain" NumberOfComponents="3" format="ascii">
  -3.0127256589023155E-003   2.2036055015336453E-002  -6.2759630931773058E-002
   9.8212258389820395E-003   3.9716602713902316E-003  -5.2925328987386111E-002
   2.2655177336866394E-002  -8.9929691191483196E-003  -4.7183850260338223E-002
   3.5489128834750694E-002  -1.6857833156279298E-002  -4.5535194750629643E-002
   4.8323080332635104E-002  -1.9622931840002633E-002  -4.7979362458259955E-002
   2.4364517739760783E-002   3.0840899271480704E-002  -3.2018016471178301E-002
   3.3769145332616768E-002   1.1120783931744038E-002  -2.6981544770886767E-002
   4.3173772925472642E-002  -3.3084592673587321E-003  -2.4710897663312748E-002
   5.2578400518328572E-002  -1.2446830325828120E-002  -2.5206075148456228E-002
   6.1983028111184502E-002  -1.6294329243663475E-002  -2.8467077226317361E-002
   4.1085112834996718E-002   3.9645743527624844E-002  -3.0276759999867120E-003
   4.8387415147445823E-002   1.8269907592097873E-002  -2.5979277565646997E-003
   5.5689717459895038E-002   2.3760505844306057E-003  -3.6070054812386287E-003
   6.2992019772344199E-002  -8.0358274953768391E-003  -6.0549091740086242E-003
   7.0294322084793470E-002  -1.2965726647324483E-002  -9.9416388348742835E-003
   4.7149059626805573E-002   4.8450587783769095E-002   2.4211390481801279E-002
   5.3676035283469606E-002   2.5419031252451707E-002   2.0225522055579856E-002
   6.0203010940133694E-002   8.0605604362201239E-003   1.6127826285884266E-002
   6.6729986596797755E-002  -3.6248246649254988E-003   1.1918303172714053E-002
   7.3256962253461760E-002  -9.6371240509854628E-003   7.5969527160699366E-003
   4.2556358115187320E-002   5.7255432039913290E-002   4.9699182974185963E-002
   4.9635005740687910E-002   3.2568154912805514E-002   4.1488804665547108E-002
   5.6713653366188499E-002   1.3745070288009642E-002   3.4493597638055762E-002
   6.3792300991689088E-002   7.8617816552573050E-004   2.8713561891711592E-002
   7.0870948617189733E-002  -6.3085214546463320E-003   2.4148697426514820E-002
   4.8323080332635104E-002  -1.9622931840002633E-002  -4.7979362458259955E-002
   5.1722051606843900E-002  -1.9793824181112696E-002  -3.4966295792801971E-002
   5.5121022881052695E-002  -1.9876069190404438E-002  -2.5977693300760385E-002
   5.8519994155261490E-002  -1.9869666867877257E-002  -2.1013554982135460E-002
   6.1918965429470285E-002  -1.9774617213531909E-002  -2.0073880836926516E-002
   6.1983028111184502E-002  -1.6294329243663475E-002  -2.8467077226317361E-002
   6.1948469375548321E-002  -1.7321185864302785E-002  -1.9992200309439739E-002
   6.1913910639912029E-002  -1.7997630031183209E-002  -1.4359919238835811E-002
   6.1879351904275764E-002  -1.8323661744304706E-002  -1.1570234014505160E-002
   6.1844793168639445E-002  -1.8299281003666956E-002  -1.1623144636448146E-002
   7.0294322084793470E-002  -1.2965726647324483E-002  -9.9416388348742835E-003
   6.8008101666455004E-002  -1.4848547547492680E-002  -5.7431865446365138E-003
   6.5721881248116593E-002  -1.6119190871961744E-002  -3.2054617735294139E-003
   6.3435660829778209E-002  -1.6777656620731596E-002  -2.3284645215532335E-003
   6.1149440411439770E-002  -1.6823944793802281E-002  -3.1121947887077783E-003
   7.3256962253461760E-002  -9.6371240509854628E-003   7.5969527160699366E-003
   6.9900948479564143E-002  -1.2375909230682561E-002   7.7807455016078858E-003
   6.6544934705666442E-002  -1.4240751712740508E-002   7.4856790951580675E-003
   6.3188920931768783E-002  -1.5231651497158655E-002   6.7117534967204382E-003
   5.9832907157871110E-002  -1.5348608583937579E-002   5.4589687062947673E-003
   7.0870948617189733E-002  -6.3085214546463320E-003   2.4148697426514820E-002
   6.7627009814875627E-002  -9.9032709138727193E-003   2.0579595829293418E-002
   6.4383071012561605E-002  -1.2362312553519036E-002   1.7713503367226907E-002
   6.1139132210247540E-002  -1.3685646373585904E-002   1.5550420040315496E-002
   5.7895193407933476E-002  -1.3873272374072820E-002   1.4090345848559283E-002
   6.1918965429470285E-002  -1.9774617213531909E-002  -2.0073880836926516E-002
   6.1095570983176861E-002  -1.9559711127611623E-002  -1.6274634436850954E-002
   6.0272176536883215E-002  -1.9193739510360464E-002  -1.3106221730423473E-002
   5.9448782090589625E-002  -1.8676702361778361E-002  -1.0568642717644294E-002
   5.8625387644296145E-002  -1.8008599681865634E-002  -8.6618973985131964E-003
   6.1844793168639445E-002  -1.8299281003666956E-002  -1.1623144636448146E-002
   6.0456696144952304E-002  -1.8047546741789822E-002  -8.2512675564609395E-003
   5.9068599121265081E-002  -1.7691517891191388E-002  -5.3779619376128907E-003
   5.7680502097577954E-002  -1.7231194451871934E-002  -3.0032277799037915E-003
   5.6292405073890772E-002  -1.6666576423831736E-002  -1.1270650833334894E-003
   6.1149440411439770E-002  -1.6823944793802281E-002  -3.1121947887077783E-003
   5.9328903042868142E-002  -1.6535382355967881E-002  -2.1445797141891876E-004
   5.7508365674296458E-002  -1.6189296272022230E-002   2.3169696172405385E-003
   5.5687828305724732E-002  -1.5785686541965514E-002   4.4820879772696290E-003
   5.3867290937153145E-002  -1.5324553165797561E-002   6.2808971086692200E-003
   5.9832907157871110E-002  -1.5348608583937579E-002   5.4589687062947673E-003
   5.7712191676924193E-002  -1.5023217970146122E-002   7.8357943182755657E-003
   5.5591476195977270E-002  -1.4687074652853224E-002   9.9785729341359472E-003
   5.3470760715030360E-002  -1.4340178632058980E-002   1.1887304553875468E-002
   5.1350045234083472E-002  -1.3982529907763525E-002   1.3561989177494578E-002
   5.7895193407933476E-002  -1.3873272374072820E-002   1.4090345848559283E-002
   5.5606562047120500E-002  -1.3511053584324140E-002   1.5899489312622250E-002
   5.3317930686307496E-002  -1.3184853033684149E-002   1.7606848013073634E-002
   5.1029299325494562E-002  -1.2894670722152373E-002   1.9212421949913655E-002
   4.8740667964681572E-002  -1.2640506649729377E-002   2.0716211123142148E-002
   5.8625387644296145E-002  -1.8008599681865634E-002  -8.6618973985131964E-003
   5.5399382966174526E-002  -1.7230717069155244E-002  -7.3883799564770092E-003
   5.2173378288052963E-002  -1.6384340122178570E-002  -5.7983599441823741E-003
   4.8947373609931399E-002  -1.5469468840937188E-002  -3.8918373616293744E-003
   4.5721368931809780E-002  -1.4486103225429980E-002  -1.6688122088179824E-003
   5.6292405073890772E-002  -1.6666576423831736E-002  -1.1270650833334894E-003
   5.3345387142256895E-002  -1.6015860413983229E-002   8.5002823180524434E-005
   5.0398369210623156E-002  -1.5297243029238988E-002   1.5385416524112405E-003
   4.7451351278989320E-002  -1.4510724269599297E-002   3.2335514043600466E-003
   4.4504333347355540E-002  -1.3656304135063912E-002   5.1700320790253329E-003
   5.3867290937153145E-002  -1.5324553165797561E-002   6.2808971086692200E-003
   5.1124228104465874E-002  -1.4801003758811326E-002   7.4309225202909279E-003
   4.8381165271778659E-002  -1.4210145936299198E-002   8.7473872070885778E-003
   4.5638102439091416E-002  -1.3551979698261298E-002   1.0230291169061996E-002
   4.2895039606404145E-002  -1.2826505044697956E-002   1.1879634406211925E-002
   5.1350045234083472E-002  -1.3982529907763525E-002   1.3561989177494578E-002
   4.8735905852801450E-002  -1.3586147103639590E-002   1.4649379134854125E-002
   4.6121766471519457E-002  -1.3123048843359512E-002   1.5828176719848739E-002
   4.3507627090237457E-002  -1.2593235126923797E-002   1.7098381932477875E-002
   4.0893487708955498E-002  -1.1996705954331943E-002   1.8459994772741420E-002
   4.8740667964681572E-002  -1.2640506649729377E-002   2.0716211123142148E-002
   4.6180420387263610E-002  -1.2371290448467631E-002   2.1740372666870122E-002
   4.3620172809845675E-002  -1.2035951750419743E-002   2.2780910190691617E-002
   4.1059925232427685E-002  -1.1634490555585915E-002   2.3837823694606436E-002
   3.8499677655009834E-002  -1.1166906863966153E-002   2.4911113178614386E-002
   4.5721368931809780E-002  -1.4486103225429980E-002  -1.6688122088179824E-003
   4.3656960200938011E-002  -1.3510910013833088E-002  -9.1699047957738422E-004
   4.1592551470066186E-002  -1.2620555944324152E-002  -5.2918608684582313E-004
   3.9528142739194361E-002  -1.1815041016902159E-002  -5.0539903062285507E-004
   3.7463734008322591E-002  -1.1094365231566705E-002  -8.4562931090870208E-004
   4.4504333347355540E-002  -1.3656304135063912E-002   5.1700320790253329E-003
   4.2131461388525304E-002  -1.2789767987305023E-002   5.5208955150516381E-003
   3.9758589429695096E-002  -1.1966901187993928E-002   5.6188498316697144E-003
   3.7385717470864874E-002  -1.1187703737130794E-002   5.4638950288800614E-003
   3.5012845512034652E-002  -1.0452175634716232E-002   5.0560311066827346E-003
   4.2895039606404145E-002  -1.2826505044697956E-002   1.1879634406211925E-002
   4.0324812636716445E-002  -1.2068625960775958E-002   1.1870709342662739E-002
   3.7754585667028689E-002  -1.1313246431663287E-002   1.1719983376806631E-002
   3.5184358697341017E-002  -1.0560366457360325E-002   1.1427456508643727E-002
   3.2614131727653262E-002  -9.8099860378659809E-003   1.0993128738173208E-002
   4.0893487708955498E-002  -1.1996705954331943E-002   1.8459994772741420E-002
   3.8237013945511225E-002  -1.1347483934247615E-002   1.8132451003255931E-002
   3.5580540182066890E-002  -1.0659591675333521E-002   1.7774214548564420E-002
   3.2924066418622527E-002  -9.9330291775894079E-003   1.7385285408666493E-002
   3.0267592655178331E-002  -9.1677964410157298E-003   1.6965663583562635E-002
   3.8499677655009834E-002  -1.1166906863966153E-002   2.4911113178614386E-002
   3.5868065314909714E-002  -1.0626341907718995E-002   2.4306120496831507E-002
   3.3236452974809649E-002  -1.0005936919002922E-002   2.3781543346943379E-002
   3.0604840634709557E-002  -9.3056918978187825E-003   2.3337381728949919E-002
   2.7973228294609520E-002  -8.5256068441653676E-003   2.2973635642850931E-002
   3.7463734008322591E-002  -1.1094365231566705E-002  -8.4562931090870208E-004
   3.5499773955985803E-002  -1.0474936820964231E-002  -7.8860971611538488E-004
   3.3535813903649014E-002  -9.9731640177433967E-003  -7.5387093825474150E-004
   3.1571853851312254E-002  -9.5890468219028691E-003  -7.4141297732716049E-004
   2.9607893798975438E-002  -9.3225852334430925E-003  -7.5123583333258637E-004
   3.5012845512034652E-002  -1.0452175634716232E-002   5.0560311066827346E-003
   3.3009166898676001E-002  -9.7788300442320786E-003   5.0486120278965263E-003
   3.1005488285317240E-002  -9.1861801291632794E-003   4.9840366439991568E-003
   2.9001809671958451E-002  -8.6742258895078361E-003   4.8623049549906538E-003
   2.6998131058599828E-002  -8.2429673252673030E-003   4.6834169608712672E-003
   3.2614131727653262E-002  -9.8099860378659809E-003   1.0993128738173208E-002
   3.0535859065094539E-002  -9.0827232675001479E-003   1.0958230917772760E-002
   2.8457586402535914E-002  -8.3991962405827181E-003   1.0831301304083663E-002
   2.6379313739977241E-002  -7.7594049571130252E-003   1.0612339897105957E-002
   2.4301041077418539E-002  -7.1633494170919576E-003   1.0301346696838520E-002
   3.0267592655178331E-002  -9.1677964410157298E-003   1.6965663583562635E-002
   2.8079850455241612E-002  -8.3866164907678842E-003   1.6940246953514926E-002
   2.5892108255304993E-002  -7.6122123520021567E-003   1.6787923042000080E-002
   2.3704366055368332E-002  -6.8445840247181033E-003   1.6508691849018507E-002
   2.1516623855431662E-002  -6.0837315089161681E-003   1.6102553374569978E-002
   2.7973228294609520E-002  -8.5256068441653676E-003   2.2973635642850931E-002
   2.5641141069117024E-002  -7.6905097140357315E-003   2.2994660135121969E-002
   2.3309053843624472E-002  -6.8252284634218174E-003   2.2853901857747383E-002
   2.0976966618131906E-002  -5.9297630923235145E-003   2.2551360810728532E-002
   1.8644879392639424E-002  -5.0041136007407117E-003   2.2087036994064557E-002
   2.9607893798975438E-002  -9.3225852334430925E-003  -7.5123583333258637E-004
   2.9118982159967000E-002  -8.9095393678622070E-003  -4.6946520027479899E-004
   2.8630070520958617E-002  -8.0856693406603508E-003  -1.8814416171983872E-003
   2.8141158881950207E-002  -6.8509751518381345E-003  -4.9871650841044612E-003
   2.7652247242941796E-002  -5.2054568013941704E-003  -9.7866356009914668E-003
   2.6998131058599828E-002  -8.2429673252673030E-003   4.6834169608712672E-003
   2.5080837327526362E-002  -7.7458997335800861E-003   5.4547942570045693E-003
   2.3163543596453062E-002  -7.0365184115868673E-003   5.0631544189890798E-003
   2.1246249865379679E-002  -6.1148233592867168E-003   3.5084974468255203E-003
   1.9328956134306297E-002  -4.9808145766803147E-003   7.9082334051427949E-004
   2.4301041077418539E-002  -7.1633494170919576E-003   1.0301346696838520E-002
   2.1486095170113823E-002  -6.5822600992982983E-003   1.1363820224732479E-002
   1.8671149262809147E-002  -5.9873674825129397E-003   1.1794006534311285E-002
   1.5856203355504465E-002  -5.3786715667352991E-003   1.1591905625576160E-002
   1.3041257448199756E-002  -4.7561723519655708E-003   1.0757517498526159E-002
   2.1516623855431662E-002  -6.0837315089161681E-003   1.6102553374569978E-002
   1.8334755687729458E-002  -5.4186204650165659E-003   1.7257612702909944E-002
   1.5152887520027029E-002  -4.9382165534392342E-003   1.8311114728768701E-002
   1.1971019352324709E-002  -4.6425197741838814E-003   1.9263059452146583E-002
   8.7891511846223888E-003  -4.5315301272512709E-003   2.0113446873044089E-002
   1.8644879392639424E-002  -5.0041136007407117E-003   2.2087036994064557E-002
   1.5626818880373039E-002  -4.2549808307343340E-003   2.3136171691536256E-002
   1.2608758368106682E-002  -3.8890656243648902E-003   2.4614479002360412E-002
   9.5906978558403383E-003  -3.9063679816325816E-003   2.6521958926537137E-002
   6.5726373435739394E-003  -4.3068879025369711E-003   2.8858611464066986E-002
   2.7652247242941796E-002  -5.2054568013941704E-003  -9.7866356009914668E-003
   2.3274539658075799E-002  -4.1585999496773773E-003  -4.2155012128346492E-003
   1.8896832073209746E-002  -4.7198902570348977E-003   2.6182917901571567E-003
   1.4519124488343665E-002  -6.8893277234680639E-003   1.0714743407985505E-002
   1.0141416903477696E-002  -1.0666912348975544E-002   2.0073853640647954E-002
   1.9328956134306297E-002  -4.9808145766803147E-003   7.9082334051427949E-004
   1.6139691003719259E-002  -4.6897662497693560E-003   6.5701430902580515E-003
   1.2950425873132332E-002  -6.2969525645550917E-003   1.3463689133724532E-002
   9.7611607425452107E-003  -9.8023735210399643E-003   2.1471461470913278E-002
   6.5718956119582561E-003  -1.5206029119222197E-002   3.0593460101826064E-002
   1.3041257448199756E-002  -4.7561723519655708E-003   1.0757517498526159E-002
   1.0892002450779370E-002  -5.2209325498597803E-003   1.6454935127233450E-002
   8.7427474533589150E-003  -7.8740148720748415E-003   2.3118146728551336E-002
   6.5934924559385641E-003  -1.2715419318611865E-002   3.0747152302478681E-002
   4.4442374585181299E-003  -1.9745145889468407E-002   3.9341951849017676E-002
   8.7891511846223888E-003  -4.5315301272512709E-003   2.0113446873044089E-002
   7.5314739992561608E-003  -5.7520988499516479E-003   2.5438874898091796E-002
   6.2737968138898807E-003  -9.4510771795954795E-003   3.1581664574636903E-002
   5.0161196285236961E-003  -1.5628465116183321E-002   3.8541815902681117E-002
   3.7584424431572477E-003  -2.4284262659714839E-002   4.6319328882222566E-002
   6.5726373435739394E-003  -4.3068879025369711E-003   2.8858611464066986E-002
   6.0581056491495477E-003  -6.2832651500429604E-003   3.3521962402832561E-002
   5.5435739547250729E-003  -1.1028139487115785E-002   3.8854242671983674E-002
   5.0290422603007923E-003  -1.8541510913755138E-002   4.4855452271520213E-002
   4.5145105658762619E-003  -2.8823379429961271E-002   5.1525591201442289E-002
   4.2556358115187320E-002   5.7255432039913290E-002   4.9699182974185963E-002
   4.9635005740687910E-002   3.2568154912805514E-002   4.1488804665547108E-002
   5.6713653366188499E-002   1.3745070288009642E-002   3.4493597638055762E-002
   6.3792300991689088E-002   7.8617816552573050E-004   2.8713561891711592E-002
   7.0870948617189733E-002  -6.3085214546463320E-003   2.4148697426514820E-002
   3.3739218419847838E-002   4.9639179875070660E-002   3.2872697072510004E-002
   4.1705288819059882E-002   2.9821127004733300E-002   3.1685510123580063E-002
   4.9671359218272010E-002   1.4425217494404563E-002   3.1057997440925744E-002
   5.7637429617484123E-002   3.4514513440842276E-003   3.0990159024547090E-002
   6.5603500016696181E-002  -3.1001714462273733E-003   3.1481994874444086E-002
   2.7129850660492755E-002   4.2022927710228031E-002   2.1636459998755964E-002
   3.5327846818544770E-002   2.7074099096661142E-002   2.6030415267231516E-002
   4.3525842976596618E-002   1.5105364700799429E-002   3.0328547787111027E-002
   5.1723839134648550E-002   6.1167245226428357E-003   3.4530857558394544E-002
   5.9921835292700426E-002   1.0817856219141886E-004   3.8637344581081964E-002
   2.2728254837122312E-002   3.4406675545385429E-002   1.5990471752924451E-002
   3.0502679739142256E-002   2.4327071188589011E-002   2.4523520096501966E-002
   3.8277104641162352E-002   1.5785511907194433E-002   3.2305248676611928E-002
   4.6051529543182354E-002   8.7819977012014439E-003   3.9335657493254100E-002
   5.3825954445202398E-002   3.3165285706102665E-003   4.5614746546428456E-002
   2.0534430949736227E-002   2.6790423380542772E-002   1.5934732335014745E-002
   2.7229787580852649E-002   2.1580043280516825E-002   2.7164824611390970E-002
   3.3925144211969155E-002   1.6465659113589201E-002   3.6988100109427963E-002
   4.0620500843085619E-002   1.1447270879759910E-002   4.5404558829125544E-002
   4.7315857474202111E-002   6.5248785790291697E-003   5.2414200770483588E-002
   7.0870948617189733E-002  -6.3085214546463320E-003   2.4148697426514820E-002
   6.7627009814875627E-002  -9.9032709138727193E-003   2.0579595829293418E-002
   6.4383071012561605E-002  -1.2362312553519036E-002   1.7713503367226907E-002
   6.1139132210247540E-002  -1.3685646373585904E-002   1.5550420040315496E-002
   5.7895193407933476E-002  -1.3873272374072820E-002   1.4090345848559283E-002
   6.5603500016696181E-002  -3.1001714462273733E-003   3.1481994874444086E-002
   6.3018707365162546E-002  -6.8966537528126065E-003   2.8566736882857977E-002
   6.0433914713628911E-002  -9.6049984519532977E-003   2.6266762057677293E-002
   5.7849122062095276E-002  -1.1225205543649312E-002   2.4582070398902617E-002
   5.5264329410561641E-002  -1.1757275027900804E-002   2.3512661906533616E-002
   5.9921835292700426E-002   1.0817856219141886E-004   3.8637344581081964E-002
   5.7908462823197879E-002  -3.8900365917528268E-003   3.6328359982995814E-002
   5.5895090353695380E-002  -6.8476843503875104E-003   3.4546932582566033E-002
   5.3881717884192798E-002  -8.7647647137129425E-003   3.3293062379792626E-002
   5.1868345414690278E-002  -9.6412776817288715E-003   3.2566749374675838E-002
   5.3825954445202398E-002   3.3165285706102665E-003   4.5614746546428456E-002
   5.2296276188981639E-002  -8.8341943069293605E-004   4.3864465129707209E-002
   5.0766597932760914E-002  -4.0903702488217196E-003   4.2554014941893051E-002
   4.9236919676540189E-002  -6.3043238837764892E-003   4.1683395982985878E-002
   4.7707241420319429E-002  -7.5252803355569248E-003   4.1252608252986073E-002
   4.7315857474202111E-002   6.5248785790291697E-003   5.2414200770483588E-002
   4.6182147462513840E-002   2.1231977303670380E-003   5.1175052322991965E-002
   4.5048437450825582E-002  -1.3330561472559704E-003   5.0288009135658257E-002
   4.3914727439137331E-002  -3.8438830538400325E-003   4.9753071208482297E-002
   4.2781017427449053E-002  -5.4092829893849226E-003   4.9570238541464196E-002
   5.7895193407933476E-002  -1.3873272374072820E-002   1.4090345848559283E-002
   5.5606562047120500E-002  -1.3511053584324140E-002   1.5899489312622250E-002
   5.3317930686307496E-002  -1.3184853033684149E-002   1.7606848013073634E-002
   5.1029299325494562E-002  -1.2894670722152373E-002   1.9212421949913655E-002
   4.8740667964681572E-002  -1.2640506649729377E-002   2.0716211123142148E-002
   5.5264329410561641E-002  -1.1757275027900804E-002   2.3512661906533616E-002
   5.2924285576715788E-002  -1.1721237923178918E-002   2.4613086328372669E-002
   5.0584241742869962E-002  -1.1637125247954572E-002   2.5712470567757273E-002
   4.8244197909024095E-002  -1.1504937002227877E-002   2.6810814624687596E-002
   4.5904154075178200E-002  -1.1324673185998779E-002   2.7908118499163692E-002
   5.1868345414690278E-002  -9.6412776817288715E-003   3.2566749374675838E-002
   4.9577633688968753E-002  -9.9314222620335291E-003   3.3042548563901653E-002
   4.7286921963247221E-002  -1.0089397462225001E-002   3.3618052151830453E-002
   4.4996210237525647E-002  -1.0115203282303161E-002   3.4293260138462164E-002
   4.2705498511804107E-002  -1.0008839722268126E-002   3.5068172523796598E-002
   4.7707241420319429E-002  -7.5252803355569248E-003   4.1252608252986073E-002
   4.5566606383879410E-002  -8.1416066008881682E-003   4.1187876019209591E-002
   4.3425971347439384E-002  -8.5416696764954829E-003   4.1323592765293203E-002
   4.1285336310999364E-002  -8.7254695623785565E-003   4.1659758491237001E-002
   3.9144701274559338E-002  -8.6930062585376111E-003   4.2196373197040886E-002
   4.2781017427449053E-002  -5.4092829893849226E-003   4.9570238541464196E-002
   4.0891203661447717E-002  -6.3517909397428907E-003   4.9049068694296483E-002
   3.9001389895446381E-002  -6.9939418907656731E-003   4.8829092408145869E-002
   3.7111576129445073E-002  -7.3357358424538492E-003   4.8910309683012479E-002
   3.5221762363443737E-002  -7.3771727948068189E-003   4.9292720518896715E-002
   4.8740667964681572E-002  -1.2640506649729377E-002   2.0716211123142148E-002
   4.6180420387263610E-002  -1.2371290448467631E-002   2.1740372666870122E-002
   4.3620172809845675E-002  -1.2035951750419743E-002   2.2780910190691617E-002
   4.1059925232427685E-002  -1.1634490555585915E-002   2.3837823694606436E-002
   3.8499677655009834E-002  -1.1166906863966153E-002   2.4911113178614386E-002
   4.5904154075178200E-002  -1.1324673185998779E-002   2.7908118499163692E-002
   4.3385969179890710E-002  -1.1095990485155527E-002   2.8653267418813883E-002
   4.0867784284603248E-002  -1.0818545585586453E-002   2.9466165722631610E-002
   3.8349599389315744E-002  -1.0492338487291662E-002   3.0346813410616527E-002
   3.5831414494028296E-002  -1.0117369190270786E-002   3.1295210482769453E-002
   4.2705498511804107E-002  -1.0008839722268126E-002   3.5068172523796598E-002
   4.0280749702721177E-002  -9.8206905218437557E-003   3.5516948521308961E-002
   3.7856000893638136E-002  -9.6011394207534267E-003   3.6084847307062864E-002
   3.5431252084555193E-002  -9.3501864189973506E-003   3.6771868881058149E-002
   3.3006503275472152E-002  -9.0678315165754197E-003   3.7578013243295072E-002
   3.9144701274559338E-002  -8.6930062585376111E-003   4.2196373197040886E-002
   3.6864761955754902E-002  -8.5453905585317069E-003   4.2331415974355226E-002
   3.4584822636950487E-002  -8.3837332559202685E-003   4.2636954943984992E-002
   3.2304883318146044E-002  -8.2080343507030130E-003   4.3112990105930629E-002
   3.0024943999341636E-002  -8.0182938428802752E-003   4.3759521460191728E-002
   3.5221762363443737E-002  -7.3771727948068189E-003   4.9292720518896715E-002
   3.3138005938991938E-002  -7.2700905952196582E-003   4.9096669777952906E-002
   3.1054249514540139E-002  -7.1663270910871518E-003   4.9122488633398548E-002
   2.8970493090088340E-002  -7.0658822824087135E-003   4.9370177085234071E-002
   2.6886736665636540E-002  -6.9687561691847977E-003   4.9839735133459406E-002
   3.8499677655009834E-002  -1.1166906863966153E-002   2.4911113178614386E-002
   3.5868065314909714E-002  -1.0626341907718995E-002   2.4306120496831507E-002
   3.3236452974809649E-002  -1.0005936919002922E-002   2.3781543346943379E-002
   3.0604840634709557E-002  -9.3056918978187825E-003   2.3337381728949919E-002
   2.7973228294609520E-002  -8.5256068441653676E-003   2.2973635642850931E-002
   3.5831414494028296E-002  -1.0117369190270786E-002   3.1295210482769453E-002
   3.3295239027352957E-002  -9.6692898998323451E-003   3.0637239995230769E-002
   3.0759063560677716E-002  -9.1237528212851776E-003   3.0089727722647397E-002
   2.8222888094002398E-002  -8.4807579546288779E-003   2.9652673665018517E-002
   2.5686712627327135E-002  -7.7403052998635813E-003   2.9326077822345142E-002
   3.3006503275472152E-002  -9.0678315165754197E-003   3.7578013243295072E-002
   3.0595807365281946E-002  -8.7122378919461674E-003   3.6884682705641117E-002
   2.8185111455091699E-002  -8.2415687235673218E-003   3.6331853066002701E-002
   2.5774415544901459E-002  -7.6558240114391954E-003   3.5919524324379337E-002
   2.3363719634711233E-002  -6.9550037555617394E-003   3.5647696480770902E-002
   3.0024943999341636E-002  -8.0182938428802752E-003   4.3759521460191728E-002
   2.7769770328696639E-002  -7.7551858840594207E-003   4.3048448628063285E-002
   2.5514596658051558E-002  -7.3593846258493550E-003   4.2507919377010088E-002
   2.3259422987406513E-002  -6.8308900682495684E-003   4.2137933707032019E-002
   2.1004249316761484E-002  -6.1697022112599809E-003   4.1938491618129362E-002
   2.6886736665636540E-002  -6.9687561691847977E-003   4.9839735133459406E-002
   2.4817127917596965E-002  -6.7981338761733401E-003   4.9128537762496316E-002
   2.2747519169557404E-002  -6.4772005281316658E-003   4.8617926655668720E-002
   2.0677910421517808E-002  -6.0059561250597054E-003   4.8307901812976672E-002
   1.8608301673478211E-002  -5.3844006669582223E-003   4.8198463234420008E-002
   2.7973228294609520E-002  -8.5256068441653676E-003   2.2973635642850931E-002
   2.5641141069117024E-002  -7.6905097140357315E-003   2.2994660135121969E-002
   2.3309053843624472E-002  -6.8252284634218174E-003   2.2853901857747383E-002
   2.0976966618131906E-002  -5.9297630923235145E-003   2.2551360810728532E-002
   1.8644879392639424E-002  -5.0041136007407117E-003   2.2087036994064557E-002
   2.5686712627327135E-002  -7.7403052998635813E-003   2.9326077822345142E-002
   2.3244374852799815E-002  -6.9529291919199210E-003   2.9375443829257497E-002
   2.0802037078272426E-002  -6.1691639657297515E-003   2.9366091507745717E-002
   1.8359699303745064E-002  -5.3890096212922123E-003   2.9298020857809082E-002
   1.5917361529217716E-002  -4.6124661586075533E-003   2.9171231879447534E-002
   2.3363719634711233E-002  -6.9550037555617394E-003   3.5647696480770902E-002
   2.0914195752369080E-002  -6.2153486698046101E-003   3.5691609000088387E-002
   1.8464671870026976E-002  -5.5130994680377965E-003   3.5779867632201534E-002
   1.6015147987684841E-002  -4.8482561502611321E-003   3.5912472377109678E-002
   1.3565624105342663E-002  -4.2208187164745614E-003   3.6089423234813428E-002
   2.1004249316761484E-002  -6.1697022112599809E-003   4.1938491618129362E-002
   1.8650603767824767E-002  -5.4777681476892714E-003   4.1943155647614860E-002
   1.6296958218887991E-002  -4.8570349703456750E-003   4.2095230231115444E-002
   1.3943312669951240E-002  -4.3075026792300519E-003   4.2394715368631285E-002
   1.1589667121014443E-002  -3.8291712743414863E-003   4.2841611060162883E-002
   1.8608301673478211E-002  -5.3844006669582223E-003   4.8198463234420008E-002
   1.6453598899166894E-002  -4.7401876255735442E-003   4.8130083771835586E-002
   1.4298896124855548E-002  -4.2009704726537478E-003   4.8312179304486669E-002
   1.2144193350544216E-002  -3.7667492081990758E-003   4.8744749832373313E-002
   9.9894905762328845E-003  -3.4375238322084112E-003   4.9427795355495352E-002
   1.8644879392639424E-002  -5.0041136007407117E-003   2.2087036994064557E-002
   1.5626818880373039E-002  -4.2549808307343340E-003   2.3136171691536256E-002
   1.2608758368106682E-002  -3.8890656243648902E-003   2.4614479002360412E-002
   9.5906978558403383E-003  -3.9063679816325816E-003   2.6521958926537137E-002
   6.5726373435739394E-003  -4.3068879025369711E-003   2.8858611464066986E-002
   1.5917361529217716E-002  -4.6124661586075533E-003   2.9171231879447534E-002
   1.3313474711462742E-002  -4.0597411871065026E-003   3.0167526265499123E-002
   1.0709587893707753E-002  -3.9510423162189279E-003   3.1562995427220325E-002
   8.1057010759527509E-003  -4.2863695459450582E-003   3.3357639364611683E-002
   5.5018142581977902E-003  -5.0657228762847062E-003   3.5551458077672904E-002
   1.3565624105342663E-002  -4.2208187164745614E-003   3.6089423234813428E-002
   1.1345913144416256E-002  -3.8645015434784769E-003   3.6972068772468142E-002
   9.1262021834899038E-003  -4.0130190080728406E-003   3.8223891248109973E-002
   6.9064912225634718E-003  -4.6663711102573092E-003   3.9844890661738998E-002
   4.6867802616370885E-003  -5.8245578500324413E-003   4.1835067013355320E-002
   1.1589667121014443E-002  -3.8291712743414863E-003   4.2841611060162883E-002
   9.7241341792338211E-003  -3.6692618998506593E-003   4.3549799212443834E-002
   7.8586012374531420E-003  -4.0749956999263717E-003   4.4597166465029564E-002
   5.9930682956724950E-003  -5.0463726745696730E-003   4.5983712817919443E-002
   4.1275353538918445E-003  -6.5833928237801764E-003   4.7709438271113597E-002
   9.9894905762328845E-003  -3.4375238322084112E-003   4.9427795355495352E-002
   8.4481378159151910E-003  -3.4740222562225087E-003   4.9900717585426468E-002
   6.9067850555974974E-003  -4.1369723917805135E-003   5.0682821077979001E-002
   5.3654322952798039E-003  -5.4263742388820230E-003   5.1774105833153117E-002
   3.8240795349621104E-003  -7.3422277975279115E-003   5.3174571850948649E-002
   6.5726373435739394E-003  -4.3068879025369711E-003   2.8858611464066986E-002
   6.0581056491495477E-003  -6.2832651500429604E-003   3.3521962402832561E-002
   5.5435739547250729E-003  -1.1028139487115785E-002   3.8854242671983674E-002
   5.0290422603007923E-003  -1.8541510913755138E-002   4.4855452271520213E-002
   4.5145105658762619E-003  -2.8823379429961271E-002   5.1525591201442289E-002
   5.5018142581977902E-003  -5.0657228762847062E-003   3.5551458077672904E-002
   5.5537924324966514E-003  -7.1889567870692117E-003   3.7862062568670196E-002
   5.6057706067954849E-003  -1.1555925758129221E-002   4.0636757466728957E-002
   5.6577487810944363E-003  -1.8166629789465198E-002   4.3875542771848103E-002
   5.7097269553932350E-003  -2.7021068881076804E-002   4.7578418484028884E-002
   4.6867802616370885E-003  -5.8245578500324413E-003   4.1835067013355320E-002
   5.1004293813347035E-003  -8.0946484240952965E-003   4.2317687085875716E-002
   5.5140785010322560E-003  -1.2083712029142657E-002   4.3059558642132345E-002
   5.9277276207298848E-003  -1.7791748665175036E-002   4.4060681682125249E-002
   6.3413767404274790E-003  -2.5218758332192337E-002   4.5321056205855470E-002
   4.1275353538918445E-003  -6.5833928237801764E-003   4.7709438271113597E-002
   4.6980164956635373E-003  -9.0003400611211315E-003   4.6888835954447934E-002
   5.2684976374352856E-003  -1.2611498300156093E-002   4.6122646198193742E-002
   5.8389787792070217E-003  -1.7416867540884763E-002   4.5410869002351764E-002
   6.4094599209787786E-003  -2.3416447783307981E-002   4.4753504366921132E-002
   3.8240795349621104E-003  -7.3422277975279115E-003   5.3174571850948649E-002
   4.3465537754833750E-003  -9.9060316981471885E-003   5.1575509174387357E-002
   4.8690280160046673E-003  -1.3139284571169307E-002   4.9826020134913329E-002
   5.3915022565259596E-003  -1.7041986416594990E-002   4.7926104732526564E-002
   5.9139764970471687E-003  -2.1614137234423403E-002   4.5875762967227285E-002
   2.0534430949736227E-002   2.6790423380542772E-002   1.5934732335014745E-002
   2.7229787580852649E-002   2.1580043280516825E-002   2.7164824611390970E-002
   3.3925144211969155E-002   1.6465659113589201E-002   3.6988100109427963E-002
   4.0620500843085619E-002   1.1447270879759910E-002   4.5404558829125544E-002
   4.7315857474202111E-002   6.5248785790291697E-003   5.2414200770483588E-002
   1.9152995408303480E-002   2.3727381866735342E-002   1.5473722666386858E-002
   2.4551451288901183E-002   1.9029873576298345E-002   2.6362859406865030E-002
   2.9949907169498899E-002   1.4500616713481254E-002   3.6065011424645438E-002
   3.5348363050096615E-002   1.0139611278283948E-002   4.4580178719727387E-002
   4.0746818930694317E-002   5.9468572707067069E-003   5.1908361292111238E-002
   1.7188564622793029E-002   2.0664340352927996E-002   1.5489457060087045E-002
   2.1509951808513242E-002   1.6479703872079893E-002   2.6109893759188998E-002
   2.5831338994233434E-002   1.2535574313373203E-002   3.5763177791233884E-002
   3.0152726179953630E-002   8.8319516768079320E-003   4.4449309156222028E-002
   3.4474113365673804E-002   5.3688359623841886E-003   5.2168287854153311E-002
   1.4641138593204758E-002   1.7601298839120580E-002   1.5981935516115663E-002
   1.8105289139688754E-002   1.3929534167861427E-002   2.6405927668362406E-002
   2.1569439686172698E-002   1.0570531913265204E-002   3.6082599209193766E-002
   2.5033590232656670E-002   7.5242920753320263E-003   4.5011950138609487E-002
   2.8497740779140628E-002   4.7908146540617536E-003   5.3193980456609613E-002
   1.1510717319538760E-002   1.4538257325313220E-002   1.6951158034472003E-002
   1.4337463282427743E-002   1.1379364463642905E-002   2.7250961134385632E-002
   1.7164209245316753E-002   8.6054895131571774E-003   3.7023275678524870E-002
   1.9990955208205749E-002   6.2166324738558917E-003   4.6268101666889772E-002
   2.2817701171094745E-002   4.2127933457392075E-003   5.4985439099480282E-002
   4.7315857474202111E-002   6.5248785790291697E-003   5.2414200770483588E-002
   4.6182147462513840E-002   2.1231977303670380E-003   5.1175052322991965E-002
   4.5048437450825582E-002  -1.3330561472559704E-003   5.0288009135658257E-002
   4.3914727439137331E-002  -3.8438830538400325E-003   4.9753071208482297E-002
   4.2781017427449053E-002  -5.4092829893849226E-003   4.9570238541464196E-002
   4.0746818930694317E-002   5.9468572707067069E-003   5.1908361292111238E-002
   3.9925648375286615E-002   2.2236690825352817E-003   5.1784133610345215E-002
   3.9104477819878941E-002  -7.2863889444450824E-004   5.1932879580982375E-002
   3.8283307264471267E-002  -2.9100666602321738E-003   5.2354599204023015E-002
   3.7462136709063593E-002  -4.3206142148283222E-003   5.3049292479466909E-002
   3.4474113365673804E-002   5.3688359623841886E-003   5.2168287854153311E-002
   3.3886350658792232E-002   2.3241404347034561E-003   5.2984434178265441E-002
   3.3298587951910610E-002  -1.2422164163277544E-004   5.3994422547026362E-002
   3.2710825245028996E-002  -1.9762502666245390E-003   5.5198252960436095E-002
   3.2123062538147382E-002  -3.2319454402716663E-003   5.6595925418494689E-002
   2.8497740779140628E-002   4.7908146540617536E-003   5.3193980456609613E-002
   2.8064254313030598E-002   2.4246117868716929E-003   5.4775954026752630E-002
   2.7630767846920569E-002   4.8019561117887757E-004   5.6472638033790101E-002
   2.7197281380810540E-002  -1.0424338730168200E-003   5.8284032477721806E-002
   2.6763794914700510E-002  -2.1432766657149827E-003   6.0210137358547730E-002
   2.2817701171094745E-002   4.2127933457392075E-003   5.4985439099480282E-002
   2.2459359338001778E-002   2.5250831390398465E-003   5.7158693155807017E-002
   2.2101017504908817E-002   1.0846128639904196E-003   5.9367526041273599E-002
   2.1742675671815839E-002  -1.0861747940907329E-004   6.1611937755880031E-002
   2.1384333838722874E-002  -1.0546078911584100E-003   6.3891928299626088E-002
   4.2781017427449053E-002  -5.4092829893849226E-003   4.9570238541464196E-002
   4.0891203661447717E-002  -6.3517909397428907E-003   4.9049068694296483E-002
   3.9001389895446381E-002  -6.9939418907656731E-003   4.8829092408145869E-002
   3.7111576129445073E-002  -7.3357358424538492E-003   4.8910309683012479E-002
   3.5221762363443737E-002  -7.3771727948068189E-003   4.9292720518896715E-002
   3.7462136709063593E-002  -4.3206142148283222E-003   5.3049292479466909E-002
   3.5864602146965421E-002  -5.2116786077796018E-003   5.2783236378370568E-002
   3.4267067584867264E-002  -5.8346568886330774E-003   5.2800545124063333E-002
   3.2669533022769107E-002  -6.1895490573887005E-003   5.3101218716545141E-002
   3.1071998460670949E-002  -6.2763551140465057E-003   5.3685257155815957E-002
   3.2123062538147382E-002  -3.2319454402716663E-003   5.6595925418494689E-002
   3.0799978465724152E-002  -4.0715662758163268E-003   5.6552712176232783E-002
   2.9476894393300951E-002  -4.6753718865001556E-003   5.6775035066531747E-002
   2.8153810320877742E-002  -5.0433622723235535E-003   5.7262894089391420E-002
   2.6830726248454520E-002  -5.1755374332861093E-003   5.8016289244811933E-002
   2.6763794914700510E-002  -2.1432766657149827E-003   6.0210137358547730E-002
   2.5697332617723979E-002  -2.9314539438529616E-003   6.0357496087883204E-002
   2.4630870320747466E-002  -3.5160868843673414E-003   6.0752562235550998E-002
   2.3564408023770946E-002  -3.8971754872583501E-003   6.1395335801551709E-002
   2.2497945726794446E-002  -4.0747197525255879E-003   6.2285816785884796E-002
   2.1384333838722874E-002  -1.0546078911584100E-003   6.3891928299626088E-002
   2.0556664602964833E-002  -1.7913416118898184E-003   6.4197588113321602E-002
   1.9728995367206806E-002  -2.3568018822346382E-003   6.4733126631121407E-002
   1.8901326131448765E-002  -2.7509887021932022E-003   6.5498543853025615E-002
   1.8073656895690737E-002  -2.9739020717652886E-003   6.6493839779034114E-002
   3.5221762363443737E-002  -7.3771727948068189E-003   4.9292720518896715E-002
   3.3138005938991938E-002  -7.2700905952196582E-003   4.9096669777952906E-002
   3.1054249514540139E-002  -7.1663270910871518E-003   4.9122488633398548E-002
   2.8970493090088340E-002  -7.0658822824087135E-003   4.9370177085234071E-002
   2.6886736665636540E-002  -6.9687561691847977E-003   4.9839735133459406E-002
   3.1071998460670949E-002  -6.2763551140465057E-003   5.3685257155815957E-002
   2.9216150663259180E-002  -6.2256330586637210E-003   5.3405562844343363E-002
   2.7360302865847418E-002  -6.1679408912980183E-003   5.3359816190561044E-002
   2.5504455068435652E-002  -6.1032786119488980E-003   5.3548017194469111E-002
   2.3648607271023886E-002  -6.0316462206164156E-003   5.3970165856067620E-002
   2.6830726248454520E-002  -5.1755374332861093E-003   5.8016289244811933E-002
   2.5214865139383480E-002  -5.1811755221078393E-003   5.7663240170248209E-002
   2.3599004030312454E-002  -5.1695546915088361E-003   5.7556216814675411E-002
   2.1983142921241424E-002  -5.1406749414888066E-003   5.7695219178093740E-002
   2.0367281812170381E-002  -5.0945362720479781E-003   5.8080247260503259E-002
   2.2497945726794446E-002  -4.0747197525255879E-003   6.2285816785884796E-002
   2.1134149367364859E-002  -4.1367179855520408E-003   6.1869701755667389E-002
   1.9770353007935317E-002  -4.1711684917197893E-003   6.1711690505741858E-002
   1.8406556648505740E-002  -4.1780712710290198E-003   6.1811783036107841E-002
   1.7042760289076184E-002  -4.1574263234794573E-003   6.2169979346765894E-002
   1.8073656895690737E-002  -2.9739020717652886E-003   6.6493839779034114E-002
   1.6974003347203337E-002  -3.0922604489961314E-003   6.6024947600600903E-002
   1.5874349798715950E-002  -3.1727822919305204E-003   6.5826237263760079E-002
   1.4774696250228550E-002  -3.2154676005688998E-003   6.5897708768512031E-002
   1.3675042701741164E-002  -3.2203163749110475E-003   6.6239362114856259E-002
   2.6886736665636540E-002  -6.9687561691847977E-003   4.9839735133459406E-002
   2.4817127917596965E-002  -6.7981338761733401E-003   4.9128537762496316E-002
   2.2747519169557404E-002  -6.4772005281316658E-003   4.8617926655668720E-002
   2.0677910421517808E-002  -6.0059561250597054E-003   4.8307901812976672E-002
   1.8608301673478211E-002  -5.3844006669582223E-003   4.8198463234420008E-002
   2.3648607271023886E-002  -6.0316462206164156E-003   5.3970165856067620E-002
   2.1788426999483357E-002  -5.8919488892879013E-003   5.3364350044746878E-002
   1.9928246727942828E-002  -5.6230917899499772E-003   5.2976804922288706E-002
   1.8068066456402285E-002  -5.2250749226026745E-003   5.2807530488693161E-002
   1.6207886184861769E-002  -4.6978982872464270E-003   5.2856526743960131E-002
   2.0367281812170381E-002  -5.0945362720479781E-003   5.8080247260503259E-002
   1.8734214441855954E-002  -4.9857639024023515E-003   5.7558661721804086E-002
   1.7101147071541558E-002  -4.7689830517682885E-003   5.7273031296694588E-002
   1.5468079701227147E-002  -4.4441937201458656E-003   5.7223355985174473E-002
   1.3835012330912708E-002  -4.0113959075347982E-003   5.7409635787244340E-002
   1.7042760289076184E-002  -4.1574263234794573E-003   6.2169979346765894E-002
   1.5654490244714922E-002  -4.0795789155170237E-003   6.1711472793667732E-002
   1.4266220200353646E-002  -3.9148743135865999E-003   6.1506605778886218E-002
   1.2877950155992367E-002  -3.6633125176886126E-003   6.1555378302421151E-002
   1.1489680111631113E-002  -3.3248935278230862E-003   6.1857790364273045E-002
   1.3675042701741164E-002  -3.2203163749110475E-003   6.6239362114856259E-002
   1.2549254408060095E-002  -3.1733939286314738E-003   6.5822783260337969E-002
   1.1423466114379041E-002  -3.0607655754049945E-003   6.5677528368863369E-002
   1.0297677820697973E-002  -2.8824313152317690E-003   6.5803597440432682E-002
   9.1718895270169187E-003  -2.6383911481114852E-003   6.6200990475045574E-002
   1.8608301673478211E-002  -5.3844006669582223E-003   4.8198463234420008E-002
   1.6453598899166894E-002  -4.7401876255735442E-003   4.8130083771835586E-002
   1.4298896124855548E-002  -4.2009704726537478E-003   4.8312179304486669E-002
   1.2144193350544216E-002  -3.7667492081990758E-003   4.8744749832373313E-002
   9.9894905762328845E-003  -3.4375238322084112E-003   4.9427795355495352E-002
   1.6207886184861769E-002  -4.6978982872464270E-003   5.2856526743960131E-002
   1.4307654019870358E-002  -4.1571846364947262E-003   5.2716143717285946E-002
   1.2407421854878947E-002  -3.7185567229617023E-003   5.2834226914016097E-002
   1.0507189689887522E-002  -3.3820145466469040E-003   5.3210776334150459E-002
   8.6069575248961250E-003  -3.1475581075510739E-003   5.3845791977689239E-002
   1.3835012330912708E-002  -4.0113959075347982E-003   5.7409635787244340E-002
   1.2197242003410116E-002  -3.5741816474157695E-003   5.7200159347726404E-002
   1.0559471675907477E-002  -3.2361429732692265E-003   5.7257140359781758E-002
   8.9217013484048681E-003  -2.9972798850951797E-003   5.7580578823410243E-002
   7.2839310209022456E-003  -2.8575923828935146E-003   5.8170474738611977E-002
   1.1489680111631113E-002  -3.3248935278230862E-003   6.1857790364273045E-002
   1.0122362849786123E-002  -2.9911786583369931E-003   6.1582130663157576E-002
   8.7550455879411588E-003  -2.7537292235767993E-003   6.1580919641784082E-002
   7.3877283260961541E-003  -2.6125452235433982E-003   6.1854157300153007E-002
   6.0204110642512049E-003  -2.5676266582360663E-003   6.2401843638263635E-002
   9.1718895270169187E-003  -2.6383911481114852E-003   6.6200990475045574E-002
   8.0830165589984293E-003  -2.4081756692578837E-003   6.5862057663578777E-002
   6.9941435909799538E-003  -2.2713154738847052E-003   6.5805564760022861E-002
   5.9052706229614574E-003  -2.2278105619916166E-003   6.6031511764377548E-002
   4.8163976549429888E-003  -2.2776609335785070E-003   6.6539898676643894E-002
   9.9894905762328845E-003  -3.4375238322084112E-003   4.9427795355495352E-002
   8.4481378159151910E-003  -3.4740222562225087E-003   4.9900717585426468E-002
   6.9067850555974974E-003  -4.1369723917805135E-003   5.0682821077979001E-002
   5.3654322952798039E-003  -5.4263742388820230E-003   5.1774105833153117E-002
   3.8240795349621104E-003  -7.3422277975279115E-003   5.3174571850948649E-002
   8.6069575248961250E-003  -3.1475581075510739E-003   5.3845791977689239E-002
   7.3536718599428313E-003  -3.2293851090464121E-003   5.3778640159951818E-002
   6.1003861949895100E-003  -3.8416932545070615E-003   5.3978441270321365E-002
   4.8471005300361747E-003  -4.9844825439317314E-003   5.4445195308798155E-002
   3.5938148650828949E-003  -6.6577529773217403E-003   5.5178902275382247E-002
   7.2839310209022456E-003  -2.8575923828935146E-003   5.8170474738611977E-002
   6.2764841167990137E-003  -2.9847479618708150E-003   5.7659219440785198E-002
   5.2690372126957888E-003  -3.5464141172336372E-003   5.7372688736551103E-002
   4.2615903085925638E-003  -4.5425908489817798E-003   5.7310882625909956E-002
   3.2541434044893597E-003  -5.9732781571155691E-003   5.7473801108861911E-002
   6.0204110642512049E-003  -2.5676266582360663E-003   6.2401843638263635E-002
   5.2165745864837521E-003  -2.7401108146949127E-003   6.1542455427926551E-002
   4.4127381087163148E-003  -3.2511349799603101E-003   6.0865563476667876E-002
   3.6089016309488707E-003  -4.1006991540317693E-003   6.0371167784487895E-002
   2.8050651531814248E-003  -5.2888033369092868E-003   6.0059268351386974E-002
   4.8163976549429888E-003  -2.2776609335785070E-003   6.6539898676643894E-002
   4.1739432689970463E-003  -2.4954736675191769E-003   6.5428348121375657E-002
   3.5314888830510899E-003  -2.9558558426867887E-003   6.4457065490672094E-002
   2.8890344971051404E-003  -3.6588074590815436E-003   6.3626050784532512E-002
   2.2465801111591910E-003  -4.6043285167032266E-003   6.2935304002957659E-002
   3.8240795349621104E-003  -7.3422277975279115E-003   5.3174571850948649E-002
   4.3465537754833750E-003  -9.9060316981471885E-003   5.1575509174387357E-002
   4.8690280160046673E-003  -1.3139284571169307E-002   4.9826020134913329E-002
   5.3915022565259596E-003  -1.7041986416594990E-002   4.7926104732526564E-002
   5.9139764970471687E-003  -2.1614137234423403E-002   4.5875762967227285E-002
   3.5938148650828949E-003  -6.6577529773217403E-003   5.5178902275382247E-002
   3.9846085845546969E-003  -8.9011369461374779E-003   5.2849581200324902E-002
   4.3754023040264572E-003  -1.1754266841840388E-002   5.0407325446081175E-002
   4.7661960234982384E-003  -1.5217142664430514E-002   4.7852135012650648E-002
   5.1569897429700196E-003  -1.9289764413908062E-002   4.5184009900034905E-002
   3.2541434044893597E-003  -5.9732781571155691E-003   5.7473801108861911E-002
   3.5507482866380946E-003  -7.8962421941275451E-003   5.4473924680823571E-002
   3.8473531687868781E-003  -1.0369249112511025E-002   5.1398605257325980E-002
   4.1439580509356339E-003  -1.3392298912266148E-002   4.8247842838368318E-002
   4.4405629330843688E-003  -1.6965391593392498E-002   4.5021637423950711E-002
   2.8050651531814248E-003  -5.2888033369092868E-003   6.0059268351386974E-002
   3.0449728817337068E-003  -6.8913474421178345E-003   5.6448539615884100E-002
   3.2848806102859038E-003  -8.9842313831822174E-003   5.2799859568648327E-002
   3.5247883388381251E-003  -1.1567455160101395E-002   4.9113228209679879E-002
   3.7646960673904106E-003  -1.4641018772877046E-002   4.5388645538977035E-002
   2.2465801111591910E-003  -4.6043285167032266E-003   6.2935304002957659E-002
   2.4672823698413809E-003  -5.8864526901080128E-003   5.8773426005506058E-002
   2.6879846285235570E-003  -7.5992136538526878E-003   5.4611088380048023E-002
   2.9086868872057262E-003  -9.7426114079371823E-003   5.0448291126583111E-002
   3.1293891458879508E-003  -1.2316645952361593E-002   4.6285034245111323E-002
   1.1510717319538760E-002   1.4538257325313220E-002   1.6951158034472003E-002
   1.4337463282427743E-002   1.1379364463642905E-002   2.7250961134385632E-002
   1.7164209245316753E-002   8.6054895131571774E-003   3.7023275678524870E-002
   1.9990955208205749E-002   6.2166324738558917E-003   4.6268101666889772E-002
   2.2817701171094745E-002   4.2127933457392075E-003   5.4985439099480282E-002
   8.2248583152889770E-003   1.0903692993983638E-002   1.5315820957216120E-002
   1.0479316238666631E-002   8.5345233477299165E-003   2.6179835028589421E-002
   1.2733774162044284E-002   6.4541171348649062E-003   3.6426761576714678E-002
   1.4988232085421958E-002   4.6624743553886558E-003   4.6056600601591377E-002
   1.7242690008799612E-002   3.1595950093012970E-003   5.5069352103219810E-002
   5.2111190939494387E-003   7.2691286626541118E-003   1.4518334334274546E-002
   6.8036900103417494E-003   5.6896822318169005E-003   2.5850304899312185E-002
   8.3962609267340463E-003   4.3027447565727045E-003   3.6475588973627321E-002
   9.9888318431263605E-003   3.1083162369214511E-003   4.6394186557220142E-002
   1.1581402759518671E-002   2.1063966728632755E-003   5.5606097650090669E-002
   2.4694996555201330E-003   3.6345643313245579E-003   1.4558698165647387E-002
   3.3105845974530871E-003   2.8448411159039538E-003   2.6262370746553271E-002
   4.1516695393860256E-003   2.1513723782804681E-003   3.7169757869262798E-002
   4.9927544813189763E-003   1.5541581184542862E-003   4.7280859533775962E-002
   5.8338394232519191E-003   1.0531983364252540E-003   5.6595675740092888E-002
   1.0963452368173421E-015  -4.9960036108132044E-015   1.5436912451334717E-002
   6.7307270867900115E-016  -9.0483176506950258E-015   2.7416032570313220E-002
   2.3245294578089215E-016  -1.1740608485411030E-014   3.8509268263621277E-002
  -1.9255430583342559E-016  -1.3010426069826053E-014   4.8716619531258915E-002
  -6.2450045135165055E-016  -1.2712053631958042E-014   5.8038086373226327E-002
   2.2817701171094745E-002   4.2127933457392075E-003   5.4985439099480282E-002
   2.2459359338001778E-002   2.5250831390398465E-003   5.7158693155807017E-002
   2.2101017504908817E-002   1.0846128639904196E-003   5.9367526041273599E-002
   2.1742675671815839E-002  -1.0861747940907329E-004   6.1611937755880031E-002
   2.1384333838722874E-002  -1.0546078911584100E-003   6.3891928299626088E-002
   1.7242690008799612E-002   3.1595950093012970E-003   5.5069352103219810E-002
   1.6933428662129830E-002   1.8938123542769913E-003   5.7386166670037847E-002
   1.6624167315460053E-002   8.1345964799020565E-004   5.9765563380562478E-002
   1.6314905968790261E-002  -8.1463109558914393E-005   6.2207542234793640E-002
   1.6005644622120486E-002  -7.9095591837063939E-004   6.4712103232731411E-002
   1.1581402759518671E-002   2.1063966728632755E-003   5.5606097650090669E-002
   1.1348225213838822E-002   1.2625415695140391E-003   5.8004662744487595E-002
   1.1115047668158963E-002   5.4230643198999173E-004   6.0492813297157916E-002
   1.0881870122479112E-002  -5.4308739708977538E-005   6.3070549308101437E-002
   1.0648692576799255E-002  -5.2730394558275773E-004   6.5737870777318352E-002
   5.8338394232519191E-003   1.0531983364252540E-003   5.6595675740092888E-002
   5.7037489931287362E-003   6.3127078475116311E-004   5.9014181379156268E-002
   5.5736585630055575E-003   2.7115321598977782E-004   6.1549275791059677E-002
   5.4435681328823746E-003  -2.7154369858901906E-005   6.4200958975803218E-002
   5.3134777027591951E-003  -2.6365197279484831E-004   6.6969230933386775E-002
  -6.2450045135165055E-016  -1.2712053631958042E-014   5.8038086373226327E-002
  -3.9898639947466563E-016  -1.1796119636642288E-014   6.0414722574043789E-002
  -1.7347234759768071E-016  -1.0436096431476471E-014   6.2934950862268080E-002
   5.2909066017292616E-017  -8.9095397726168812E-015   6.5598771237899089E-002
   2.7755575615628914E-016  -7.0499162063697440E-015   6.8406183700936984E-002
   2.1384333838722874E-002  -1.0546078911584100E-003   6.3891928299626088E-002
   2.0556664602964833E-002  -1.7913416118898184E-003   6.4197588113321602E-002
   1.9728995367206806E-002  -2.3568018822346382E-003   6.4733126631121407E-002
   1.8901326131448765E-002  -2.7509887021932022E-003   6.5498543853025615E-002
   1.8073656895690737E-002  -2.9739020717652886E-003   6.6493839779034114E-002
   1.6005644622120486E-002  -7.9095591837063939E-004   6.4712103232731411E-002
   1.5402113741675612E-002  -1.3435062089187100E-003   6.5183624138004881E-002
   1.4798582861230734E-002  -1.7676014116770333E-003   6.5873543049800254E-002
   1.4195051980785857E-002  -2.0632415266459841E-003   6.6781859968117474E-002
   1.3591521100340981E-002  -2.2304265538251045E-003   6.7908574892956985E-002
   1.0648692576799255E-002  -5.2730394558275773E-004   6.5737870777318352E-002
   1.0257819354085138E-002  -8.9567080594757376E-004   6.6332434411573049E-002
   9.8669461313710231E-003  -1.1784009411195950E-003   6.7133915354767162E-002
   9.4760729086569018E-003  -1.3754943510987105E-003   6.8142313606900901E-002
   9.0851996859427978E-003  -1.4869510358849758E-003   6.9357629167974194E-002
   5.3134777027591951E-003  -2.6365197279484831E-004   6.6969230933386775E-002
   5.1237814401934346E-003  -4.4783540297639590E-004   6.7644018934025871E-002
   4.9340851776276846E-003  -5.8920047056212899E-004   6.8514243546022063E-002
   4.7443889150619294E-003  -6.8774717555152021E-004   6.9579904769375506E-002
   4.5546926524961742E-003  -7.4347551794465283E-004   7.0841002604086101E-002
   2.7755575615628914E-016  -7.0499162063697440E-015   6.8406183700936984E-002
   4.8919202022545960E-016  -5.3568260938163803E-015   6.9118377705363720E-002
   7.0776717819853729E-016  -4.5657921887709563E-015   7.0014527623565165E-002
   9.2634233617161499E-016  -4.3333392429900641E-015   7.1094633455541498E-002
   1.1379786002407855E-015  -4.6629367034256575E-015   7.2358695201292456E-002
   1.8073656895690737E-002  -2.9739020717652886E-003   6.6493839779034114E-002
   1.6974003347203337E-002  -3.0922604489961314E-003   6.6024947600600903E-002
   1.5874349798715950E-002  -3.1727822919305204E-003   6.5826237263760079E-002
   1.4774696250228550E-002  -3.2154676005688998E-003   6.5897708768512031E-002
   1.3675042701741164E-002  -3.2203163749110475E-003   6.6239362114856259E-002
   1.3591521100340981E-002  -2.2304265538251045E-003   6.7908574892956985E-002
   1.2763232279828451E-002  -2.3191953367483475E-003   6.7449786949366874E-002
   1.1934943459315922E-002  -2.3795867189492226E-003   6.7263546620133952E-002
   1.1106654638803407E-002  -2.4116007004278406E-003   6.7349853905258217E-002
   1.0278365818290863E-002  -2.4152372811843126E-003   6.7708708804739781E-002
   9.0851996859427978E-003  -1.4869510358849758E-003   6.9357629167974194E-002
   8.5306413661698083E-003  -1.5461302245005082E-003   6.8899486325653403E-002
   7.9760830463968188E-003  -1.5863911459679247E-003   6.8716256870454323E-002
   7.4215247266238224E-003  -1.6077338002867814E-003   6.8807940802377301E-002
   6.8669664068508399E-003  -1.6101581874574111E-003   6.9174538121422074E-002
   4.5546926524961742E-003  -7.4347551794465283E-004   7.0841002604086101E-002
   4.2762306062273919E-003  -7.7306511225280761E-004   7.0374045729460502E-002
   3.9977685599586052E-003  -7.9319557298662691E-004   7.0184368014721485E-002
   3.7193065136898237E-003  -8.0386690014561113E-004   7.0271969459869008E-002
   3.4408444674210361E-003  -8.0507909373053743E-004   7.0636850064902973E-002
   1.1379786002407855E-015  -4.6629367034256575E-015   7.2358695201292456E-002
   1.2177758801357186E-015  -5.0515147620444623E-015   7.1873465160788297E-002
   1.2975731600306517E-015  -5.3568260938163803E-015   7.1667880052935229E-002
   1.3808398868775384E-015  -4.5588532948670490E-015   7.1741939877733474E-002
   1.4571677198205180E-015  -3.7747582837255322E-015   7.2095644635182699E-002
   1.3675042701741164E-002  -3.2203163749110475E-003   6.6239362114856259E-002
   1.2549254408060095E-002  -3.1733939286314738E-003   6.5822783260337969E-002
   1.1423466114379041E-002  -3.0607655754049945E-003   6.5677528368863369E-002
   1.0297677820697973E-002  -2.8824313152317690E-003   6.5803597440432682E-002
   9.1718895270169187E-003  -2.6383911481114852E-003   6.6200990475045574E-002
   1.0278365818290863E-002  -2.4152372811843126E-003   6.7708708804739781E-002
   9.4264322652476557E-003  -2.3800454464742993E-003   6.7337430868404491E-002
   8.5744987122044480E-003  -2.2955741815541275E-003   6.7242538450301093E-002
   7.7225651591612404E-003  -2.1618234864238806E-003   6.7424031550429336E-002
   6.8706316061180189E-003  -1.9787933610838637E-003   6.7881910168790027E-002
   6.8669664068508399E-003  -1.6101581874574111E-003   6.9174538121422074E-002
   6.2939491496337013E-003  -1.5866969643171802E-003   6.8832134626532704E-002
   5.7209318924165663E-003  -1.5303827877034964E-003   6.8771178205063579E-002
   5.1479146351994208E-003  -1.4412156576163286E-003   6.8991668857014743E-002
   4.5748973779822788E-003  -1.3191955740559647E-003   6.9493606582385958E-002
   3.4408444674210361E-003  -8.0507909373053743E-004   7.0636850064902973E-002
   3.1518050612182030E-003  -7.9334848215997789E-004   7.0306894534723080E-002
   2.8627656550153811E-003  -7.6519139385246987E-004   7.0263447633151635E-002
   2.5737262488125601E-003  -7.2060782880871942E-004   7.0506509360188513E-002
   2.2846868426097400E-003  -6.5959778702837091E-004   7.1036079715834033E-002
   1.4571677198205180E-015  -3.7747582837255322E-015   7.2095644635182699E-002
   1.1726730697603216E-015  -2.8310687127941492E-015   7.1761710592975425E-002
   9.0205620750793969E-016  -1.9151347174783950E-015   7.1719346734564704E-002
   6.2623517482762736E-016  -9.7838404045091920E-016   7.1968553059950674E-002
   3.4694469519536142E-016  -4.4408920985006262E-016   7.2509329569133252E-002
   9.1718895270169187E-003  -2.6383911481114852E-003   6.6200990475045574E-002
   8.0830165589984293E-003  -2.4081756692578837E-003   6.5862057663578777E-002
   6.9941435909799538E-003  -2.2713154738847052E-003   6.5805564760022861E-002
   5.9052706229614574E-003  -2.2278105619916166E-003   6.6031511764377548E-002
   4.8163976549429888E-003  -2.2776609335785070E-003   6.6539898676643894E-002
   6.8706316061180189E-003  -1.9787933610838637E-003   6.7881910168790027E-002
   6.0616431295338544E-003  -1.8061317519433295E-003   6.7464259760564416E-002
   5.2526546529497037E-003  -1.7034866054133069E-003   6.7323938427296726E-002
   4.4436661763655495E-003  -1.6708579214931019E-003   6.7460946168986596E-002
   3.6346776997814023E-003  -1.7082457001834639E-003   6.7875282985634333E-002
   4.5748973779822788E-003  -1.3191955740559647E-003   6.9493606582385958E-002
   4.0406825598792578E-003  -1.2040878346290529E-003   6.9020577398271804E-002
   3.5064677417762230E-003  -1.1356577369420195E-003   6.8819766456162390E-002
   2.9722529236731899E-003  -1.1139052809951422E-003   6.8891173756057286E-002
   2.4380381055701533E-003  -1.1388304667884763E-003   6.9234799297956923E-002
   2.2846868426097400E-003  -6.5959778702837091E-004   7.1036079715834033E-002
   2.0201348500346189E-003  -6.0204391731463747E-004   7.0531010576701372E-002
   1.7555828574595013E-003  -5.6782886847084324E-004   7.0293048846620215E-002
   1.4910308648843954E-003  -5.5695264049701598E-004   7.0322194525589993E-002
   1.2264788723092765E-003  -5.6941523339340550E-004   7.0618447613611385E-002
   3.4694469519536142E-016  -4.4408920985006262E-016   7.2509329569133252E-002
  -4.8572257327350599E-017  -2.7755575615628914E-016   7.1995559295852440E-002
  -4.4408920985006262E-016   7.4940054162198066E-016   7.1743785598669452E-002
  -8.4134088584875144E-016   9.0899510141184692E-016   7.1754008477584647E-002
  -1.2351231148954867E-015   1.5543122344752192E-015   7.2026227932597942E-002
   4.8163976549429888E-003  -2.2776609335785070E-003   6.6539898676643894E-002
   4.1739432689970463E-003  -2.4954736675191769E-003   6.5428348121375657E-002
   3.5314888830510899E-003  -2.9558558426867887E-003   6.4457065490672094E-002
   2.8890344971051404E-003  -3.6588074590815436E-003   6.3626050784532512E-002
   2.2465801111591910E-003  -4.6043285167032266E-003   6.2935304002957659E-002
   3.6346776997814023E-003  -1.7082457001834639E-003   6.7875282985634333E-002
   3.1375776563803692E-003  -1.8716052506388969E-003   6.6541650948223674E-002
   2.6404776129793361E-003  -2.2168918820147099E-003   6.5358459671338381E-002
   2.1433775695783100E-003  -2.7441055943108819E-003   6.4325709154978691E-002
   1.6462775261772700E-003  -3.4532463875276420E-003   6.3443399399144340E-002
   2.4380381055701533E-003  -1.1388304667884763E-003   6.9234799297956923E-002
   2.0964652406752181E-003  -1.2477368337587003E-003   6.7739728138710154E-002
   1.7548923757802724E-003  -1.4779279213426172E-003   6.6405270575949901E-002
   1.4133195108853355E-003  -1.8294037295405498E-003   6.5231426609676235E-002
   1.0717466459903915E-003  -2.3021642583520574E-003   6.4218196239889336E-002
   1.2264788723092765E-003  -5.6941523339340550E-004   7.0618447613611385E-002
   1.0506060218815928E-003  -6.2386841687851746E-004   6.9022579692835095E-002
   8.7473317145391350E-004  -7.3896396067053144E-004   6.7597498204506473E-002
   6.9886032102623201E-004  -9.1470186476983080E-004   6.6343203148625796E-002
   5.2298747059855051E-004  -1.1510821291764728E-003   6.5259694525192660E-002
  -1.2351231148954867E-015   1.5543122344752192E-015   7.2026227932597942E-002
  -4.9960036108132044E-016   1.7763568394002505E-015   7.0390205610598611E-002
   2.4633073358870661E-016   1.4710455076283324E-015   6.8935142557008333E-002
   9.8532293435482643E-016   5.8980598183211441E-016   6.7661038771826970E-002
   1.7277845820728999E-015  -9.9920072216264089E-016   6.6567894255054827E-002
   2.2465801111591910E-003  -4.6043285167032266E-003   6.2935304002957659E-002
   2.4672823698413809E-003  -5.8864526901080128E-003   5.8773426005506058E-002
   2.6879846285235570E-003  -7.5992136538526878E-003   5.4611088380048023E-002
   2.9086868872057262E-003  -9.7426114079371823E-003   5.0448291126583111E-002
   3.1293891458879508E-003  -1.2316645952361593E-002   4.6285034245111323E-002
   1.6462775261772700E-003  -3.4532463875276420E-003   6.3443399399144340E-002
   1.8528411726866784E-003  -4.4148395175814814E-003   5.8916806930775056E-002
   2.0594048191960868E-003  -5.6994102403899460E-003   5.4362396866066698E-002
   2.2659684657055056E-003  -7.3069585559531885E-003   4.9780169205020125E-002
   2.4725321122149035E-003  -9.2374844642706400E-003   4.5170123947634089E-002
   1.0717466459903915E-003  -2.3021642583520574E-003   6.4218196239889336E-002
   1.2368137119950530E-003  -2.9432263450551166E-003   5.9434548498187217E-002
   1.4018807779997110E-003  -3.7996068269274541E-003   5.4595725191814271E-002
   1.5669478440043811E-003  -4.8713057039690352E-003   4.9701726320770939E-002
   1.7320149100090304E-003  -6.1583229761799085E-003   4.4752551885056446E-002
   5.2298747059855051E-004  -1.1510821291764728E-003   6.5259694525192660E-002
   6.1919998776652739E-004  -1.4716131725286685E-003   6.0326650707743124E-002
   7.1541250493450167E-004  -1.8998034134645042E-003   5.5311073357290415E-002
   8.1162502210246944E-004  -2.4356528519848507E-003   5.0212962473834763E-002
   9.0783753927045283E-004  -3.0791614880890661E-003   4.5032318057377480E-002
   1.7277845820728999E-015  -9.9920072216264089E-016   6.6567894255054827E-002
   1.0616507672978059E-015  -2.1094237467877974E-015   6.1593113559442525E-002
   3.8510861166685117E-016  -2.0816681711721685E-015   5.6508441362495720E-002
  -2.9837243786801082E-016  -8.5348395018058909E-016   5.1313877664214053E-002
  -9.5756735873919752E-016   1.7763568394002505E-015   4.6009422464598160E-002
   1.0963452368173421E-015  -4.9960036108132044E-015   1.5436912451334717E-002
   6.7307270867900115E-016  -9.0483176506950258E-015   2.7416032570313220E-002
   2.3245294578089215E-016  -1.1740608485411030E-014   3.8509268263621277E-002
  -1.9255430583342559E-016  -1.3010426069826053E-014   4.8716619531258915E-002
  -6.2450045135165055E-016  -1.2712053631958042E-014   5.8038086373226327E-002
  -2.4694996555183896E-003  -3.6345643313352993E-003   1.4558698165634265E-002
  -3.3105845974519856E-003  -2.8448411159215647E-003   2.6262370746542141E-002
  -4.1516695393855815E-003  -2.1513723783024852E-003   3.7169757869254028E-002
  -4.9927544813191810E-003  -1.5541581184781300E-003   4.7280859533770037E-002
  -5.8338394232527735E-003  -1.0531983364485131E-003   5.6595675740090001E-002
  -5.2111190939489876E-003  -7.2691286626656582E-003   1.4518334334249428E-002
  -6.8036900103413340E-003  -5.6896822318339424E-003   2.5850304899290633E-002
  -8.3962609267336664E-003  -4.3027447565931881E-003   3.6475588973610334E-002
  -9.9888318431260118E-003  -3.1083162369432531E-003   4.6394186557208471E-002
  -1.1581402759518352E-002  -2.1063966728842864E-003   5.5606097650085118E-002
  -8.2248583152907360E-003  -1.0903692993995989E-002   1.5315820957180835E-002
  -1.0479316238667390E-002  -8.5345233477464519E-003   2.6179835028559070E-002
  -1.2733774162044031E-002  -6.4541171348839674E-003   3.6426761576690295E-002
  -1.4988232085420687E-002  -4.6624743554084854E-003   4.6056600601574446E-002
  -1.7242690008797319E-002  -3.1595950093200736E-003   5.5069352103211441E-002
  -1.1510717319543610E-002  -1.4538257325326320E-002   1.6951158034428149E-002
  -1.4337463282430123E-002  -1.1379364463658836E-002   2.7250961134347385E-002
  -1.7164209245316652E-002  -8.6054895131746356E-003   3.7023275678493950E-002
  -1.9990955208203189E-002  -6.2166324738735929E-003   4.6268101666867900E-002
  -2.2817701171089711E-002  -4.2127933457558053E-003   5.4985439099469124E-002
  -6.2450045135165055E-016  -1.2712053631958042E-014   5.8038086373226327E-002
  -3.9898639947466563E-016  -1.1796119636642288E-014   6.0414722574043789E-002
  -1.7347234759768071E-016  -1.0436096431476471E-014   6.2934950862268080E-002
   5.2909066017292616E-017  -8.9095397726168812E-015   6.5598771237899089E-002
   2.7755575615628914E-016  -7.0499162063697440E-015   6.8406183700936984E-002
  -5.8338394232527735E-003  -1.0531983364485131E-003   5.6595675740090001E-002
  -5.7037489931291794E-003  -6.3127078477259735E-004   5.9014181379154540E-002
  -5.5736585630055888E-003  -2.7115321600904019E-004   6.1549275791059080E-002
  -5.4435681328819981E-003   2.7154369842137538E-005   6.4200958975803663E-002
  -5.3134777027584040E-003   2.6365197278072072E-004   6.6969230933388052E-002
  -1.1581402759518352E-002  -2.1063966728842864E-003   5.5606097650085118E-002
  -1.1348225213838204E-002  -1.2625415695333847E-003   5.8004662744484042E-002
  -1.1115047668158061E-002  -5.4230643200753326E-004   6.0492813297156098E-002
  -1.0881870122477915E-002   5.4308739693018082E-005   6.3070549308101312E-002
  -1.0648692576797771E-002   5.2730394556851912E-004   6.5737870777319643E-002
  -1.7242690008797319E-002  -3.1595950093200736E-003   5.5069352103211441E-002
  -1.6933428662127444E-002  -1.8938123542941790E-003   5.7386166670032053E-002
  -1.6624167315457575E-002  -8.1345964800608184E-004   5.9765563380558925E-002
  -1.6314905968787718E-002   8.1463109544037404E-005   6.2207542234792211E-002
  -1.6005644622117843E-002   7.9095591835624812E-004   6.4712103232731688E-002
  -2.2817701171089711E-002  -4.2127933457558053E-003   5.4985439099469124E-002
  -2.2459359337996945E-002  -2.5250831390549733E-003   5.7158693155798690E-002
  -2.2101017504904154E-002  -1.0846128640046859E-003   5.9367526041267715E-002
  -2.1742675671811380E-002   1.0861747939493183E-004   6.1611937755876200E-002
  -2.1384333838718600E-002   1.0546078911440326E-003   6.3891928299624257E-002
   2.7755575615628914E-016  -7.0499162063697440E-015   6.8406183700936984E-002
   4.8919202022545960E-016  -5.3568260938163803E-015   6.9118377705363720E-002
   7.0776717819853729E-016  -4.5657921887709563E-015   7.0014527623565165E-002
   9.2634233617161499E-016  -4.3333392429900641E-015   7.1094633455541498E-002
   1.1379786002407855E-015  -4.6629367034256575E-015   7.2358695201292456E-002
  -5.3134777027584040E-003   2.6365197278072072E-004   6.6969230933388052E-002
  -5.1237814401922498E-003   4.4783540296464142E-004   6.7644018934026495E-002
  -4.9340851776261147E-003   5.8920047055176228E-004   6.8514243546022077E-002
  -4.7443889150599727E-003   6.8774717554176065E-004   6.9579904769374645E-002
  -4.5546926524938254E-003   7.4347551793485511E-004   7.0841002604084158E-002
  -1.0648692576797771E-002   5.2730394556851912E-004   6.5737870777319643E-002
  -1.0257819354083379E-002   8.9567080593482007E-004   6.6332434411573452E-002
  -9.8669461313689900E-003   1.1784009411078752E-003   6.7133915354766649E-002
  -9.4760729086546085E-003   1.3754943510878009E-003   6.8142313606899360E-002
  -9.0851996859402113E-003   1.4869510358744842E-003   6.9357629167971335E-002
  -1.6005644622117843E-002   7.9095591835624812E-004   6.4712103232731688E-002
  -1.5402113741672894E-002   1.3435062089048252E-003   6.5183624138004687E-002
  -1.4798582861227937E-002   1.7676014116640680E-003   6.5873543049799352E-002
  -1.4195051980782995E-002   2.0632415266337014E-003   6.6781859968115836E-002
  -1.3591521100338039E-002   2.2304265538140022E-003   6.7908574892953988E-002
  -2.1384333838718600E-002   1.0546078911440326E-003   6.3891928299624257E-002
  -2.0556664602960767E-002   1.7913416118750247E-003   6.4197588113320048E-002
  -1.9728995367202948E-002   2.3568018822202191E-003   6.4733126631119992E-002
  -1.8901326131445115E-002   2.7509887021798275E-003   6.5498543853023936E-002
  -1.8073656895687289E-002   2.9739020717535203E-003   6.6493839779031894E-002
   1.1379786002407855E-015  -4.6629367034256575E-015   7.2358695201292456E-002
   1.2177758801357186E-015  -5.0515147620444623E-015   7.1873465160788297E-002
   1.2975731600306517E-015  -5.3568260938163803E-015   7.1667880052935229E-002
   1.3808398868775384E-015  -4.5588532948670490E-015   7.1741939877733474E-002
   1.4571677198205180E-015  -3.7747582837255322E-015   7.2095644635182699E-002
  -4.5546926524938254E-003   7.4347551793485511E-004   7.0841002604084158E-002
  -4.2762306062249112E-003   7.7306511224287111E-004   7.0374045729459572E-002
  -3.9977685599559970E-003   7.9319557297671817E-004   7.0184368014721277E-002
  -3.7193065136870828E-003   8.0386690013708323E-004   7.0271969459869618E-002
  -3.4408444674181547E-003   8.0507909372351527E-004   7.0636850064904277E-002
  -9.0851996859402113E-003   1.4869510358744842E-003   6.9357629167971335E-002
  -8.5306413661671906E-003   1.5461302244907105E-003   6.8899486325651987E-002
  -7.9760830463941682E-003   1.5863911459586960E-003   6.8716256870454254E-002
  -7.4215247266211336E-003   1.6077338002788398E-003   6.8807940802378537E-002
  -6.8669664068481129E-003   1.6101581874509163E-003   6.9174538121424239E-002
  -1.3591521100338039E-002   2.2304265538140022E-003   6.7908574892953988E-002
  -1.2763232279825624E-002   2.3191953367385915E-003   6.7449786949365598E-002
  -1.1934943459313207E-002   2.3795867189406669E-003   6.7263546620134312E-002
  -1.1106654638800787E-002   2.4116007004206502E-003   6.7349853905260035E-002
  -1.0278365818288376E-002   2.4152372811782619E-003   6.7708708804742723E-002
  -1.8073656895687289E-002   2.9739020717535203E-003   6.6493839779031894E-002
  -1.6974003347200201E-002   3.0922604489864169E-003   6.6024947600600403E-002
  -1.5874349798713119E-002   3.1727822919225546E-003   6.5826237263761245E-002
  -1.4774696250226042E-002   3.2154676005623287E-003   6.5897708768514390E-002
  -1.3675042701738957E-002   3.2203163749056074E-003   6.6239362114859701E-002
   1.4571677198205180E-015  -3.7747582837255322E-015   7.2095644635182699E-002
   1.1726730697603216E-015  -2.8310687127941492E-015   7.1761710592975425E-002
   9.0205620750793969E-016  -1.9151347174783950E-015   7.1719346734564704E-002
   6.2623517482762736E-016  -9.7838404045091920E-016   7.1968553059950674E-002
   3.4694469519536142E-016  -4.4408920985006262E-016   7.2509329569133252E-002
  -3.4408444674181547E-003   8.0507909372351527E-004   7.0636850064904277E-002
  -3.1518050612158923E-003   7.9334848215462106E-004   7.0306894534723940E-002
  -2.8627656550136247E-003   7.6519139384895185E-004   7.0263447633152232E-002
  -2.5737262488113579E-003   7.2060782880654928E-004   7.0506509360188638E-002
  -2.2846868426090947E-003   6.5959778702695537E-004   7.1036079715833700E-002
  -6.8669664068481129E-003   1.6101581874509163E-003   6.9174538121424239E-002
  -6.2939491496315234E-003   1.5866969643121565E-003   6.8832134626534397E-002
  -5.7209318924149469E-003   1.5303827876999437E-003   6.8771178205064634E-002
  -5.1479146351983644E-003   1.4412156576140804E-003   6.8991668857015132E-002
  -4.5748973779817809E-003   1.3191955740546879E-003   6.9493606582385875E-002
  -1.0278365818288376E-002   2.4152372811782619E-003   6.7708708804742723E-002
  -9.4264322652457110E-003   2.3800454464697612E-003   6.7337430868406559E-002
  -8.5744987122030672E-003   2.2955741815508732E-003   6.7242538450302189E-002
  -7.7225651591604026E-003   2.1618234864217763E-003   6.7424031550429794E-002
  -6.8706316061177587E-003   1.9787933610825315E-003   6.7881910168789666E-002
  -1.3675042701738957E-002   3.2203163749056074E-003   6.6239362114859701E-002
  -1.2549254408058458E-002   3.1733939286271440E-003   6.5822783260340578E-002
  -1.1423466114377969E-002   3.0607655754017471E-003   6.5677528368864868E-002
  -1.0297677820697479E-002   2.8824313152292363E-003   6.5803597440433015E-002
  -9.1718895270169812E-003   2.6383911481099309E-003   6.6200990475045018E-002
   3.4694469519536142E-016  -4.4408920985006262E-016   7.2509329569133252E-002
  -4.8572257327350599E-017  -2.7755575615628914E-016   7.1995559295852440E-002
  -4.4408920985006262E-016   7.4940054162198066E-016   7.1743785598669452E-002
  -8.4134088584875144E-016   9.0899510141184692E-016   7.1754008477584647E-002
  -1.2351231148954867E-015   1.5543122344752192E-015   7.2026227932597942E-002
  -2.2846868426090947E-003   6.5959778702695537E-004   7.1036079715833700E-002
  -2.0201348500346952E-003   6.0204391731438767E-004   7.0531010576701136E-002
  -1.7555828574602993E-003   5.6782886847145386E-004   7.0293048846619993E-002
  -1.4910308648859033E-003   5.5695264049850091E-004   7.0322194525590451E-002
  -1.2264788723115039E-003   5.6941523339548716E-004   7.0618447613612134E-002
  -4.5748973779817809E-003   1.3191955740546879E-003   6.9493606582385875E-002
  -4.0406825598792578E-003   1.2040878346284145E-003   6.9020577398271443E-002
  -3.5064677417767269E-003   1.1356577369422832E-003   6.8819766456162099E-002
  -2.9722529236742138E-003   1.1139052809958742E-003   6.8891173756057439E-002
  -2.4380381055716868E-003   1.1388304667895310E-003   6.9234799297957422E-002
  -6.8706316061177587E-003   1.9787933610825315E-003   6.7881910168789666E-002
  -6.0616431295337433E-003   1.8061317519428161E-003   6.7464259760563569E-002
  -5.2526546529497410E-003   1.7034866054132722E-003   6.7323938427295768E-002
  -4.4436661763657291E-003   1.6708579214931348E-003   6.7460946168986222E-002
  -3.6346776997817232E-003   1.7082457001833529E-003   6.7875282985634722E-002
  -9.1718895270169812E-003   2.6383911481099309E-003   6.6200990475045018E-002
  -8.0830165589981587E-003   2.4081756692570511E-003   6.5862057663577223E-002
  -6.9941435909793258E-003   2.2713154738838726E-003   6.5805564760020974E-002
  -5.9052706229605050E-003   2.2278105619906868E-003   6.6031511764376327E-002
  -4.8163976549416704E-003   2.2776609335775078E-003   6.6539898676643228E-002
  -1.2351231148954867E-015   1.5543122344752192E-015   7.2026227932597942E-002
  -4.9960036108132044E-016   1.7763568394002505E-015   7.0390205610598611E-002
   2.4633073358870661E-016   1.4710455076283324E-015   6.8935142557008333E-002
   9.8532293435482643E-016   5.8980598183211441E-016   6.7661038771826970E-002
   1.7277845820728999E-015  -9.9920072216264089E-016   6.6567894255054827E-002
  -1.2264788723115039E-003   5.6941523339548716E-004   7.0618447613612134E-002
  -1.0506060218824428E-003   6.2386841688077954E-004   6.9022579692835095E-002
  -8.7473317145338181E-004   7.3896396067252290E-004   6.7597498204505724E-002
  -6.9886032102431904E-004   9.1470186477116133E-004   6.6343203148624130E-002
  -5.2298747059525974E-004   1.1510821291760287E-003   6.5259694525189760E-002
  -2.4380381055716868E-003   1.1388304667895310E-003   6.9234799297957422E-002
  -2.0964652406756518E-003   1.2477368337596717E-003   6.7739728138710098E-002
  -1.7548923757796315E-003   1.4779279213436719E-003   6.6405270575948930E-002
  -1.4133195108836111E-003   1.8294037295415073E-003   6.5231426609673931E-002
  -1.0717466459875761E-003   2.3021642583526680E-003   6.4218196239885644E-002
  -3.6346776997817232E-003   1.7082457001833529E-003   6.7875282985634722E-002
  -3.1375776563801264E-003   1.8716052506387304E-003   6.6541650948223785E-002
  -2.6404776129785017E-003   2.2168918820148278E-003   6.5358459671337701E-002
  -2.1433775695768810E-003   2.7441055943117441E-003   6.4325709154976762E-002
  -1.6462775261752807E-003   3.4532463875293906E-003   6.3443399399140288E-002
  -4.8163976549416704E-003   2.2776609335775078E-003   6.6539898676643228E-002
  -4.1739432689958389E-003   2.4954736675176226E-003   6.5428348121375990E-002
  -3.5314888830499935E-003   2.9558558426859560E-003   6.4457065490672261E-002
  -2.8890344971041586E-003   3.6588074590823347E-003   6.3626050784532290E-002
  -2.2465801111583167E-003   4.6043285167062242E-003   6.2935304002955550E-002
   1.7277845820728999E-015  -9.9920072216264089E-016   6.6567894255054827E-002
   1.0616507672978059E-015  -2.1094237467877974E-015   6.1593113559442525E-002
   3.8510861166685117E-016  -2.0816681711721685E-015   5.6508441362495720E-002
  -2.9837243786801082E-016  -8.5348395018058909E-016   5.1313877664214053E-002
  -9.5756735873919752E-016   1.7763568394002505E-015   4.6009422464598160E-002
  -5.2298747059525974E-004   1.1510821291760287E-003   6.5259694525189760E-002
  -6.1919998776453072E-004   1.4716131725265313E-003   6.0326650707741791E-002
  -7.1541250493379477E-004   1.8998034134626307E-003   5.5311073357291241E-002
  -8.1162502210306402E-004   2.4356528519840215E-003   5.0212962473837608E-002
  -9.0783753927231592E-004   3.0791614880909535E-003   4.5032318057381948E-002
  -1.0717466459875761E-003   2.3021642583526680E-003   6.4218196239885644E-002
  -1.2368137119934050E-003   2.9432263450553386E-003   5.9434548498185247E-002
  -1.4018807779992417E-003   3.7996068269275513E-003   5.4595725191814257E-002
  -1.5669478440050472E-003   4.8713057039691150E-003   4.9701726320772903E-002
  -1.7320149100109074E-003   6.1583229761799085E-003   4.4752551885060776E-002
  -1.6462775261752807E-003   3.4532463875293906E-003   6.3443399399140288E-002
  -1.8528411726856011E-003   4.4148395175841737E-003   5.8916806930772364E-002
  -2.0594048191959289E-003   5.6994102403921457E-003   5.4362396866065990E-002
  -2.2659684657062840E-003   7.3069585559538772E-003   4.9780169205021076E-002
  -2.4725321122165906E-003   9.2374844642688636E-003   4.5170123947637558E-002
  -2.2465801111583167E-003   4.6043285167062242E-003   6.2935304002955550E-002
  -2.4672823698411103E-003   5.8864526901127867E-003   5.8773426005503726E-002
  -2.6879846285239109E-003   7.5992136538572119E-003   5.4611088380045414E-002
  -2.9086868872067115E-003   9.7426114079390350E-003   5.0448291126580530E-002
  -3.1293891458895051E-003   1.2316645952358041E-002   4.6285034245109102E-002
  -1.1510717319543610E-002  -1.4538257325326320E-002   1.6951158034428149E-002
  -1.4337463282430123E-002  -1.1379364463658836E-002   2.7250961134347385E-002
  -1.7164209245316652E-002  -8.6054895131746356E-003   3.7023275678493950E-002
  -1.9990955208203189E-002  -6.2166324738735929E-003   4.6268101666867900E-002
  -2.2817701171089711E-002  -4.2127933457558053E-003   5.4985439099469124E-002
  -1.4641138593211919E-002  -1.7601298839136470E-002   1.5981935516066970E-002
  -1.8105289139692071E-002  -1.3929534167880231E-002   2.6405927668323143E-002
  -2.1569439686172233E-002  -1.0570531913285733E-002   3.6082599209164568E-002
  -2.5033590232652406E-002  -7.5242920753526878E-003   4.5011950138591550E-002
  -2.8497740779132561E-002  -4.7908146540813767E-003   5.3193980456603701E-002
  -1.7188564622800016E-002  -2.0664340352946592E-002   1.5489457060033796E-002
  -2.1509951808515736E-002  -1.6479703872101681E-002   2.6109893759148337E-002
  -2.5831338994231467E-002  -1.2535574313396747E-002   3.5763177791206316E-002
  -3.0152726179947187E-002  -8.8319516768318659E-003   4.4449309156207872E-002
  -3.4474113365662917E-002  -5.3688359624069759E-003   5.2168287854152798E-002
  -1.9152995408307883E-002  -2.3727381866756714E-002   1.5473722666328633E-002
  -2.4551451288901110E-002  -1.9029873576323103E-002   2.6362859406823130E-002
  -2.9949907169494323E-002  -1.4500616713507830E-002   3.6065011424619257E-002
  -3.5348363050087553E-002  -1.0139611278311002E-002   4.4580178719716992E-002
  -4.0746818930680773E-002  -5.9468572707325335E-003   5.1908361292115970E-002
  -2.0534430949735533E-002  -2.6790423380566863E-002   1.5934732334951240E-002
  -2.7229787580848208E-002  -2.1580043280544525E-002   2.7164824611347504E-002
  -3.3925144211960828E-002  -1.6465659113618858E-002   3.6988100109403343E-002
  -4.0620500843073490E-002  -1.1447270879790125E-002   4.5404558829118757E-002
  -4.7315857474186138E-002  -6.5248785790580910E-003   5.2414200770493802E-002
  -2.2817701171089711E-002  -4.2127933457558053E-003   5.4985439099469124E-002
  -2.2459359337996945E-002  -2.5250831390549733E-003   5.7158693155798690E-002
  -2.2101017504904154E-002  -1.0846128640046859E-003   5.9367526041267715E-002
  -2.1742675671811380E-002   1.0861747939493183E-004   6.1611937755876200E-002
  -2.1384333838718600E-002   1.0546078911440326E-003   6.3891928299624257E-002
  -2.8497740779132561E-002  -4.7908146540813767E-003   5.3193980456603701E-002
  -2.8064254313023104E-002  -2.4246117868896438E-003   5.4775954026748910E-002
  -2.7630767846913665E-002  -4.8019561119554133E-004   5.6472638033787853E-002
  -2.7197281380804222E-002   1.0424338730010314E-003   5.8284032477720668E-002
  -2.6763794914694772E-002   2.1432766657001889E-003   6.0210137358547328E-002
  -3.4474113365662917E-002  -5.3688359624069759E-003   5.2168287854152798E-002
  -3.3886350658782462E-002  -2.3241404347243422E-003   5.2984434178266496E-002
  -3.3298587951901992E-002   1.2422164161371430E-004   5.3994422547028395E-002
  -3.2710825245021516E-002   1.9762502666072976E-003   5.5198252960438454E-002
  -3.2123062538141060E-002   3.2319454402562620E-003   5.6595925418496854E-002
  -4.0746818930680773E-002  -5.9468572707325335E-003   5.1908361292115970E-002
  -3.9925648375274944E-002  -2.2236690825590266E-003   5.1784133610351488E-002
  -3.9104477819869123E-002   7.2863889442296992E-004   5.1932879580989431E-002
  -3.8283307264463301E-002   2.9100666602134805E-003   5.2354599204029947E-002
  -3.7462136709057473E-002   4.3206142148124321E-003   5.3049292479472931E-002
  -4.7315857474186138E-002  -6.5248785790580910E-003   5.2414200770493802E-002
  -4.6182147462500600E-002  -2.1231977303937388E-003   5.1175052323003956E-002
  -4.5048437450815070E-002   1.3330561472321284E-003   5.0288009135670830E-002
  -4.3914727439129539E-002   3.8438830538196113E-003   4.9753071208494662E-002
  -4.2781017427444001E-002   5.4092829893684913E-003   4.9570238541475353E-002
  -2.1384333838718600E-002   1.0546078911440326E-003   6.3891928299624257E-002
  -2.0556664602960767E-002   1.7913416118750247E-003   6.4197588113320048E-002
  -1.9728995367202948E-002   2.3568018822202191E-003   6.4733126631119992E-002
  -1.8901326131445115E-002   2.7509887021798275E-003   6.5498543853023936E-002
  -1.8073656895687289E-002   2.9739020717535203E-003   6.6493839779031894E-002
  -2.6763794914694772E-002   2.1432766657001889E-003   6.0210137358547328E-002
  -2.5697332617718734E-002   2.9314539438387577E-003   6.0357496087882767E-002
  -2.4630870320742689E-002   3.5160868843543552E-003   6.0752562235550631E-002
  -2.3564408023766657E-002   3.8971754872465271E-003   6.1395335801550911E-002
  -2.2497945726790609E-002   4.0747197525155543E-003   6.2285816785883408E-002
  -3.2123062538141060E-002   3.2319454402562620E-003   5.6595925418496854E-002
  -3.0799978465718442E-002   4.0715662758026433E-003   5.6552712176234352E-002
  -2.9476894393295820E-002   4.6753718864883734E-003   5.6775035066532663E-002
  -2.8153810320873184E-002   5.0433622723132249E-003   5.7262894089391753E-002
  -2.6830726248450586E-002   5.1755374332773108E-003   5.8016289244811559E-002
  -3.7462136709057473E-002   4.3206142148124321E-003   5.3049292479472931E-002
  -3.5864602146959926E-002   5.2116786077664526E-003   5.2783236378374898E-002
  -3.4267067584862372E-002   5.8346568886224505E-003   5.2800545124066206E-002
  -3.2669533022764839E-002   6.1895490573799236E-003   5.3101218716546432E-002
  -3.1071998460667275E-002   6.2763551140392615E-003   5.3685257155815840E-002
  -4.2781017427444001E-002   5.4092829893684913E-003   4.9570238541475353E-002
  -4.0891203661443137E-002   6.3517909397302896E-003   4.9049068694304532E-002
  -3.9001389895442315E-002   6.9939418907564166E-003   4.8829092408151115E-002
  -3.7111576129441486E-002   7.3357358424466501E-003   4.8910309683015046E-002
  -3.5221762363440628E-002   7.3771727948009902E-003   4.9292720518896660E-002
  -1.8073656895687289E-002   2.9739020717535203E-003   6.6493839779031894E-002
  -1.6974003347200201E-002   3.0922604489864169E-003   6.6024947600600403E-002
  -1.5874349798713119E-002   3.1727822919225546E-003   6.5826237263761245E-002
  -1.4774696250226042E-002   3.2154676005623287E-003   6.5897708768514390E-002
  -1.3675042701738957E-002   3.2203163749056074E-003   6.6239362114859701E-002
  -2.2497945726790609E-002   4.0747197525155543E-003   6.2285816785883408E-002
  -2.1134149367361518E-002   4.1367179855434089E-003   6.1869701755667389E-002
  -1.9770353007932409E-002   4.1711684917127845E-003   6.1711690505742989E-002
  -1.8406556648503325E-002   4.1780712710228068E-003   6.1811783036110388E-002
  -1.7042760289074217E-002   4.1574263234746556E-003   6.2169979346769377E-002
  -2.6830726248450586E-002   5.1755374332773108E-003   5.8016289244811559E-002
  -2.5214865139380076E-002   5.1811755221005951E-003   5.7663240170248486E-002
  -2.3599004030309553E-002   5.1695546915027230E-003   5.7556216814676528E-002
  -2.1983142921239061E-002   5.1406749414836701E-003   5.7695219178095704E-002
  -2.0367281812168549E-002   5.0945362720435927E-003   5.8080247260506063E-002
  -3.1071998460667275E-002   6.2763551140392615E-003   5.3685257155815840E-002
  -2.9216150663255922E-002   6.2256330586577951E-003   5.3405562844343585E-002
  -2.7360302865844593E-002   6.1679408912928627E-003   5.3359816190561807E-002
  -2.5504455068433258E-002   6.1032786119444519E-003   5.3548017194470443E-002
  -2.3648607271021912E-002   6.0316462206124744E-003   5.3970165856069854E-002
  -3.5221762363440628E-002   7.3771727948009902E-003   4.9292720518896660E-002
  -3.3138005938989037E-002   7.2700905952148842E-003   4.9096669777952906E-002
  -3.1054249514537474E-002   7.1663270910829191E-003   4.9122488633398909E-002
  -2.8970493090085890E-002   7.0658822824050463E-003   4.9370177085234973E-002
  -2.6886736665634320E-002   6.9687561691815780E-003   4.9839735133460961E-002
  -1.3675042701738957E-002   3.2203163749056074E-003   6.6239362114859701E-002
  -1.2549254408058458E-002   3.1733939286271440E-003   6.5822783260340578E-002
  -1.1423466114377969E-002   3.0607655754017471E-003   6.5677528368864868E-002
  -1.0297677820697479E-002   2.8824313152292363E-003   6.5803597440433015E-002
  -9.1718895270169812E-003   2.6383911481099309E-003   6.6200990475045018E-002
  -1.7042760289074217E-002   4.1574263234746556E-003   6.2169979346769377E-002
  -1.5654490244713489E-002   4.0795789155127493E-003   6.1711472793670175E-002
  -1.4266220200352763E-002   3.9148743135836855E-003   6.1506605778887780E-002
  -1.2877950155992034E-002   3.6633125176863852E-003   6.1555378302421970E-002
  -1.1489680111631310E-002   3.3248935278216152E-003   6.1857790364273135E-002
  -2.0367281812168549E-002   5.0945362720435927E-003   5.8080247260506063E-002
  -1.8734214441854569E-002   4.9857639023987987E-003   5.7558661721806140E-002
  -1.7101147071540573E-002   4.7689830517654019E-003   5.7273031296696197E-002
  -1.5468079701226567E-002   4.4441937201435341E-003   5.7223355985175847E-002
  -1.3835012330912591E-002   4.0113959075332439E-003   5.7409635787245505E-002
  -2.3648607271021912E-002   6.0316462206124744E-003   5.3970165856069854E-002
  -2.1788426999481629E-002   5.8919488892842375E-003   5.3364350044748723E-002
  -1.9928246727941329E-002   5.6230917899471183E-003   5.2976804922290448E-002
  -1.8068066456401029E-002   5.2250749226004610E-003   5.2807530488694701E-002
  -1.6207886184860746E-002   4.6978982872447894E-003   5.2856526743962046E-002
  -2.6886736665634320E-002   6.9687561691815780E-003   4.9839735133460961E-002
  -2.4817127917594675E-002   6.7981338761703425E-003   4.9128537762497593E-002
  -2.2747519169555100E-002   6.4772005281291123E-003   4.8617926655670163E-002
  -2.0677910421515497E-002   6.0059561250578458E-003   4.8307901812978615E-002
  -1.8608301673475880E-002   5.3844006669565569E-003   4.8198463234422784E-002
  -9.1718895270169812E-003   2.6383911481099309E-003   6.6200990475045018E-002
  -8.0830165589981587E-003   2.4081756692570511E-003   6.5862057663577223E-002
  -6.9941435909793258E-003   2.2713154738838726E-003   6.5805564760020974E-002
  -5.9052706229605050E-003   2.2278105619906868E-003   6.6031511764376327E-002
  -4.8163976549416704E-003   2.2776609335775078E-003   6.6539898676643228E-002
  -1.1489680111631310E-002   3.3248935278216152E-003   6.1857790364273135E-002
  -1.0122362849785561E-002   2.9911786583358690E-003   6.1582130663156820E-002
  -8.7550455879398491E-003   2.7537292235763067E-003   6.1580919641782833E-002
  -7.3877283260941236E-003   2.6125452235427615E-003   6.1854157300151161E-002
  -6.0204110642483877E-003   2.5676266582351781E-003   6.2401843638261678E-002
  -1.3835012330912591E-002   4.0113959075332439E-003   5.7409635787245505E-002
  -1.2197242003409116E-002   3.5741816474148258E-003   5.7200159347726820E-002
  -1.0559471675905669E-002   3.2361429732686020E-003   5.7257140359781272E-002
  -8.9217013484022122E-003   2.9972798850944962E-003   5.7580578823408807E-002
  -7.2839310208987450E-003   2.8575923828928484E-003   5.8170474738609673E-002
  -1.6207886184860746E-002   4.6978982872447894E-003   5.2856526743962046E-002
  -1.4307654019868736E-002   4.1571846364937132E-003   5.2716143717287223E-002
  -1.2407421854876760E-002   3.7185567229608557E-003   5.2834226914016298E-002
  -1.0507189689884764E-002   3.3820145466466230E-003   5.3210776334149140E-002
  -8.6069575248927735E-003   3.1475581075505188E-003   5.3845791977686110E-002
  -1.8608301673475880E-002   5.3844006669565569E-003   4.8198463234422784E-002
  -1.6453598899164520E-002   4.7401876255725450E-003   4.8130083771837695E-002
  -1.4298896124853161E-002   4.2009704726532759E-003   4.8312179304487723E-002
  -1.2144193350541815E-002   3.7667492081981252E-003   4.8744749832372286E-002
  -9.9894905762304420E-003   3.4375238322083002E-003   4.9427795355491577E-002
  -4.8163976549416704E-003   2.2776609335775078E-003   6.6539898676643228E-002
  -4.1739432689958389E-003   2.4954736675176226E-003   6.5428348121375990E-002
  -3.5314888830499935E-003   2.9558558426859560E-003   6.4457065490672261E-002
  -2.8890344971041586E-003   3.6588074590823347E-003   6.3626050784532290E-002
  -2.2465801111583167E-003   4.6043285167062242E-003   6.2935304002955550E-002
  -6.0204110642483877E-003   2.5676266582351781E-003   6.2401843638261678E-002
  -5.2165745864816496E-003   2.7401108146938302E-003   6.1542455427925857E-002
  -4.4127381087149253E-003   3.2511349799599354E-003   6.0865563476667800E-002
  -3.6089016309481716E-003   4.1006991540323140E-003   6.0371167784488436E-002
  -2.8050651531814630E-003   5.2888033369119514E-003   6.0059268351386974E-002
  -7.2839310208987450E-003   2.8575923828928484E-003   5.8170474738609673E-002
  -6.2764841167964464E-003   2.9847479618701211E-003   5.7659219440783616E-002
  -5.2690372126941165E-003   3.5464141172335956E-003   5.7372688736550617E-002
  -4.2615903085917875E-003   4.5425908489824078E-003   5.7310882625910602E-002
  -3.2541434044894881E-003   5.9732781571179561E-003   5.7473801108863493E-002
  -8.6069575248927735E-003   3.1475581075505188E-003   5.3845791977686110E-002
  -7.3536718599401920E-003   3.2293851090463149E-003   5.3778640159949279E-002
  -6.1003861949875809E-003   3.8416932545069712E-003   5.3978441270320282E-002
  -4.8471005300349708E-003   4.9844825439331105E-003   5.4445195308798842E-002
  -3.5938148650823893E-003   6.6577529773239330E-003   5.5178902275385001E-002
  -9.9894905762304420E-003   3.4375238322083002E-003   4.9427795355491577E-002
  -8.4481378159128595E-003   3.4740222562226197E-003   4.9900717585423138E-002
  -6.9067850555952770E-003   4.1369723917809020E-003   5.0682821077977114E-002
  -5.3654322952777014E-003   5.4263742388828973E-003   5.1774105833153339E-002
  -3.8240795349601120E-003   7.3422277975297989E-003   5.3174571850951868E-002
  -2.2465801111583167E-003   4.6043285167062242E-003   6.2935304002955550E-002
  -2.4672823698411103E-003   5.8864526901127867E-003   5.8773426005503726E-002
  -2.6879846285239109E-003   7.5992136538572119E-003   5.4611088380045414E-002
  -2.9086868872067115E-003   9.7426114079390350E-003   5.0448291126580530E-002
  -3.1293891458895051E-003   1.2316645952358041E-002   4.6285034245109102E-002
  -2.8050651531814630E-003   5.2888033369119514E-003   6.0059268351386974E-002
  -3.0449728817340538E-003   6.8913474421222753E-003   5.6448539615882642E-002
  -3.2848806102866515E-003   8.9842313831865750E-003   5.2799859568644969E-002
  -3.5247883388391816E-003   1.1567455160104566E-002   4.9113228209674509E-002
  -3.7646960673918609E-003   1.4641018772877157E-002   4.5388645538970929E-002
  -3.2541434044894881E-003   5.9732781571179561E-003   5.7473801108863493E-002
  -3.5507482866385855E-003   7.8962421941317640E-003   5.4473924680823210E-002
  -3.8473531687876570E-003   1.0369249112516035E-002   5.1398605257323191E-002
  -4.1439580509367840E-003   1.3392298912270759E-002   4.8247842838363288E-002
  -4.4405629330858537E-003   1.6965391593396273E-002   4.5021637423943606E-002
  -3.5938148650823893E-003   6.6577529773239330E-003   5.5178902275385001E-002
  -3.9846085845546952E-003   8.9011369461411416E-003   5.2849581200325617E-002
  -4.3754023040269872E-003   1.1754266841845336E-002   5.0407325446079704E-002
  -4.7661960234992723E-003   1.5217142664436844E-002   4.7852135012647165E-002
  -5.1569897429715843E-003   1.9289764413915389E-002   4.5184009900028133E-002
  -3.8240795349601120E-003   7.3422277975297989E-003   5.3174571850951868E-002
  -4.3465537754823480E-003   9.9060316981506302E-003   5.1575509174389578E-002
  -4.8690280160045840E-003   1.3139284571174886E-002   4.9826020134914273E-002
  -5.3915022565267853E-003   1.7041986416602713E-002   4.7926104732525371E-002
  -5.9139764970490560E-003   2.1614137234434505E-002   4.5875762967223288E-002
  -2.0534430949735533E-002  -2.6790423380566863E-002   1.5934732334951240E-002
  -2.7229787580848208E-002  -2.1580043280544525E-002   2.7164824611347504E-002
  -3.3925144211960828E-002  -1.6465659113618858E-002   3.6988100109403343E-002
  -4.0620500843073490E-002  -1.1447270879790125E-002   4.5404558829118757E-002
  -4.7315857474186138E-002  -6.5248785790580910E-003   5.2414200770493802E-002
  -2.2728254837115644E-002  -3.4406675545435195E-002   1.5990471752875934E-002
  -3.0502679739133315E-002  -2.4327071188629951E-002   2.4523520096472240E-002
  -3.8277104641150868E-002  -1.5785511907228170E-002   3.2305248676599063E-002
  -4.6051529543168490E-002  -8.7819977012296886E-003   3.9335657493256362E-002
  -5.3825954445186022E-002  -3.3165285706348580E-003   4.5614746546444179E-002
  -2.7129850660481208E-002  -4.2022927710303498E-002   2.1636459998736896E-002
  -3.5327846818532779E-002  -2.7074099096715432E-002   2.6030415267226562E-002
  -4.3525842976584406E-002  -1.5105364700837454E-002   3.0328547787117688E-002
  -5.1723839134636053E-002  -6.1167245226695297E-003   3.4530857558410219E-002
  -5.9921835292687645E-002  -1.0817856221176370E-004   3.8637344581104280E-002
  -3.3739218419831858E-002  -4.9639179875171829E-002   3.2872697072533999E-002
  -4.1705288819046671E-002  -2.9821127004800857E-002   3.1685510123610441E-002
  -4.9671359218261345E-002  -1.4425217494446668E-002   3.1057997440959224E-002
  -5.7637429617476102E-002  -3.4514513441092597E-003   3.0990159024580303E-002
  -6.5603500016690824E-002   3.1001714462113722E-003   3.1481994874473715E-002
  -4.2556358115167892E-002  -5.7255432040040133E-002   4.9699182974267286E-002
  -4.9635005740674865E-002  -3.2568154912886393E-002   4.1488804665623824E-002
  -5.6713653366181782E-002  -1.3745070288056008E-002   3.4493597638123569E-002
  -6.3792300991688769E-002  -7.8617816554893763E-004   2.8713561891766534E-002
  -7.0870948617195700E-002   6.3085214546345636E-003   2.4148697426552845E-002
  -4.7315857474186138E-002  -6.5248785790580910E-003   5.2414200770493802E-002
  -4.6182147462500600E-002  -2.1231977303937388E-003   5.1175052323003956E-002
  -4.5048437450815070E-002   1.3330561472321284E-003   5.0288009135670830E-002
  -4.3914727439129539E-002   3.8438830538196113E-003   4.9753071208494662E-002
  -4.2781017427444001E-002   5.4092829893684913E-003   4.9570238541475353E-002
  -5.3825954445186022E-002  -3.3165285706348580E-003   4.5614746546444179E-002
  -5.2296276188968413E-002   8.8341943067106465E-004   4.3864465129721544E-002
  -5.0766597932750783E-002   4.0903702488027799E-003   4.2554014941906096E-002
  -4.9236919676533167E-002   6.3043238837602218E-003   4.1683395982998174E-002
  -4.7707241420315495E-002   7.5252803355433384E-003   4.1252608252997397E-002
  -5.9921835292687645E-002  -1.0817856221176370E-004   3.8637344581104280E-002
  -5.7908462823187401E-002   3.8900365917359098E-003   3.6328359983012884E-002
  -5.5895090353687192E-002   6.8476843503733689E-003   3.4546932582579383E-002
  -5.3881717884186962E-002   8.7647647137008306E-003   3.3293062379803617E-002
  -5.1868345414686733E-002   9.6412776817180190E-003   3.2566749374685677E-002
  -6.5603500016690824E-002   3.1001714462113722E-003   3.1481994874473715E-002
  -6.3018707365157592E-002   6.8966537528007341E-003   2.8566736882878006E-002
  -6.0433914713624304E-002   9.6049984519440447E-003   2.6266762057690497E-002
  -5.7849122062091043E-002   1.1225205543641356E-002   2.4582070398911179E-002
  -5.5264329410557846E-002   1.1757275027892811E-002   2.3512661906540257E-002
  -7.0870948617195700E-002   6.3085214546345636E-003   2.4148697426552845E-002
  -6.7627009814878916E-002   9.9032709138655306E-003   2.0579595829316732E-002
  -6.4383071012562160E-002   1.2362312553514512E-002   1.7713503367239508E-002
  -6.1139132210245375E-002   1.3685646373581998E-002   1.5550420040320867E-002
  -5.7895193407928591E-002   1.3873272374067491E-002   1.4090345848561059E-002
  -4.2781017427444001E-002   5.4092829893684913E-003   4.9570238541475353E-002
  -4.0891203661443137E-002   6.3517909397302896E-003   4.9049068694304532E-002
  -3.9001389895442315E-002   6.9939418907564166E-003   4.8829092408151115E-002
  -3.7111576129441486E-002   7.3357358424466501E-003   4.8910309683015046E-002
  -3.5221762363440628E-002   7.3771727948009902E-003   4.9292720518896660E-002
  -4.7707241420315495E-002   7.5252803355433384E-003   4.1252608252997397E-002
  -4.5566606383875774E-002   8.1416066008770105E-003   4.1187876019218056E-002
  -4.3425971347436101E-002   8.5416696764863687E-003   4.1323592765298914E-002
  -4.1285336310996415E-002   8.7254695623714337E-003   4.1659758491240019E-002
  -3.9144701274556659E-002   8.6930062585318102E-003   4.2196373197041392E-002
  -5.1868345414686733E-002   9.6412776817180190E-003   3.2566749374685677E-002
  -4.9577633688965450E-002   9.9314222620237175E-003   3.3042548563909202E-002
  -4.7286921963244119E-002   1.0089397462216321E-002   3.3618052151835623E-002
  -4.4996210237522795E-002   1.0115203282295995E-002   3.4293260138465176E-002
  -4.2705498511801561E-002   1.0008839722262464E-002   3.5068172523797597E-002
  -5.5264329410557846E-002   1.1757275027892811E-002   2.3512661906540257E-002
  -5.2924285576712068E-002   1.1721237923170376E-002   2.4613086328378053E-002
  -5.0584241742866388E-002   1.1637125247946273E-002   2.5712470567761492E-002
  -4.8244197909020750E-002   1.1504937002220668E-002   2.6810814624690760E-002
  -4.5904154075174994E-002   1.1324673185993145E-002   2.7908118499165732E-002
  -5.7895193407928591E-002   1.3873272374067491E-002   1.4090345848561059E-002
  -5.5606562047115782E-002   1.3511053584317090E-002   1.5899489312624471E-002
  -5.3317930686302945E-002   1.3184853033676211E-002   1.7606848013076298E-002
  -5.1029299325490163E-002   1.2894670722145309E-002   1.9212421949916542E-002
  -4.8740667964677298E-002   1.2640506649723826E-002   2.0716211123145589E-002
  -3.5221762363440628E-002   7.3771727948009902E-003   4.9292720518896660E-002
  -3.3138005938989037E-002   7.2700905952148842E-003   4.9096669777952906E-002
  -3.1054249514537474E-002   7.1663270910829191E-003   4.9122488633398909E-002
  -2.8970493090085890E-002   7.0658822824050463E-003   4.9370177085234973E-002
  -2.6886736665634320E-002   6.9687561691815780E-003   4.9839735133460961E-002
  -3.9144701274556659E-002   8.6930062585318102E-003   4.2196373197041392E-002
  -3.6864761955752265E-002   8.5453905585270162E-003   4.2331415974355774E-002
  -3.4584822636947864E-002   8.3837332559163480E-003   4.2636954943985950E-002
  -3.2304883318143421E-002   8.2080343506996667E-003   4.3112990105931864E-002
  -3.0024943999339027E-002   8.0182938428769446E-003   4.3759521460193629E-002
  -4.2705498511801561E-002   1.0008839722262464E-002   3.5068172523797597E-002
  -4.0280749702718464E-002   9.8206905218392593E-003   3.5516948521310099E-002
  -3.7856000893635347E-002   9.6011394207499295E-003   3.6084847307064238E-002
  -3.5431252084552299E-002   9.3501864189944502E-003   3.6771868881059967E-002
  -3.3006503275469140E-002   9.0678315165724221E-003   3.7578013243297237E-002
  -4.5904154075174994E-002   1.1324673185993145E-002   2.7908118499165732E-002
  -4.3385969179887490E-002   1.1095990485151613E-002   2.8653267418816061E-002
  -4.0867784284599938E-002   1.0818545585583546E-002   2.9466165722633750E-002
  -3.8349599389312407E-002   1.0492338487288986E-002   3.0346813410618775E-002
  -3.5831414494024882E-002   1.0117369190267900E-002   3.1295210482771035E-002
  -4.8740667964677298E-002   1.2640506649723826E-002   2.0716211123145589E-002
  -4.6180420387259474E-002   1.2371290448463745E-002   2.1740372666873342E-002
  -4.3620172809841651E-002   1.2035951750416995E-002   2.2780910190694337E-002
  -4.1059925232423855E-002   1.1634490555583646E-002   2.3837823694608629E-002
  -3.8499677655006004E-002   1.1166906863963266E-002   2.4911113178616051E-002
  -2.6886736665634320E-002   6.9687561691815780E-003   4.9839735133460961E-002
  -2.4817127917594675E-002   6.7981338761703425E-003   4.9128537762497593E-002
  -2.2747519169555100E-002   6.4772005281291123E-003   4.8617926655670163E-002
  -2.0677910421515497E-002   6.0059561250578458E-003   4.8307901812978615E-002
  -1.8608301673475880E-002   5.3844006669565569E-003   4.8198463234422784E-002
  -3.0024943999339027E-002   8.0182938428769446E-003   4.3759521460193629E-002
  -2.7769770328693738E-002   7.7551858840566590E-003   4.3048448628065006E-002
  -2.5514596658048415E-002   7.3593846258466628E-003   4.2507919377011760E-002
  -2.3259422987403095E-002   6.8308900682468969E-003   4.2137933707034197E-002
  -2.1004249316757789E-002   6.1697022112575661E-003   4.1938491618132123E-002
  -3.3006503275469140E-002   9.0678315165724221E-003   3.7578013243297237E-002
  -3.0595807365278466E-002   8.7122378919429200E-003   3.6884682705643337E-002
  -2.8185111455087737E-002   8.2415687235639912E-003   3.6331853066004838E-002
  -2.5774415544896959E-002   7.6558240114360590E-003   3.5919524324381655E-002
  -2.3363719634706286E-002   6.9550037555586863E-003   3.5647696480773677E-002
  -3.5831414494024882E-002   1.0117369190267900E-002   3.1295210482771035E-002
  -3.3295239027349023E-002   9.6692898998292642E-003   3.0637239995232709E-002
  -3.0759063560673199E-002   9.1237528212815416E-003   3.0089727722649263E-002
  -2.8222888093997266E-002   8.4807579546252211E-003   2.9652673665020887E-002
  -2.5686712627321456E-002   7.7403052998596955E-003   2.9326077822347404E-002
  -3.8499677655006004E-002   1.1166906863963266E-002   2.4911113178616051E-002
  -3.5868065314905273E-002   1.0626341907715553E-002   2.4306120496833228E-002
  -3.3236452974804626E-002   1.0005936918999120E-002   2.3781543346945322E-002
  -3.0604840634703923E-002   9.3056918978142791E-003   2.3337381728951861E-002
  -2.7973228294603220E-002   8.5256068441608157E-003   2.2973635642853263E-002
  -1.8608301673475880E-002   5.3844006669565569E-003   4.8198463234422784E-002
  -1.6453598899164520E-002   4.7401876255725450E-003   4.8130083771837695E-002
  -1.4298896124853161E-002   4.2009704726532759E-003   4.8312179304487723E-002
  -1.2144193350541815E-002   3.7667492081981252E-003   4.8744749832372286E-002
  -9.9894905762304420E-003   3.4375238322083002E-003   4.9427795355491577E-002
  -2.1004249316757789E-002   6.1697022112575661E-003   4.1938491618132123E-002
  -1.8650603767821648E-002   5.4777681476874673E-003   4.1943155647616692E-002
  -1.6296958218885431E-002   4.8570349703446203E-003   4.2095230231116165E-002
  -1.3943312669949279E-002   4.3075026792296633E-003   4.2394715368630334E-002
  -1.1589667121013073E-002   3.8291712743421247E-003   4.2841611060159490E-002
  -2.3363719634706286E-002   6.9550037555586863E-003   3.5647696480773677E-002
  -2.0914195752365163E-002   6.2153486698020843E-003   3.5691609000090746E-002
  -1.8464671870024117E-002   5.5130994680359924E-003   3.5779867632202811E-002
  -1.6015147987683012E-002   4.8482561502606533E-003   3.5912472377109733E-002
  -1.3565624105341956E-002   4.2208187164758937E-003   3.6089423234811790E-002
  -2.5686712627321456E-002   7.7403052998596955E-003   2.9326077822347404E-002
  -2.3244374852795381E-002   6.9529291919168540E-003   2.9375443829259967E-002
  -2.0802037078269248E-002   6.1691639657275726E-003   2.9366091507747612E-002
  -1.8359699303743184E-002   5.3890096212918064E-003   2.9298020857810417E-002
  -1.5917361529217036E-002   4.6124661586097460E-003   2.9171231879448117E-002
  -2.7973228294603220E-002   8.5256068441608157E-003   2.2973635642853263E-002
  -2.5641141069112028E-002   7.6905097140316792E-003   2.2994660135124412E-002
  -2.3309053843620822E-002   6.8252284634187921E-003   2.2853901857750603E-002
  -2.0976966618129610E-002   5.9297630923228692E-003   2.2551360810732030E-002
  -1.8644879392638425E-002   5.0041136007434872E-003   2.2087036994068554E-002
  -9.9894905762304420E-003   3.4375238322083002E-003   4.9427795355491577E-002
  -8.4481378159128595E-003   3.4740222562226197E-003   4.9900717585423138E-002
  -6.9067850555952770E-003   4.1369723917809020E-003   5.0682821077977114E-002
  -5.3654322952777014E-003   5.4263742388828973E-003   5.1774105833153339E-002
  -3.8240795349601120E-003   7.3422277975297989E-003   5.3174571850951868E-002
  -1.1589667121013073E-002   3.8291712743421247E-003   4.2841611060159490E-002
  -9.7241341792318886E-003   3.6692618998516169E-003   4.3549799212441731E-002
  -7.8586012374506908E-003   4.0749956999287795E-003   4.4597166465028815E-002
  -5.9930682956694965E-003   5.0463726745720097E-003   4.5983712817920686E-002
  -4.1275353538883092E-003   6.5833928237828410E-003   4.7709438271117732E-002
  -1.3565624105341956E-002   4.2208187164758937E-003   3.6089423234811790E-002
  -1.1345913144414660E-002   3.8645015434812802E-003   3.6972068772467170E-002
  -9.1262021834873086E-003   4.0130190080763239E-003   3.8223891248110209E-002
  -6.9064912225600145E-003   4.6663711102612332E-003   3.9844890661740434E-002
  -4.6867802616327170E-003   5.8245578500356054E-003   4.1835067013357957E-002
  -1.5917361529217036E-002   4.6124661586097460E-003   2.9171231879448117E-002
  -1.3313474711461083E-002   4.0597411871107214E-003   3.0167526265499796E-002
  -1.0709587893705075E-002   3.9510423162241459E-003   3.1562995427221477E-002
  -8.1057010759491236E-003   4.2863695459498460E-003   3.3357639364612682E-002
  -5.5018142581931134E-003   5.0657228762886197E-003   3.5551458077674451E-002
  -1.8644879392638425E-002   5.0041136007434872E-003   2.2087036994068554E-002
  -1.5626818880371263E-002   4.2549808307399961E-003   2.3136171691539253E-002
  -1.2608758368104073E-002   3.8890656243715516E-003   2.4614479002362188E-002
  -9.5906978558369105E-003   3.9063679816391320E-003   2.6521958926537720E-002
  -6.5726373435697205E-003   4.3068879025413009E-003   2.8858611464065986E-002
  -3.8240795349601120E-003   7.3422277975297989E-003   5.3174571850951868E-002
  -4.3465537754823480E-003   9.9060316981506302E-003   5.1575509174389578E-002
  -4.8690280160045840E-003   1.3139284571174886E-002   4.9826020134914273E-002
  -5.3915022565267853E-003   1.7041986416602713E-002   4.7926104732525371E-002
  -5.9139764970490560E-003   2.1614137234434505E-002   4.5875762967223288E-002
  -4.1275353538883092E-003   6.5833928237828410E-003   4.7709438271117732E-002
  -4.6980164956613446E-003   9.0003400611243234E-003   4.6888835954450869E-002
  -5.2684976374344702E-003   1.2611498300160645E-002   4.6122646198195894E-002
  -5.8389787792076375E-003   1.7416867540891896E-002   4.5410869002352389E-002
  -6.4094599209806868E-003   2.3416447783318084E-002   4.4753504366920493E-002
  -4.6867802616327170E-003   5.8245578500356054E-003   4.1835067013357957E-002
  -5.1004293813316712E-003   8.0946484240979610E-003   4.2317687085878297E-002
  -5.5140785010306531E-003   1.2083712029146168E-002   4.3059558642134940E-002
  -5.9277276207296472E-003   1.7791748665180965E-002   4.4060681682128060E-002
  -6.3413767404285892E-003   2.5218758332201219E-002   4.5321056205857801E-002
  -5.5018142581931134E-003   5.0657228762886197E-003   3.5551458077674451E-002
  -5.5537924324931456E-003   7.1889567870716264E-003   3.7862062568672326E-002
  -5.6057706067932046E-003   1.1555925758131809E-002   4.0636757466731718E-002
  -5.6577487810933070E-003   1.8166629789469757E-002   4.3875542771852842E-002
  -5.7097269553932975E-003   2.7021068881084465E-002   4.7578418484035101E-002
  -6.5726373435697205E-003   4.3068879025413009E-003   2.8858611464065986E-002
  -6.0581056491458840E-003   6.2832651500451808E-003   3.3521962402832783E-002
  -5.5435739547220475E-003   1.1028139487117866E-002   3.8854242671986394E-002
  -5.0290422602982388E-003   1.8541510913759267E-002   4.4855452271526236E-002
  -4.5145105658743745E-003   2.8823379429967932E-002   5.1525591201452059E-002
  -4.2556358115167892E-002  -5.7255432040040133E-002   4.9699182974267286E-002
  -4.9635005740674865E-002  -3.2568154912886393E-002   4.1488804665623824E-002
  -5.6713653366181782E-002  -1.3745070288056008E-002   3.4493597638123569E-002
  -6.3792300991688769E-002  -7.8617816554893763E-004   2.8713561891766534E-002
  -7.0870948617195700E-002   6.3085214546345636E-003   2.4148697426552845E-002
  -4.7149059626776235E-002  -4.8450587783886723E-002   2.4211390481856832E-002
  -5.3676035283451273E-002  -2.5419031252528868E-002   2.0225522055633299E-002
  -6.0203010940126353E-002  -8.0605604362663091E-003   1.6127826285930263E-002
  -6.6729986596801349E-002   3.6248246649011988E-003   1.1918303172747849E-002
  -7.3256962253476401E-002   9.6371240509733336E-003   7.5969527160860417E-003
  -4.1085112834944190E-002  -3.9645743527733313E-002  -3.0276759999636887E-003
  -4.8387415147409907E-002  -1.8269907592171397E-002  -2.5979277565390257E-003
  -5.5689717459875672E-002  -2.3760505844765759E-003  -3.6070054812166671E-003
  -6.2992019772341368E-002   8.0358274953512537E-003  -6.0549091739963597E-003
  -7.0294322084807140E-002   1.2965726647312215E-002  -9.9416388348778639E-003
  -2.4364517739671434E-002  -3.0840899271579972E-002  -3.2018016471194247E-002
  -3.3769145332550626E-002  -1.1120783931814052E-002  -2.6981544770893314E-002
  -4.3173772925429704E-002   3.3084592673132233E-003  -2.4710897663317251E-002
  -5.2578400518308865E-002   1.2446830325801433E-002  -2.5206075148465873E-002
  -6.1983028111187999E-002   1.6294329243651151E-002  -2.8467077226339049E-002
   3.0127256590417595E-003  -2.2036055015426492E-002  -6.2759630931834787E-002
  -9.8212258388733487E-003  -3.9716602714564564E-003  -5.2925328987429410E-002
  -2.2655177336788568E-002   8.9929691191027727E-003  -4.7183850260371252E-002
  -3.5489128834703731E-002   1.6857833156251591E-002  -4.5535194750660632E-002
  -4.8323080332618895E-002   1.9622931839989977E-002  -4.7979362458297536E-002
  -7.0870948617195700E-002   6.3085214546345636E-003   2.4148697426552845E-002
  -6.7627009814878916E-002   9.9032709138655306E-003   2.0579595829316732E-002
  -6.4383071012562160E-002   1.2362312553514512E-002   1.7713503367239508E-002
  -6.1139132210245375E-002   1.3685646373581998E-002   1.5550420040320867E-002
  -5.7895193407928591E-002   1.3873272374067491E-002   1.4090345848561059E-002
  -7.3256962253476401E-002   9.6371240509733336E-003   7.5969527160860417E-003
  -6.9900948479573219E-002   1.2375909230676954E-002   7.7807455016157823E-003
  -6.6544934705669967E-002   1.4240751712738323E-002   7.4856790951595004E-003
  -6.3188920931766729E-002   1.5231651497157651E-002   6.7117534967172654E-003
  -5.9832907157863505E-002   1.5348608583934720E-002   5.4589687062894798E-003
  -7.0294322084807140E-002   1.2965726647312215E-002  -9.9416388348778639E-003
  -6.8008101666462123E-002   1.4848547547488308E-002  -5.7431865446430502E-003
  -6.5721881248117037E-002   1.6119190871962182E-002  -3.2054617735384205E-003
  -6.3435660829771978E-002   1.6777656620733133E-002  -2.3284645215646115E-003
  -6.1149440411426947E-002   1.6823944793801920E-002  -3.1121947887210039E-003
  -6.1983028111187999E-002   1.6294329243651151E-002  -2.8467077226339049E-002
  -6.1948469375545705E-002   1.7321185864299753E-002  -1.9992200309459265E-002
  -6.1913910639903431E-002   1.7997630031185628E-002  -1.4359919238854256E-002
  -6.1879351904261137E-002   1.8323661744308953E-002  -1.1570234014524698E-002
  -6.1844793168618892E-002   1.8299281003669329E-002  -1.1623144636469674E-002
  -4.8323080332618895E-002   1.9622931839989977E-002  -4.7979362458297536E-002
  -5.1722051606824027E-002   1.9793824181111197E-002  -3.4966295792833002E-002
  -5.5121022881029047E-002   1.9876069190409712E-002  -2.5977693300788016E-002
  -5.8519994155234067E-002   1.9869666867884349E-002  -2.1013554982163059E-002
  -6.1918965429439199E-002   1.9774617213536350E-002  -2.0073880836957381E-002
  -5.7895193407928591E-002   1.3873272374067491E-002   1.4090345848561059E-002
  -5.5606562047115782E-002   1.3511053584317090E-002   1.5899489312624471E-002
  -5.3317930686302945E-002   1.3184853033676211E-002   1.7606848013076298E-002
  -5.1029299325490163E-002   1.2894670722145309E-002   1.9212421949916542E-002
  -4.8740667964677298E-002   1.2640506649723826E-002   2.0716211123145589E-002
  -5.9832907157863505E-002   1.5348608583934720E-002   5.4589687062894798E-003
  -5.7712191676917199E-002   1.5023217970140751E-002   7.8357943182741085E-003
  -5.5591476195970761E-002   1.4687074652846591E-002   9.9785729341373558E-003
  -5.3470760715024296E-002   1.4340178632052617E-002   1.1887304553879263E-002
  -5.1350045234077962E-002   1.3982529907758445E-002   1.3561989177499789E-002
  -6.1149440411426947E-002   1.6823944793801920E-002  -3.1121947887210039E-003
  -5.9328903042856915E-002   1.6535382355964440E-002  -2.1445797142465028E-004
  -5.7508365674286827E-002   1.6189296272017144E-002   2.3169696172405593E-003
  -5.5687828305716808E-002   1.5785686541959762E-002   4.4820879772740248E-003
  -5.3867290937146720E-002   1.5324553165793120E-002   6.2808971086766863E-003
  -6.1844793168618892E-002   1.8299281003669329E-002  -1.1623144636469674E-002
  -6.0456696144935040E-002   1.8047546741788364E-002  -8.2512675564718960E-003
  -5.9068599121251252E-002   1.7691517891187555E-002  -5.3779619376149463E-003
  -5.7680502097567421E-002   1.7231194451867486E-002  -3.0032277798990150E-003
  -5.6292405073883611E-002   1.6666576423827711E-002  -1.1270650833244203E-003
  -6.1918965429439199E-002   1.9774617213536350E-002  -2.0073880836957381E-002
  -6.1095570983151548E-002   1.9559711127611790E-002  -1.6274634436867441E-002
  -6.0272176536863897E-002   1.9193739510358132E-002  -1.3106221730427858E-002
  -5.9448782090576247E-002   1.8676702361774558E-002  -1.0568642717640075E-002
  -5.8625387644288596E-002   1.8008599681862525E-002  -8.6618973985028713E-003
  -4.8740667964677298E-002   1.2640506649723826E-002   2.0716211123145589E-002
  -4.6180420387259474E-002   1.2371290448463745E-002   2.1740372666873342E-002
  -4.3620172809841651E-002   1.2035951750416995E-002   2.2780910190694337E-002
  -4.1059925232423855E-002   1.1634490555583646E-002   2.3837823694608629E-002
  -3.8499677655006004E-002   1.1166906863963266E-002   2.4911113178616051E-002
  -5.1350045234077962E-002   1.3982529907758445E-002   1.3561989177499789E-002
  -4.8735905852796288E-002   1.3586147103635871E-002   1.4649379134858698E-002
  -4.6121766471514627E-002   1.3123048843356952E-002   1.5828176719852011E-002
  -4.3507627090232953E-002   1.2593235126921325E-002   1.7098381932479936E-002
  -4.0893487708951237E-002   1.1996705954329667E-002   1.8459994772742239E-002
  -5.3867290937146720E-002   1.5324553165793120E-002   6.2808971086766863E-003
  -5.1124228104459879E-002   1.4801003758808162E-002   7.4309225202964513E-003
  -4.8381165271772997E-002   1.4210145936296797E-002   8.7473872070925884E-003
  -4.5638102439086191E-002   1.3551979698259393E-002   1.0230291169064293E-002
  -4.2895039606399274E-002   1.2826505044695957E-002   1.1879634406211953E-002
  -5.6292405073883611E-002   1.6666576423827711E-002  -1.1270650833244203E-003
  -5.3345387142250178E-002   1.6015860413980093E-002   8.5002823187123322E-005
  -5.0398369210616745E-002   1.5297243029236476E-002   1.5385416524158549E-003
  -4.7451351278983339E-002   1.4510724269597323E-002   3.2335514043622324E-003
  -4.4504333347349878E-002   1.3656304135062025E-002   5.1700320790254509E-003
  -5.8625387644288596E-002   1.8008599681862525E-002  -8.6618973985028713E-003
  -5.5399382966167310E-002   1.7230717069152357E-002  -7.3883799564697927E-003
  -5.2173378288045913E-002   1.6384340122176627E-002  -5.7983599441774336E-003
  -4.8947373609924572E-002   1.5469468840935315E-002  -3.8918373616274871E-003
  -4.5721368931803230E-002   1.4486103225428648E-002  -1.6688122088179824E-003
  -3.8499677655006004E-002   1.1166906863963266E-002   2.4911113178616051E-002
  -3.5868065314905273E-002   1.0626341907715553E-002   2.4306120496833228E-002
  -3.3236452974804626E-002   1.0005936918999120E-002   2.3781543346945322E-002
  -3.0604840634703923E-002   9.3056918978142791E-003   2.3337381728951861E-002
  -2.7973228294603220E-002   8.5256068441608157E-003   2.2973635642853263E-002
  -4.0893487708951237E-002   1.1996705954329667E-002   1.8459994772742239E-002
  -3.8237013945506396E-002   1.1347483934244951E-002   1.8132451003257388E-002
  -3.5580540182061457E-002   1.0659591675330177E-002   1.7774214548566175E-002
  -3.2924066418616608E-002   9.9330291775862126E-003   1.7385285408668516E-002
  -3.0267592655171677E-002   9.1677964410122881E-003   1.6965663583564716E-002
  -4.2895039606399274E-002   1.2826505044695957E-002   1.1879634406211953E-002
  -4.0324812636711116E-002   1.2068625960773988E-002   1.1870709342663932E-002
  -3.7754585667023076E-002   1.1313246431661109E-002   1.1719983376808171E-002
  -3.5184358697334953E-002   1.0560366457357698E-002   1.1427456508645371E-002
  -3.2614131727646871E-002   9.8099860378635384E-003   1.0993128738175012E-002
  -4.4504333347349878E-002   1.3656304135062025E-002   5.1700320790254509E-003
  -4.2131461388519573E-002   1.2789767987302872E-002   5.5208955150525610E-003
  -3.9758589429689302E-002   1.1966901187991937E-002   5.6188498316717198E-003
  -3.7385717470859059E-002   1.1187703737129297E-002   5.4638950288824258E-003
  -3.5012845512028726E-002   1.0452175634715233E-002   5.0560311066844763E-003
  -4.5721368931803230E-002   1.4486103225428648E-002  -1.6688122088179824E-003
  -4.3656960200931794E-002   1.3510910013832311E-002  -9.1699047957594093E-004
  -4.1592551470060302E-002   1.2620555944323208E-002  -5.2918608684365820E-004
  -3.9528142739188810E-002   1.1815041016901479E-002  -5.0539903062050973E-004
  -3.7463734008317373E-002   1.1094365231566483E-002  -8.4562931090692572E-004
  -2.7973228294603220E-002   8.5256068441608157E-003   2.2973635642853263E-002
  -2.5641141069112028E-002   7.6905097140316792E-003   2.2994660135124412E-002
  -2.3309053843620822E-002   6.8252284634187921E-003   2.2853901857750603E-002
  -2.0976966618129610E-002   5.9297630923228692E-003   2.2551360810732030E-002
  -1.8644879392638425E-002   5.0041136007434872E-003   2.2087036994068554E-002
  -3.0267592655171677E-002   9.1677964410122881E-003   1.6965663583564716E-002
  -2.8079850455236227E-002   8.3866164907650531E-003   1.6940246953517535E-002
  -2.5892108255300875E-002   7.6122123520002138E-003   1.6787923042003688E-002
  -2.3704366055365501E-002   6.8445840247175899E-003   1.6508691849022872E-002
  -2.1516623855430073E-002   6.0837315089177224E-003   1.6102553374575834E-002
  -3.2614131727646871E-002   9.8099860378635384E-003   1.0993128738175012E-002
  -3.0535859065089120E-002   9.0827232674983993E-003   1.0958230917775674E-002
  -2.8457586402531442E-002   8.3991962405815385E-003   1.0831301304087423E-002
  -2.6379313739973792E-002   7.7594049571124250E-003   1.0612339897110724E-002
  -2.4301041077416125E-002   7.1633494170918466E-003   1.0301346696845348E-002
  -3.5012845512028726E-002   1.0452175634715233E-002   5.0560311066844763E-003
  -3.3009166898670596E-002   9.7788300442318704E-003   5.0486120278985386E-003
  -3.1005488285312549E-002   9.1861801291626896E-003   4.9840366440021371E-003
  -2.9001809671954426E-002   8.6742258895077581E-003   4.8623049549947495E-003
  -2.6998131058596379E-002   8.2429673252659708E-003   4.6834169608770820E-003
  -3.7463734008317373E-002   1.1094365231566483E-002  -8.4562931090692572E-004
  -3.5499773955980807E-002   1.0474936820964897E-002  -7.8860971611355302E-004
  -3.3535813903644185E-002   9.9731640177441183E-003  -7.5387093825285412E-004
  -3.1571853851307619E-002   9.5890468219016062E-003  -7.4141297732482903E-004
  -2.9607893798970997E-002   9.3225852334402060E-003  -7.5123583332870059E-004
  -1.8644879392638425E-002   5.0041136007434872E-003   2.2087036994068554E-002
  -1.5626818880371263E-002   4.2549808307399961E-003   2.3136171691539253E-002
  -1.2608758368104073E-002   3.8890656243715516E-003   2.4614479002362188E-002
  -9.5906978558369105E-003   3.9063679816391320E-003   2.6521958926537720E-002
  -6.5726373435697205E-003   4.3068879025413009E-003   2.8858611464065986E-002
  -2.1516623855430073E-002   6.0837315089177224E-003   1.6102553374575834E-002
  -1.8334755687727231E-002   5.4186204650196190E-003   1.7257612702913760E-002
  -1.5152887520024583E-002   4.9382165534430922E-003   1.8311114728770145E-002
  -1.1971019352321768E-002   4.6425197741880100E-003   1.9263059452145473E-002
  -8.7891511846190928E-003   4.5315301272543795E-003   2.0113446873039620E-002
  -2.4301041077416125E-002   7.1633494170918466E-003   1.0301346696845348E-002
  -2.1486095170111366E-002   6.5822600992992142E-003   1.1363820224736837E-002
  -1.8671149262806719E-002   5.9873674825140638E-003   1.1794006534312909E-002
  -1.5856203355502044E-002   5.3786715667369957E-003   1.1591905625574446E-002
  -1.3041257448197313E-002   4.7561723519679577E-003   1.0757517498520747E-002
  -2.6998131058596379E-002   8.2429673252659708E-003   4.6834169608770820E-003
  -2.5080837327523493E-002   7.7458997335789342E-003   5.4547942570083649E-003
  -2.3163543596450689E-002   7.0365184115855420E-003   5.0631544189906098E-003
  -2.1246249865377771E-002   6.1148233592863716E-003   3.5084974468243633E-003
  -1.9328956134304999E-002   4.9808145766810641E-003   7.9082334050933206E-004
  -2.9607893798970997E-002   9.3225852334402060E-003  -7.5123583332870059E-004
  -2.9118982159963669E-002   8.9095393678582102E-003  -4.6946520027163485E-004
  -2.8630070520956397E-002   8.0856693406566871E-003  -1.8814416171970549E-003
  -2.8141158881949097E-002   6.8509751518353312E-003  -4.9871650841044057E-003
  -2.7652247242941796E-002   5.2054568013943925E-003  -9.7866356009945754E-003
  -6.5726373435697205E-003   4.3068879025413009E-003   2.8858611464065986E-002
  -6.0581056491458840E-003   6.2832651500451808E-003   3.3521962402832783E-002
  -5.5435739547220475E-003   1.1028139487117866E-002   3.8854242671986394E-002
  -5.0290422602982388E-003   1.8541510913759267E-002   4.4855452271526236E-002
  -4.5145105658743745E-003   2.8823379429967932E-002   5.1525591201452059E-002
  -8.7891511846190928E-003   4.5315301272543795E-003   2.0113446873039620E-002
  -7.5314739992530105E-003   5.7520988499544790E-003   2.5438874898089991E-002
  -6.2737968138870948E-003   9.4510771795992821E-003   3.1581664574638180E-002
  -5.0161196285212761E-003   1.5628465116189101E-002   3.8541815902684518E-002
  -3.7584424431552077E-003   2.4284262659723721E-002   4.6319328882228561E-002
  -1.3041257448197313E-002   4.7561723519679577E-003   1.0757517498520747E-002
  -1.0892002450777746E-002   5.2209325498630554E-003   1.6454935127231202E-002
  -8.7427474533581795E-003   7.8740148720806008E-003   2.3118146728550878E-002
  -6.5934924559386057E-003   1.2715419318618994E-002   3.0747152302479840E-002
  -4.4442374585190458E-003   1.9745145889479732E-002   3.9341951849018786E-002
  -1.9328956134304999E-002   4.9808145766810641E-003   7.9082334050933206E-004
  -1.6139691003720300E-002   4.6897662497719927E-003   6.5701430902562058E-003
  -1.2950425873135482E-002   6.2969525645619681E-003   1.3463689133723870E-002
  -9.7611607425506525E-003   9.8023735210494133E-003   2.1471461470912848E-002
  -6.5718956119659652E-003   1.5206029119235298E-002   3.0593460101822151E-002
  -2.7652247242941796E-002   5.2054568013943925E-003  -9.7866356009945754E-003
  -2.3274539658080240E-002   4.1585999496811521E-003  -4.2155012128345937E-003
  -1.8896832073218739E-002   4.7198902570432799E-003   2.6182917901575731E-003
  -1.4519124488357210E-002   6.8893277234793743E-003   1.0714743407982751E-002
  -1.0141416903495681E-002   1.0666912348991531E-002   2.0073853640640404E-002
 </DataArray>
 </PointData>
 </Piece>
 </UnstructuredGrid>
 </VTKFile>
