 <VTKFile type="UnstructuredGrid"  version="0.1"   >
 <UnstructuredGrid>
 <Piece  NumberOfPoints="          1600 "  NumberOfCells="         1024 ">
 <Points>
 <DataArray  type="Float64" NumberOfComponents="3"  format="ascii" >
   0.0000000000000000        0.0000000000000000        0.0000000000000000     
   3.1250000000000000E-002   0.0000000000000000        0.0000000000000000     
   6.2500000000000000E-002   0.0000000000000000        0.0000000000000000     
   9.3750000000000000E-002   0.0000000000000000        0.0000000000000000     
  0.12500000000000000        0.0000000000000000        0.0000000000000000     
   0.0000000000000000        3.1250000000000000E-002   0.0000000000000000     
   3.1250000000000000E-002   3.1250000000000000E-002   0.0000000000000000     
   6.2500000000000000E-002   3.1250000000000000E-002   0.0000000000000000     
   9.3750000000000000E-002   3.1250000000000000E-002   0.0000000000000000     
  0.12500000000000000        3.1250000000000000E-002   0.0000000000000000     
   0.0000000000000000        6.2500000000000000E-002   0.0000000000000000     
   3.1250000000000000E-002   6.2500000000000000E-002   0.0000000000000000     
   6.2500000000000000E-002   6.2500000000000000E-002   0.0000000000000000     
   9.3750000000000000E-002   6.2500000000000000E-002   0.0000000000000000     
  0.12500000000000000        6.2500000000000000E-002   0.0000000000000000     
   0.0000000000000000        9.3750000000000000E-002   0.0000000000000000     
   3.1250000000000000E-002   9.3750000000000000E-002   0.0000000000000000     
   6.2500000000000000E-002   9.3750000000000000E-002   0.0000000000000000     
   9.3750000000000000E-002   9.3750000000000000E-002   0.0000000000000000     
  0.12500000000000000        9.3750000000000000E-002   0.0000000000000000     
   0.0000000000000000       0.12500000000000000        0.0000000000000000     
   3.1250000000000000E-002  0.12500000000000000        0.0000000000000000     
   6.2500000000000000E-002  0.12500000000000000        0.0000000000000000     
   9.3750000000000000E-002  0.12500000000000000        0.0000000000000000     
  0.12500000000000000       0.12500000000000000        0.0000000000000000     
  0.12500000000000000        0.0000000000000000        0.0000000000000000     
  0.15625000000000000        0.0000000000000000        0.0000000000000000     
  0.18750000000000000        0.0000000000000000        0.0000000000000000     
  0.21875000000000000        0.0000000000000000        0.0000000000000000     
  0.25000000000000000        0.0000000000000000        0.0000000000000000     
  0.12500000000000000        3.1250000000000000E-002   0.0000000000000000     
  0.15625000000000000        3.1250000000000000E-002   0.0000000000000000     
  0.18750000000000000        3.1250000000000000E-002   0.0000000000000000     
  0.21875000000000000        3.1250000000000000E-002   0.0000000000000000     
  0.25000000000000000        3.1250000000000000E-002   0.0000000000000000     
  0.12500000000000000        6.2500000000000000E-002   0.0000000000000000     
  0.15625000000000000        6.2500000000000000E-002   0.0000000000000000     
  0.18750000000000000        6.2500000000000000E-002   0.0000000000000000     
  0.21875000000000000        6.2500000000000000E-002   0.0000000000000000     
  0.25000000000000000        6.2500000000000000E-002   0.0000000000000000     
  0.12500000000000000        9.3750000000000000E-002   0.0000000000000000     
  0.15625000000000000        9.3750000000000000E-002   0.0000000000000000     
  0.18750000000000000        9.3750000000000000E-002   0.0000000000000000     
  0.21875000000000000        9.3750000000000000E-002   0.0000000000000000     
  0.25000000000000000        9.3750000000000000E-002   0.0000000000000000     
  0.12500000000000000       0.12500000000000000        0.0000000000000000     
  0.15625000000000000       0.12500000000000000        0.0000000000000000     
  0.18750000000000000       0.12500000000000000        0.0000000000000000     
  0.21875000000000000       0.12500000000000000        0.0000000000000000     
  0.25000000000000000       0.12500000000000000        0.0000000000000000     
  0.25000000000000000        0.0000000000000000        0.0000000000000000     
  0.28125000000000000        0.0000000000000000        0.0000000000000000     
  0.31250000000000000        0.0000000000000000        0.0000000000000000     
  0.34375000000000000        0.0000000000000000        0.0000000000000000     
  0.37500000000000000        0.0000000000000000        0.0000000000000000     
  0.25000000000000000        3.1250000000000000E-002   0.0000000000000000     
  0.28125000000000000        3.1250000000000000E-002   0.0000000000000000     
  0.31250000000000000        3.1250000000000000E-002   0.0000000000000000     
  0.34375000000000000        3.1250000000000000E-002   0.0000000000000000     
  0.37500000000000000        3.1250000000000000E-002   0.0000000000000000     
  0.25000000000000000        6.2500000000000000E-002   0.0000000000000000     
  0.28125000000000000        6.2500000000000000E-002   0.0000000000000000     
  0.31250000000000000        6.2500000000000000E-002   0.0000000000000000     
  0.34375000000000000        6.2500000000000000E-002   0.0000000000000000     
  0.37500000000000000        6.2500000000000000E-002   0.0000000000000000     
  0.25000000000000000        9.3750000000000000E-002   0.0000000000000000     
  0.28125000000000000        9.3750000000000000E-002   0.0000000000000000     
  0.31250000000000000        9.3750000000000000E-002   0.0000000000000000     
  0.34375000000000000        9.3750000000000000E-002   0.0000000000000000     
  0.37500000000000000        9.3750000000000000E-002   0.0000000000000000     
  0.25000000000000000       0.12500000000000000        0.0000000000000000     
  0.28125000000000000       0.12500000000000000        0.0000000000000000     
  0.31250000000000000       0.12500000000000000        0.0000000000000000     
  0.34375000000000000       0.12500000000000000        0.0000000000000000     
  0.37500000000000000       0.12500000000000000        0.0000000000000000     
  0.37500000000000000        0.0000000000000000        0.0000000000000000     
  0.40625000000000000        0.0000000000000000        0.0000000000000000     
  0.43750000000000000        0.0000000000000000        0.0000000000000000     
  0.46875000000000000        0.0000000000000000        0.0000000000000000     
  0.50000000000000000        0.0000000000000000        0.0000000000000000     
  0.37500000000000000        3.1250000000000000E-002   0.0000000000000000     
  0.40625000000000000        3.1250000000000000E-002   0.0000000000000000     
  0.43750000000000000        3.1250000000000000E-002   0.0000000000000000     
  0.46875000000000000        3.1250000000000000E-002   0.0000000000000000     
  0.50000000000000000        3.1250000000000000E-002   0.0000000000000000     
  0.37500000000000000        6.2500000000000000E-002   0.0000000000000000     
  0.40625000000000000        6.2500000000000000E-002   0.0000000000000000     
  0.43750000000000000        6.2500000000000000E-002   0.0000000000000000     
  0.46875000000000000        6.2500000000000000E-002   0.0000000000000000     
  0.50000000000000000        6.2500000000000000E-002   0.0000000000000000     
  0.37500000000000000        9.3750000000000000E-002   0.0000000000000000     
  0.40625000000000000        9.3750000000000000E-002   0.0000000000000000     
  0.43750000000000000        9.3750000000000000E-002   0.0000000000000000     
  0.46875000000000000        9.3750000000000000E-002   0.0000000000000000     
  0.50000000000000000        9.3750000000000000E-002   0.0000000000000000     
  0.37500000000000000       0.12500000000000000        0.0000000000000000     
  0.40625000000000000       0.12500000000000000        0.0000000000000000     
  0.43750000000000000       0.12500000000000000        0.0000000000000000     
  0.46875000000000000       0.12500000000000000        0.0000000000000000     
  0.50000000000000000       0.12500000000000000        0.0000000000000000     
  0.50000000000000000        0.0000000000000000        0.0000000000000000     
  0.53125000000000000        0.0000000000000000        0.0000000000000000     
  0.56250000000000000        0.0000000000000000        0.0000000000000000     
  0.59375000000000000        0.0000000000000000        0.0000000000000000     
  0.62500000000000000        0.0000000000000000        0.0000000000000000     
  0.50000000000000000        3.1250000000000000E-002   0.0000000000000000     
  0.53125000000000000        3.1250000000000000E-002   0.0000000000000000     
  0.56250000000000000        3.1250000000000000E-002   0.0000000000000000     
  0.59375000000000000        3.1250000000000000E-002   0.0000000000000000     
  0.62500000000000000        3.1250000000000000E-002   0.0000000000000000     
  0.50000000000000000        6.2500000000000000E-002   0.0000000000000000     
  0.53125000000000000        6.2500000000000000E-002   0.0000000000000000     
  0.56250000000000000        6.2500000000000000E-002   0.0000000000000000     
  0.59375000000000000        6.2500000000000000E-002   0.0000000000000000     
  0.62500000000000000        6.2500000000000000E-002   0.0000000000000000     
  0.50000000000000000        9.3750000000000000E-002   0.0000000000000000     
  0.53125000000000000        9.3750000000000000E-002   0.0000000000000000     
  0.56250000000000000        9.3750000000000000E-002   0.0000000000000000     
  0.59375000000000000        9.3750000000000000E-002   0.0000000000000000     
  0.62500000000000000        9.3750000000000000E-002   0.0000000000000000     
  0.50000000000000000       0.12500000000000000        0.0000000000000000     
  0.53125000000000000       0.12500000000000000        0.0000000000000000     
  0.56250000000000000       0.12500000000000000        0.0000000000000000     
  0.59375000000000000       0.12500000000000000        0.0000000000000000     
  0.62500000000000000       0.12500000000000000        0.0000000000000000     
  0.62500000000000000        0.0000000000000000        0.0000000000000000     
  0.65625000000000000        0.0000000000000000        0.0000000000000000     
  0.68750000000000000        0.0000000000000000        0.0000000000000000     
  0.71875000000000000        0.0000000000000000        0.0000000000000000     
  0.75000000000000000        0.0000000000000000        0.0000000000000000     
  0.62500000000000000        3.1250000000000000E-002   0.0000000000000000     
  0.65625000000000000        3.1250000000000000E-002   0.0000000000000000     
  0.68750000000000000        3.1250000000000000E-002   0.0000000000000000     
  0.71875000000000000        3.1250000000000000E-002   0.0000000000000000     
  0.75000000000000000        3.1250000000000000E-002   0.0000000000000000     
  0.62500000000000000        6.2500000000000000E-002   0.0000000000000000     
  0.65625000000000000        6.2500000000000000E-002   0.0000000000000000     
  0.68750000000000000        6.2500000000000000E-002   0.0000000000000000     
  0.71875000000000000        6.2500000000000000E-002   0.0000000000000000     
  0.75000000000000000        6.2500000000000000E-002   0.0000000000000000     
  0.62500000000000000        9.3750000000000000E-002   0.0000000000000000     
  0.65625000000000000        9.3750000000000000E-002   0.0000000000000000     
  0.68750000000000000        9.3750000000000000E-002   0.0000000000000000     
  0.71875000000000000        9.3750000000000000E-002   0.0000000000000000     
  0.75000000000000000        9.3750000000000000E-002   0.0000000000000000     
  0.62500000000000000       0.12500000000000000        0.0000000000000000     
  0.65625000000000000       0.12500000000000000        0.0000000000000000     
  0.68750000000000000       0.12500000000000000        0.0000000000000000     
  0.71875000000000000       0.12500000000000000        0.0000000000000000     
  0.75000000000000000       0.12500000000000000        0.0000000000000000     
  0.75000000000000000        0.0000000000000000        0.0000000000000000     
  0.78125000000000000        0.0000000000000000        0.0000000000000000     
  0.81250000000000000        0.0000000000000000        0.0000000000000000     
  0.84375000000000000        0.0000000000000000        0.0000000000000000     
  0.87500000000000000        0.0000000000000000        0.0000000000000000     
  0.75000000000000000        3.1250000000000000E-002   0.0000000000000000     
  0.78125000000000000        3.1250000000000000E-002   0.0000000000000000     
  0.81250000000000000        3.1250000000000000E-002   0.0000000000000000     
  0.84375000000000000        3.1250000000000000E-002   0.0000000000000000     
  0.87500000000000000        3.1250000000000000E-002   0.0000000000000000     
  0.75000000000000000        6.2500000000000000E-002   0.0000000000000000     
  0.78125000000000000        6.2500000000000000E-002   0.0000000000000000     
  0.81250000000000000        6.2500000000000000E-002   0.0000000000000000     
  0.84375000000000000        6.2500000000000000E-002   0.0000000000000000     
  0.87500000000000000        6.2500000000000000E-002   0.0000000000000000     
  0.75000000000000000        9.3750000000000000E-002   0.0000000000000000     
  0.78125000000000000        9.3750000000000000E-002   0.0000000000000000     
  0.81250000000000000        9.3750000000000000E-002   0.0000000000000000     
  0.84375000000000000        9.3750000000000000E-002   0.0000000000000000     
  0.87500000000000000        9.3750000000000000E-002   0.0000000000000000     
  0.75000000000000000       0.12500000000000000        0.0000000000000000     
  0.78125000000000000       0.12500000000000000        0.0000000000000000     
  0.81250000000000000       0.12500000000000000        0.0000000000000000     
  0.84375000000000000       0.12500000000000000        0.0000000000000000     
  0.87500000000000000       0.12500000000000000        0.0000000000000000     
  0.87500000000000000        0.0000000000000000        0.0000000000000000     
  0.90625000000000000        0.0000000000000000        0.0000000000000000     
  0.93750000000000000        0.0000000000000000        0.0000000000000000     
  0.96875000000000000        0.0000000000000000        0.0000000000000000     
   1.0000000000000000        0.0000000000000000        0.0000000000000000     
  0.87500000000000000        3.1250000000000000E-002   0.0000000000000000     
  0.90625000000000000        3.1250000000000000E-002   0.0000000000000000     
  0.93750000000000000        3.1250000000000000E-002   0.0000000000000000     
  0.96875000000000000        3.1250000000000000E-002   0.0000000000000000     
   1.0000000000000000        3.1250000000000000E-002   0.0000000000000000     
  0.87500000000000000        6.2500000000000000E-002   0.0000000000000000     
  0.90625000000000000        6.2500000000000000E-002   0.0000000000000000     
  0.93750000000000000        6.2500000000000000E-002   0.0000000000000000     
  0.96875000000000000        6.2500000000000000E-002   0.0000000000000000     
   1.0000000000000000        6.2500000000000000E-002   0.0000000000000000     
  0.87500000000000000        9.3750000000000000E-002   0.0000000000000000     
  0.90625000000000000        9.3750000000000000E-002   0.0000000000000000     
  0.93750000000000000        9.3750000000000000E-002   0.0000000000000000     
  0.96875000000000000        9.3750000000000000E-002   0.0000000000000000     
   1.0000000000000000        9.3750000000000000E-002   0.0000000000000000     
  0.87500000000000000       0.12500000000000000        0.0000000000000000     
  0.90625000000000000       0.12500000000000000        0.0000000000000000     
  0.93750000000000000       0.12500000000000000        0.0000000000000000     
  0.96875000000000000       0.12500000000000000        0.0000000000000000     
   1.0000000000000000       0.12500000000000000        0.0000000000000000     
   0.0000000000000000       0.12500000000000000        0.0000000000000000     
   3.1250000000000000E-002  0.12500000000000000        0.0000000000000000     
   6.2500000000000000E-002  0.12500000000000000        0.0000000000000000     
   9.3750000000000000E-002  0.12500000000000000        0.0000000000000000     
  0.12500000000000000       0.12500000000000000        0.0000000000000000     
   0.0000000000000000       0.15625000000000000        0.0000000000000000     
   3.1250000000000000E-002  0.15625000000000000        0.0000000000000000     
   6.2500000000000000E-002  0.15625000000000000        0.0000000000000000     
   9.3750000000000000E-002  0.15625000000000000        0.0000000000000000     
  0.12500000000000000       0.15625000000000000        0.0000000000000000     
   0.0000000000000000       0.18750000000000000        0.0000000000000000     
   3.1250000000000000E-002  0.18750000000000000        0.0000000000000000     
   6.2500000000000000E-002  0.18750000000000000        0.0000000000000000     
   9.3750000000000000E-002  0.18750000000000000        0.0000000000000000     
  0.12500000000000000       0.18750000000000000        0.0000000000000000     
   0.0000000000000000       0.21875000000000000        0.0000000000000000     
   3.1250000000000000E-002  0.21875000000000000        0.0000000000000000     
   6.2500000000000000E-002  0.21875000000000000        0.0000000000000000     
   9.3750000000000000E-002  0.21875000000000000        0.0000000000000000     
  0.12500000000000000       0.21875000000000000        0.0000000000000000     
   0.0000000000000000       0.25000000000000000        0.0000000000000000     
   3.1250000000000000E-002  0.25000000000000000        0.0000000000000000     
   6.2500000000000000E-002  0.25000000000000000        0.0000000000000000     
   9.3750000000000000E-002  0.25000000000000000        0.0000000000000000     
  0.12500000000000000       0.25000000000000000        0.0000000000000000     
  0.12500000000000000       0.12500000000000000        0.0000000000000000     
  0.15625000000000000       0.12500000000000000        0.0000000000000000     
  0.18750000000000000       0.12500000000000000        0.0000000000000000     
  0.21875000000000000       0.12500000000000000        0.0000000000000000     
  0.25000000000000000       0.12500000000000000        0.0000000000000000     
  0.12500000000000000       0.15625000000000000        0.0000000000000000     
  0.15625000000000000       0.15625000000000000        0.0000000000000000     
  0.18750000000000000       0.15625000000000000        0.0000000000000000     
  0.21875000000000000       0.15625000000000000        0.0000000000000000     
  0.25000000000000000       0.15625000000000000        0.0000000000000000     
  0.12500000000000000       0.18750000000000000        0.0000000000000000     
  0.15625000000000000       0.18750000000000000        0.0000000000000000     
  0.18750000000000000       0.18750000000000000        0.0000000000000000     
  0.21875000000000000       0.18750000000000000        0.0000000000000000     
  0.25000000000000000       0.18750000000000000        0.0000000000000000     
  0.12500000000000000       0.21875000000000000        0.0000000000000000     
  0.15625000000000000       0.21875000000000000        0.0000000000000000     
  0.18750000000000000       0.21875000000000000        0.0000000000000000     
  0.21875000000000000       0.21875000000000000        0.0000000000000000     
  0.25000000000000000       0.21875000000000000        0.0000000000000000     
  0.12500000000000000       0.25000000000000000        0.0000000000000000     
  0.15625000000000000       0.25000000000000000        0.0000000000000000     
  0.18750000000000000       0.25000000000000000        0.0000000000000000     
  0.21875000000000000       0.25000000000000000        0.0000000000000000     
  0.25000000000000000       0.25000000000000000        0.0000000000000000     
  0.25000000000000000       0.12500000000000000        0.0000000000000000     
  0.28125000000000000       0.12500000000000000        0.0000000000000000     
  0.31250000000000000       0.12500000000000000        0.0000000000000000     
  0.34375000000000000       0.12500000000000000        0.0000000000000000     
  0.37500000000000000       0.12500000000000000        0.0000000000000000     
  0.25000000000000000       0.15625000000000000        0.0000000000000000     
  0.28125000000000000       0.15625000000000000        0.0000000000000000     
  0.31250000000000000       0.15625000000000000        0.0000000000000000     
  0.34375000000000000       0.15625000000000000        0.0000000000000000     
  0.37500000000000000       0.15625000000000000        0.0000000000000000     
  0.25000000000000000       0.18750000000000000        0.0000000000000000     
  0.28125000000000000       0.18750000000000000        0.0000000000000000     
  0.31250000000000000       0.18750000000000000        0.0000000000000000     
  0.34375000000000000       0.18750000000000000        0.0000000000000000     
  0.37500000000000000       0.18750000000000000        0.0000000000000000     
  0.25000000000000000       0.21875000000000000        0.0000000000000000     
  0.28125000000000000       0.21875000000000000        0.0000000000000000     
  0.31250000000000000       0.21875000000000000        0.0000000000000000     
  0.34375000000000000       0.21875000000000000        0.0000000000000000     
  0.37500000000000000       0.21875000000000000        0.0000000000000000     
  0.25000000000000000       0.25000000000000000        0.0000000000000000     
  0.28125000000000000       0.25000000000000000        0.0000000000000000     
  0.31250000000000000       0.25000000000000000        0.0000000000000000     
  0.34375000000000000       0.25000000000000000        0.0000000000000000     
  0.37500000000000000       0.25000000000000000        0.0000000000000000     
  0.37500000000000000       0.12500000000000000        0.0000000000000000     
  0.40625000000000000       0.12500000000000000        0.0000000000000000     
  0.43750000000000000       0.12500000000000000        0.0000000000000000     
  0.46875000000000000       0.12500000000000000        0.0000000000000000     
  0.50000000000000000       0.12500000000000000        0.0000000000000000     
  0.37500000000000000       0.15625000000000000        0.0000000000000000     
  0.40625000000000000       0.15625000000000000        0.0000000000000000     
  0.43750000000000000       0.15625000000000000        0.0000000000000000     
  0.46875000000000000       0.15625000000000000        0.0000000000000000     
  0.50000000000000000       0.15625000000000000        0.0000000000000000     
  0.37500000000000000       0.18750000000000000        0.0000000000000000     
  0.40625000000000000       0.18750000000000000        0.0000000000000000     
  0.43750000000000000       0.18750000000000000        0.0000000000000000     
  0.46875000000000000       0.18750000000000000        0.0000000000000000     
  0.50000000000000000       0.18750000000000000        0.0000000000000000     
  0.37500000000000000       0.21875000000000000        0.0000000000000000     
  0.40625000000000000       0.21875000000000000        0.0000000000000000     
  0.43750000000000000       0.21875000000000000        0.0000000000000000     
  0.46875000000000000       0.21875000000000000        0.0000000000000000     
  0.50000000000000000       0.21875000000000000        0.0000000000000000     
  0.37500000000000000       0.25000000000000000        0.0000000000000000     
  0.40625000000000000       0.25000000000000000        0.0000000000000000     
  0.43750000000000000       0.25000000000000000        0.0000000000000000     
  0.46875000000000000       0.25000000000000000        0.0000000000000000     
  0.50000000000000000       0.25000000000000000        0.0000000000000000     
  0.50000000000000000       0.12500000000000000        0.0000000000000000     
  0.53125000000000000       0.12500000000000000        0.0000000000000000     
  0.56250000000000000       0.12500000000000000        0.0000000000000000     
  0.59375000000000000       0.12500000000000000        0.0000000000000000     
  0.62500000000000000       0.12500000000000000        0.0000000000000000     
  0.50000000000000000       0.15625000000000000        0.0000000000000000     
  0.53125000000000000       0.15625000000000000        0.0000000000000000     
  0.56250000000000000       0.15625000000000000        0.0000000000000000     
  0.59375000000000000       0.15625000000000000        0.0000000000000000     
  0.62500000000000000       0.15625000000000000        0.0000000000000000     
  0.50000000000000000       0.18750000000000000        0.0000000000000000     
  0.53125000000000000       0.18750000000000000        0.0000000000000000     
  0.56250000000000000       0.18750000000000000        0.0000000000000000     
  0.59375000000000000       0.18750000000000000        0.0000000000000000     
  0.62500000000000000       0.18750000000000000        0.0000000000000000     
  0.50000000000000000       0.21875000000000000        0.0000000000000000     
  0.53125000000000000       0.21875000000000000        0.0000000000000000     
  0.56250000000000000       0.21875000000000000        0.0000000000000000     
  0.59375000000000000       0.21875000000000000        0.0000000000000000     
  0.62500000000000000       0.21875000000000000        0.0000000000000000     
  0.50000000000000000       0.25000000000000000        0.0000000000000000     
  0.53125000000000000       0.25000000000000000        0.0000000000000000     
  0.56250000000000000       0.25000000000000000        0.0000000000000000     
  0.59375000000000000       0.25000000000000000        0.0000000000000000     
  0.62500000000000000       0.25000000000000000        0.0000000000000000     
  0.62500000000000000       0.12500000000000000        0.0000000000000000     
  0.65625000000000000       0.12500000000000000        0.0000000000000000     
  0.68750000000000000       0.12500000000000000        0.0000000000000000     
  0.71875000000000000       0.12500000000000000        0.0000000000000000     
  0.75000000000000000       0.12500000000000000        0.0000000000000000     
  0.62500000000000000       0.15625000000000000        0.0000000000000000     
  0.65625000000000000       0.15625000000000000        0.0000000000000000     
  0.68750000000000000       0.15625000000000000        0.0000000000000000     
  0.71875000000000000       0.15625000000000000        0.0000000000000000     
  0.75000000000000000       0.15625000000000000        0.0000000000000000     
  0.62500000000000000       0.18750000000000000        0.0000000000000000     
  0.65625000000000000       0.18750000000000000        0.0000000000000000     
  0.68750000000000000       0.18750000000000000        0.0000000000000000     
  0.71875000000000000       0.18750000000000000        0.0000000000000000     
  0.75000000000000000       0.18750000000000000        0.0000000000000000     
  0.62500000000000000       0.21875000000000000        0.0000000000000000     
  0.65625000000000000       0.21875000000000000        0.0000000000000000     
  0.68750000000000000       0.21875000000000000        0.0000000000000000     
  0.71875000000000000       0.21875000000000000        0.0000000000000000     
  0.75000000000000000       0.21875000000000000        0.0000000000000000     
  0.62500000000000000       0.25000000000000000        0.0000000000000000     
  0.65625000000000000       0.25000000000000000        0.0000000000000000     
  0.68750000000000000       0.25000000000000000        0.0000000000000000     
  0.71875000000000000       0.25000000000000000        0.0000000000000000     
  0.75000000000000000       0.25000000000000000        0.0000000000000000     
  0.75000000000000000       0.12500000000000000        0.0000000000000000     
  0.78125000000000000       0.12500000000000000        0.0000000000000000     
  0.81250000000000000       0.12500000000000000        0.0000000000000000     
  0.84375000000000000       0.12500000000000000        0.0000000000000000     
  0.87500000000000000       0.12500000000000000        0.0000000000000000     
  0.75000000000000000       0.15625000000000000        0.0000000000000000     
  0.78125000000000000       0.15625000000000000        0.0000000000000000     
  0.81250000000000000       0.15625000000000000        0.0000000000000000     
  0.84375000000000000       0.15625000000000000        0.0000000000000000     
  0.87500000000000000       0.15625000000000000        0.0000000000000000     
  0.75000000000000000       0.18750000000000000        0.0000000000000000     
  0.78125000000000000       0.18750000000000000        0.0000000000000000     
  0.81250000000000000       0.18750000000000000        0.0000000000000000     
  0.84375000000000000       0.18750000000000000        0.0000000000000000     
  0.87500000000000000       0.18750000000000000        0.0000000000000000     
  0.75000000000000000       0.21875000000000000        0.0000000000000000     
  0.78125000000000000       0.21875000000000000        0.0000000000000000     
  0.81250000000000000       0.21875000000000000        0.0000000000000000     
  0.84375000000000000       0.21875000000000000        0.0000000000000000     
  0.87500000000000000       0.21875000000000000        0.0000000000000000     
  0.75000000000000000       0.25000000000000000        0.0000000000000000     
  0.78125000000000000       0.25000000000000000        0.0000000000000000     
  0.81250000000000000       0.25000000000000000        0.0000000000000000     
  0.84375000000000000       0.25000000000000000        0.0000000000000000     
  0.87500000000000000       0.25000000000000000        0.0000000000000000     
  0.87500000000000000       0.12500000000000000        0.0000000000000000     
  0.90625000000000000       0.12500000000000000        0.0000000000000000     
  0.93750000000000000       0.12500000000000000        0.0000000000000000     
  0.96875000000000000       0.12500000000000000        0.0000000000000000     
   1.0000000000000000       0.12500000000000000        0.0000000000000000     
  0.87500000000000000       0.15625000000000000        0.0000000000000000     
  0.90625000000000000       0.15625000000000000        0.0000000000000000     
  0.93750000000000000       0.15625000000000000        0.0000000000000000     
  0.96875000000000000       0.15625000000000000        0.0000000000000000     
   1.0000000000000000       0.15625000000000000        0.0000000000000000     
  0.87500000000000000       0.18750000000000000        0.0000000000000000     
  0.90625000000000000       0.18750000000000000        0.0000000000000000     
  0.93750000000000000       0.18750000000000000        0.0000000000000000     
  0.96875000000000000       0.18750000000000000        0.0000000000000000     
   1.0000000000000000       0.18750000000000000        0.0000000000000000     
  0.87500000000000000       0.21875000000000000        0.0000000000000000     
  0.90625000000000000       0.21875000000000000        0.0000000000000000     
  0.93750000000000000       0.21875000000000000        0.0000000000000000     
  0.96875000000000000       0.21875000000000000        0.0000000000000000     
   1.0000000000000000       0.21875000000000000        0.0000000000000000     
  0.87500000000000000       0.25000000000000000        0.0000000000000000     
  0.90625000000000000       0.25000000000000000        0.0000000000000000     
  0.93750000000000000       0.25000000000000000        0.0000000000000000     
  0.96875000000000000       0.25000000000000000        0.0000000000000000     
   1.0000000000000000       0.25000000000000000        0.0000000000000000     
   0.0000000000000000       0.25000000000000000        0.0000000000000000     
   3.1250000000000000E-002  0.25000000000000000        0.0000000000000000     
   6.2500000000000000E-002  0.25000000000000000        0.0000000000000000     
   9.3750000000000000E-002  0.25000000000000000        0.0000000000000000     
  0.12500000000000000       0.25000000000000000        0.0000000000000000     
   0.0000000000000000       0.28125000000000000        0.0000000000000000     
   3.1250000000000000E-002  0.28125000000000000        0.0000000000000000     
   6.2500000000000000E-002  0.28125000000000000        0.0000000000000000     
   9.3750000000000000E-002  0.28125000000000000        0.0000000000000000     
  0.12500000000000000       0.28125000000000000        0.0000000000000000     
   0.0000000000000000       0.31250000000000000        0.0000000000000000     
   3.1250000000000000E-002  0.31250000000000000        0.0000000000000000     
   6.2500000000000000E-002  0.31250000000000000        0.0000000000000000     
   9.3750000000000000E-002  0.31250000000000000        0.0000000000000000     
  0.12500000000000000       0.31250000000000000        0.0000000000000000     
   0.0000000000000000       0.34375000000000000        0.0000000000000000     
   3.1250000000000000E-002  0.34375000000000000        0.0000000000000000     
   6.2500000000000000E-002  0.34375000000000000        0.0000000000000000     
   9.3750000000000000E-002  0.34375000000000000        0.0000000000000000     
  0.12500000000000000       0.34375000000000000        0.0000000000000000     
   0.0000000000000000       0.37500000000000000        0.0000000000000000     
   3.1250000000000000E-002  0.37500000000000000        0.0000000000000000     
   6.2500000000000000E-002  0.37500000000000000        0.0000000000000000     
   9.3750000000000000E-002  0.37500000000000000        0.0000000000000000     
  0.12500000000000000       0.37500000000000000        0.0000000000000000     
  0.12500000000000000       0.25000000000000000        0.0000000000000000     
  0.15625000000000000       0.25000000000000000        0.0000000000000000     
  0.18750000000000000       0.25000000000000000        0.0000000000000000     
  0.21875000000000000       0.25000000000000000        0.0000000000000000     
  0.25000000000000000       0.25000000000000000        0.0000000000000000     
  0.12500000000000000       0.28125000000000000        0.0000000000000000     
  0.15625000000000000       0.28125000000000000        0.0000000000000000     
  0.18750000000000000       0.28125000000000000        0.0000000000000000     
  0.21875000000000000       0.28125000000000000        0.0000000000000000     
  0.25000000000000000       0.28125000000000000        0.0000000000000000     
  0.12500000000000000       0.31250000000000000        0.0000000000000000     
  0.15625000000000000       0.31250000000000000        0.0000000000000000     
  0.18750000000000000       0.31250000000000000        0.0000000000000000     
  0.21875000000000000       0.31250000000000000        0.0000000000000000     
  0.25000000000000000       0.31250000000000000        0.0000000000000000     
  0.12500000000000000       0.34375000000000000        0.0000000000000000     
  0.15625000000000000       0.34375000000000000        0.0000000000000000     
  0.18750000000000000       0.34375000000000000        0.0000000000000000     
  0.21875000000000000       0.34375000000000000        0.0000000000000000     
  0.25000000000000000       0.34375000000000000        0.0000000000000000     
  0.12500000000000000       0.37500000000000000        0.0000000000000000     
  0.15625000000000000       0.37500000000000000        0.0000000000000000     
  0.18750000000000000       0.37500000000000000        0.0000000000000000     
  0.21875000000000000       0.37500000000000000        0.0000000000000000     
  0.25000000000000000       0.37500000000000000        0.0000000000000000     
  0.25000000000000000       0.25000000000000000        0.0000000000000000     
  0.28125000000000000       0.25000000000000000        0.0000000000000000     
  0.31250000000000000       0.25000000000000000        0.0000000000000000     
  0.34375000000000000       0.25000000000000000        0.0000000000000000     
  0.37500000000000000       0.25000000000000000        0.0000000000000000     
  0.25000000000000000       0.28125000000000000        0.0000000000000000     
  0.28125000000000000       0.28125000000000000        0.0000000000000000     
  0.31250000000000000       0.28125000000000000        0.0000000000000000     
  0.34375000000000000       0.28125000000000000        0.0000000000000000     
  0.37500000000000000       0.28125000000000000        0.0000000000000000     
  0.25000000000000000       0.31250000000000000        0.0000000000000000     
  0.28125000000000000       0.31250000000000000        0.0000000000000000     
  0.31250000000000000       0.31250000000000000        0.0000000000000000     
  0.34375000000000000       0.31250000000000000        0.0000000000000000     
  0.37500000000000000       0.31250000000000000        0.0000000000000000     
  0.25000000000000000       0.34375000000000000        0.0000000000000000     
  0.28125000000000000       0.34375000000000000        0.0000000000000000     
  0.31250000000000000       0.34375000000000000        0.0000000000000000     
  0.34375000000000000       0.34375000000000000        0.0000000000000000     
  0.37500000000000000       0.34375000000000000        0.0000000000000000     
  0.25000000000000000       0.37500000000000000        0.0000000000000000     
  0.28125000000000000       0.37500000000000000        0.0000000000000000     
  0.31250000000000000       0.37500000000000000        0.0000000000000000     
  0.34375000000000000       0.37500000000000000        0.0000000000000000     
  0.37500000000000000       0.37500000000000000        0.0000000000000000     
  0.37500000000000000       0.25000000000000000        0.0000000000000000     
  0.40625000000000000       0.25000000000000000        0.0000000000000000     
  0.43750000000000000       0.25000000000000000        0.0000000000000000     
  0.46875000000000000       0.25000000000000000        0.0000000000000000     
  0.50000000000000000       0.25000000000000000        0.0000000000000000     
  0.37500000000000000       0.28125000000000000        0.0000000000000000     
  0.40625000000000000       0.28125000000000000        0.0000000000000000     
  0.43750000000000000       0.28125000000000000        0.0000000000000000     
  0.46875000000000000       0.28125000000000000        0.0000000000000000     
  0.50000000000000000       0.28125000000000000        0.0000000000000000     
  0.37500000000000000       0.31250000000000000        0.0000000000000000     
  0.40625000000000000       0.31250000000000000        0.0000000000000000     
  0.43750000000000000       0.31250000000000000        0.0000000000000000     
  0.46875000000000000       0.31250000000000000        0.0000000000000000     
  0.50000000000000000       0.31250000000000000        0.0000000000000000     
  0.37500000000000000       0.34375000000000000        0.0000000000000000     
  0.40625000000000000       0.34375000000000000        0.0000000000000000     
  0.43750000000000000       0.34375000000000000        0.0000000000000000     
  0.46875000000000000       0.34375000000000000        0.0000000000000000     
  0.50000000000000000       0.34375000000000000        0.0000000000000000     
  0.37500000000000000       0.37500000000000000        0.0000000000000000     
  0.40625000000000000       0.37500000000000000        0.0000000000000000     
  0.43750000000000000       0.37500000000000000        0.0000000000000000     
  0.46875000000000000       0.37500000000000000        0.0000000000000000     
  0.50000000000000000       0.37500000000000000        0.0000000000000000     
  0.50000000000000000       0.25000000000000000        0.0000000000000000     
  0.53125000000000000       0.25000000000000000        0.0000000000000000     
  0.56250000000000000       0.25000000000000000        0.0000000000000000     
  0.59375000000000000       0.25000000000000000        0.0000000000000000     
  0.62500000000000000       0.25000000000000000        0.0000000000000000     
  0.50000000000000000       0.28125000000000000        0.0000000000000000     
  0.53125000000000000       0.28125000000000000        0.0000000000000000     
  0.56250000000000000       0.28125000000000000        0.0000000000000000     
  0.59375000000000000       0.28125000000000000        0.0000000000000000     
  0.62500000000000000       0.28125000000000000        0.0000000000000000     
  0.50000000000000000       0.31250000000000000        0.0000000000000000     
  0.53125000000000000       0.31250000000000000        0.0000000000000000     
  0.56250000000000000       0.31250000000000000        0.0000000000000000     
  0.59375000000000000       0.31250000000000000        0.0000000000000000     
  0.62500000000000000       0.31250000000000000        0.0000000000000000     
  0.50000000000000000       0.34375000000000000        0.0000000000000000     
  0.53125000000000000       0.34375000000000000        0.0000000000000000     
  0.56250000000000000       0.34375000000000000        0.0000000000000000     
  0.59375000000000000       0.34375000000000000        0.0000000000000000     
  0.62500000000000000       0.34375000000000000        0.0000000000000000     
  0.50000000000000000       0.37500000000000000        0.0000000000000000     
  0.53125000000000000       0.37500000000000000        0.0000000000000000     
  0.56250000000000000       0.37500000000000000        0.0000000000000000     
  0.59375000000000000       0.37500000000000000        0.0000000000000000     
  0.62500000000000000       0.37500000000000000        0.0000000000000000     
  0.62500000000000000       0.25000000000000000        0.0000000000000000     
  0.65625000000000000       0.25000000000000000        0.0000000000000000     
  0.68750000000000000       0.25000000000000000        0.0000000000000000     
  0.71875000000000000       0.25000000000000000        0.0000000000000000     
  0.75000000000000000       0.25000000000000000        0.0000000000000000     
  0.62500000000000000       0.28125000000000000        0.0000000000000000     
  0.65625000000000000       0.28125000000000000        0.0000000000000000     
  0.68750000000000000       0.28125000000000000        0.0000000000000000     
  0.71875000000000000       0.28125000000000000        0.0000000000000000     
  0.75000000000000000       0.28125000000000000        0.0000000000000000     
  0.62500000000000000       0.31250000000000000        0.0000000000000000     
  0.65625000000000000       0.31250000000000000        0.0000000000000000     
  0.68750000000000000       0.31250000000000000        0.0000000000000000     
  0.71875000000000000       0.31250000000000000        0.0000000000000000     
  0.75000000000000000       0.31250000000000000        0.0000000000000000     
  0.62500000000000000       0.34375000000000000        0.0000000000000000     
  0.65625000000000000       0.34375000000000000        0.0000000000000000     
  0.68750000000000000       0.34375000000000000        0.0000000000000000     
  0.71875000000000000       0.34375000000000000        0.0000000000000000     
  0.75000000000000000       0.34375000000000000        0.0000000000000000     
  0.62500000000000000       0.37500000000000000        0.0000000000000000     
  0.65625000000000000       0.37500000000000000        0.0000000000000000     
  0.68750000000000000       0.37500000000000000        0.0000000000000000     
  0.71875000000000000       0.37500000000000000        0.0000000000000000     
  0.75000000000000000       0.37500000000000000        0.0000000000000000     
  0.75000000000000000       0.25000000000000000        0.0000000000000000     
  0.78125000000000000       0.25000000000000000        0.0000000000000000     
  0.81250000000000000       0.25000000000000000        0.0000000000000000     
  0.84375000000000000       0.25000000000000000        0.0000000000000000     
  0.87500000000000000       0.25000000000000000        0.0000000000000000     
  0.75000000000000000       0.28125000000000000        0.0000000000000000     
  0.78125000000000000       0.28125000000000000        0.0000000000000000     
  0.81250000000000000       0.28125000000000000        0.0000000000000000     
  0.84375000000000000       0.28125000000000000        0.0000000000000000     
  0.87500000000000000       0.28125000000000000        0.0000000000000000     
  0.75000000000000000       0.31250000000000000        0.0000000000000000     
  0.78125000000000000       0.31250000000000000        0.0000000000000000     
  0.81250000000000000       0.31250000000000000        0.0000000000000000     
  0.84375000000000000       0.31250000000000000        0.0000000000000000     
  0.87500000000000000       0.31250000000000000        0.0000000000000000     
  0.75000000000000000       0.34375000000000000        0.0000000000000000     
  0.78125000000000000       0.34375000000000000        0.0000000000000000     
  0.81250000000000000       0.34375000000000000        0.0000000000000000     
  0.84375000000000000       0.34375000000000000        0.0000000000000000     
  0.87500000000000000       0.34375000000000000        0.0000000000000000     
  0.75000000000000000       0.37500000000000000        0.0000000000000000     
  0.78125000000000000       0.37500000000000000        0.0000000000000000     
  0.81250000000000000       0.37500000000000000        0.0000000000000000     
  0.84375000000000000       0.37500000000000000        0.0000000000000000     
  0.87500000000000000       0.37500000000000000        0.0000000000000000     
  0.87500000000000000       0.25000000000000000        0.0000000000000000     
  0.90625000000000000       0.25000000000000000        0.0000000000000000     
  0.93750000000000000       0.25000000000000000        0.0000000000000000     
  0.96875000000000000       0.25000000000000000        0.0000000000000000     
   1.0000000000000000       0.25000000000000000        0.0000000000000000     
  0.87500000000000000       0.28125000000000000        0.0000000000000000     
  0.90625000000000000       0.28125000000000000        0.0000000000000000     
  0.93750000000000000       0.28125000000000000        0.0000000000000000     
  0.96875000000000000       0.28125000000000000        0.0000000000000000     
   1.0000000000000000       0.28125000000000000        0.0000000000000000     
  0.87500000000000000       0.31250000000000000        0.0000000000000000     
  0.90625000000000000       0.31250000000000000        0.0000000000000000     
  0.93750000000000000       0.31250000000000000        0.0000000000000000     
  0.96875000000000000       0.31250000000000000        0.0000000000000000     
   1.0000000000000000       0.31250000000000000        0.0000000000000000     
  0.87500000000000000       0.34375000000000000        0.0000000000000000     
  0.90625000000000000       0.34375000000000000        0.0000000000000000     
  0.93750000000000000       0.34375000000000000        0.0000000000000000     
  0.96875000000000000       0.34375000000000000        0.0000000000000000     
   1.0000000000000000       0.34375000000000000        0.0000000000000000     
  0.87500000000000000       0.37500000000000000        0.0000000000000000     
  0.90625000000000000       0.37500000000000000        0.0000000000000000     
  0.93750000000000000       0.37500000000000000        0.0000000000000000     
  0.96875000000000000       0.37500000000000000        0.0000000000000000     
   1.0000000000000000       0.37500000000000000        0.0000000000000000     
   0.0000000000000000       0.37500000000000000        0.0000000000000000     
   3.1250000000000000E-002  0.37500000000000000        0.0000000000000000     
   6.2500000000000000E-002  0.37500000000000000        0.0000000000000000     
   9.3750000000000000E-002  0.37500000000000000        0.0000000000000000     
  0.12500000000000000       0.37500000000000000        0.0000000000000000     
   0.0000000000000000       0.40625000000000000        0.0000000000000000     
   3.1250000000000000E-002  0.40625000000000000        0.0000000000000000     
   6.2500000000000000E-002  0.40625000000000000        0.0000000000000000     
   9.3750000000000000E-002  0.40625000000000000        0.0000000000000000     
  0.12500000000000000       0.40625000000000000        0.0000000000000000     
   0.0000000000000000       0.43750000000000000        0.0000000000000000     
   3.1250000000000000E-002  0.43750000000000000        0.0000000000000000     
   6.2500000000000000E-002  0.43750000000000000        0.0000000000000000     
   9.3750000000000000E-002  0.43750000000000000        0.0000000000000000     
  0.12500000000000000       0.43750000000000000        0.0000000000000000     
   0.0000000000000000       0.46875000000000000        0.0000000000000000     
   3.1250000000000000E-002  0.46875000000000000        0.0000000000000000     
   6.2500000000000000E-002  0.46875000000000000        0.0000000000000000     
   9.3750000000000000E-002  0.46875000000000000        0.0000000000000000     
  0.12500000000000000       0.46875000000000000        0.0000000000000000     
   0.0000000000000000       0.50000000000000000        0.0000000000000000     
   3.1250000000000000E-002  0.50000000000000000        0.0000000000000000     
   6.2500000000000000E-002  0.50000000000000000        0.0000000000000000     
   9.3750000000000000E-002  0.50000000000000000        0.0000000000000000     
  0.12500000000000000       0.50000000000000000        0.0000000000000000     
  0.12500000000000000       0.37500000000000000        0.0000000000000000     
  0.15625000000000000       0.37500000000000000        0.0000000000000000     
  0.18750000000000000       0.37500000000000000        0.0000000000000000     
  0.21875000000000000       0.37500000000000000        0.0000000000000000     
  0.25000000000000000       0.37500000000000000        0.0000000000000000     
  0.12500000000000000       0.40625000000000000        0.0000000000000000     
  0.15625000000000000       0.40625000000000000        0.0000000000000000     
  0.18750000000000000       0.40625000000000000        0.0000000000000000     
  0.21875000000000000       0.40625000000000000        0.0000000000000000     
  0.25000000000000000       0.40625000000000000        0.0000000000000000     
  0.12500000000000000       0.43750000000000000        0.0000000000000000     
  0.15625000000000000       0.43750000000000000        0.0000000000000000     
  0.18750000000000000       0.43750000000000000        0.0000000000000000     
  0.21875000000000000       0.43750000000000000        0.0000000000000000     
  0.25000000000000000       0.43750000000000000        0.0000000000000000     
  0.12500000000000000       0.46875000000000000        0.0000000000000000     
  0.15625000000000000       0.46875000000000000        0.0000000000000000     
  0.18750000000000000       0.46875000000000000        0.0000000000000000     
  0.21875000000000000       0.46875000000000000        0.0000000000000000     
  0.25000000000000000       0.46875000000000000        0.0000000000000000     
  0.12500000000000000       0.50000000000000000        0.0000000000000000     
  0.15625000000000000       0.50000000000000000        0.0000000000000000     
  0.18750000000000000       0.50000000000000000        0.0000000000000000     
  0.21875000000000000       0.50000000000000000        0.0000000000000000     
  0.25000000000000000       0.50000000000000000        0.0000000000000000     
  0.25000000000000000       0.37500000000000000        0.0000000000000000     
  0.28125000000000000       0.37500000000000000        0.0000000000000000     
  0.31250000000000000       0.37500000000000000        0.0000000000000000     
  0.34375000000000000       0.37500000000000000        0.0000000000000000     
  0.37500000000000000       0.37500000000000000        0.0000000000000000     
  0.25000000000000000       0.40625000000000000        0.0000000000000000     
  0.28125000000000000       0.40625000000000000        0.0000000000000000     
  0.31250000000000000       0.40625000000000000        0.0000000000000000     
  0.34375000000000000       0.40625000000000000        0.0000000000000000     
  0.37500000000000000       0.40625000000000000        0.0000000000000000     
  0.25000000000000000       0.43750000000000000        0.0000000000000000     
  0.28125000000000000       0.43750000000000000        0.0000000000000000     
  0.31250000000000000       0.43750000000000000        0.0000000000000000     
  0.34375000000000000       0.43750000000000000        0.0000000000000000     
  0.37500000000000000       0.43750000000000000        0.0000000000000000     
  0.25000000000000000       0.46875000000000000        0.0000000000000000     
  0.28125000000000000       0.46875000000000000        0.0000000000000000     
  0.31250000000000000       0.46875000000000000        0.0000000000000000     
  0.34375000000000000       0.46875000000000000        0.0000000000000000     
  0.37500000000000000       0.46875000000000000        0.0000000000000000     
  0.25000000000000000       0.50000000000000000        0.0000000000000000     
  0.28125000000000000       0.50000000000000000        0.0000000000000000     
  0.31250000000000000       0.50000000000000000        0.0000000000000000     
  0.34375000000000000       0.50000000000000000        0.0000000000000000     
  0.37500000000000000       0.50000000000000000        0.0000000000000000     
  0.37500000000000000       0.37500000000000000        0.0000000000000000     
  0.40625000000000000       0.37500000000000000        0.0000000000000000     
  0.43750000000000000       0.37500000000000000        0.0000000000000000     
  0.46875000000000000       0.37500000000000000        0.0000000000000000     
  0.50000000000000000       0.37500000000000000        0.0000000000000000     
  0.37500000000000000       0.40625000000000000        0.0000000000000000     
  0.40625000000000000       0.40625000000000000        0.0000000000000000     
  0.43750000000000000       0.40625000000000000        0.0000000000000000     
  0.46875000000000000       0.40625000000000000        0.0000000000000000     
  0.50000000000000000       0.40625000000000000        0.0000000000000000     
  0.37500000000000000       0.43750000000000000        0.0000000000000000     
  0.40625000000000000       0.43750000000000000        0.0000000000000000     
  0.43750000000000000       0.43750000000000000        0.0000000000000000     
  0.46875000000000000       0.43750000000000000        0.0000000000000000     
  0.50000000000000000       0.43750000000000000        0.0000000000000000     
  0.37500000000000000       0.46875000000000000        0.0000000000000000     
  0.40625000000000000       0.46875000000000000        0.0000000000000000     
  0.43750000000000000       0.46875000000000000        0.0000000000000000     
  0.46875000000000000       0.46875000000000000        0.0000000000000000     
  0.50000000000000000       0.46875000000000000        0.0000000000000000     
  0.37500000000000000       0.50000000000000000        0.0000000000000000     
  0.40625000000000000       0.50000000000000000        0.0000000000000000     
  0.43750000000000000       0.50000000000000000        0.0000000000000000     
  0.46875000000000000       0.50000000000000000        0.0000000000000000     
  0.50000000000000000       0.50000000000000000        0.0000000000000000     
  0.50000000000000000       0.37500000000000000        0.0000000000000000     
  0.53125000000000000       0.37500000000000000        0.0000000000000000     
  0.56250000000000000       0.37500000000000000        0.0000000000000000     
  0.59375000000000000       0.37500000000000000        0.0000000000000000     
  0.62500000000000000       0.37500000000000000        0.0000000000000000     
  0.50000000000000000       0.40625000000000000        0.0000000000000000     
  0.53125000000000000       0.40625000000000000        0.0000000000000000     
  0.56250000000000000       0.40625000000000000        0.0000000000000000     
  0.59375000000000000       0.40625000000000000        0.0000000000000000     
  0.62500000000000000       0.40625000000000000        0.0000000000000000     
  0.50000000000000000       0.43750000000000000        0.0000000000000000     
  0.53125000000000000       0.43750000000000000        0.0000000000000000     
  0.56250000000000000       0.43750000000000000        0.0000000000000000     
  0.59375000000000000       0.43750000000000000        0.0000000000000000     
  0.62500000000000000       0.43750000000000000        0.0000000000000000     
  0.50000000000000000       0.46875000000000000        0.0000000000000000     
  0.53125000000000000       0.46875000000000000        0.0000000000000000     
  0.56250000000000000       0.46875000000000000        0.0000000000000000     
  0.59375000000000000       0.46875000000000000        0.0000000000000000     
  0.62500000000000000       0.46875000000000000        0.0000000000000000     
  0.50000000000000000       0.50000000000000000        0.0000000000000000     
  0.53125000000000000       0.50000000000000000        0.0000000000000000     
  0.56250000000000000       0.50000000000000000        0.0000000000000000     
  0.59375000000000000       0.50000000000000000        0.0000000000000000     
  0.62500000000000000       0.50000000000000000        0.0000000000000000     
  0.62500000000000000       0.37500000000000000        0.0000000000000000     
  0.65625000000000000       0.37500000000000000        0.0000000000000000     
  0.68750000000000000       0.37500000000000000        0.0000000000000000     
  0.71875000000000000       0.37500000000000000        0.0000000000000000     
  0.75000000000000000       0.37500000000000000        0.0000000000000000     
  0.62500000000000000       0.40625000000000000        0.0000000000000000     
  0.65625000000000000       0.40625000000000000        0.0000000000000000     
  0.68750000000000000       0.40625000000000000        0.0000000000000000     
  0.71875000000000000       0.40625000000000000        0.0000000000000000     
  0.75000000000000000       0.40625000000000000        0.0000000000000000     
  0.62500000000000000       0.43750000000000000        0.0000000000000000     
  0.65625000000000000       0.43750000000000000        0.0000000000000000     
  0.68750000000000000       0.43750000000000000        0.0000000000000000     
  0.71875000000000000       0.43750000000000000        0.0000000000000000     
  0.75000000000000000       0.43750000000000000        0.0000000000000000     
  0.62500000000000000       0.46875000000000000        0.0000000000000000     
  0.65625000000000000       0.46875000000000000        0.0000000000000000     
  0.68750000000000000       0.46875000000000000        0.0000000000000000     
  0.71875000000000000       0.46875000000000000        0.0000000000000000     
  0.75000000000000000       0.46875000000000000        0.0000000000000000     
  0.62500000000000000       0.50000000000000000        0.0000000000000000     
  0.65625000000000000       0.50000000000000000        0.0000000000000000     
  0.68750000000000000       0.50000000000000000        0.0000000000000000     
  0.71875000000000000       0.50000000000000000        0.0000000000000000     
  0.75000000000000000       0.50000000000000000        0.0000000000000000     
  0.75000000000000000       0.37500000000000000        0.0000000000000000     
  0.78125000000000000       0.37500000000000000        0.0000000000000000     
  0.81250000000000000       0.37500000000000000        0.0000000000000000     
  0.84375000000000000       0.37500000000000000        0.0000000000000000     
  0.87500000000000000       0.37500000000000000        0.0000000000000000     
  0.75000000000000000       0.40625000000000000        0.0000000000000000     
  0.78125000000000000       0.40625000000000000        0.0000000000000000     
  0.81250000000000000       0.40625000000000000        0.0000000000000000     
  0.84375000000000000       0.40625000000000000        0.0000000000000000     
  0.87500000000000000       0.40625000000000000        0.0000000000000000     
  0.75000000000000000       0.43750000000000000        0.0000000000000000     
  0.78125000000000000       0.43750000000000000        0.0000000000000000     
  0.81250000000000000       0.43750000000000000        0.0000000000000000     
  0.84375000000000000       0.43750000000000000        0.0000000000000000     
  0.87500000000000000       0.43750000000000000        0.0000000000000000     
  0.75000000000000000       0.46875000000000000        0.0000000000000000     
  0.78125000000000000       0.46875000000000000        0.0000000000000000     
  0.81250000000000000       0.46875000000000000        0.0000000000000000     
  0.84375000000000000       0.46875000000000000        0.0000000000000000     
  0.87500000000000000       0.46875000000000000        0.0000000000000000     
  0.75000000000000000       0.50000000000000000        0.0000000000000000     
  0.78125000000000000       0.50000000000000000        0.0000000000000000     
  0.81250000000000000       0.50000000000000000        0.0000000000000000     
  0.84375000000000000       0.50000000000000000        0.0000000000000000     
  0.87500000000000000       0.50000000000000000        0.0000000000000000     
  0.87500000000000000       0.37500000000000000        0.0000000000000000     
  0.90625000000000000       0.37500000000000000        0.0000000000000000     
  0.93750000000000000       0.37500000000000000        0.0000000000000000     
  0.96875000000000000       0.37500000000000000        0.0000000000000000     
   1.0000000000000000       0.37500000000000000        0.0000000000000000     
  0.87500000000000000       0.40625000000000000        0.0000000000000000     
  0.90625000000000000       0.40625000000000000        0.0000000000000000     
  0.93750000000000000       0.40625000000000000        0.0000000000000000     
  0.96875000000000000       0.40625000000000000        0.0000000000000000     
   1.0000000000000000       0.40625000000000000        0.0000000000000000     
  0.87500000000000000       0.43750000000000000        0.0000000000000000     
  0.90625000000000000       0.43750000000000000        0.0000000000000000     
  0.93750000000000000       0.43750000000000000        0.0000000000000000     
  0.96875000000000000       0.43750000000000000        0.0000000000000000     
   1.0000000000000000       0.43750000000000000        0.0000000000000000     
  0.87500000000000000       0.46875000000000000        0.0000000000000000     
  0.90625000000000000       0.46875000000000000        0.0000000000000000     
  0.93750000000000000       0.46875000000000000        0.0000000000000000     
  0.96875000000000000       0.46875000000000000        0.0000000000000000     
   1.0000000000000000       0.46875000000000000        0.0000000000000000     
  0.87500000000000000       0.50000000000000000        0.0000000000000000     
  0.90625000000000000       0.50000000000000000        0.0000000000000000     
  0.93750000000000000       0.50000000000000000        0.0000000000000000     
  0.96875000000000000       0.50000000000000000        0.0000000000000000     
   1.0000000000000000       0.50000000000000000        0.0000000000000000     
   0.0000000000000000       0.50000000000000000        0.0000000000000000     
   3.1250000000000000E-002  0.50000000000000000        0.0000000000000000     
   6.2500000000000000E-002  0.50000000000000000        0.0000000000000000     
   9.3750000000000000E-002  0.50000000000000000        0.0000000000000000     
  0.12500000000000000       0.50000000000000000        0.0000000000000000     
   0.0000000000000000       0.53125000000000000        0.0000000000000000     
   3.1250000000000000E-002  0.53125000000000000        0.0000000000000000     
   6.2500000000000000E-002  0.53125000000000000        0.0000000000000000     
   9.3750000000000000E-002  0.53125000000000000        0.0000000000000000     
  0.12500000000000000       0.53125000000000000        0.0000000000000000     
   0.0000000000000000       0.56250000000000000        0.0000000000000000     
   3.1250000000000000E-002  0.56250000000000000        0.0000000000000000     
   6.2500000000000000E-002  0.56250000000000000        0.0000000000000000     
   9.3750000000000000E-002  0.56250000000000000        0.0000000000000000     
  0.12500000000000000       0.56250000000000000        0.0000000000000000     
   0.0000000000000000       0.59375000000000000        0.0000000000000000     
   3.1250000000000000E-002  0.59375000000000000        0.0000000000000000     
   6.2500000000000000E-002  0.59375000000000000        0.0000000000000000     
   9.3750000000000000E-002  0.59375000000000000        0.0000000000000000     
  0.12500000000000000       0.59375000000000000        0.0000000000000000     
   0.0000000000000000       0.62500000000000000        0.0000000000000000     
   3.1250000000000000E-002  0.62500000000000000        0.0000000000000000     
   6.2500000000000000E-002  0.62500000000000000        0.0000000000000000     
   9.3750000000000000E-002  0.62500000000000000        0.0000000000000000     
  0.12500000000000000       0.62500000000000000        0.0000000000000000     
  0.12500000000000000       0.50000000000000000        0.0000000000000000     
  0.15625000000000000       0.50000000000000000        0.0000000000000000     
  0.18750000000000000       0.50000000000000000        0.0000000000000000     
  0.21875000000000000       0.50000000000000000        0.0000000000000000     
  0.25000000000000000       0.50000000000000000        0.0000000000000000     
  0.12500000000000000       0.53125000000000000        0.0000000000000000     
  0.15625000000000000       0.53125000000000000        0.0000000000000000     
  0.18750000000000000       0.53125000000000000        0.0000000000000000     
  0.21875000000000000       0.53125000000000000        0.0000000000000000     
  0.25000000000000000       0.53125000000000000        0.0000000000000000     
  0.12500000000000000       0.56250000000000000        0.0000000000000000     
  0.15625000000000000       0.56250000000000000        0.0000000000000000     
  0.18750000000000000       0.56250000000000000        0.0000000000000000     
  0.21875000000000000       0.56250000000000000        0.0000000000000000     
  0.25000000000000000       0.56250000000000000        0.0000000000000000     
  0.12500000000000000       0.59375000000000000        0.0000000000000000     
  0.15625000000000000       0.59375000000000000        0.0000000000000000     
  0.18750000000000000       0.59375000000000000        0.0000000000000000     
  0.21875000000000000       0.59375000000000000        0.0000000000000000     
  0.25000000000000000       0.59375000000000000        0.0000000000000000     
  0.12500000000000000       0.62500000000000000        0.0000000000000000     
  0.15625000000000000       0.62500000000000000        0.0000000000000000     
  0.18750000000000000       0.62500000000000000        0.0000000000000000     
  0.21875000000000000       0.62500000000000000        0.0000000000000000     
  0.25000000000000000       0.62500000000000000        0.0000000000000000     
  0.25000000000000000       0.50000000000000000        0.0000000000000000     
  0.28125000000000000       0.50000000000000000        0.0000000000000000     
  0.31250000000000000       0.50000000000000000        0.0000000000000000     
  0.34375000000000000       0.50000000000000000        0.0000000000000000     
  0.37500000000000000       0.50000000000000000        0.0000000000000000     
  0.25000000000000000       0.53125000000000000        0.0000000000000000     
  0.28125000000000000       0.53125000000000000        0.0000000000000000     
  0.31250000000000000       0.53125000000000000        0.0000000000000000     
  0.34375000000000000       0.53125000000000000        0.0000000000000000     
  0.37500000000000000       0.53125000000000000        0.0000000000000000     
  0.25000000000000000       0.56250000000000000        0.0000000000000000     
  0.28125000000000000       0.56250000000000000        0.0000000000000000     
  0.31250000000000000       0.56250000000000000        0.0000000000000000     
  0.34375000000000000       0.56250000000000000        0.0000000000000000     
  0.37500000000000000       0.56250000000000000        0.0000000000000000     
  0.25000000000000000       0.59375000000000000        0.0000000000000000     
  0.28125000000000000       0.59375000000000000        0.0000000000000000     
  0.31250000000000000       0.59375000000000000        0.0000000000000000     
  0.34375000000000000       0.59375000000000000        0.0000000000000000     
  0.37500000000000000       0.59375000000000000        0.0000000000000000     
  0.25000000000000000       0.62500000000000000        0.0000000000000000     
  0.28125000000000000       0.62500000000000000        0.0000000000000000     
  0.31250000000000000       0.62500000000000000        0.0000000000000000     
  0.34375000000000000       0.62500000000000000        0.0000000000000000     
  0.37500000000000000       0.62500000000000000        0.0000000000000000     
  0.37500000000000000       0.50000000000000000        0.0000000000000000     
  0.40625000000000000       0.50000000000000000        0.0000000000000000     
  0.43750000000000000       0.50000000000000000        0.0000000000000000     
  0.46875000000000000       0.50000000000000000        0.0000000000000000     
  0.50000000000000000       0.50000000000000000        0.0000000000000000     
  0.37500000000000000       0.53125000000000000        0.0000000000000000     
  0.40625000000000000       0.53125000000000000        0.0000000000000000     
  0.43750000000000000       0.53125000000000000        0.0000000000000000     
  0.46875000000000000       0.53125000000000000        0.0000000000000000     
  0.50000000000000000       0.53125000000000000        0.0000000000000000     
  0.37500000000000000       0.56250000000000000        0.0000000000000000     
  0.40625000000000000       0.56250000000000000        0.0000000000000000     
  0.43750000000000000       0.56250000000000000        0.0000000000000000     
  0.46875000000000000       0.56250000000000000        0.0000000000000000     
  0.50000000000000000       0.56250000000000000        0.0000000000000000     
  0.37500000000000000       0.59375000000000000        0.0000000000000000     
  0.40625000000000000       0.59375000000000000        0.0000000000000000     
  0.43750000000000000       0.59375000000000000        0.0000000000000000     
  0.46875000000000000       0.59375000000000000        0.0000000000000000     
  0.50000000000000000       0.59375000000000000        0.0000000000000000     
  0.37500000000000000       0.62500000000000000        0.0000000000000000     
  0.40625000000000000       0.62500000000000000        0.0000000000000000     
  0.43750000000000000       0.62500000000000000        0.0000000000000000     
  0.46875000000000000       0.62500000000000000        0.0000000000000000     
  0.50000000000000000       0.62500000000000000        0.0000000000000000     
  0.50000000000000000       0.50000000000000000        0.0000000000000000     
  0.53125000000000000       0.50000000000000000        0.0000000000000000     
  0.56250000000000000       0.50000000000000000        0.0000000000000000     
  0.59375000000000000       0.50000000000000000        0.0000000000000000     
  0.62500000000000000       0.50000000000000000        0.0000000000000000     
  0.50000000000000000       0.53125000000000000        0.0000000000000000     
  0.53125000000000000       0.53125000000000000        0.0000000000000000     
  0.56250000000000000       0.53125000000000000        0.0000000000000000     
  0.59375000000000000       0.53125000000000000        0.0000000000000000     
  0.62500000000000000       0.53125000000000000        0.0000000000000000     
  0.50000000000000000       0.56250000000000000        0.0000000000000000     
  0.53125000000000000       0.56250000000000000        0.0000000000000000     
  0.56250000000000000       0.56250000000000000        0.0000000000000000     
  0.59375000000000000       0.56250000000000000        0.0000000000000000     
  0.62500000000000000       0.56250000000000000        0.0000000000000000     
  0.50000000000000000       0.59375000000000000        0.0000000000000000     
  0.53125000000000000       0.59375000000000000        0.0000000000000000     
  0.56250000000000000       0.59375000000000000        0.0000000000000000     
  0.59375000000000000       0.59375000000000000        0.0000000000000000     
  0.62500000000000000       0.59375000000000000        0.0000000000000000     
  0.50000000000000000       0.62500000000000000        0.0000000000000000     
  0.53125000000000000       0.62500000000000000        0.0000000000000000     
  0.56250000000000000       0.62500000000000000        0.0000000000000000     
  0.59375000000000000       0.62500000000000000        0.0000000000000000     
  0.62500000000000000       0.62500000000000000        0.0000000000000000     
  0.62500000000000000       0.50000000000000000        0.0000000000000000     
  0.65625000000000000       0.50000000000000000        0.0000000000000000     
  0.68750000000000000       0.50000000000000000        0.0000000000000000     
  0.71875000000000000       0.50000000000000000        0.0000000000000000     
  0.75000000000000000       0.50000000000000000        0.0000000000000000     
  0.62500000000000000       0.53125000000000000        0.0000000000000000     
  0.65625000000000000       0.53125000000000000        0.0000000000000000     
  0.68750000000000000       0.53125000000000000        0.0000000000000000     
  0.71875000000000000       0.53125000000000000        0.0000000000000000     
  0.75000000000000000       0.53125000000000000        0.0000000000000000     
  0.62500000000000000       0.56250000000000000        0.0000000000000000     
  0.65625000000000000       0.56250000000000000        0.0000000000000000     
  0.68750000000000000       0.56250000000000000        0.0000000000000000     
  0.71875000000000000       0.56250000000000000        0.0000000000000000     
  0.75000000000000000       0.56250000000000000        0.0000000000000000     
  0.62500000000000000       0.59375000000000000        0.0000000000000000     
  0.65625000000000000       0.59375000000000000        0.0000000000000000     
  0.68750000000000000       0.59375000000000000        0.0000000000000000     
  0.71875000000000000       0.59375000000000000        0.0000000000000000     
  0.75000000000000000       0.59375000000000000        0.0000000000000000     
  0.62500000000000000       0.62500000000000000        0.0000000000000000     
  0.65625000000000000       0.62500000000000000        0.0000000000000000     
  0.68750000000000000       0.62500000000000000        0.0000000000000000     
  0.71875000000000000       0.62500000000000000        0.0000000000000000     
  0.75000000000000000       0.62500000000000000        0.0000000000000000     
  0.75000000000000000       0.50000000000000000        0.0000000000000000     
  0.78125000000000000       0.50000000000000000        0.0000000000000000     
  0.81250000000000000       0.50000000000000000        0.0000000000000000     
  0.84375000000000000       0.50000000000000000        0.0000000000000000     
  0.87500000000000000       0.50000000000000000        0.0000000000000000     
  0.75000000000000000       0.53125000000000000        0.0000000000000000     
  0.78125000000000000       0.53125000000000000        0.0000000000000000     
  0.81250000000000000       0.53125000000000000        0.0000000000000000     
  0.84375000000000000       0.53125000000000000        0.0000000000000000     
  0.87500000000000000       0.53125000000000000        0.0000000000000000     
  0.75000000000000000       0.56250000000000000        0.0000000000000000     
  0.78125000000000000       0.56250000000000000        0.0000000000000000     
  0.81250000000000000       0.56250000000000000        0.0000000000000000     
  0.84375000000000000       0.56250000000000000        0.0000000000000000     
  0.87500000000000000       0.56250000000000000        0.0000000000000000     
  0.75000000000000000       0.59375000000000000        0.0000000000000000     
  0.78125000000000000       0.59375000000000000        0.0000000000000000     
  0.81250000000000000       0.59375000000000000        0.0000000000000000     
  0.84375000000000000       0.59375000000000000        0.0000000000000000     
  0.87500000000000000       0.59375000000000000        0.0000000000000000     
  0.75000000000000000       0.62500000000000000        0.0000000000000000     
  0.78125000000000000       0.62500000000000000        0.0000000000000000     
  0.81250000000000000       0.62500000000000000        0.0000000000000000     
  0.84375000000000000       0.62500000000000000        0.0000000000000000     
  0.87500000000000000       0.62500000000000000        0.0000000000000000     
  0.87500000000000000       0.50000000000000000        0.0000000000000000     
  0.90625000000000000       0.50000000000000000        0.0000000000000000     
  0.93750000000000000       0.50000000000000000        0.0000000000000000     
  0.96875000000000000       0.50000000000000000        0.0000000000000000     
   1.0000000000000000       0.50000000000000000        0.0000000000000000     
  0.87500000000000000       0.53125000000000000        0.0000000000000000     
  0.90625000000000000       0.53125000000000000        0.0000000000000000     
  0.93750000000000000       0.53125000000000000        0.0000000000000000     
  0.96875000000000000       0.53125000000000000        0.0000000000000000     
   1.0000000000000000       0.53125000000000000        0.0000000000000000     
  0.87500000000000000       0.56250000000000000        0.0000000000000000     
  0.90625000000000000       0.56250000000000000        0.0000000000000000     
  0.93750000000000000       0.56250000000000000        0.0000000000000000     
  0.96875000000000000       0.56250000000000000        0.0000000000000000     
   1.0000000000000000       0.56250000000000000        0.0000000000000000     
  0.87500000000000000       0.59375000000000000        0.0000000000000000     
  0.90625000000000000       0.59375000000000000        0.0000000000000000     
  0.93750000000000000       0.59375000000000000        0.0000000000000000     
  0.96875000000000000       0.59375000000000000        0.0000000000000000     
   1.0000000000000000       0.59375000000000000        0.0000000000000000     
  0.87500000000000000       0.62500000000000000        0.0000000000000000     
  0.90625000000000000       0.62500000000000000        0.0000000000000000     
  0.93750000000000000       0.62500000000000000        0.0000000000000000     
  0.96875000000000000       0.62500000000000000        0.0000000000000000     
   1.0000000000000000       0.62500000000000000        0.0000000000000000     
   0.0000000000000000       0.62500000000000000        0.0000000000000000     
   3.1250000000000000E-002  0.62500000000000000        0.0000000000000000     
   6.2500000000000000E-002  0.62500000000000000        0.0000000000000000     
   9.3750000000000000E-002  0.62500000000000000        0.0000000000000000     
  0.12500000000000000       0.62500000000000000        0.0000000000000000     
   0.0000000000000000       0.65625000000000000        0.0000000000000000     
   3.1250000000000000E-002  0.65625000000000000        0.0000000000000000     
   6.2500000000000000E-002  0.65625000000000000        0.0000000000000000     
   9.3750000000000000E-002  0.65625000000000000        0.0000000000000000     
  0.12500000000000000       0.65625000000000000        0.0000000000000000     
   0.0000000000000000       0.68750000000000000        0.0000000000000000     
   3.1250000000000000E-002  0.68750000000000000        0.0000000000000000     
   6.2500000000000000E-002  0.68750000000000000        0.0000000000000000     
   9.3750000000000000E-002  0.68750000000000000        0.0000000000000000     
  0.12500000000000000       0.68750000000000000        0.0000000000000000     
   0.0000000000000000       0.71875000000000000        0.0000000000000000     
   3.1250000000000000E-002  0.71875000000000000        0.0000000000000000     
   6.2500000000000000E-002  0.71875000000000000        0.0000000000000000     
   9.3750000000000000E-002  0.71875000000000000        0.0000000000000000     
  0.12500000000000000       0.71875000000000000        0.0000000000000000     
   0.0000000000000000       0.75000000000000000        0.0000000000000000     
   3.1250000000000000E-002  0.75000000000000000        0.0000000000000000     
   6.2500000000000000E-002  0.75000000000000000        0.0000000000000000     
   9.3750000000000000E-002  0.75000000000000000        0.0000000000000000     
  0.12500000000000000       0.75000000000000000        0.0000000000000000     
  0.12500000000000000       0.62500000000000000        0.0000000000000000     
  0.15625000000000000       0.62500000000000000        0.0000000000000000     
  0.18750000000000000       0.62500000000000000        0.0000000000000000     
  0.21875000000000000       0.62500000000000000        0.0000000000000000     
  0.25000000000000000       0.62500000000000000        0.0000000000000000     
  0.12500000000000000       0.65625000000000000        0.0000000000000000     
  0.15625000000000000       0.65625000000000000        0.0000000000000000     
  0.18750000000000000       0.65625000000000000        0.0000000000000000     
  0.21875000000000000       0.65625000000000000        0.0000000000000000     
  0.25000000000000000       0.65625000000000000        0.0000000000000000     
  0.12500000000000000       0.68750000000000000        0.0000000000000000     
  0.15625000000000000       0.68750000000000000        0.0000000000000000     
  0.18750000000000000       0.68750000000000000        0.0000000000000000     
  0.21875000000000000       0.68750000000000000        0.0000000000000000     
  0.25000000000000000       0.68750000000000000        0.0000000000000000     
  0.12500000000000000       0.71875000000000000        0.0000000000000000     
  0.15625000000000000       0.71875000000000000        0.0000000000000000     
  0.18750000000000000       0.71875000000000000        0.0000000000000000     
  0.21875000000000000       0.71875000000000000        0.0000000000000000     
  0.25000000000000000       0.71875000000000000        0.0000000000000000     
  0.12500000000000000       0.75000000000000000        0.0000000000000000     
  0.15625000000000000       0.75000000000000000        0.0000000000000000     
  0.18750000000000000       0.75000000000000000        0.0000000000000000     
  0.21875000000000000       0.75000000000000000        0.0000000000000000     
  0.25000000000000000       0.75000000000000000        0.0000000000000000     
  0.25000000000000000       0.62500000000000000        0.0000000000000000     
  0.28125000000000000       0.62500000000000000        0.0000000000000000     
  0.31250000000000000       0.62500000000000000        0.0000000000000000     
  0.34375000000000000       0.62500000000000000        0.0000000000000000     
  0.37500000000000000       0.62500000000000000        0.0000000000000000     
  0.25000000000000000       0.65625000000000000        0.0000000000000000     
  0.28125000000000000       0.65625000000000000        0.0000000000000000     
  0.31250000000000000       0.65625000000000000        0.0000000000000000     
  0.34375000000000000       0.65625000000000000        0.0000000000000000     
  0.37500000000000000       0.65625000000000000        0.0000000000000000     
  0.25000000000000000       0.68750000000000000        0.0000000000000000     
  0.28125000000000000       0.68750000000000000        0.0000000000000000     
  0.31250000000000000       0.68750000000000000        0.0000000000000000     
  0.34375000000000000       0.68750000000000000        0.0000000000000000     
  0.37500000000000000       0.68750000000000000        0.0000000000000000     
  0.25000000000000000       0.71875000000000000        0.0000000000000000     
  0.28125000000000000       0.71875000000000000        0.0000000000000000     
  0.31250000000000000       0.71875000000000000        0.0000000000000000     
  0.34375000000000000       0.71875000000000000        0.0000000000000000     
  0.37500000000000000       0.71875000000000000        0.0000000000000000     
  0.25000000000000000       0.75000000000000000        0.0000000000000000     
  0.28125000000000000       0.75000000000000000        0.0000000000000000     
  0.31250000000000000       0.75000000000000000        0.0000000000000000     
  0.34375000000000000       0.75000000000000000        0.0000000000000000     
  0.37500000000000000       0.75000000000000000        0.0000000000000000     
  0.37500000000000000       0.62500000000000000        0.0000000000000000     
  0.40625000000000000       0.62500000000000000        0.0000000000000000     
  0.43750000000000000       0.62500000000000000        0.0000000000000000     
  0.46875000000000000       0.62500000000000000        0.0000000000000000     
  0.50000000000000000       0.62500000000000000        0.0000000000000000     
  0.37500000000000000       0.65625000000000000        0.0000000000000000     
  0.40625000000000000       0.65625000000000000        0.0000000000000000     
  0.43750000000000000       0.65625000000000000        0.0000000000000000     
  0.46875000000000000       0.65625000000000000        0.0000000000000000     
  0.50000000000000000       0.65625000000000000        0.0000000000000000     
  0.37500000000000000       0.68750000000000000        0.0000000000000000     
  0.40625000000000000       0.68750000000000000        0.0000000000000000     
  0.43750000000000000       0.68750000000000000        0.0000000000000000     
  0.46875000000000000       0.68750000000000000        0.0000000000000000     
  0.50000000000000000       0.68750000000000000        0.0000000000000000     
  0.37500000000000000       0.71875000000000000        0.0000000000000000     
  0.40625000000000000       0.71875000000000000        0.0000000000000000     
  0.43750000000000000       0.71875000000000000        0.0000000000000000     
  0.46875000000000000       0.71875000000000000        0.0000000000000000     
  0.50000000000000000       0.71875000000000000        0.0000000000000000     
  0.37500000000000000       0.75000000000000000        0.0000000000000000     
  0.40625000000000000       0.75000000000000000        0.0000000000000000     
  0.43750000000000000       0.75000000000000000        0.0000000000000000     
  0.46875000000000000       0.75000000000000000        0.0000000000000000     
  0.50000000000000000       0.75000000000000000        0.0000000000000000     
  0.50000000000000000       0.62500000000000000        0.0000000000000000     
  0.53125000000000000       0.62500000000000000        0.0000000000000000     
  0.56250000000000000       0.62500000000000000        0.0000000000000000     
  0.59375000000000000       0.62500000000000000        0.0000000000000000     
  0.62500000000000000       0.62500000000000000        0.0000000000000000     
  0.50000000000000000       0.65625000000000000        0.0000000000000000     
  0.53125000000000000       0.65625000000000000        0.0000000000000000     
  0.56250000000000000       0.65625000000000000        0.0000000000000000     
  0.59375000000000000       0.65625000000000000        0.0000000000000000     
  0.62500000000000000       0.65625000000000000        0.0000000000000000     
  0.50000000000000000       0.68750000000000000        0.0000000000000000     
  0.53125000000000000       0.68750000000000000        0.0000000000000000     
  0.56250000000000000       0.68750000000000000        0.0000000000000000     
  0.59375000000000000       0.68750000000000000        0.0000000000000000     
  0.62500000000000000       0.68750000000000000        0.0000000000000000     
  0.50000000000000000       0.71875000000000000        0.0000000000000000     
  0.53125000000000000       0.71875000000000000        0.0000000000000000     
  0.56250000000000000       0.71875000000000000        0.0000000000000000     
  0.59375000000000000       0.71875000000000000        0.0000000000000000     
  0.62500000000000000       0.71875000000000000        0.0000000000000000     
  0.50000000000000000       0.75000000000000000        0.0000000000000000     
  0.53125000000000000       0.75000000000000000        0.0000000000000000     
  0.56250000000000000       0.75000000000000000        0.0000000000000000     
  0.59375000000000000       0.75000000000000000        0.0000000000000000     
  0.62500000000000000       0.75000000000000000        0.0000000000000000     
  0.62500000000000000       0.62500000000000000        0.0000000000000000     
  0.65625000000000000       0.62500000000000000        0.0000000000000000     
  0.68750000000000000       0.62500000000000000        0.0000000000000000     
  0.71875000000000000       0.62500000000000000        0.0000000000000000     
  0.75000000000000000       0.62500000000000000        0.0000000000000000     
  0.62500000000000000       0.65625000000000000        0.0000000000000000     
  0.65625000000000000       0.65625000000000000        0.0000000000000000     
  0.68750000000000000       0.65625000000000000        0.0000000000000000     
  0.71875000000000000       0.65625000000000000        0.0000000000000000     
  0.75000000000000000       0.65625000000000000        0.0000000000000000     
  0.62500000000000000       0.68750000000000000        0.0000000000000000     
  0.65625000000000000       0.68750000000000000        0.0000000000000000     
  0.68750000000000000       0.68750000000000000        0.0000000000000000     
  0.71875000000000000       0.68750000000000000        0.0000000000000000     
  0.75000000000000000       0.68750000000000000        0.0000000000000000     
  0.62500000000000000       0.71875000000000000        0.0000000000000000     
  0.65625000000000000       0.71875000000000000        0.0000000000000000     
  0.68750000000000000       0.71875000000000000        0.0000000000000000     
  0.71875000000000000       0.71875000000000000        0.0000000000000000     
  0.75000000000000000       0.71875000000000000        0.0000000000000000     
  0.62500000000000000       0.75000000000000000        0.0000000000000000     
  0.65625000000000000       0.75000000000000000        0.0000000000000000     
  0.68750000000000000       0.75000000000000000        0.0000000000000000     
  0.71875000000000000       0.75000000000000000        0.0000000000000000     
  0.75000000000000000       0.75000000000000000        0.0000000000000000     
  0.75000000000000000       0.62500000000000000        0.0000000000000000     
  0.78125000000000000       0.62500000000000000        0.0000000000000000     
  0.81250000000000000       0.62500000000000000        0.0000000000000000     
  0.84375000000000000       0.62500000000000000        0.0000000000000000     
  0.87500000000000000       0.62500000000000000        0.0000000000000000     
  0.75000000000000000       0.65625000000000000        0.0000000000000000     
  0.78125000000000000       0.65625000000000000        0.0000000000000000     
  0.81250000000000000       0.65625000000000000        0.0000000000000000     
  0.84375000000000000       0.65625000000000000        0.0000000000000000     
  0.87500000000000000       0.65625000000000000        0.0000000000000000     
  0.75000000000000000       0.68750000000000000        0.0000000000000000     
  0.78125000000000000       0.68750000000000000        0.0000000000000000     
  0.81250000000000000       0.68750000000000000        0.0000000000000000     
  0.84375000000000000       0.68750000000000000        0.0000000000000000     
  0.87500000000000000       0.68750000000000000        0.0000000000000000     
  0.75000000000000000       0.71875000000000000        0.0000000000000000     
  0.78125000000000000       0.71875000000000000        0.0000000000000000     
  0.81250000000000000       0.71875000000000000        0.0000000000000000     
  0.84375000000000000       0.71875000000000000        0.0000000000000000     
  0.87500000000000000       0.71875000000000000        0.0000000000000000     
  0.75000000000000000       0.75000000000000000        0.0000000000000000     
  0.78125000000000000       0.75000000000000000        0.0000000000000000     
  0.81250000000000000       0.75000000000000000        0.0000000000000000     
  0.84375000000000000       0.75000000000000000        0.0000000000000000     
  0.87500000000000000       0.75000000000000000        0.0000000000000000     
  0.87500000000000000       0.62500000000000000        0.0000000000000000     
  0.90625000000000000       0.62500000000000000        0.0000000000000000     
  0.93750000000000000       0.62500000000000000        0.0000000000000000     
  0.96875000000000000       0.62500000000000000        0.0000000000000000     
   1.0000000000000000       0.62500000000000000        0.0000000000000000     
  0.87500000000000000       0.65625000000000000        0.0000000000000000     
  0.90625000000000000       0.65625000000000000        0.0000000000000000     
  0.93750000000000000       0.65625000000000000        0.0000000000000000     
  0.96875000000000000       0.65625000000000000        0.0000000000000000     
   1.0000000000000000       0.65625000000000000        0.0000000000000000     
  0.87500000000000000       0.68750000000000000        0.0000000000000000     
  0.90625000000000000       0.68750000000000000        0.0000000000000000     
  0.93750000000000000       0.68750000000000000        0.0000000000000000     
  0.96875000000000000       0.68750000000000000        0.0000000000000000     
   1.0000000000000000       0.68750000000000000        0.0000000000000000     
  0.87500000000000000       0.71875000000000000        0.0000000000000000     
  0.90625000000000000       0.71875000000000000        0.0000000000000000     
  0.93750000000000000       0.71875000000000000        0.0000000000000000     
  0.96875000000000000       0.71875000000000000        0.0000000000000000     
   1.0000000000000000       0.71875000000000000        0.0000000000000000     
  0.87500000000000000       0.75000000000000000        0.0000000000000000     
  0.90625000000000000       0.75000000000000000        0.0000000000000000     
  0.93750000000000000       0.75000000000000000        0.0000000000000000     
  0.96875000000000000       0.75000000000000000        0.0000000000000000     
   1.0000000000000000       0.75000000000000000        0.0000000000000000     
   0.0000000000000000       0.75000000000000000        0.0000000000000000     
   3.1250000000000000E-002  0.75000000000000000        0.0000000000000000     
   6.2500000000000000E-002  0.75000000000000000        0.0000000000000000     
   9.3750000000000000E-002  0.75000000000000000        0.0000000000000000     
  0.12500000000000000       0.75000000000000000        0.0000000000000000     
   0.0000000000000000       0.78125000000000000        0.0000000000000000     
   3.1250000000000000E-002  0.78125000000000000        0.0000000000000000     
   6.2500000000000000E-002  0.78125000000000000        0.0000000000000000     
   9.3750000000000000E-002  0.78125000000000000        0.0000000000000000     
  0.12500000000000000       0.78125000000000000        0.0000000000000000     
   0.0000000000000000       0.81250000000000000        0.0000000000000000     
   3.1250000000000000E-002  0.81250000000000000        0.0000000000000000     
   6.2500000000000000E-002  0.81250000000000000        0.0000000000000000     
   9.3750000000000000E-002  0.81250000000000000        0.0000000000000000     
  0.12500000000000000       0.81250000000000000        0.0000000000000000     
   0.0000000000000000       0.84375000000000000        0.0000000000000000     
   3.1250000000000000E-002  0.84375000000000000        0.0000000000000000     
   6.2500000000000000E-002  0.84375000000000000        0.0000000000000000     
   9.3750000000000000E-002  0.84375000000000000        0.0000000000000000     
  0.12500000000000000       0.84375000000000000        0.0000000000000000     
   0.0000000000000000       0.87500000000000000        0.0000000000000000     
   3.1250000000000000E-002  0.87500000000000000        0.0000000000000000     
   6.2500000000000000E-002  0.87500000000000000        0.0000000000000000     
   9.3750000000000000E-002  0.87500000000000000        0.0000000000000000     
  0.12500000000000000       0.87500000000000000        0.0000000000000000     
  0.12500000000000000       0.75000000000000000        0.0000000000000000     
  0.15625000000000000       0.75000000000000000        0.0000000000000000     
  0.18750000000000000       0.75000000000000000        0.0000000000000000     
  0.21875000000000000       0.75000000000000000        0.0000000000000000     
  0.25000000000000000       0.75000000000000000        0.0000000000000000     
  0.12500000000000000       0.78125000000000000        0.0000000000000000     
  0.15625000000000000       0.78125000000000000        0.0000000000000000     
  0.18750000000000000       0.78125000000000000        0.0000000000000000     
  0.21875000000000000       0.78125000000000000        0.0000000000000000     
  0.25000000000000000       0.78125000000000000        0.0000000000000000     
  0.12500000000000000       0.81250000000000000        0.0000000000000000     
  0.15625000000000000       0.81250000000000000        0.0000000000000000     
  0.18750000000000000       0.81250000000000000        0.0000000000000000     
  0.21875000000000000       0.81250000000000000        0.0000000000000000     
  0.25000000000000000       0.81250000000000000        0.0000000000000000     
  0.12500000000000000       0.84375000000000000        0.0000000000000000     
  0.15625000000000000       0.84375000000000000        0.0000000000000000     
  0.18750000000000000       0.84375000000000000        0.0000000000000000     
  0.21875000000000000       0.84375000000000000        0.0000000000000000     
  0.25000000000000000       0.84375000000000000        0.0000000000000000     
  0.12500000000000000       0.87500000000000000        0.0000000000000000     
  0.15625000000000000       0.87500000000000000        0.0000000000000000     
  0.18750000000000000       0.87500000000000000        0.0000000000000000     
  0.21875000000000000       0.87500000000000000        0.0000000000000000     
  0.25000000000000000       0.87500000000000000        0.0000000000000000     
  0.25000000000000000       0.75000000000000000        0.0000000000000000     
  0.28125000000000000       0.75000000000000000        0.0000000000000000     
  0.31250000000000000       0.75000000000000000        0.0000000000000000     
  0.34375000000000000       0.75000000000000000        0.0000000000000000     
  0.37500000000000000       0.75000000000000000        0.0000000000000000     
  0.25000000000000000       0.78125000000000000        0.0000000000000000     
  0.28125000000000000       0.78125000000000000        0.0000000000000000     
  0.31250000000000000       0.78125000000000000        0.0000000000000000     
  0.34375000000000000       0.78125000000000000        0.0000000000000000     
  0.37500000000000000       0.78125000000000000        0.0000000000000000     
  0.25000000000000000       0.81250000000000000        0.0000000000000000     
  0.28125000000000000       0.81250000000000000        0.0000000000000000     
  0.31250000000000000       0.81250000000000000        0.0000000000000000     
  0.34375000000000000       0.81250000000000000        0.0000000000000000     
  0.37500000000000000       0.81250000000000000        0.0000000000000000     
  0.25000000000000000       0.84375000000000000        0.0000000000000000     
  0.28125000000000000       0.84375000000000000        0.0000000000000000     
  0.31250000000000000       0.84375000000000000        0.0000000000000000     
  0.34375000000000000       0.84375000000000000        0.0000000000000000     
  0.37500000000000000       0.84375000000000000        0.0000000000000000     
  0.25000000000000000       0.87500000000000000        0.0000000000000000     
  0.28125000000000000       0.87500000000000000        0.0000000000000000     
  0.31250000000000000       0.87500000000000000        0.0000000000000000     
  0.34375000000000000       0.87500000000000000        0.0000000000000000     
  0.37500000000000000       0.87500000000000000        0.0000000000000000     
  0.37500000000000000       0.75000000000000000        0.0000000000000000     
  0.40625000000000000       0.75000000000000000        0.0000000000000000     
  0.43750000000000000       0.75000000000000000        0.0000000000000000     
  0.46875000000000000       0.75000000000000000        0.0000000000000000     
  0.50000000000000000       0.75000000000000000        0.0000000000000000     
  0.37500000000000000       0.78125000000000000        0.0000000000000000     
  0.40625000000000000       0.78125000000000000        0.0000000000000000     
  0.43750000000000000       0.78125000000000000        0.0000000000000000     
  0.46875000000000000       0.78125000000000000        0.0000000000000000     
  0.50000000000000000       0.78125000000000000        0.0000000000000000     
  0.37500000000000000       0.81250000000000000        0.0000000000000000     
  0.40625000000000000       0.81250000000000000        0.0000000000000000     
  0.43750000000000000       0.81250000000000000        0.0000000000000000     
  0.46875000000000000       0.81250000000000000        0.0000000000000000     
  0.50000000000000000       0.81250000000000000        0.0000000000000000     
  0.37500000000000000       0.84375000000000000        0.0000000000000000     
  0.40625000000000000       0.84375000000000000        0.0000000000000000     
  0.43750000000000000       0.84375000000000000        0.0000000000000000     
  0.46875000000000000       0.84375000000000000        0.0000000000000000     
  0.50000000000000000       0.84375000000000000        0.0000000000000000     
  0.37500000000000000       0.87500000000000000        0.0000000000000000     
  0.40625000000000000       0.87500000000000000        0.0000000000000000     
  0.43750000000000000       0.87500000000000000        0.0000000000000000     
  0.46875000000000000       0.87500000000000000        0.0000000000000000     
  0.50000000000000000       0.87500000000000000        0.0000000000000000     
  0.50000000000000000       0.75000000000000000        0.0000000000000000     
  0.53125000000000000       0.75000000000000000        0.0000000000000000     
  0.56250000000000000       0.75000000000000000        0.0000000000000000     
  0.59375000000000000       0.75000000000000000        0.0000000000000000     
  0.62500000000000000       0.75000000000000000        0.0000000000000000     
  0.50000000000000000       0.78125000000000000        0.0000000000000000     
  0.53125000000000000       0.78125000000000000        0.0000000000000000     
  0.56250000000000000       0.78125000000000000        0.0000000000000000     
  0.59375000000000000       0.78125000000000000        0.0000000000000000     
  0.62500000000000000       0.78125000000000000        0.0000000000000000     
  0.50000000000000000       0.81250000000000000        0.0000000000000000     
  0.53125000000000000       0.81250000000000000        0.0000000000000000     
  0.56250000000000000       0.81250000000000000        0.0000000000000000     
  0.59375000000000000       0.81250000000000000        0.0000000000000000     
  0.62500000000000000       0.81250000000000000        0.0000000000000000     
  0.50000000000000000       0.84375000000000000        0.0000000000000000     
  0.53125000000000000       0.84375000000000000        0.0000000000000000     
  0.56250000000000000       0.84375000000000000        0.0000000000000000     
  0.59375000000000000       0.84375000000000000        0.0000000000000000     
  0.62500000000000000       0.84375000000000000        0.0000000000000000     
  0.50000000000000000       0.87500000000000000        0.0000000000000000     
  0.53125000000000000       0.87500000000000000        0.0000000000000000     
  0.56250000000000000       0.87500000000000000        0.0000000000000000     
  0.59375000000000000       0.87500000000000000        0.0000000000000000     
  0.62500000000000000       0.87500000000000000        0.0000000000000000     
  0.62500000000000000       0.75000000000000000        0.0000000000000000     
  0.65625000000000000       0.75000000000000000        0.0000000000000000     
  0.68750000000000000       0.75000000000000000        0.0000000000000000     
  0.71875000000000000       0.75000000000000000        0.0000000000000000     
  0.75000000000000000       0.75000000000000000        0.0000000000000000     
  0.62500000000000000       0.78125000000000000        0.0000000000000000     
  0.65625000000000000       0.78125000000000000        0.0000000000000000     
  0.68750000000000000       0.78125000000000000        0.0000000000000000     
  0.71875000000000000       0.78125000000000000        0.0000000000000000     
  0.75000000000000000       0.78125000000000000        0.0000000000000000     
  0.62500000000000000       0.81250000000000000        0.0000000000000000     
  0.65625000000000000       0.81250000000000000        0.0000000000000000     
  0.68750000000000000       0.81250000000000000        0.0000000000000000     
  0.71875000000000000       0.81250000000000000        0.0000000000000000     
  0.75000000000000000       0.81250000000000000        0.0000000000000000     
  0.62500000000000000       0.84375000000000000        0.0000000000000000     
  0.65625000000000000       0.84375000000000000        0.0000000000000000     
  0.68750000000000000       0.84375000000000000        0.0000000000000000     
  0.71875000000000000       0.84375000000000000        0.0000000000000000     
  0.75000000000000000       0.84375000000000000        0.0000000000000000     
  0.62500000000000000       0.87500000000000000        0.0000000000000000     
  0.65625000000000000       0.87500000000000000        0.0000000000000000     
  0.68750000000000000       0.87500000000000000        0.0000000000000000     
  0.71875000000000000       0.87500000000000000        0.0000000000000000     
  0.75000000000000000       0.87500000000000000        0.0000000000000000     
  0.75000000000000000       0.75000000000000000        0.0000000000000000     
  0.78125000000000000       0.75000000000000000        0.0000000000000000     
  0.81250000000000000       0.75000000000000000        0.0000000000000000     
  0.84375000000000000       0.75000000000000000        0.0000000000000000     
  0.87500000000000000       0.75000000000000000        0.0000000000000000     
  0.75000000000000000       0.78125000000000000        0.0000000000000000     
  0.78125000000000000       0.78125000000000000        0.0000000000000000     
  0.81250000000000000       0.78125000000000000        0.0000000000000000     
  0.84375000000000000       0.78125000000000000        0.0000000000000000     
  0.87500000000000000       0.78125000000000000        0.0000000000000000     
  0.75000000000000000       0.81250000000000000        0.0000000000000000     
  0.78125000000000000       0.81250000000000000        0.0000000000000000     
  0.81250000000000000       0.81250000000000000        0.0000000000000000     
  0.84375000000000000       0.81250000000000000        0.0000000000000000     
  0.87500000000000000       0.81250000000000000        0.0000000000000000     
  0.75000000000000000       0.84375000000000000        0.0000000000000000     
  0.78125000000000000       0.84375000000000000        0.0000000000000000     
  0.81250000000000000       0.84375000000000000        0.0000000000000000     
  0.84375000000000000       0.84375000000000000        0.0000000000000000     
  0.87500000000000000       0.84375000000000000        0.0000000000000000     
  0.75000000000000000       0.87500000000000000        0.0000000000000000     
  0.78125000000000000       0.87500000000000000        0.0000000000000000     
  0.81250000000000000       0.87500000000000000        0.0000000000000000     
  0.84375000000000000       0.87500000000000000        0.0000000000000000     
  0.87500000000000000       0.87500000000000000        0.0000000000000000     
  0.87500000000000000       0.75000000000000000        0.0000000000000000     
  0.90625000000000000       0.75000000000000000        0.0000000000000000     
  0.93750000000000000       0.75000000000000000        0.0000000000000000     
  0.96875000000000000       0.75000000000000000        0.0000000000000000     
   1.0000000000000000       0.75000000000000000        0.0000000000000000     
  0.87500000000000000       0.78125000000000000        0.0000000000000000     
  0.90625000000000000       0.78125000000000000        0.0000000000000000     
  0.93750000000000000       0.78125000000000000        0.0000000000000000     
  0.96875000000000000       0.78125000000000000        0.0000000000000000     
   1.0000000000000000       0.78125000000000000        0.0000000000000000     
  0.87500000000000000       0.81250000000000000        0.0000000000000000     
  0.90625000000000000       0.81250000000000000        0.0000000000000000     
  0.93750000000000000       0.81250000000000000        0.0000000000000000     
  0.96875000000000000       0.81250000000000000        0.0000000000000000     
   1.0000000000000000       0.81250000000000000        0.0000000000000000     
  0.87500000000000000       0.84375000000000000        0.0000000000000000     
  0.90625000000000000       0.84375000000000000        0.0000000000000000     
  0.93750000000000000       0.84375000000000000        0.0000000000000000     
  0.96875000000000000       0.84375000000000000        0.0000000000000000     
   1.0000000000000000       0.84375000000000000        0.0000000000000000     
  0.87500000000000000       0.87500000000000000        0.0000000000000000     
  0.90625000000000000       0.87500000000000000        0.0000000000000000     
  0.93750000000000000       0.87500000000000000        0.0000000000000000     
  0.96875000000000000       0.87500000000000000        0.0000000000000000     
   1.0000000000000000       0.87500000000000000        0.0000000000000000     
   0.0000000000000000       0.87500000000000000        0.0000000000000000     
   3.1250000000000000E-002  0.87500000000000000        0.0000000000000000     
   6.2500000000000000E-002  0.87500000000000000        0.0000000000000000     
   9.3750000000000000E-002  0.87500000000000000        0.0000000000000000     
  0.12500000000000000       0.87500000000000000        0.0000000000000000     
   0.0000000000000000       0.90625000000000000        0.0000000000000000     
   3.1250000000000000E-002  0.90625000000000000        0.0000000000000000     
   6.2500000000000000E-002  0.90625000000000000        0.0000000000000000     
   9.3750000000000000E-002  0.90625000000000000        0.0000000000000000     
  0.12500000000000000       0.90625000000000000        0.0000000000000000     
   0.0000000000000000       0.93750000000000000        0.0000000000000000     
   3.1250000000000000E-002  0.93750000000000000        0.0000000000000000     
   6.2500000000000000E-002  0.93750000000000000        0.0000000000000000     
   9.3750000000000000E-002  0.93750000000000000        0.0000000000000000     
  0.12500000000000000       0.93750000000000000        0.0000000000000000     
   0.0000000000000000       0.96875000000000000        0.0000000000000000     
   3.1250000000000000E-002  0.96875000000000000        0.0000000000000000     
   6.2500000000000000E-002  0.96875000000000000        0.0000000000000000     
   9.3750000000000000E-002  0.96875000000000000        0.0000000000000000     
  0.12500000000000000       0.96875000000000000        0.0000000000000000     
   0.0000000000000000        1.0000000000000000        0.0000000000000000     
   3.1250000000000000E-002   1.0000000000000000        0.0000000000000000     
   6.2500000000000000E-002   1.0000000000000000        0.0000000000000000     
   9.3750000000000000E-002   1.0000000000000000        0.0000000000000000     
  0.12500000000000000        1.0000000000000000        0.0000000000000000     
  0.12500000000000000       0.87500000000000000        0.0000000000000000     
  0.15625000000000000       0.87500000000000000        0.0000000000000000     
  0.18750000000000000       0.87500000000000000        0.0000000000000000     
  0.21875000000000000       0.87500000000000000        0.0000000000000000     
  0.25000000000000000       0.87500000000000000        0.0000000000000000     
  0.12500000000000000       0.90625000000000000        0.0000000000000000     
  0.15625000000000000       0.90625000000000000        0.0000000000000000     
  0.18750000000000000       0.90625000000000000        0.0000000000000000     
  0.21875000000000000       0.90625000000000000        0.0000000000000000     
  0.25000000000000000       0.90625000000000000        0.0000000000000000     
  0.12500000000000000       0.93750000000000000        0.0000000000000000     
  0.15625000000000000       0.93750000000000000        0.0000000000000000     
  0.18750000000000000       0.93750000000000000        0.0000000000000000     
  0.21875000000000000       0.93750000000000000        0.0000000000000000     
  0.25000000000000000       0.93750000000000000        0.0000000000000000     
  0.12500000000000000       0.96875000000000000        0.0000000000000000     
  0.15625000000000000       0.96875000000000000        0.0000000000000000     
  0.18750000000000000       0.96875000000000000        0.0000000000000000     
  0.21875000000000000       0.96875000000000000        0.0000000000000000     
  0.25000000000000000       0.96875000000000000        0.0000000000000000     
  0.12500000000000000        1.0000000000000000        0.0000000000000000     
  0.15625000000000000        1.0000000000000000        0.0000000000000000     
  0.18750000000000000        1.0000000000000000        0.0000000000000000     
  0.21875000000000000        1.0000000000000000        0.0000000000000000     
  0.25000000000000000        1.0000000000000000        0.0000000000000000     
  0.25000000000000000       0.87500000000000000        0.0000000000000000     
  0.28125000000000000       0.87500000000000000        0.0000000000000000     
  0.31250000000000000       0.87500000000000000        0.0000000000000000     
  0.34375000000000000       0.87500000000000000        0.0000000000000000     
  0.37500000000000000       0.87500000000000000        0.0000000000000000     
  0.25000000000000000       0.90625000000000000        0.0000000000000000     
  0.28125000000000000       0.90625000000000000        0.0000000000000000     
  0.31250000000000000       0.90625000000000000        0.0000000000000000     
  0.34375000000000000       0.90625000000000000        0.0000000000000000     
  0.37500000000000000       0.90625000000000000        0.0000000000000000     
  0.25000000000000000       0.93750000000000000        0.0000000000000000     
  0.28125000000000000       0.93750000000000000        0.0000000000000000     
  0.31250000000000000       0.93750000000000000        0.0000000000000000     
  0.34375000000000000       0.93750000000000000        0.0000000000000000     
  0.37500000000000000       0.93750000000000000        0.0000000000000000     
  0.25000000000000000       0.96875000000000000        0.0000000000000000     
  0.28125000000000000       0.96875000000000000        0.0000000000000000     
  0.31250000000000000       0.96875000000000000        0.0000000000000000     
  0.34375000000000000       0.96875000000000000        0.0000000000000000     
  0.37500000000000000       0.96875000000000000        0.0000000000000000     
  0.25000000000000000        1.0000000000000000        0.0000000000000000     
  0.28125000000000000        1.0000000000000000        0.0000000000000000     
  0.31250000000000000        1.0000000000000000        0.0000000000000000     
  0.34375000000000000        1.0000000000000000        0.0000000000000000     
  0.37500000000000000        1.0000000000000000        0.0000000000000000     
  0.37500000000000000       0.87500000000000000        0.0000000000000000     
  0.40625000000000000       0.87500000000000000        0.0000000000000000     
  0.43750000000000000       0.87500000000000000        0.0000000000000000     
  0.46875000000000000       0.87500000000000000        0.0000000000000000     
  0.50000000000000000       0.87500000000000000        0.0000000000000000     
  0.37500000000000000       0.90625000000000000        0.0000000000000000     
  0.40625000000000000       0.90625000000000000        0.0000000000000000     
  0.43750000000000000       0.90625000000000000        0.0000000000000000     
  0.46875000000000000       0.90625000000000000        0.0000000000000000     
  0.50000000000000000       0.90625000000000000        0.0000000000000000     
  0.37500000000000000       0.93750000000000000        0.0000000000000000     
  0.40625000000000000       0.93750000000000000        0.0000000000000000     
  0.43750000000000000       0.93750000000000000        0.0000000000000000     
  0.46875000000000000       0.93750000000000000        0.0000000000000000     
  0.50000000000000000       0.93750000000000000        0.0000000000000000     
  0.37500000000000000       0.96875000000000000        0.0000000000000000     
  0.40625000000000000       0.96875000000000000        0.0000000000000000     
  0.43750000000000000       0.96875000000000000        0.0000000000000000     
  0.46875000000000000       0.96875000000000000        0.0000000000000000     
  0.50000000000000000       0.96875000000000000        0.0000000000000000     
  0.37500000000000000        1.0000000000000000        0.0000000000000000     
  0.40625000000000000        1.0000000000000000        0.0000000000000000     
  0.43750000000000000        1.0000000000000000        0.0000000000000000     
  0.46875000000000000        1.0000000000000000        0.0000000000000000     
  0.50000000000000000        1.0000000000000000        0.0000000000000000     
  0.50000000000000000       0.87500000000000000        0.0000000000000000     
  0.53125000000000000       0.87500000000000000        0.0000000000000000     
  0.56250000000000000       0.87500000000000000        0.0000000000000000     
  0.59375000000000000       0.87500000000000000        0.0000000000000000     
  0.62500000000000000       0.87500000000000000        0.0000000000000000     
  0.50000000000000000       0.90625000000000000        0.0000000000000000     
  0.53125000000000000       0.90625000000000000        0.0000000000000000     
  0.56250000000000000       0.90625000000000000        0.0000000000000000     
  0.59375000000000000       0.90625000000000000        0.0000000000000000     
  0.62500000000000000       0.90625000000000000        0.0000000000000000     
  0.50000000000000000       0.93750000000000000        0.0000000000000000     
  0.53125000000000000       0.93750000000000000        0.0000000000000000     
  0.56250000000000000       0.93750000000000000        0.0000000000000000     
  0.59375000000000000       0.93750000000000000        0.0000000000000000     
  0.62500000000000000       0.93750000000000000        0.0000000000000000     
  0.50000000000000000       0.96875000000000000        0.0000000000000000     
  0.53125000000000000       0.96875000000000000        0.0000000000000000     
  0.56250000000000000       0.96875000000000000        0.0000000000000000     
  0.59375000000000000       0.96875000000000000        0.0000000000000000     
  0.62500000000000000       0.96875000000000000        0.0000000000000000     
  0.50000000000000000        1.0000000000000000        0.0000000000000000     
  0.53125000000000000        1.0000000000000000        0.0000000000000000     
  0.56250000000000000        1.0000000000000000        0.0000000000000000     
  0.59375000000000000        1.0000000000000000        0.0000000000000000     
  0.62500000000000000        1.0000000000000000        0.0000000000000000     
  0.62500000000000000       0.87500000000000000        0.0000000000000000     
  0.65625000000000000       0.87500000000000000        0.0000000000000000     
  0.68750000000000000       0.87500000000000000        0.0000000000000000     
  0.71875000000000000       0.87500000000000000        0.0000000000000000     
  0.75000000000000000       0.87500000000000000        0.0000000000000000     
  0.62500000000000000       0.90625000000000000        0.0000000000000000     
  0.65625000000000000       0.90625000000000000        0.0000000000000000     
  0.68750000000000000       0.90625000000000000        0.0000000000000000     
  0.71875000000000000       0.90625000000000000        0.0000000000000000     
  0.75000000000000000       0.90625000000000000        0.0000000000000000     
  0.62500000000000000       0.93750000000000000        0.0000000000000000     
  0.65625000000000000       0.93750000000000000        0.0000000000000000     
  0.68750000000000000       0.93750000000000000        0.0000000000000000     
  0.71875000000000000       0.93750000000000000        0.0000000000000000     
  0.75000000000000000       0.93750000000000000        0.0000000000000000     
  0.62500000000000000       0.96875000000000000        0.0000000000000000     
  0.65625000000000000       0.96875000000000000        0.0000000000000000     
  0.68750000000000000       0.96875000000000000        0.0000000000000000     
  0.71875000000000000       0.96875000000000000        0.0000000000000000     
  0.75000000000000000       0.96875000000000000        0.0000000000000000     
  0.62500000000000000        1.0000000000000000        0.0000000000000000     
  0.65625000000000000        1.0000000000000000        0.0000000000000000     
  0.68750000000000000        1.0000000000000000        0.0000000000000000     
  0.71875000000000000        1.0000000000000000        0.0000000000000000     
  0.75000000000000000        1.0000000000000000        0.0000000000000000     
  0.75000000000000000       0.87500000000000000        0.0000000000000000     
  0.78125000000000000       0.87500000000000000        0.0000000000000000     
  0.81250000000000000       0.87500000000000000        0.0000000000000000     
  0.84375000000000000       0.87500000000000000        0.0000000000000000     
  0.87500000000000000       0.87500000000000000        0.0000000000000000     
  0.75000000000000000       0.90625000000000000        0.0000000000000000     
  0.78125000000000000       0.90625000000000000        0.0000000000000000     
  0.81250000000000000       0.90625000000000000        0.0000000000000000     
  0.84375000000000000       0.90625000000000000        0.0000000000000000     
  0.87500000000000000       0.90625000000000000        0.0000000000000000     
  0.75000000000000000       0.93750000000000000        0.0000000000000000     
  0.78125000000000000       0.93750000000000000        0.0000000000000000     
  0.81250000000000000       0.93750000000000000        0.0000000000000000     
  0.84375000000000000       0.93750000000000000        0.0000000000000000     
  0.87500000000000000       0.93750000000000000        0.0000000000000000     
  0.75000000000000000       0.96875000000000000        0.0000000000000000     
  0.78125000000000000       0.96875000000000000        0.0000000000000000     
  0.81250000000000000       0.96875000000000000        0.0000000000000000     
  0.84375000000000000       0.96875000000000000        0.0000000000000000     
  0.87500000000000000       0.96875000000000000        0.0000000000000000     
  0.75000000000000000        1.0000000000000000        0.0000000000000000     
  0.78125000000000000        1.0000000000000000        0.0000000000000000     
  0.81250000000000000        1.0000000000000000        0.0000000000000000     
  0.84375000000000000        1.0000000000000000        0.0000000000000000     
  0.87500000000000000        1.0000000000000000        0.0000000000000000     
  0.87500000000000000       0.87500000000000000        0.0000000000000000     
  0.90625000000000000       0.87500000000000000        0.0000000000000000     
  0.93750000000000000       0.87500000000000000        0.0000000000000000     
  0.96875000000000000       0.87500000000000000        0.0000000000000000     
   1.0000000000000000       0.87500000000000000        0.0000000000000000     
  0.87500000000000000       0.90625000000000000        0.0000000000000000     
  0.90625000000000000       0.90625000000000000        0.0000000000000000     
  0.93750000000000000       0.90625000000000000        0.0000000000000000     
  0.96875000000000000       0.90625000000000000        0.0000000000000000     
   1.0000000000000000       0.90625000000000000        0.0000000000000000     
  0.87500000000000000       0.93750000000000000        0.0000000000000000     
  0.90625000000000000       0.93750000000000000        0.0000000000000000     
  0.93750000000000000       0.93750000000000000        0.0000000000000000     
  0.96875000000000000       0.93750000000000000        0.0000000000000000     
   1.0000000000000000       0.93750000000000000        0.0000000000000000     
  0.87500000000000000       0.96875000000000000        0.0000000000000000     
  0.90625000000000000       0.96875000000000000        0.0000000000000000     
  0.93750000000000000       0.96875000000000000        0.0000000000000000     
  0.96875000000000000       0.96875000000000000        0.0000000000000000     
   1.0000000000000000       0.96875000000000000        0.0000000000000000     
  0.87500000000000000        1.0000000000000000        0.0000000000000000     
  0.90625000000000000        1.0000000000000000        0.0000000000000000     
  0.93750000000000000        1.0000000000000000        0.0000000000000000     
  0.96875000000000000        1.0000000000000000        0.0000000000000000     
   1.0000000000000000        1.0000000000000000        0.0000000000000000     
 </DataArray>
 </Points>
 <Cells>
 <DataArray  type="Int32"  Name="connectivity"  format="ascii">
           0           1           6           5
           1           2           7           6
           2           3           8           7
           3           4           9           8
           5           6          11          10
           6           7          12          11
           7           8          13          12
           8           9          14          13
          10          11          16          15
          11          12          17          16
          12          13          18          17
          13          14          19          18
          15          16          21          20
          16          17          22          21
          17          18          23          22
          18          19          24          23
          25          26          31          30
          26          27          32          31
          27          28          33          32
          28          29          34          33
          30          31          36          35
          31          32          37          36
          32          33          38          37
          33          34          39          38
          35          36          41          40
          36          37          42          41
          37          38          43          42
          38          39          44          43
          40          41          46          45
          41          42          47          46
          42          43          48          47
          43          44          49          48
          50          51          56          55
          51          52          57          56
          52          53          58          57
          53          54          59          58
          55          56          61          60
          56          57          62          61
          57          58          63          62
          58          59          64          63
          60          61          66          65
          61          62          67          66
          62          63          68          67
          63          64          69          68
          65          66          71          70
          66          67          72          71
          67          68          73          72
          68          69          74          73
          75          76          81          80
          76          77          82          81
          77          78          83          82
          78          79          84          83
          80          81          86          85
          81          82          87          86
          82          83          88          87
          83          84          89          88
          85          86          91          90
          86          87          92          91
          87          88          93          92
          88          89          94          93
          90          91          96          95
          91          92          97          96
          92          93          98          97
          93          94          99          98
         100         101         106         105
         101         102         107         106
         102         103         108         107
         103         104         109         108
         105         106         111         110
         106         107         112         111
         107         108         113         112
         108         109         114         113
         110         111         116         115
         111         112         117         116
         112         113         118         117
         113         114         119         118
         115         116         121         120
         116         117         122         121
         117         118         123         122
         118         119         124         123
         125         126         131         130
         126         127         132         131
         127         128         133         132
         128         129         134         133
         130         131         136         135
         131         132         137         136
         132         133         138         137
         133         134         139         138
         135         136         141         140
         136         137         142         141
         137         138         143         142
         138         139         144         143
         140         141         146         145
         141         142         147         146
         142         143         148         147
         143         144         149         148
         150         151         156         155
         151         152         157         156
         152         153         158         157
         153         154         159         158
         155         156         161         160
         156         157         162         161
         157         158         163         162
         158         159         164         163
         160         161         166         165
         161         162         167         166
         162         163         168         167
         163         164         169         168
         165         166         171         170
         166         167         172         171
         167         168         173         172
         168         169         174         173
         175         176         181         180
         176         177         182         181
         177         178         183         182
         178         179         184         183
         180         181         186         185
         181         182         187         186
         182         183         188         187
         183         184         189         188
         185         186         191         190
         186         187         192         191
         187         188         193         192
         188         189         194         193
         190         191         196         195
         191         192         197         196
         192         193         198         197
         193         194         199         198
         200         201         206         205
         201         202         207         206
         202         203         208         207
         203         204         209         208
         205         206         211         210
         206         207         212         211
         207         208         213         212
         208         209         214         213
         210         211         216         215
         211         212         217         216
         212         213         218         217
         213         214         219         218
         215         216         221         220
         216         217         222         221
         217         218         223         222
         218         219         224         223
         225         226         231         230
         226         227         232         231
         227         228         233         232
         228         229         234         233
         230         231         236         235
         231         232         237         236
         232         233         238         237
         233         234         239         238
         235         236         241         240
         236         237         242         241
         237         238         243         242
         238         239         244         243
         240         241         246         245
         241         242         247         246
         242         243         248         247
         243         244         249         248
         250         251         256         255
         251         252         257         256
         252         253         258         257
         253         254         259         258
         255         256         261         260
         256         257         262         261
         257         258         263         262
         258         259         264         263
         260         261         266         265
         261         262         267         266
         262         263         268         267
         263         264         269         268
         265         266         271         270
         266         267         272         271
         267         268         273         272
         268         269         274         273
         275         276         281         280
         276         277         282         281
         277         278         283         282
         278         279         284         283
         280         281         286         285
         281         282         287         286
         282         283         288         287
         283         284         289         288
         285         286         291         290
         286         287         292         291
         287         288         293         292
         288         289         294         293
         290         291         296         295
         291         292         297         296
         292         293         298         297
         293         294         299         298
         300         301         306         305
         301         302         307         306
         302         303         308         307
         303         304         309         308
         305         306         311         310
         306         307         312         311
         307         308         313         312
         308         309         314         313
         310         311         316         315
         311         312         317         316
         312         313         318         317
         313         314         319         318
         315         316         321         320
         316         317         322         321
         317         318         323         322
         318         319         324         323
         325         326         331         330
         326         327         332         331
         327         328         333         332
         328         329         334         333
         330         331         336         335
         331         332         337         336
         332         333         338         337
         333         334         339         338
         335         336         341         340
         336         337         342         341
         337         338         343         342
         338         339         344         343
         340         341         346         345
         341         342         347         346
         342         343         348         347
         343         344         349         348
         350         351         356         355
         351         352         357         356
         352         353         358         357
         353         354         359         358
         355         356         361         360
         356         357         362         361
         357         358         363         362
         358         359         364         363
         360         361         366         365
         361         362         367         366
         362         363         368         367
         363         364         369         368
         365         366         371         370
         366         367         372         371
         367         368         373         372
         368         369         374         373
         375         376         381         380
         376         377         382         381
         377         378         383         382
         378         379         384         383
         380         381         386         385
         381         382         387         386
         382         383         388         387
         383         384         389         388
         385         386         391         390
         386         387         392         391
         387         388         393         392
         388         389         394         393
         390         391         396         395
         391         392         397         396
         392         393         398         397
         393         394         399         398
         400         401         406         405
         401         402         407         406
         402         403         408         407
         403         404         409         408
         405         406         411         410
         406         407         412         411
         407         408         413         412
         408         409         414         413
         410         411         416         415
         411         412         417         416
         412         413         418         417
         413         414         419         418
         415         416         421         420
         416         417         422         421
         417         418         423         422
         418         419         424         423
         425         426         431         430
         426         427         432         431
         427         428         433         432
         428         429         434         433
         430         431         436         435
         431         432         437         436
         432         433         438         437
         433         434         439         438
         435         436         441         440
         436         437         442         441
         437         438         443         442
         438         439         444         443
         440         441         446         445
         441         442         447         446
         442         443         448         447
         443         444         449         448
         450         451         456         455
         451         452         457         456
         452         453         458         457
         453         454         459         458
         455         456         461         460
         456         457         462         461
         457         458         463         462
         458         459         464         463
         460         461         466         465
         461         462         467         466
         462         463         468         467
         463         464         469         468
         465         466         471         470
         466         467         472         471
         467         468         473         472
         468         469         474         473
         475         476         481         480
         476         477         482         481
         477         478         483         482
         478         479         484         483
         480         481         486         485
         481         482         487         486
         482         483         488         487
         483         484         489         488
         485         486         491         490
         486         487         492         491
         487         488         493         492
         488         489         494         493
         490         491         496         495
         491         492         497         496
         492         493         498         497
         493         494         499         498
         500         501         506         505
         501         502         507         506
         502         503         508         507
         503         504         509         508
         505         506         511         510
         506         507         512         511
         507         508         513         512
         508         509         514         513
         510         511         516         515
         511         512         517         516
         512         513         518         517
         513         514         519         518
         515         516         521         520
         516         517         522         521
         517         518         523         522
         518         519         524         523
         525         526         531         530
         526         527         532         531
         527         528         533         532
         528         529         534         533
         530         531         536         535
         531         532         537         536
         532         533         538         537
         533         534         539         538
         535         536         541         540
         536         537         542         541
         537         538         543         542
         538         539         544         543
         540         541         546         545
         541         542         547         546
         542         543         548         547
         543         544         549         548
         550         551         556         555
         551         552         557         556
         552         553         558         557
         553         554         559         558
         555         556         561         560
         556         557         562         561
         557         558         563         562
         558         559         564         563
         560         561         566         565
         561         562         567         566
         562         563         568         567
         563         564         569         568
         565         566         571         570
         566         567         572         571
         567         568         573         572
         568         569         574         573
         575         576         581         580
         576         577         582         581
         577         578         583         582
         578         579         584         583
         580         581         586         585
         581         582         587         586
         582         583         588         587
         583         584         589         588
         585         586         591         590
         586         587         592         591
         587         588         593         592
         588         589         594         593
         590         591         596         595
         591         592         597         596
         592         593         598         597
         593         594         599         598
         600         601         606         605
         601         602         607         606
         602         603         608         607
         603         604         609         608
         605         606         611         610
         606         607         612         611
         607         608         613         612
         608         609         614         613
         610         611         616         615
         611         612         617         616
         612         613         618         617
         613         614         619         618
         615         616         621         620
         616         617         622         621
         617         618         623         622
         618         619         624         623
         625         626         631         630
         626         627         632         631
         627         628         633         632
         628         629         634         633
         630         631         636         635
         631         632         637         636
         632         633         638         637
         633         634         639         638
         635         636         641         640
         636         637         642         641
         637         638         643         642
         638         639         644         643
         640         641         646         645
         641         642         647         646
         642         643         648         647
         643         644         649         648
         650         651         656         655
         651         652         657         656
         652         653         658         657
         653         654         659         658
         655         656         661         660
         656         657         662         661
         657         658         663         662
         658         659         664         663
         660         661         666         665
         661         662         667         666
         662         663         668         667
         663         664         669         668
         665         666         671         670
         666         667         672         671
         667         668         673         672
         668         669         674         673
         675         676         681         680
         676         677         682         681
         677         678         683         682
         678         679         684         683
         680         681         686         685
         681         682         687         686
         682         683         688         687
         683         684         689         688
         685         686         691         690
         686         687         692         691
         687         688         693         692
         688         689         694         693
         690         691         696         695
         691         692         697         696
         692         693         698         697
         693         694         699         698
         700         701         706         705
         701         702         707         706
         702         703         708         707
         703         704         709         708
         705         706         711         710
         706         707         712         711
         707         708         713         712
         708         709         714         713
         710         711         716         715
         711         712         717         716
         712         713         718         717
         713         714         719         718
         715         716         721         720
         716         717         722         721
         717         718         723         722
         718         719         724         723
         725         726         731         730
         726         727         732         731
         727         728         733         732
         728         729         734         733
         730         731         736         735
         731         732         737         736
         732         733         738         737
         733         734         739         738
         735         736         741         740
         736         737         742         741
         737         738         743         742
         738         739         744         743
         740         741         746         745
         741         742         747         746
         742         743         748         747
         743         744         749         748
         750         751         756         755
         751         752         757         756
         752         753         758         757
         753         754         759         758
         755         756         761         760
         756         757         762         761
         757         758         763         762
         758         759         764         763
         760         761         766         765
         761         762         767         766
         762         763         768         767
         763         764         769         768
         765         766         771         770
         766         767         772         771
         767         768         773         772
         768         769         774         773
         775         776         781         780
         776         777         782         781
         777         778         783         782
         778         779         784         783
         780         781         786         785
         781         782         787         786
         782         783         788         787
         783         784         789         788
         785         786         791         790
         786         787         792         791
         787         788         793         792
         788         789         794         793
         790         791         796         795
         791         792         797         796
         792         793         798         797
         793         794         799         798
         800         801         806         805
         801         802         807         806
         802         803         808         807
         803         804         809         808
         805         806         811         810
         806         807         812         811
         807         808         813         812
         808         809         814         813
         810         811         816         815
         811         812         817         816
         812         813         818         817
         813         814         819         818
         815         816         821         820
         816         817         822         821
         817         818         823         822
         818         819         824         823
         825         826         831         830
         826         827         832         831
         827         828         833         832
         828         829         834         833
         830         831         836         835
         831         832         837         836
         832         833         838         837
         833         834         839         838
         835         836         841         840
         836         837         842         841
         837         838         843         842
         838         839         844         843
         840         841         846         845
         841         842         847         846
         842         843         848         847
         843         844         849         848
         850         851         856         855
         851         852         857         856
         852         853         858         857
         853         854         859         858
         855         856         861         860
         856         857         862         861
         857         858         863         862
         858         859         864         863
         860         861         866         865
         861         862         867         866
         862         863         868         867
         863         864         869         868
         865         866         871         870
         866         867         872         871
         867         868         873         872
         868         869         874         873
         875         876         881         880
         876         877         882         881
         877         878         883         882
         878         879         884         883
         880         881         886         885
         881         882         887         886
         882         883         888         887
         883         884         889         888
         885         886         891         890
         886         887         892         891
         887         888         893         892
         888         889         894         893
         890         891         896         895
         891         892         897         896
         892         893         898         897
         893         894         899         898
         900         901         906         905
         901         902         907         906
         902         903         908         907
         903         904         909         908
         905         906         911         910
         906         907         912         911
         907         908         913         912
         908         909         914         913
         910         911         916         915
         911         912         917         916
         912         913         918         917
         913         914         919         918
         915         916         921         920
         916         917         922         921
         917         918         923         922
         918         919         924         923
         925         926         931         930
         926         927         932         931
         927         928         933         932
         928         929         934         933
         930         931         936         935
         931         932         937         936
         932         933         938         937
         933         934         939         938
         935         936         941         940
         936         937         942         941
         937         938         943         942
         938         939         944         943
         940         941         946         945
         941         942         947         946
         942         943         948         947
         943         944         949         948
         950         951         956         955
         951         952         957         956
         952         953         958         957
         953         954         959         958
         955         956         961         960
         956         957         962         961
         957         958         963         962
         958         959         964         963
         960         961         966         965
         961         962         967         966
         962         963         968         967
         963         964         969         968
         965         966         971         970
         966         967         972         971
         967         968         973         972
         968         969         974         973
         975         976         981         980
         976         977         982         981
         977         978         983         982
         978         979         984         983
         980         981         986         985
         981         982         987         986
         982         983         988         987
         983         984         989         988
         985         986         991         990
         986         987         992         991
         987         988         993         992
         988         989         994         993
         990         991         996         995
         991         992         997         996
         992         993         998         997
         993         994         999         998
        1000        1001        1006        1005
        1001        1002        1007        1006
        1002        1003        1008        1007
        1003        1004        1009        1008
        1005        1006        1011        1010
        1006        1007        1012        1011
        1007        1008        1013        1012
        1008        1009        1014        1013
        1010        1011        1016        1015
        1011        1012        1017        1016
        1012        1013        1018        1017
        1013        1014        1019        1018
        1015        1016        1021        1020
        1016        1017        1022        1021
        1017        1018        1023        1022
        1018        1019        1024        1023
        1025        1026        1031        1030
        1026        1027        1032        1031
        1027        1028        1033        1032
        1028        1029        1034        1033
        1030        1031        1036        1035
        1031        1032        1037        1036
        1032        1033        1038        1037
        1033        1034        1039        1038
        1035        1036        1041        1040
        1036        1037        1042        1041
        1037        1038        1043        1042
        1038        1039        1044        1043
        1040        1041        1046        1045
        1041        1042        1047        1046
        1042        1043        1048        1047
        1043        1044        1049        1048
        1050        1051        1056        1055
        1051        1052        1057        1056
        1052        1053        1058        1057
        1053        1054        1059        1058
        1055        1056        1061        1060
        1056        1057        1062        1061
        1057        1058        1063        1062
        1058        1059        1064        1063
        1060        1061        1066        1065
        1061        1062        1067        1066
        1062        1063        1068        1067
        1063        1064        1069        1068
        1065        1066        1071        1070
        1066        1067        1072        1071
        1067        1068        1073        1072
        1068        1069        1074        1073
        1075        1076        1081        1080
        1076        1077        1082        1081
        1077        1078        1083        1082
        1078        1079        1084        1083
        1080        1081        1086        1085
        1081        1082        1087        1086
        1082        1083        1088        1087
        1083        1084        1089        1088
        1085        1086        1091        1090
        1086        1087        1092        1091
        1087        1088        1093        1092
        1088        1089        1094        1093
        1090        1091        1096        1095
        1091        1092        1097        1096
        1092        1093        1098        1097
        1093        1094        1099        1098
        1100        1101        1106        1105
        1101        1102        1107        1106
        1102        1103        1108        1107
        1103        1104        1109        1108
        1105        1106        1111        1110
        1106        1107        1112        1111
        1107        1108        1113        1112
        1108        1109        1114        1113
        1110        1111        1116        1115
        1111        1112        1117        1116
        1112        1113        1118        1117
        1113        1114        1119        1118
        1115        1116        1121        1120
        1116        1117        1122        1121
        1117        1118        1123        1122
        1118        1119        1124        1123
        1125        1126        1131        1130
        1126        1127        1132        1131
        1127        1128        1133        1132
        1128        1129        1134        1133
        1130        1131        1136        1135
        1131        1132        1137        1136
        1132        1133        1138        1137
        1133        1134        1139        1138
        1135        1136        1141        1140
        1136        1137        1142        1141
        1137        1138        1143        1142
        1138        1139        1144        1143
        1140        1141        1146        1145
        1141        1142        1147        1146
        1142        1143        1148        1147
        1143        1144        1149        1148
        1150        1151        1156        1155
        1151        1152        1157        1156
        1152        1153        1158        1157
        1153        1154        1159        1158
        1155        1156        1161        1160
        1156        1157        1162        1161
        1157        1158        1163        1162
        1158        1159        1164        1163
        1160        1161        1166        1165
        1161        1162        1167        1166
        1162        1163        1168        1167
        1163        1164        1169        1168
        1165        1166        1171        1170
        1166        1167        1172        1171
        1167        1168        1173        1172
        1168        1169        1174        1173
        1175        1176        1181        1180
        1176        1177        1182        1181
        1177        1178        1183        1182
        1178        1179        1184        1183
        1180        1181        1186        1185
        1181        1182        1187        1186
        1182        1183        1188        1187
        1183        1184        1189        1188
        1185        1186        1191        1190
        1186        1187        1192        1191
        1187        1188        1193        1192
        1188        1189        1194        1193
        1190        1191        1196        1195
        1191        1192        1197        1196
        1192        1193        1198        1197
        1193        1194        1199        1198
        1200        1201        1206        1205
        1201        1202        1207        1206
        1202        1203        1208        1207
        1203        1204        1209        1208
        1205        1206        1211        1210
        1206        1207        1212        1211
        1207        1208        1213        1212
        1208        1209        1214        1213
        1210        1211        1216        1215
        1211        1212        1217        1216
        1212        1213        1218        1217
        1213        1214        1219        1218
        1215        1216        1221        1220
        1216        1217        1222        1221
        1217        1218        1223        1222
        1218        1219        1224        1223
        1225        1226        1231        1230
        1226        1227        1232        1231
        1227        1228        1233        1232
        1228        1229        1234        1233
        1230        1231        1236        1235
        1231        1232        1237        1236
        1232        1233        1238        1237
        1233        1234        1239        1238
        1235        1236        1241        1240
        1236        1237        1242        1241
        1237        1238        1243        1242
        1238        1239        1244        1243
        1240        1241        1246        1245
        1241        1242        1247        1246
        1242        1243        1248        1247
        1243        1244        1249        1248
        1250        1251        1256        1255
        1251        1252        1257        1256
        1252        1253        1258        1257
        1253        1254        1259        1258
        1255        1256        1261        1260
        1256        1257        1262        1261
        1257        1258        1263        1262
        1258        1259        1264        1263
        1260        1261        1266        1265
        1261        1262        1267        1266
        1262        1263        1268        1267
        1263        1264        1269        1268
        1265        1266        1271        1270
        1266        1267        1272        1271
        1267        1268        1273        1272
        1268        1269        1274        1273
        1275        1276        1281        1280
        1276        1277        1282        1281
        1277        1278        1283        1282
        1278        1279        1284        1283
        1280        1281        1286        1285
        1281        1282        1287        1286
        1282        1283        1288        1287
        1283        1284        1289        1288
        1285        1286        1291        1290
        1286        1287        1292        1291
        1287        1288        1293        1292
        1288        1289        1294        1293
        1290        1291        1296        1295
        1291        1292        1297        1296
        1292        1293        1298        1297
        1293        1294        1299        1298
        1300        1301        1306        1305
        1301        1302        1307        1306
        1302        1303        1308        1307
        1303        1304        1309        1308
        1305        1306        1311        1310
        1306        1307        1312        1311
        1307        1308        1313        1312
        1308        1309        1314        1313
        1310        1311        1316        1315
        1311        1312        1317        1316
        1312        1313        1318        1317
        1313        1314        1319        1318
        1315        1316        1321        1320
        1316        1317        1322        1321
        1317        1318        1323        1322
        1318        1319        1324        1323
        1325        1326        1331        1330
        1326        1327        1332        1331
        1327        1328        1333        1332
        1328        1329        1334        1333
        1330        1331        1336        1335
        1331        1332        1337        1336
        1332        1333        1338        1337
        1333        1334        1339        1338
        1335        1336        1341        1340
        1336        1337        1342        1341
        1337        1338        1343        1342
        1338        1339        1344        1343
        1340        1341        1346        1345
        1341        1342        1347        1346
        1342        1343        1348        1347
        1343        1344        1349        1348
        1350        1351        1356        1355
        1351        1352        1357        1356
        1352        1353        1358        1357
        1353        1354        1359        1358
        1355        1356        1361        1360
        1356        1357        1362        1361
        1357        1358        1363        1362
        1358        1359        1364        1363
        1360        1361        1366        1365
        1361        1362        1367        1366
        1362        1363        1368        1367
        1363        1364        1369        1368
        1365        1366        1371        1370
        1366        1367        1372        1371
        1367        1368        1373        1372
        1368        1369        1374        1373
        1375        1376        1381        1380
        1376        1377        1382        1381
        1377        1378        1383        1382
        1378        1379        1384        1383
        1380        1381        1386        1385
        1381        1382        1387        1386
        1382        1383        1388        1387
        1383        1384        1389        1388
        1385        1386        1391        1390
        1386        1387        1392        1391
        1387        1388        1393        1392
        1388        1389        1394        1393
        1390        1391        1396        1395
        1391        1392        1397        1396
        1392        1393        1398        1397
        1393        1394        1399        1398
        1400        1401        1406        1405
        1401        1402        1407        1406
        1402        1403        1408        1407
        1403        1404        1409        1408
        1405        1406        1411        1410
        1406        1407        1412        1411
        1407        1408        1413        1412
        1408        1409        1414        1413
        1410        1411        1416        1415
        1411        1412        1417        1416
        1412        1413        1418        1417
        1413        1414        1419        1418
        1415        1416        1421        1420
        1416        1417        1422        1421
        1417        1418        1423        1422
        1418        1419        1424        1423
        1425        1426        1431        1430
        1426        1427        1432        1431
        1427        1428        1433        1432
        1428        1429        1434        1433
        1430        1431        1436        1435
        1431        1432        1437        1436
        1432        1433        1438        1437
        1433        1434        1439        1438
        1435        1436        1441        1440
        1436        1437        1442        1441
        1437        1438        1443        1442
        1438        1439        1444        1443
        1440        1441        1446        1445
        1441        1442        1447        1446
        1442        1443        1448        1447
        1443        1444        1449        1448
        1450        1451        1456        1455
        1451        1452        1457        1456
        1452        1453        1458        1457
        1453        1454        1459        1458
        1455        1456        1461        1460
        1456        1457        1462        1461
        1457        1458        1463        1462
        1458        1459        1464        1463
        1460        1461        1466        1465
        1461        1462        1467        1466
        1462        1463        1468        1467
        1463        1464        1469        1468
        1465        1466        1471        1470
        1466        1467        1472        1471
        1467        1468        1473        1472
        1468        1469        1474        1473
        1475        1476        1481        1480
        1476        1477        1482        1481
        1477        1478        1483        1482
        1478        1479        1484        1483
        1480        1481        1486        1485
        1481        1482        1487        1486
        1482        1483        1488        1487
        1483        1484        1489        1488
        1485        1486        1491        1490
        1486        1487        1492        1491
        1487        1488        1493        1492
        1488        1489        1494        1493
        1490        1491        1496        1495
        1491        1492        1497        1496
        1492        1493        1498        1497
        1493        1494        1499        1498
        1500        1501        1506        1505
        1501        1502        1507        1506
        1502        1503        1508        1507
        1503        1504        1509        1508
        1505        1506        1511        1510
        1506        1507        1512        1511
        1507        1508        1513        1512
        1508        1509        1514        1513
        1510        1511        1516        1515
        1511        1512        1517        1516
        1512        1513        1518        1517
        1513        1514        1519        1518
        1515        1516        1521        1520
        1516        1517        1522        1521
        1517        1518        1523        1522
        1518        1519        1524        1523
        1525        1526        1531        1530
        1526        1527        1532        1531
        1527        1528        1533        1532
        1528        1529        1534        1533
        1530        1531        1536        1535
        1531        1532        1537        1536
        1532        1533        1538        1537
        1533        1534        1539        1538
        1535        1536        1541        1540
        1536        1537        1542        1541
        1537        1538        1543        1542
        1538        1539        1544        1543
        1540        1541        1546        1545
        1541        1542        1547        1546
        1542        1543        1548        1547
        1543        1544        1549        1548
        1550        1551        1556        1555
        1551        1552        1557        1556
        1552        1553        1558        1557
        1553        1554        1559        1558
        1555        1556        1561        1560
        1556        1557        1562        1561
        1557        1558        1563        1562
        1558        1559        1564        1563
        1560        1561        1566        1565
        1561        1562        1567        1566
        1562        1563        1568        1567
        1563        1564        1569        1568
        1565        1566        1571        1570
        1566        1567        1572        1571
        1567        1568        1573        1572
        1568        1569        1574        1573
        1575        1576        1581        1580
        1576        1577        1582        1581
        1577        1578        1583        1582
        1578        1579        1584        1583
        1580        1581        1586        1585
        1581        1582        1587        1586
        1582        1583        1588        1587
        1583        1584        1589        1588
        1585        1586        1591        1590
        1586        1587        1592        1591
        1587        1588        1593        1592
        1588        1589        1594        1593
        1590        1591        1596        1595
        1591        1592        1597        1596
        1592        1593        1598        1597
        1593        1594        1599        1598
 </DataArray>
 <DataArray  type="Int32"  Name="offsets"  format="ascii"> 
           4
           8
          12
          16
          20
          24
          28
          32
          36
          40
          44
          48
          52
          56
          60
          64
          68
          72
          76
          80
          84
          88
          92
          96
         100
         104
         108
         112
         116
         120
         124
         128
         132
         136
         140
         144
         148
         152
         156
         160
         164
         168
         172
         176
         180
         184
         188
         192
         196
         200
         204
         208
         212
         216
         220
         224
         228
         232
         236
         240
         244
         248
         252
         256
         260
         264
         268
         272
         276
         280
         284
         288
         292
         296
         300
         304
         308
         312
         316
         320
         324
         328
         332
         336
         340
         344
         348
         352
         356
         360
         364
         368
         372
         376
         380
         384
         388
         392
         396
         400
         404
         408
         412
         416
         420
         424
         428
         432
         436
         440
         444
         448
         452
         456
         460
         464
         468
         472
         476
         480
         484
         488
         492
         496
         500
         504
         508
         512
         516
         520
         524
         528
         532
         536
         540
         544
         548
         552
         556
         560
         564
         568
         572
         576
         580
         584
         588
         592
         596
         600
         604
         608
         612
         616
         620
         624
         628
         632
         636
         640
         644
         648
         652
         656
         660
         664
         668
         672
         676
         680
         684
         688
         692
         696
         700
         704
         708
         712
         716
         720
         724
         728
         732
         736
         740
         744
         748
         752
         756
         760
         764
         768
         772
         776
         780
         784
         788
         792
         796
         800
         804
         808
         812
         816
         820
         824
         828
         832
         836
         840
         844
         848
         852
         856
         860
         864
         868
         872
         876
         880
         884
         888
         892
         896
         900
         904
         908
         912
         916
         920
         924
         928
         932
         936
         940
         944
         948
         952
         956
         960
         964
         968
         972
         976
         980
         984
         988
         992
         996
        1000
        1004
        1008
        1012
        1016
        1020
        1024
        1028
        1032
        1036
        1040
        1044
        1048
        1052
        1056
        1060
        1064
        1068
        1072
        1076
        1080
        1084
        1088
        1092
        1096
        1100
        1104
        1108
        1112
        1116
        1120
        1124
        1128
        1132
        1136
        1140
        1144
        1148
        1152
        1156
        1160
        1164
        1168
        1172
        1176
        1180
        1184
        1188
        1192
        1196
        1200
        1204
        1208
        1212
        1216
        1220
        1224
        1228
        1232
        1236
        1240
        1244
        1248
        1252
        1256
        1260
        1264
        1268
        1272
        1276
        1280
        1284
        1288
        1292
        1296
        1300
        1304
        1308
        1312
        1316
        1320
        1324
        1328
        1332
        1336
        1340
        1344
        1348
        1352
        1356
        1360
        1364
        1368
        1372
        1376
        1380
        1384
        1388
        1392
        1396
        1400
        1404
        1408
        1412
        1416
        1420
        1424
        1428
        1432
        1436
        1440
        1444
        1448
        1452
        1456
        1460
        1464
        1468
        1472
        1476
        1480
        1484
        1488
        1492
        1496
        1500
        1504
        1508
        1512
        1516
        1520
        1524
        1528
        1532
        1536
        1540
        1544
        1548
        1552
        1556
        1560
        1564
        1568
        1572
        1576
        1580
        1584
        1588
        1592
        1596
        1600
        1604
        1608
        1612
        1616
        1620
        1624
        1628
        1632
        1636
        1640
        1644
        1648
        1652
        1656
        1660
        1664
        1668
        1672
        1676
        1680
        1684
        1688
        1692
        1696
        1700
        1704
        1708
        1712
        1716
        1720
        1724
        1728
        1732
        1736
        1740
        1744
        1748
        1752
        1756
        1760
        1764
        1768
        1772
        1776
        1780
        1784
        1788
        1792
        1796
        1800
        1804
        1808
        1812
        1816
        1820
        1824
        1828
        1832
        1836
        1840
        1844
        1848
        1852
        1856
        1860
        1864
        1868
        1872
        1876
        1880
        1884
        1888
        1892
        1896
        1900
        1904
        1908
        1912
        1916
        1920
        1924
        1928
        1932
        1936
        1940
        1944
        1948
        1952
        1956
        1960
        1964
        1968
        1972
        1976
        1980
        1984
        1988
        1992
        1996
        2000
        2004
        2008
        2012
        2016
        2020
        2024
        2028
        2032
        2036
        2040
        2044
        2048
        2052
        2056
        2060
        2064
        2068
        2072
        2076
        2080
        2084
        2088
        2092
        2096
        2100
        2104
        2108
        2112
        2116
        2120
        2124
        2128
        2132
        2136
        2140
        2144
        2148
        2152
        2156
        2160
        2164
        2168
        2172
        2176
        2180
        2184
        2188
        2192
        2196
        2200
        2204
        2208
        2212
        2216
        2220
        2224
        2228
        2232
        2236
        2240
        2244
        2248
        2252
        2256
        2260
        2264
        2268
        2272
        2276
        2280
        2284
        2288
        2292
        2296
        2300
        2304
        2308
        2312
        2316
        2320
        2324
        2328
        2332
        2336
        2340
        2344
        2348
        2352
        2356
        2360
        2364
        2368
        2372
        2376
        2380
        2384
        2388
        2392
        2396
        2400
        2404
        2408
        2412
        2416
        2420
        2424
        2428
        2432
        2436
        2440
        2444
        2448
        2452
        2456
        2460
        2464
        2468
        2472
        2476
        2480
        2484
        2488
        2492
        2496
        2500
        2504
        2508
        2512
        2516
        2520
        2524
        2528
        2532
        2536
        2540
        2544
        2548
        2552
        2556
        2560
        2564
        2568
        2572
        2576
        2580
        2584
        2588
        2592
        2596
        2600
        2604
        2608
        2612
        2616
        2620
        2624
        2628
        2632
        2636
        2640
        2644
        2648
        2652
        2656
        2660
        2664
        2668
        2672
        2676
        2680
        2684
        2688
        2692
        2696
        2700
        2704
        2708
        2712
        2716
        2720
        2724
        2728
        2732
        2736
        2740
        2744
        2748
        2752
        2756
        2760
        2764
        2768
        2772
        2776
        2780
        2784
        2788
        2792
        2796
        2800
        2804
        2808
        2812
        2816
        2820
        2824
        2828
        2832
        2836
        2840
        2844
        2848
        2852
        2856
        2860
        2864
        2868
        2872
        2876
        2880
        2884
        2888
        2892
        2896
        2900
        2904
        2908
        2912
        2916
        2920
        2924
        2928
        2932
        2936
        2940
        2944
        2948
        2952
        2956
        2960
        2964
        2968
        2972
        2976
        2980
        2984
        2988
        2992
        2996
        3000
        3004
        3008
        3012
        3016
        3020
        3024
        3028
        3032
        3036
        3040
        3044
        3048
        3052
        3056
        3060
        3064
        3068
        3072
        3076
        3080
        3084
        3088
        3092
        3096
        3100
        3104
        3108
        3112
        3116
        3120
        3124
        3128
        3132
        3136
        3140
        3144
        3148
        3152
        3156
        3160
        3164
        3168
        3172
        3176
        3180
        3184
        3188
        3192
        3196
        3200
        3204
        3208
        3212
        3216
        3220
        3224
        3228
        3232
        3236
        3240
        3244
        3248
        3252
        3256
        3260
        3264
        3268
        3272
        3276
        3280
        3284
        3288
        3292
        3296
        3300
        3304
        3308
        3312
        3316
        3320
        3324
        3328
        3332
        3336
        3340
        3344
        3348
        3352
        3356
        3360
        3364
        3368
        3372
        3376
        3380
        3384
        3388
        3392
        3396
        3400
        3404
        3408
        3412
        3416
        3420
        3424
        3428
        3432
        3436
        3440
        3444
        3448
        3452
        3456
        3460
        3464
        3468
        3472
        3476
        3480
        3484
        3488
        3492
        3496
        3500
        3504
        3508
        3512
        3516
        3520
        3524
        3528
        3532
        3536
        3540
        3544
        3548
        3552
        3556
        3560
        3564
        3568
        3572
        3576
        3580
        3584
        3588
        3592
        3596
        3600
        3604
        3608
        3612
        3616
        3620
        3624
        3628
        3632
        3636
        3640
        3644
        3648
        3652
        3656
        3660
        3664
        3668
        3672
        3676
        3680
        3684
        3688
        3692
        3696
        3700
        3704
        3708
        3712
        3716
        3720
        3724
        3728
        3732
        3736
        3740
        3744
        3748
        3752
        3756
        3760
        3764
        3768
        3772
        3776
        3780
        3784
        3788
        3792
        3796
        3800
        3804
        3808
        3812
        3816
        3820
        3824
        3828
        3832
        3836
        3840
        3844
        3848
        3852
        3856
        3860
        3864
        3868
        3872
        3876
        3880
        3884
        3888
        3892
        3896
        3900
        3904
        3908
        3912
        3916
        3920
        3924
        3928
        3932
        3936
        3940
        3944
        3948
        3952
        3956
        3960
        3964
        3968
        3972
        3976
        3980
        3984
        3988
        3992
        3996
        4000
        4004
        4008
        4012
        4016
        4020
        4024
        4028
        4032
        4036
        4040
        4044
        4048
        4052
        4056
        4060
        4064
        4068
        4072
        4076
        4080
        4084
        4088
        4092
        4096
 </DataArray>
 <DataArray  type="UInt8"  Name="types"  format="ascii">
 9
 9
 9
 9
 9
 9
 9
 9
 9
 9
 9
 9
 9
 9
 9
 9
 9
 9
 9
 9
 9
 9
 9
 9
 9
 9
 9
 9
 9
 9
 9
 9
 9
 9
 9
 9
 9
 9
 9
 9
 9
 9
 9
 9
 9
 9
 9
 9
 9
 9
 9
 9
 9
 9
 9
 9
 9
 9
 9
 9
 9
 9
 9
 9
 9
 9
 9
 9
 9
 9
 9
 9
 9
 9
 9
 9
 9
 9
 9
 9
 9
 9
 9
 9
 9
 9
 9
 9
 9
 9
 9
 9
 9
 9
 9
 9
 9
 9
 9
 9
 9
 9
 9
 9
 9
 9
 9
 9
 9
 9
 9
 9
 9
 9
 9
 9
 9
 9
 9
 9
 9
 9
 9
 9
 9
 9
 9
 9
 9
 9
 9
 9
 9
 9
 9
 9
 9
 9
 9
 9
 9
 9
 9
 9
 9
 9
 9
 9
 9
 9
 9
 9
 9
 9
 9
 9
 9
 9
 9
 9
 9
 9
 9
 9
 9
 9
 9
 9
 9
 9
 9
 9
 9
 9
 9
 9
 9
 9
 9
 9
 9
 9
 9
 9
 9
 9
 9
 9
 9
 9
 9
 9
 9
 9
 9
 9
 9
 9
 9
 9
 9
 9
 9
 9
 9
 9
 9
 9
 9
 9
 9
 9
 9
 9
 9
 9
 9
 9
 9
 9
 9
 9
 9
 9
 9
 9
 9
 9
 9
 9
 9
 9
 9
 9
 9
 9
 9
 9
 9
 9
 9
 9
 9
 9
 9
 9
 9
 9
 9
 9
 9
 9
 9
 9
 9
 9
 9
 9
 9
 9
 9
 9
 9
 9
 9
 9
 9
 9
 9
 9
 9
 9
 9
 9
 9
 9
 9
 9
 9
 9
 9
 9
 9
 9
 9
 9
 9
 9
 9
 9
 9
 9
 9
 9
 9
 9
 9
 9
 9
 9
 9
 9
 9
 9
 9
 9
 9
 9
 9
 9
 9
 9
 9
 9
 9
 9
 9
 9
 9
 9
 9
 9
 9
 9
 9
 9
 9
 9
 9
 9
 9
 9
 9
 9
 9
 9
 9
 9
 9
 9
 9
 9
 9
 9
 9
 9
 9
 9
 9
 9
 9
 9
 9
 9
 9
 9
 9
 9
 9
 9
 9
 9
 9
 9
 9
 9
 9
 9
 9
 9
 9
 9
 9
 9
 9
 9
 9
 9
 9
 9
 9
 9
 9
 9
 9
 9
 9
 9
 9
 9
 9
 9
 9
 9
 9
 9
 9
 9
 9
 9
 9
 9
 9
 9
 9
 9
 9
 9
 9
 9
 9
 9
 9
 9
 9
 9
 9
 9
 9
 9
 9
 9
 9
 9
 9
 9
 9
 9
 9
 9
 9
 9
 9
 9
 9
 9
 9
 9
 9
 9
 9
 9
 9
 9
 9
 9
 9
 9
 9
 9
 9
 9
 9
 9
 9
 9
 9
 9
 9
 9
 9
 9
 9
 9
 9
 9
 9
 9
 9
 9
 9
 9
 9
 9
 9
 9
 9
 9
 9
 9
 9
 9
 9
 9
 9
 9
 9
 9
 9
 9
 9
 9
 9
 9
 9
 9
 9
 9
 9
 9
 9
 9
 9
 9
 9
 9
 9
 9
 9
 9
 9
 9
 9
 9
 9
 9
 9
 9
 9
 9
 9
 9
 9
 9
 9
 9
 9
 9
 9
 9
 9
 9
 9
 9
 9
 9
 9
 9
 9
 9
 9
 9
 9
 9
 9
 9
 9
 9
 9
 9
 9
 9
 9
 9
 9
 9
 9
 9
 9
 9
 9
 9
 9
 9
 9
 9
 9
 9
 9
 9
 9
 9
 9
 9
 9
 9
 9
 9
 9
 9
 9
 9
 9
 9
 9
 9
 9
 9
 9
 9
 9
 9
 9
 9
 9
 9
 9
 9
 9
 9
 9
 9
 9
 9
 9
 9
 9
 9
 9
 9
 9
 9
 9
 9
 9
 9
 9
 9
 9
 9
 9
 9
 9
 9
 9
 9
 9
 9
 9
 9
 9
 9
 9
 9
 9
 9
 9
 9
 9
 9
 9
 9
 9
 9
 9
 9
 9
 9
 9
 9
 9
 9
 9
 9
 9
 9
 9
 9
 9
 9
 9
 9
 9
 9
 9
 9
 9
 9
 9
 9
 9
 9
 9
 9
 9
 9
 9
 9
 9
 9
 9
 9
 9
 9
 9
 9
 9
 9
 9
 9
 9
 9
 9
 9
 9
 9
 9
 9
 9
 9
 9
 9
 9
 9
 9
 9
 9
 9
 9
 9
 9
 9
 9
 9
 9
 9
 9
 9
 9
 9
 9
 9
 9
 9
 9
 9
 9
 9
 9
 9
 9
 9
 9
 9
 9
 9
 9
 9
 9
 9
 9
 9
 9
 9
 9
 9
 9
 9
 9
 9
 9
 9
 9
 9
 9
 9
 9
 9
 9
 9
 9
 9
 9
 9
 9
 9
 9
 9
 9
 9
 9
 9
 9
 9
 9
 9
 9
 9
 9
 9
 9
 9
 9
 9
 9
 9
 9
 9
 9
 9
 9
 9
 9
 9
 9
 9
 9
 9
 9
 9
 9
 9
 9
 9
 9
 9
 9
 9
 9
 9
 9
 9
 9
 9
 9
 9
 9
 9
 9
 9
 9
 9
 9
 9
 9
 9
 9
 9
 9
 9
 9
 9
 9
 9
 9
 9
 9
 9
 9
 9
 9
 9
 9
 9
 9
 9
 9
 9
 9
 9
 9
 9
 9
 9
 9
 9
 9
 9
 9
 9
 9
 9
 9
 9
 9
 9
 9
 9
 9
 9
 9
 9
 9
 9
 9
 9
 9
 9
 9
 9
 9
 9
 9
 9
 9
 9
 9
 9
 9
 9
 9
 9
 9
 9
 9
 9
 9
 9
 9
 9
 9
 9
 9
 9
 9
 9
 9
 9
 9
 9
 9
 9
 9
 9
 9
 9
 9
 9
 9
 9
 9
 9
 9
 9
 9
 9
 9
 9
 9
 9
 9
 9
 9
 9
 9
 9
 9
 9
 9
 9
 9
 9
 9
 9
 9
 9
 9
 9
 9
 9
 9
 9
 9
 9
 9
 9
 9
 9
 9
 9
 9
 9
 9
 9
 9
 9
 9
 9
 9
 9
 9
 9
 9
 9
 9
 9
 9
 9
 9
 9
 9
 9
 9
 9
 9
 9
 9
 9
 9
 9
 9
 9
 9
 9
 9
 9
 9
 9
 9
 9
 9
 9
 9
 9
 9
 9
 9
 9
 9
 9
 9
 9
 9
 9
 9
 9
 9
 9
 9
 9
 9
 9
 9
 9
 </DataArray>
 </Cells> 
 <PointData>
 <DataArray  type="Float64" Name="disp" NumberOfComponents="3" format="ascii">
   0.0000000000000000        0.0000000000000000        0.0000000000000000     
   6.0957677828206826E-003   3.7903199707331027E-003   0.0000000000000000     
   1.1665672178687391E-002   7.3236977227736783E-003   0.0000000000000000     
   1.6709713187600124E-002   1.0600133256121729E-002   0.0000000000000000     
   2.1227890809558884E-002   1.3619626570777251E-002   0.0000000000000000     
   0.0000000000000000        0.0000000000000000        0.0000000000000000     
   4.8910379153235565E-003   3.0221397796193479E-003   0.0000000000000000     
   9.5734004652123349E-003   6.0605217636776247E-003   0.0000000000000000     
   1.4047087649666338E-002   9.1151459521748301E-003   0.0000000000000000     
   1.8312099468685561E-002   1.2186012345110967E-002   0.0000000000000000     
   0.0000000000000000        0.0000000000000000        0.0000000000000000     
   3.9534835330659567E-003   2.4251812503095545E-003   0.0000000000000000     
   7.9104127290910136E-003   5.0629817473433428E-003   0.0000000000000000     
   1.1870787588075169E-002   7.9134014911013666E-003   0.0000000000000000     
   1.5834608110018425E-002   1.0976440481583621E-002   0.0000000000000000     
   0.0000000000000000        0.0000000000000000        0.0000000000000000     
   3.2831046360478834E-003   1.9994443828037227E-003   0.0000000000000000     
   6.6767089703234249E-003   4.3310776737708334E-003   0.0000000000000000     
   1.0180813002826625E-002   6.9948998729013317E-003   0.0000000000000000     
   1.3795416733557482E-002   9.9909109801952223E-003   0.0000000000000000     
   0.0000000000000000        0.0000000000000000        0.0000000000000000     
   2.8799012242693369E-003   1.7449291771018517E-003   0.0000000000000000     
   5.8722891889095696E-003   3.8648095429600960E-003   0.0000000000000000     
   8.9771638939206994E-003   6.3596410975747331E-003   0.0000000000000000     
   1.2194525339302726E-002   9.2294238409457614E-003   0.0000000000000000     
   2.1227890809558884E-002   1.3619626570777251E-002   0.0000000000000000     
   2.5433046969394385E-002   1.6612697716623989E-002   0.0000000000000000     
   2.9538023591937329E-002   1.9809866743545672E-002   0.0000000000000000     
   3.3542820677187730E-002   2.3211133651542305E-002   0.0000000000000000     
   3.7447438225145582E-002   2.6816498440613890E-002   0.0000000000000000     
   1.8312099468685561E-002   1.2186012345110967E-002   0.0000000000000000     
   2.2406692362684267E-002   1.5341471937819233E-002   0.0000000000000000     
   2.6369122772076710E-002   1.8649875725632835E-002   0.0000000000000000     
   3.0199390696862900E-002   2.2111223708551779E-002   0.0000000000000000     
   3.3897496137042821E-002   2.5725515886576053E-002   0.0000000000000000     
   1.5834608110018425E-002   1.0976440481583621E-002   0.0000000000000000     
   1.9730168687086706E-002   1.4210956235397872E-002   0.0000000000000000     
   2.3485763711445933E-002   1.7575806269151877E-002   0.0000000000000000     
   2.7101393183096099E-002   2.1070990582845634E-002   0.0000000000000000     
   3.0577057102037213E-002   2.4696509176479142E-002   0.0000000000000000     
   1.3795416733557482E-002   9.9909109801952223E-003   0.0000000000000000     
   1.7403475942601700E-002   1.3221150609359900E-002   0.0000000000000000     
   2.0887946410044989E-002   1.6587658374102782E-002   0.0000000000000000     
   2.4248828135887333E-002   2.0090434274423866E-002   0.0000000000000000     
   2.7486121120128746E-002   2.3729478310323151E-002   0.0000000000000000     
   1.2194525339302726E-002   9.2294238409457614E-003   0.0000000000000000     
   1.5426614129229251E-002   1.2372055059705326E-002   0.0000000000000000     
   1.8575670867873872E-002   1.5685432040485569E-002   0.0000000000000000     
   2.1641695555236599E-002   1.9169554783286486E-002   0.0000000000000000     
   2.4624688191317419E-002   2.2824423288108082E-002   0.0000000000000000     
   3.7447438225145582E-002   2.6816498440613890E-002   0.0000000000000000     
   4.1256338484822547E-002   3.0621511517002493E-002   0.0000000000000000     
   4.4973983705230258E-002   3.4621723286950200E-002   0.0000000000000000     
   4.8600373886368738E-002   3.8817133750456999E-002   0.0000000000000000     
   5.2135509028237971E-002   4.3207742907522891E-002   0.0000000000000000     
   3.3897496137042821E-002   2.5725515886576053E-002   0.0000000000000000     
   3.7486559935457880E-002   2.9521675217797132E-002   0.0000000000000000     
   4.0989702934949433E-002   3.3528624660306476E-002   0.0000000000000000     
   4.4406925135517500E-002   3.7746364214104093E-002   0.0000000000000000     
   4.7738226537162053E-002   4.2174893879189969E-002   0.0000000000000000     
   3.0577057102037213E-002   2.4696509176479142E-002   0.0000000000000000     
   3.3942070514968295E-002   2.8496957812868939E-002   0.0000000000000000     
   3.7225748468588359E-002   3.2516932254831557E-002   0.0000000000000000     
   4.0428090962897408E-002   3.6756432502366994E-002   0.0000000000000000     
   4.3549097997895428E-002   4.1215458555475246E-002   0.0000000000000000     
   2.7486121120128746E-002   2.3729478310323151E-002   0.0000000000000000     
   3.0622870223353783E-002   2.7547359302217907E-002   0.0000000000000000     
   3.3682120306147027E-002   3.1586646070525429E-002   0.0000000000000000     
   3.6663871368508447E-002   3.5847338615245694E-002   0.0000000000000000     
   3.9568123410438076E-002   4.0329436936378714E-002   0.0000000000000000     
   2.4624688191317419E-002   2.2824423288108082E-002   0.0000000000000000     
   2.7528959060614359E-002   2.6672879685844055E-002   0.0000000000000000     
   3.0358818447625439E-002   3.0737766107388095E-002   0.0000000000000000     
   3.3114266352350659E-002   3.5019082552740208E-002   0.0000000000000000     
   3.5795302774790011E-002   3.9516829021900388E-002   0.0000000000000000     
   5.2135509028237971E-002   4.3207742907522891E-002   0.0000000000000000     
   5.5576793760056899E-002   4.7797983313228667E-002   0.0000000000000000     
   5.8921632711044475E-002   5.2592287522655115E-002   0.0000000000000000     
   6.2170025881200679E-002   5.7590655535802220E-002   0.0000000000000000     
   6.5321973270525524E-002   6.2793087352670002E-002   0.0000000000000000     
   4.7738226537162053E-002   4.2174893879189969E-002   0.0000000000000000     
   5.0979864399566435E-002   4.6807733293812603E-002   0.0000000000000000     
   5.4128095982413936E-002   5.1638402096220511E-002   0.0000000000000000     
   5.7182921285704541E-002   5.6666900286413677E-002   0.0000000000000000     
   6.0144340309438257E-002   6.1893227864392095E-002   0.0000000000000000     
   4.3549097997895428E-002   4.1215458555475246E-002   0.0000000000000000     
   4.6585001655988827E-002   4.5881610645158333E-002   0.0000000000000000     
   4.9532034019583969E-002   5.0742489002418296E-002   0.0000000000000000     
   5.2390195088680848E-002   5.5798093627255123E-002   0.0000000000000000     
   5.5159484863279484E-002   6.1048424519668812E-002   0.0000000000000000     
   3.9568123410438076E-002   4.0329436936378714E-002   0.0000000000000000     
   4.2392205529324073E-002   4.5019615367265856E-002   0.0000000000000000     
   4.5133446822554581E-002   4.9904548241248473E-002   0.0000000000000000     
   4.7791847290129620E-002   5.4984235558326579E-002   0.0000000000000000     
   5.0367406932049177E-002   6.0258677318500146E-002   0.0000000000000000     
   3.5795302774790011E-002   3.9516829021900388E-002   0.0000000000000000     
   3.8401476019572160E-002   4.4221747460135158E-002   0.0000000000000000     
   4.0932334391325771E-002   4.9124579812711032E-002   0.0000000000000000     
   4.3387877890050837E-002   5.4225326079628017E-002   0.0000000000000000     
   4.5768106515747344E-002   5.9523986260886098E-002   0.0000000000000000     
   6.5321973270525524E-002   6.2793087352670002E-002   0.0000000000000000     
   6.8380071298286924E-002   6.8186738148781317E-002   0.0000000000000000     
   7.1346916383752831E-002   7.3758763099659022E-002   0.0000000000000000     
   7.4222508526923220E-002   7.9509162205303144E-002   0.0000000000000000     
   7.7006847727798117E-002   8.5437935465713655E-002   0.0000000000000000     
   6.0144340309438257E-002   6.1893227864392095E-002   0.0000000000000000     
   6.3015848877900973E-002   6.7308976139062671E-002   0.0000000000000000     
   6.5800942815378488E-002   7.2905736419332262E-002   0.0000000000000000     
   6.8499622121870829E-002   7.8683508705200883E-002   0.0000000000000000     
   7.1111886797377982E-002   8.4642292996668506E-002   0.0000000000000000     
   5.5159484863279484E-002   6.1048424519668812E-002   0.0000000000000000     
   5.7843663212011204E-002   6.6487330561508143E-002   0.0000000000000000     
   6.0446490003507339E-002   7.2108660634621874E-002   0.0000000000000000     
   6.2967965237767903E-002   7.7912414739009991E-002   0.0000000000000000     
   6.5408088914792870E-002   8.3898592874672537E-002   0.0000000000000000     
   5.0367406932049177E-002   6.0258677318500146E-002   0.0000000000000000     
   5.2863514300617649E-002   6.5721801416117734E-002   0.0000000000000000     
   5.5283557948139397E-002   7.1367535745527871E-002   0.0000000000000000     
   5.7627537874614436E-002   7.7195880306730510E-002   0.0000000000000000     
   5.9895454080042765E-002   8.3206835099725734E-002   0.0000000000000000     
   4.5768106515747344E-002   5.9523986260886098E-002   0.0000000000000000     
   4.8075402143720303E-002   6.5012388702891444E-002   0.0000000000000000     
   5.0312146649274671E-002   7.0682361752050227E-002   0.0000000000000000     
   5.2478340032410462E-002   7.6533905408362454E-002   0.0000000000000000     
   5.4573982293127682E-002   8.2567019671828126E-002   0.0000000000000000     
   7.7006847727798117E-002   8.5437935465713655E-002   0.0000000000000000     
   7.9693834216267315E-002   9.1534817836299159E-002   0.0000000000000000     
   8.2277368222220634E-002   9.7789544272468290E-002   0.0000000000000000     
   8.4757449745658076E-002  0.10420211477422103        0.0000000000000000     
   8.7134078786579666E-002  0.11077252934155737        0.0000000000000000     
   7.1111886797377982E-002   8.4642292996668506E-002   0.0000000000000000     
   7.3632044889296575E-002   9.0769787646042113E-002   0.0000000000000000     
   7.6054404445023219E-002   9.7053691005628662E-002   0.0000000000000000     
   7.8378965464557873E-002  0.10349400307542815        0.0000000000000000     
   8.0605727947900607E-002  0.11009072385544057        0.0000000000000000     
   6.5408088914792870E-002   8.3898592874672537E-002   0.0000000000000000     
   6.7761467043130907E-002   9.0053792735803523E-002   0.0000000000000000     
   7.0022705631330603E-002   9.6364612016597018E-002   0.0000000000000000     
   7.2191804679392013E-002  0.10283105071705302        0.0000000000000000     
   7.4268764187315095E-002  0.10945310883717153        0.0000000000000000     
   5.9895454080042765E-002   8.3206835099725734E-002   0.0000000000000000     
   6.2082100677770272E-002   8.9386833105583388E-002   0.0000000000000000     
   6.4182271781142844E-002   9.5722307305373358E-002   0.0000000000000000     
   6.6195967390160440E-002  0.10221325769909564        0.0000000000000000     
   6.8123187504823129E-002  0.10885968428675026        0.0000000000000000     
   5.4573982293127682E-002   8.2567019671828126E-002   0.0000000000000000     
   5.6593945793214688E-002   8.8768908755381695E-002   0.0000000000000000     
   5.8533102894459857E-002   9.5126776871957669E-002   0.0000000000000000     
   6.0391453596863189E-002  0.10164062402155605        0.0000000000000000     
   6.2168997900424669E-002  0.10831045020417678        0.0000000000000000     
   8.7134078786579666E-002  0.11077252934155737        0.0000000000000000     
   8.9417531385421356E-002  0.11749076162284215        0.0000000000000000     
   9.1618083582619234E-002  0.12434678526644012        0.0000000000000000     
   9.3735735378173229E-002  0.13134060027235134        0.0000000000000000     
   9.5770486772083385E-002  0.13847220664057575        0.0000000000000000     
   8.0605727947900607E-002  0.11009072385544057        0.0000000000000000     
   8.2745422139592753E-002  0.11683530491860049        0.0000000000000000     
   8.4808778284175726E-002  0.12371919783784252        0.0000000000000000     
   8.6795796381649512E-002  0.13074240261316664        0.0000000000000000     
   8.8706476432014097E-002  0.13790491924457285        0.0000000000000000     
   7.4268764187315095E-002  0.10945310883717153        0.0000000000000000     
   7.6264465375214571E-002  0.11622302305090015        0.0000000000000000     
   7.8189789463205178E-002  0.12313303003218644        0.0000000000000000     
   8.0044736451286888E-002  0.13018312978103050        0.0000000000000000     
   8.1829306339459687E-002  0.13737332229743218        0.0000000000000000     
   6.8123187504823129E-002  0.10885968428675026        0.0000000000000000     
   6.9974661092286838E-002  0.11565391601974105        0.0000000000000000     
   7.1761117119707563E-002  0.12258828184947192        0.0000000000000000     
   7.3482555587085330E-002  0.12966278177594281        0.0000000000000000     
   7.5138976494420112E-002  0.13687741579915372        0.0000000000000000     
   6.2168997900424669E-002  0.10831045020417678        0.0000000000000000     
   6.3876009290809513E-002  0.11512798382512328        0.0000000000000000     
   6.5522761253682921E-002  0.12208495328969890        0.0000000000000000     
   6.7109253789044865E-002  0.12918135859790361        0.0000000000000000     
   6.8635486896895387E-002  0.13641719974973751        0.0000000000000000     
   9.5770486772083385E-002  0.13847220664057575        0.0000000000000000     
   9.7709230536667385E-002  0.14572708511342736        0.0000000000000000     
   9.9538859444242983E-002  0.15309071643322006        0.0000000000000000     
  0.10125937349481018       0.16056310059995393        0.0000000000000000     
  0.10287077268836893       0.16814423761362893        0.0000000000000000     
   8.8706476432014097E-002  0.13790491924457285        0.0000000000000000     
   9.0526869579510172E-002  0.14518856487458714        0.0000000000000000     
   9.2243026968378300E-002  0.15257515664573543        0.0000000000000000     
   9.3854948598618537E-002  0.16006469455801772        0.0000000000000000     
   9.5362634470230856E-002  0.16765717861143409        0.0000000000000000     
   8.1829306339459687E-002  0.13737332229743218        0.0000000000000000     
   8.3529247397375134E-002  0.14468420886952760        0.0000000000000000     
   8.5130307894684815E-002  0.15209639078545265        0.0000000000000000     
   8.6632487831388674E-002  0.15960986804520741        0.0000000000000000     
   8.8035787207486726E-002  0.16722464064879186        0.0000000000000000     
   7.5138976494420112E-002  0.13687741579915372        0.0000000000000000     
   7.6716363990262354E-002  0.14421401709824871        0.0000000000000000     
   7.8200702223162485E-002  0.15165441885237183        0.0000000000000000     
   7.9591991193120548E-002  0.15919862106152302        0.0000000000000000     
   8.0890230900136514E-002  0.16684662372570225        0.0000000000000000     
   6.8635486896895387E-002  0.13641719974973751        0.0000000000000000     
   7.0088219358171777E-002  0.14377798956075055        0.0000000000000000     
   7.1454209953811396E-002  0.15124924084649286        0.0000000000000000     
   7.2733458683814228E-002  0.15883095360696439        0.0000000000000000     
   7.3925965548180261E-002  0.16652312784216525        0.0000000000000000     
   0.0000000000000000        0.0000000000000000        0.0000000000000000     
   2.8799012242693369E-003   1.7449291771018517E-003   0.0000000000000000     
   5.8722891889095696E-003   3.8648095429600960E-003   0.0000000000000000     
   8.9771638939206994E-003   6.3596410975747331E-003   0.0000000000000000     
   1.2194525339302726E-002   9.2294238409457614E-003   0.0000000000000000     
   0.0000000000000000        0.0000000000000000        0.0000000000000000     
   2.6100822756773331E-003   1.5890228486315368E-003   0.0000000000000000     
   5.2892488602231929E-003   3.5569197735082262E-003   0.0000000000000000     
   8.0374997536375777E-003   5.9036907746300681E-003   0.0000000000000000     
   1.0854834955920491E-002   8.6293358519970598E-003   0.0000000000000000     
   0.0000000000000000        0.0000000000000000        0.0000000000000000     
   2.3398567682188873E-003   1.4591126128203715E-003   0.0000000000000000     
   4.7196834596380331E-003   3.3001507840123177E-003   0.0000000000000000     
   7.1394800742574380E-003   5.5231145135758381E-003   0.0000000000000000     
   9.5992466120771013E-003   8.1280038015109340E-003   0.0000000000000000     
   0.0000000000000000        0.0000000000000000        0.0000000000000000     
   2.0692247018940005E-003   1.3551984696683562E-003   0.0000000000000000     
   4.1635929871540944E-003   3.0945025744723710E-003   0.0000000000000000     
   6.2831048557802794E-003   5.2179123144120458E-003   0.0000000000000000     
   8.4277603077725569E-003   7.7254276894873804E-003   0.0000000000000000     
   0.0000000000000000        0.0000000000000000        0.0000000000000000     
   1.7981860767026724E-003   1.2772804191754908E-003   0.0000000000000000     
   3.6209774427713734E-003   2.9399751448883878E-003   0.0000000000000000     
   5.4683740982061036E-003   4.9880841771386894E-003   0.0000000000000000     
   7.3403760430068611E-003   7.4216075159263982E-003   0.0000000000000000     
   1.2194525339302726E-002   9.2294238409457614E-003   0.0000000000000000     
   1.5426614129229251E-002   1.2372055059705326E-002   0.0000000000000000     
   1.8575670867873872E-002   1.5685432040485569E-002   0.0000000000000000     
   2.1641695555236599E-002   1.9169554783286486E-002   0.0000000000000000     
   2.4624688191317419E-002   2.2824423288108082E-002   0.0000000000000000     
   1.0854834955920491E-002   8.6293358519970598E-003   0.0000000000000000     
   1.3687822507467143E-002   1.1651508390845609E-002   0.0000000000000000     
   1.6483030448672758E-002   1.4887861776412109E-002   0.0000000000000000     
   1.9240458779537329E-002   1.8338396008696564E-002   0.0000000000000000     
   2.1960107500060860E-002   2.2003111087698975E-002   0.0000000000000000     
   9.5992466120771013E-003   8.1280038015109340E-003   0.0000000000000000     
   1.2075340337813167E-002   1.1047349407192217E-002   0.0000000000000000     
   1.4544118516181790E-002   1.4213682089994299E-002   0.0000000000000000     
   1.7005581147182963E-002   1.7627001849917182E-002   0.0000000000000000     
   1.9459728230816688E-002   2.1287308686960871E-002   0.0000000000000000     
   8.4277603077725569E-003   7.7254276894873804E-003   0.0000000000000000     
   1.0589167620267322E-002   1.0559578108745150E-002   0.0000000000000000     
   1.2758935070400971E-002   1.3662892981232137E-002   0.0000000000000000     
   1.4937062658173499E-002   1.7035372306948342E-002   0.0000000000000000     
   1.7123550383584915E-002   2.0677016085893764E-002   0.0000000000000000     
   7.3403760430068611E-003   7.4216075159263982E-003   0.0000000000000000     
   9.2293043548296073E-003   1.0188194495504409E-002   0.0000000000000000     
   1.1127480111330300E-002   1.3235494450125625E-002   0.0000000000000000     
   1.3034903312508941E-002   1.6563507379790041E-002   0.0000000000000000     
   1.4951573958365529E-002   2.0172233284497663E-002   0.0000000000000000     
   2.4624688191317419E-002   2.2824423288108082E-002   0.0000000000000000     
   2.7528959060614359E-002   2.6672879685844055E-002   0.0000000000000000     
   3.0358818447625439E-002   3.0737766107388095E-002   0.0000000000000000     
   3.3114266352350659E-002   3.5019082552740208E-002   0.0000000000000000     
   3.5795302774790011E-002   3.9516829021900388E-002   0.0000000000000000     
   2.1960107500060860E-002   2.2003111087698975E-002   0.0000000000000000     
   2.4625697816061373E-002   2.5880193978296228E-002   0.0000000000000000     
   2.7220950933356903E-002   2.9967831645365199E-002   0.0000000000000000     
   2.9745866851947449E-002   3.4266024088905903E-002   0.0000000000000000     
   3.2200445571833006E-002   3.8774771308918335E-002   0.0000000000000000     
   1.9459728230816688E-002   2.1287308686960871E-002   0.0000000000000000     
   2.1878447279006202E-002   2.5175977194123293E-002   0.0000000000000000     
   2.4233625803674736E-002   2.9274381964402390E-002   0.0000000000000000     
   2.6525263804822279E-002   3.3582522997798160E-002   0.0000000000000000     
   2.8753361282448847E-002   3.8100400294310617E-002   0.0000000000000000     
   1.7123550383584915E-002   2.0677016085893764E-002   0.0000000000000000     
   1.9287207449448843E-002   2.4560229333325249E-002   0.0000000000000000     
   2.1396843058578918E-002   2.8657417064499657E-002   0.0000000000000000     
   2.3452457210975157E-002   3.2968579279416994E-002   0.0000000000000000     
   2.5454049906637539E-002   3.7493715978077248E-002   0.0000000000000000     
   1.4951573958365529E-002   2.0172233284497663E-002   0.0000000000000000     
   1.6851978327389296E-002   2.4032950395902111E-002   0.0000000000000000     
   1.8710602698069477E-002   2.8116936945657017E-002   0.0000000000000000     
   2.0527447070406064E-002   3.2424192933762384E-002   0.0000000000000000     
   2.2302511444399070E-002   3.6954718360218214E-002   0.0000000000000000     
   3.5795302774790011E-002   3.9516829021900388E-002   0.0000000000000000     
   3.8401476019572160E-002   4.4221747460135158E-002   0.0000000000000000     
   4.0932334391325771E-002   4.9124579812711032E-002   0.0000000000000000     
   4.3387877890050837E-002   5.4225326079628017E-002   0.0000000000000000     
   4.5768106515747344E-002   5.9523986260886098E-002   0.0000000000000000     
   3.2200445571833006E-002   3.8774771308918335E-002   0.0000000000000000     
   3.4586202875174395E-002   4.3489787207236313E-002   0.0000000000000000     
   3.6904654544132436E-002   4.8406785685693704E-002   0.0000000000000000     
   3.9155800578707128E-002   5.3525766744290479E-002   0.0000000000000000     
   4.1339640978898466E-002   5.8846730383026652E-002   0.0000000000000000     
   2.8753361282448847E-002   3.8100400294310617E-002   0.0000000000000000     
   3.0919775844572044E-002   4.2825514892039410E-002   0.0000000000000000     
   3.3026365099209462E-002   4.7755367829084204E-002   0.0000000000000000     
   3.5073129046361125E-002   5.2889959105445007E-002   0.0000000000000000     
   3.7060067686027008E-002   5.8229288721121812E-002   0.0000000000000000     
   2.5454049906637539E-002   3.7493715978077248E-002   0.0000000000000000     
   2.7402194927765092E-002   4.2228930514544419E-002   0.0000000000000000     
   2.9297466056556854E-002   4.7170326242882546E-002   0.0000000000000000     
   3.1139863293012823E-002   5.2317903163091588E-002   0.0000000000000000     
   3.2929386637132990E-002   5.7671661275171586E-002   0.0000000000000000     
   2.2302511444399070E-002   3.6954718360218214E-002   0.0000000000000000     
   2.4033460124753561E-002   4.1700034074751362E-002   0.0000000000000000     
   2.5717957416174612E-002   4.6651660927088702E-002   0.0000000000000000     
   2.7356003318662225E-002   5.1809598917230242E-002   0.0000000000000000     
   2.8947597832216398E-002   5.7173848045175960E-002   0.0000000000000000     
   4.5768106515747344E-002   5.9523986260886098E-002   0.0000000000000000     
   4.8075402143720303E-002   6.5012388702891444E-002   0.0000000000000000     
   5.0312146649274671E-002   7.0682361752050227E-002   0.0000000000000000     
   5.2478340032410462E-002   7.6533905408362454E-002   0.0000000000000000     
   5.4573982293127682E-002   8.2567019671828126E-002   0.0000000000000000     
   4.1339640978898466E-002   5.8846730383026652E-002   0.0000000000000000     
   4.3457384066345223E-002   6.4358924570078302E-002   0.0000000000000000     
   4.5510238162686158E-002   7.0051597273621508E-002   0.0000000000000000     
   4.7498203267921278E-002   7.5924748493656283E-002   0.0000000000000000     
   4.9421279382050577E-002   8.1978378230182627E-002   0.0000000000000000     
   3.7060067686027008E-002   5.8229288721121812E-002   0.0000000000000000     
   3.8987517393518481E-002   6.3761241165927310E-002   0.0000000000000000     
   4.0855814544146871E-002   6.9473700929674212E-002   0.0000000000000000     
   4.2664959137912184E-002   7.5366668012362498E-002   0.0000000000000000     
   4.4414951174814421E-002   8.1440142413992167E-002   0.0000000000000000     
   3.2929386637132990E-002   5.7671661275171586E-002   0.0000000000000000     
   3.4665802125240085E-002   6.3219338490438495E-002   0.0000000000000000     
   3.6348875793656817E-002   6.8948672720208340E-002   0.0000000000000000     
   3.7978607642383193E-002   7.4859663964481113E-002   0.0000000000000000     
   3.9554997671419206E-002   8.0952312223256800E-002   0.0000000000000000     
   2.8947597832216398E-002   5.7173848045175960E-002   0.0000000000000000     
   3.0492238261510023E-002   6.2733216543611858E-002   0.0000000000000000     
   3.1989421911215989E-002   6.8476512645223905E-002   0.0000000000000000     
   3.3439148781334298E-002   7.4403736350012101E-002   0.0000000000000000     
   3.4841418871864940E-002   8.0514887657976472E-002   0.0000000000000000     
   5.4573982293127682E-002   8.2567019671828126E-002   0.0000000000000000     
   5.6593945793214688E-002   8.8768908755381695E-002   0.0000000000000000     
   5.8533102894459857E-002   9.5126776871957669E-002   0.0000000000000000     
   6.0391453596863189E-002  0.10164062402155605        0.0000000000000000     
   6.2168997900424669E-002  0.10831045020417678        0.0000000000000000     
   4.9421279382050577E-002   8.1978378230182627E-002   0.0000000000000000     
   5.1274368165635555E-002   8.8200441798834336E-002   0.0000000000000000     
   5.3052371279237710E-002   9.4578894515245246E-002   0.0000000000000000     
   5.4755288722857044E-002  0.10111373637941536        0.0000000000000000     
   5.6383120496493556E-002  0.10780496739134464        0.0000000000000000     
   4.4414951174814421E-002   8.1440142413992167E-002   0.0000000000000000     
   4.6100733571204262E-002   8.7681854349577149E-002   0.0000000000000000     
   4.7717249243432409E-002   9.4079534034131371E-002   0.0000000000000000     
   4.9264498191498841E-002  0.10063318146765479        0.0000000000000000     
   5.0742480415403565E-002  0.10734279665014744        0.0000000000000000     
   3.9554997671419206E-002   8.0952312223256800E-002   0.0000000000000000     
   4.1073042009920797E-002   8.7213146407610187E-002   0.0000000000000000     
   4.2527736787043920E-002   9.3628695428616029E-002   0.0000000000000000     
   4.3919082002788559E-002  0.10019895928627437        0.0000000000000000     
   4.5247077657154716E-002  0.10692393798058517        0.0000000000000000     
   3.4841418871864940E-002   8.0514887657976472E-002   0.0000000000000000     
   3.6191293481785181E-002   8.6794317972933369E-002   0.0000000000000000     
   3.7483833910072262E-002   9.3226378698699236E-002   0.0000000000000000     
   3.8719040156726198E-002   9.9811069835274047E-002   0.0000000000000000     
   3.9896912221746975E-002  0.10654839138265780        0.0000000000000000     
   6.2168997900424669E-002  0.10831045020417678        0.0000000000000000     
   6.3876009290809513E-002  0.11512798382512328        0.0000000000000000     
   6.5522761253682921E-002  0.12208495328969890        0.0000000000000000     
   6.7109253789044865E-002  0.12918135859790361        0.0000000000000000     
   6.8635486896895387E-002  0.13641719974973751        0.0000000000000000     
   5.6383120496493556E-002  0.10780496739134464        0.0000000000000000     
   5.7945638980408984E-002  0.11464396104225570        0.0000000000000000     
   5.9452616554865070E-002  0.12162209082337110        0.0000000000000000     
   6.0904053219861788E-002  0.12873935673469081        0.0000000000000000     
   6.2299948975399158E-002  0.13599575877621486        0.0000000000000000     
   5.0742480415403565E-002  0.10734279665014744        0.0000000000000000     
   5.2160679170711578E-002  0.11420058224634724        0.0000000000000000     
   5.3528577712987850E-002  0.12119874092099213        0.0000000000000000     
   5.4846176042232353E-002  0.12833727267408213        0.0000000000000000     
   5.6113474158445115E-002  0.13561617750561719        0.0000000000000000     
   4.5247077657154716E-002  0.10692393798058517        0.0000000000000000     
   4.6521129861717303E-002  0.11379784743739788        0.0000000000000000     
   4.7750644728051253E-002  0.12081490358256201        0.0000000000000000     
   4.8935622256156580E-002  0.12797510641607757        0.0000000000000000     
   5.0076062446033250E-002  0.13527845593794449        0.0000000000000000     
   3.9896912221746975E-002  0.10654839138265780        0.0000000000000000     
   4.1026991053426158E-002  0.11343575661540767        0.0000000000000000     
   4.2118817600055314E-002  0.12047057880808079        0.0000000000000000     
   4.3172391861634442E-002  0.12765285796067713        0.0000000000000000     
   4.4187713838163542E-002  0.13498259407319677        0.0000000000000000     
   6.8635486896895387E-002  0.13641719974973751        0.0000000000000000     
   7.0088219358171777E-002  0.14377798956075055        0.0000000000000000     
   7.1454209953811396E-002  0.15124924084649286        0.0000000000000000     
   7.2733458683814228E-002  0.15883095360696439        0.0000000000000000     
   7.3925965548180261E-002  0.16652312784216525        0.0000000000000000     
   6.2299948975399158E-002  0.13599575877621486        0.0000000000000000     
   6.3627758624885955E-002  0.14337990862843569        0.0000000000000000     
   6.4874936971730926E-002  0.15088041797184568        0.0000000000000000     
   6.6041484015934057E-002  0.15849728680644479        0.0000000000000000     
   6.7127399757495348E-002  0.16623051513223314        0.0000000000000000     
   5.6113474158445115E-002  0.13561617750561719        0.0000000000000000     
   5.7317926914187418E-002  0.14302355667270675        0.0000000000000000     
   5.8446989162020541E-002  0.15054751143246009        0.0000000000000000     
   5.9500660901944454E-002  0.15818804178487725        0.0000000000000000     
   6.0478942133959199E-002  0.16594514772995819        0.0000000000000000     
   5.0076062446033250E-002  0.13527845593794449        0.0000000000000000     
   5.1158724226076167E-002  0.14270893369356369        0.0000000000000000     
   5.2170366524680219E-002  0.15025052122833613        0.0000000000000000     
   5.3110989341845424E-002  0.15790321854226166        0.0000000000000000     
   5.3980592677571777E-002  0.16566702563534044        0.0000000000000000     
   4.4187713838163542E-002  0.13498259407319677        0.0000000000000000     
   4.5150150560552195E-002  0.14243603969100663        0.0000000000000000     
   4.6045069059710009E-002  0.14998944735947375        0.0000000000000000     
   4.6872469335636990E-002  0.15764281707859817        0.0000000000000000     
   4.7632351388333112E-002  0.16539614884837983        0.0000000000000000     
   0.0000000000000000        0.0000000000000000        0.0000000000000000     
   1.7981860767026724E-003   1.2772804191754908E-003   0.0000000000000000     
   3.6209774427713734E-003   2.9399751448883878E-003   0.0000000000000000     
   5.4683740982061036E-003   4.9880841771386894E-003   0.0000000000000000     
   7.3403760430068611E-003   7.4216075159263982E-003   0.0000000000000000     
   0.0000000000000000        0.0000000000000000        0.0000000000000000     
   1.5349804219271968E-003   1.2181685424789569E-003   0.0000000000000000     
   3.0991572594370499E-003   2.8219537271231645E-003   0.0000000000000000     
   4.6925305125295599E-003   4.8113555539326227E-003   0.0000000000000000     
   6.3151001812047263E-003   7.1863740229073329E-003   0.0000000000000000     
   0.0000000000000000        0.0000000000000000        0.0000000000000000     
   1.2878472668498681E-003   1.1706729207159356E-003   0.0000000000000000     
   2.6054528700983019E-003   2.7258235530395010E-003   0.0000000000000000     
   3.9528168097453008E-003   4.6654518969706966E-003   0.0000000000000000     
   5.3299390857908654E-003   6.9895579525095222E-003   0.0000000000000000     
   0.0000000000000000        0.0000000000000000        0.0000000000000000     
   1.0567866114706862E-003   1.1347935538864266E-003   0.0000000000000000     
   2.1398642747551288E-003   2.6515846226373972E-003   0.0000000000000000     
   3.2492329898533272E-003   4.5503732062529105E-003   0.0000000000000000     
   4.3848927567652820E-003   6.8311593047329679E-003   0.0000000000000000     
   0.0000000000000000        0.0000000000000000        0.0000000000000000     
   8.4179845578965151E-004   1.1105304419904301E-003   0.0000000000000000     
   1.7023914734075303E-003   2.5992369359168518E-003   0.0000000000000000     
   2.5817790528536370E-003   4.4661194817792660E-003   0.0000000000000000     
   3.4799611941279708E-003   6.7111780795776716E-003   0.0000000000000000     
   7.3403760430068611E-003   7.4216075159263982E-003   0.0000000000000000     
   9.2293043548296073E-003   1.0188194495504409E-002   0.0000000000000000     
   1.1127480111330300E-002   1.3235494450125625E-002   0.0000000000000000     
   1.3034903312508941E-002   1.6563507379790041E-002   0.0000000000000000     
   1.4951573958365529E-002   2.0172233284497663E-002   0.0000000000000000     
   6.3151001812047263E-003   7.1863740229073329E-003   0.0000000000000000     
   7.9542289682836744E-003   9.8976077390863417E-003   0.0000000000000000     
   9.5972795765875262E-003   1.2895655307508696E-002   0.0000000000000000     
   1.1244252006116288E-002   1.6180516728174402E-002   0.0000000000000000     
   1.2895146256869952E-002   1.9752192001083455E-002   0.0000000000000000     
   5.3299390857908654E-003   6.9895579525095222E-003   0.0000000000000000     
   6.7224198874131728E-003   9.6522270111072863E-003   0.0000000000000000     
   8.1158594037904000E-003   1.2607544364215295E-002   0.0000000000000000     
   9.5102576349225445E-003   1.5855510011833548E-002   0.0000000000000000     
   1.0905614580809606E-002   1.9396123953962049E-002   0.0000000000000000     
   4.3848927567652820E-003   6.8311593047329679E-003   0.0000000000000000     
   5.5338771122181059E-003   9.4520523115672467E-003   0.0000000000000000     
   6.6832195929389148E-003   1.2371161620245416E-002   0.0000000000000000     
   7.8329201989277113E-003   1.5588487230767485E-002   0.0000000000000000     
   8.9829789301844910E-003   1.9104029143133448E-002   0.0000000000000000     
   3.4799611941279708E-003   6.7111780795776716E-003   0.0000000000000000     
   4.3886006426984711E-003   9.2970836404662211E-003   0.0000000000000000     
   5.2993601440330766E-003   1.2186507075599066E-002   0.0000000000000000     
   6.2122396981317881E-003   1.5379448384976206E-002   0.0000000000000000     
   7.1272393049946056E-003   1.8875907568597642E-002   0.0000000000000000     
   1.4951573958365529E-002   2.0172233284497663E-002   0.0000000000000000     
   1.6851978327389296E-002   2.4032950395902111E-002   0.0000000000000000     
   1.8710602698069477E-002   2.8116936945657017E-002   0.0000000000000000     
   2.0527447070406064E-002   3.2424192933762384E-002   0.0000000000000000     
   2.2302511444399070E-002   3.6954718360218214E-002   0.0000000000000000     
   1.2895146256869952E-002   1.9752192001083455E-002   0.0000000000000000     
   1.4533175752330136E-002   2.3584250268614642E-002   0.0000000000000000     
   1.6141553915978456E-002   2.7650260673146736E-002   0.0000000000000000     
   1.7720280747814909E-002   3.1950223214679753E-002   0.0000000000000000     
   1.9269356247839493E-002   3.6484137893213683E-002   0.0000000000000000     
   1.0905614580809606E-002   1.9396123953962049E-002   0.0000000000000000     
   1.2291215563773954E-002   2.3204238838223631E-002   0.0000000000000000     
   1.3656345906137941E-002   2.7254707312241118E-002   0.0000000000000000     
   1.5001005607901572E-002   3.1547529376014516E-002   0.0000000000000000     
   1.6325194669064853E-002   3.6082705029543818E-002   0.0000000000000000     
   8.9829789301844910E-003   1.9104029143133448E-002   0.0000000000000000     
   1.0126097761720737E-002   2.2892916104729079E-002   0.0000000000000000     
   1.1254978668547929E-002   2.6930276862940153E-002   0.0000000000000000     
   1.2369621650666067E-002   3.1216111417766663E-002   0.0000000000000000     
   1.3470026708075147E-002   3.5750419769208626E-002   0.0000000000000000     
   7.1272393049946056E-003   1.8875907568597642E-002   0.0000000000000000     
   8.0378223461704951E-003   2.2650282068130984E-002   0.0000000000000000     
   8.9374522032084191E-003   2.6676969325243837E-002   0.0000000000000000     
   9.8261288761083802E-003   3.0955969339936208E-002   0.0000000000000000     
   1.0703852364870379E-002   3.5487282112208092E-002   0.0000000000000000     
   2.2302511444399070E-002   3.6954718360218214E-002   0.0000000000000000     
   2.4033460124753561E-002   4.1700034074751362E-002   0.0000000000000000     
   2.5717957416174612E-002   4.6651660927088702E-002   0.0000000000000000     
   2.7356003318662225E-002   5.1809598917230242E-002   0.0000000000000000     
   2.8947597832216398E-002   5.7173848045175960E-002   0.0000000000000000     
   1.9269356247839493E-002   3.6484137893213683E-002   0.0000000000000000     
   2.0783305149497396E-002   4.1238095539264094E-002   0.0000000000000000     
   2.2256652186233791E-002   4.6198186983346559E-002   0.0000000000000000     
   2.3689397358048682E-002   5.1364412225461058E-002   0.0000000000000000     
   2.5081540664942076E-002   5.6736771265607625E-002   0.0000000000000000     
   1.6325194669064853E-002   3.6082705029543818E-002   0.0000000000000000     
   1.7621463715956555E-002   4.0842384874686485E-002   0.0000000000000000     
   1.8882363374905457E-002   4.5808719513299935E-002   0.0000000000000000     
   2.0107893645911555E-002   5.0981708945384188E-002   0.0000000000000000     
   2.1298054528974857E-002   5.6361353170939245E-002   0.0000000000000000     
   1.3470026708075147E-002   3.5750419769208626E-002   0.0000000000000000     
   1.4547935824131037E-002   4.0512902081018522E-002   0.0000000000000000     
   1.5595090982189601E-002   4.5483258516948857E-002   0.0000000000000000     
   1.6611492182250834E-002   5.0661489076999612E-002   0.0000000000000000     
   1.7597139424314737E-002   5.6047593761170827E-002   0.0000000000000000     
   1.0703852364870379E-002   3.5487282112208092E-002   0.0000000000000000     
   1.1562721474020848E-002   4.0249647158260224E-002   0.0000000000000000     
   1.2394835008086231E-002   4.5221803994293298E-002   0.0000000000000000     
   1.3200192967066524E-002   5.0403752620307357E-002   0.0000000000000000     
   1.3978795350961725E-002   5.5795493036302365E-002   0.0000000000000000     
   2.8947597832216398E-002   5.7173848045175960E-002   0.0000000000000000     
   3.0492238261510023E-002   6.2733216543611858E-002   0.0000000000000000     
   3.1989421911215989E-002   6.8476512645223905E-002   0.0000000000000000     
   3.3439148781334298E-002   7.4403736350012101E-002   0.0000000000000000     
   3.4841418871864940E-002   8.0514887657976472E-002   0.0000000000000000     
   2.5081540664942076E-002   5.6736771265607625E-002   0.0000000000000000     
   2.6432704703591565E-002   6.2305357352055085E-002   0.0000000000000000     
   2.7742512070674765E-002   6.8060263733072279E-002   0.0000000000000000     
   2.9010962766191670E-002   7.4001490408659248E-002   0.0000000000000000     
   3.0238056790142277E-002   8.0129037378815937E-002   0.0000000000000000     
   2.1298054528974857E-002   5.6361353170939245E-002   0.0000000000000000     
   2.2453080352747970E-002   6.1938242942375869E-002   0.0000000000000000     
   2.3573205445883507E-002   6.7702969012104874E-002   0.0000000000000000     
   2.4658429808381479E-002   7.3655531380126232E-002   0.0000000000000000     
   2.5708753440241879E-002   7.9795930046439992E-002   0.0000000000000000     
   1.7597139424314737E-002   5.6047593761170827E-002   0.0000000000000000     
   1.8553365208979232E-002   6.1631873314574245E-002   0.0000000000000000     
   1.9481502036842225E-002   6.7404628482321677E-002   0.0000000000000000     
   2.0381549907903730E-002   7.3365859264413108E-002   0.0000000000000000     
   2.1253508822163737E-002   7.9515565660848553E-002   0.0000000000000000     
   1.3978795350961725E-002   5.5795493036302365E-002   0.0000000000000000     
   1.4733559272285351E-002   6.1386248468650199E-002   0.0000000000000000     
   1.5467401843550917E-002   6.7165242143722687E-002   0.0000000000000000     
   1.6180323064758417E-002   7.3132474061519875E-002   0.0000000000000000     
   1.6872322935907860E-002   7.9287944222041704E-002   0.0000000000000000     
   3.4841418871864940E-002   8.0514887657976472E-002   0.0000000000000000     
   3.6191293481785181E-002   8.6794317972933369E-002   0.0000000000000000     
   3.7483833910072262E-002   9.3226378698699236E-002   0.0000000000000000     
   3.8719040156726198E-002   9.9811069835274047E-002   0.0000000000000000     
   3.9896912221746975E-002  0.10654839138265780        0.0000000000000000     
   3.0238056790142277E-002   8.0129037378815937E-002   0.0000000000000000     
   3.1419055374484042E-002   8.6425218633288309E-002   0.0000000000000000     
   3.2549219751174412E-002   9.2872348161822285E-002   0.0000000000000000     
   3.3628549920213385E-002   9.9470425964417880E-002   0.0000000000000000     
   3.4657045881600963E-002  0.10621945204107502        0.0000000000000000     
   2.5708753440241879E-002   7.9795930046439992E-002   0.0000000000000000     
   2.6719895075704048E-002   8.6105697976416568E-002   0.0000000000000000     
   2.7687573449007345E-002   9.2566368135426499E-002   0.0000000000000000     
   2.8611788560151761E-002   9.9177940523469801E-002   0.0000000000000000     
   2.9492540409137302E-002  0.10594041514054646        0.0000000000000000     
   2.1253508822163737E-002   7.9515565660848553E-002   0.0000000000000000     
   2.2093812585445197E-002   8.5835756002318117E-002   0.0000000000000000     
   2.2898895003571052E-002   9.2308438619511893E-002   0.0000000000000000     
   2.3668756076541311E-002   9.8933613512429908E-002   0.0000000000000000     
   2.4403395804355965E-002  0.10571128068107206        0.0000000000000000     
   1.6872322935907860E-002   7.9287944222041704E-002   0.0000000000000000     
   1.7540807903707486E-002   8.5615392710992985E-002   0.0000000000000000     
   1.8183184414865543E-002   9.2098559614078451E-002   0.0000000000000000     
   1.8799452469382038E-002   9.8737444931298088E-002   0.0000000000000000     
   1.9389612067256964E-002  0.10553204866265192        0.0000000000000000     
   3.9896912221746975E-002  0.10654839138265780        0.0000000000000000     
   4.1026991053426158E-002  0.11343575661540767        0.0000000000000000     
   4.2118817600055314E-002  0.12047057880808079        0.0000000000000000     
   4.3172391861634442E-002  0.12765285796067713        0.0000000000000000     
   4.4187713838163542E-002  0.13498259407319677        0.0000000000000000     
   3.4657045881600963E-002  0.10621945204107502        0.0000000000000000     
   3.5643478317433891E-002  0.11311932365630195        0.0000000000000000     
   3.6596617909808872E-002  0.12016993807460678        0.0000000000000000     
   3.7516464658725920E-002  0.12737129529598953        0.0000000000000000     
   3.8403018564185050E-002  0.13472339532045022        0.0000000000000000     
   2.9492540409137302E-002  0.10594041514054646        0.0000000000000000     
   3.0335807225336218E-002  0.11285356243600612        0.0000000000000000     
   3.1147567238120781E-002  0.11991715285919845        0.0000000000000000     
   3.1927820447490984E-002  0.12713118641012350        0.0000000000000000     
   3.2676566853446824E-002  0.13449566308878125        0.0000000000000000     
   2.4403395804355965E-002  0.10571128068107206        0.0000000000000000     
   2.5103977777133159E-002  0.11263847295452016        0.0000000000000000     
   2.5771665584991044E-002  0.11971222316185580        0.0000000000000000     
   2.6406459227929613E-002  0.12693253130307894        0.0000000000000000     
   2.7008358705948865E-002  0.13429939737818969        0.0000000000000000     
   1.9389612067256964E-002  0.10553204866265192        0.0000000000000000     
   1.9947989972824709E-002  0.11247405521184410        0.0000000000000000     
   2.0468912950419658E-002  0.11955514898257878        0.0000000000000000     
   2.0952381000041809E-002  0.12677532997485597        0.0000000000000000     
   2.1398394121691169E-002  0.13413459818867565        0.0000000000000000     
   4.4187713838163542E-002  0.13498259407319677        0.0000000000000000     
   4.5150150560552195E-002  0.14243603969100663        0.0000000000000000     
   4.6045069059710009E-002  0.14998944735947375        0.0000000000000000     
   4.6872469335636990E-002  0.15764281707859817        0.0000000000000000     
   4.7632351388333112E-002  0.16539614884837983        0.0000000000000000     
   3.8403018564185050E-002  0.13472339532045022        0.0000000000000000     
   3.9243254755173554E-002  0.14219729004551529        0.0000000000000000     
   4.0024148360678746E-002  0.14976403136871114        0.0000000000000000     
   4.0745699380700634E-002  0.15742361929003781        0.0000000000000000     
   4.1407907815239217E-002  0.16517605380949529        0.0000000000000000     
   3.2676566853446824E-002  0.13449566308878125        0.0000000000000000     
   3.3389085647498276E-002  0.14198510013756960        0.0000000000000000     
   3.4060656021155308E-002  0.14957401479888643        0.0000000000000000     
   3.4691277974417914E-002  0.15726240707273181        0.0000000000000000     
   3.5280951507286100E-002  0.16505027695910579        0.0000000000000000     
   2.7008358705948865E-002  0.13429939737818969        0.0000000000000000     
   2.7587643237526365E-002  0.14179946996716941        0.0000000000000000     
   2.8154592041139685E-002  0.14941939764999956        0.0000000000000000     
   2.8709205116788820E-002  0.15715918042668017        0.0000000000000000     
   2.9251482464473767E-002  0.16501881829721127        0.0000000000000000     
   2.1398394121691169E-002  0.13413459818867565        0.0000000000000000     
   2.1838927525257828E-002  0.14164039953431487        0.0000000000000000     
   2.2305956420631892E-002  0.14930017992205064        0.0000000000000000     
   2.2799480807813358E-002  0.15711393935188292        0.0000000000000000     
   2.3319500686802223E-002  0.16508167782381172        0.0000000000000000     
   0.0000000000000000        0.0000000000000000        0.0000000000000000     
   8.4179845578965151E-004   1.1105304419904301E-003   0.0000000000000000     
   1.7023914734075303E-003   2.5992369359168518E-003   0.0000000000000000     
   2.5817790528536370E-003   4.4661194817792660E-003   0.0000000000000000     
   3.4799611941279708E-003   6.7111780795776716E-003   0.0000000000000000     
   0.0000000000000000        0.0000000000000000        0.0000000000000000     
   6.3399932441257764E-004   1.0943682863268260E-003   0.0000000000000000     
   1.2784930106027016E-003   2.5629716011856228E-003   0.0000000000000000     
   1.9334810585703718E-003   4.4058099445763912E-003   0.0000000000000000     
   2.5989634683155883E-003   6.6228833164991277E-003   0.0000000000000000     
   0.0000000000000000        0.0000000000000000        0.0000000000000000     
   4.2450574194527924E-004   1.0827917881944932E-003   0.0000000000000000     
   8.5362743088783673E-004   2.5369797267514641E-003   0.0000000000000000     
   1.2873650668276723E-003   4.3625638156709117E-003   0.0000000000000000     
   1.7257186497647865E-003   6.5595440549528396E-003   0.0000000000000000     
   0.0000000000000000        0.0000000000000000        0.0000000000000000     
   2.1331770838775593E-004   1.0758009475934317E-003   0.0000000000000000     
   4.2779473426293545E-004   2.5212613126143761E-003   0.0000000000000000     
   6.4343107762553867E-004   4.3363810950628320E-003   0.0000000000000000     
   8.6022673847556538E-004   6.5211602949388006E-003   0.0000000000000000     
   0.0000000000000000        0.0000000000000000        0.0000000000000000     
   4.3522374000795768E-007   1.0733957645236419E-003   0.0000000000000000     
   9.9492072799805967E-007   2.5158163587743589E-003   0.0000000000000000     
   1.6790909639705499E-006   4.3272617827521502E-003   0.0000000000000000     
   2.4877344479251303E-006   6.5077320364570149E-003   0.0000000000000000     
   3.4799611941279708E-003   6.7111780795776716E-003   0.0000000000000000     
   4.3886006426984711E-003   9.2970836404662211E-003   0.0000000000000000     
   5.2993601440330766E-003   1.2186507075599066E-002   0.0000000000000000     
   6.2122396981317881E-003   1.5379448384976206E-002   0.0000000000000000     
   7.1272393049946056E-003   1.8875907568597642E-002   0.0000000000000000     
   2.5989634683155883E-003   6.6228833164991277E-003   0.0000000000000000     
   3.2718035191397024E-003   9.1810970360760667E-003   0.0000000000000000     
   3.9488644903440655E-003   1.2047356422429430E-002   0.0000000000000000     
   4.6301463819286787E-003   1.5221661475559216E-002   0.0000000000000000     
   5.3156491938935405E-003   1.8704012195465438E-002   0.0000000000000000     
   1.7257186497647865E-003   6.5595440549528396E-003   0.0000000000000000     
   2.1686987818272320E-003   9.0978685366686369E-003   0.0000000000000000     
   2.6163160651430637E-003   1.1947485352889701E-002   0.0000000000000000     
   3.0685704997122803E-003   1.5108394503616033E-002   0.0000000000000000     
   3.5254620855348822E-003   1.8580595988847631E-002   0.0000000000000000     
   8.6022673847556538E-004   6.5211602949388006E-003   0.0000000000000000     
   1.0792864307610610E-003   9.0473981422439318E-003   0.0000000000000000     
   1.3017148684300709E-003   1.1886893866979881E-002   0.0000000000000000     
   1.5275120514825951E-003   1.5039647469146641E-002   0.0000000000000000     
   1.7566779799186335E-003   1.8505658948744223E-002   0.0000000000000000     
   2.4877344479251303E-006   6.5077320364570149E-003   0.0000000000000000     
   3.5664659411887211E-006   9.0296858528019566E-003   0.0000000000000000     
   5.0609002050877822E-006   1.1865581964699968E-002   0.0000000000000000     
   6.9710372396227267E-006   1.5015420372151053E-002   0.0000000000000000     
   9.2968770447931278E-006   1.8479201075155209E-002   0.0000000000000000     
   7.1272393049946056E-003   1.8875907568597642E-002   0.0000000000000000     
   8.0378223461704951E-003   2.2650282068130984E-002   0.0000000000000000     
   8.9374522032084191E-003   2.6676969325243837E-002   0.0000000000000000     
   9.8261288761083802E-003   3.0955969339936208E-002   0.0000000000000000     
   1.0703852364870379E-002   3.5487282112208092E-002   0.0000000000000000     
   5.3156491938935405E-003   1.8704012195465438E-002   0.0000000000000000     
   5.9988350790982263E-003   2.2467688980363443E-002   0.0000000000000000     
   6.6731661904023132E-003   2.6485972228468612E-002   0.0000000000000000     
   7.3386425278057993E-003   3.0758861939780932E-002   0.0000000000000000     
   7.9952640913086865E-003   3.5286358114300420E-002   0.0000000000000000     
   3.5254620855348822E-003   1.8580595988847631E-002   0.0000000000000000     
   3.9815817224789366E-003   2.2336489093360560E-002   0.0000000000000000     
   4.4315203104125104E-003   2.6348473101930902E-002   0.0000000000000000     
   4.8752778493356035E-003   3.0616548014558646E-002   0.0000000000000000     
   5.3128543392482151E-003   3.5140713831243793E-002   0.0000000000000000     
   1.7566779799186335E-003   1.8505658948744223E-002   0.0000000000000000     
   1.9860622763126258E-003   2.2256682407122339E-002   0.0000000000000000     
   2.2125145632390115E-003   2.6264471945630710E-002   0.0000000000000000     
   2.4360348406977906E-003   3.0529027564269333E-002   0.0000000000000000     
   2.6566231086889635E-003   3.5050349263038225E-002   0.0000000000000000     
   9.2968770447931278E-006   1.8479201075155209E-002   0.0000000000000000     
   1.2276740599293510E-005   2.2228268921648760E-002   0.0000000000000000     
   1.6148948881816283E-005   2.6233968759568030E-002   0.0000000000000000     
   2.0913501892363222E-005   3.0496300588913002E-002   0.0000000000000000     
   2.6570399630933229E-005   3.5015264409683694E-002   0.0000000000000000     
   1.0703852364870379E-002   3.5487282112208092E-002   0.0000000000000000     
   1.1562721474020848E-002   4.0249647158260224E-002   0.0000000000000000     
   1.2394835008086231E-002   4.5221803994293298E-002   0.0000000000000000     
   1.3200192967066524E-002   5.0403752620307357E-002   0.0000000000000000     
   1.3978795350961725E-002   5.5795493036302365E-002   0.0000000000000000     
   7.9952640913086865E-003   3.5286358114300420E-002   0.0000000000000000     
   8.6364630009467726E-003   4.0047014665895019E-002   0.0000000000000000     
   9.2556713767558627E-003   4.5019385508432680E-002   0.0000000000000000     
   9.8528892187359531E-003   5.0203470641913439E-002   0.0000000000000000     
   1.0428116526887046E-002   5.5599270066337268E-002   0.0000000000000000     
   5.3128543392482151E-003   3.5140713831243793E-002   0.0000000000000000     
   5.7398027402295994E-003   3.9899399163406381E-002   0.0000000000000000     
   6.1516760123590149E-003   4.4871032622466431E-002   0.0000000000000000     
   6.5484741556364589E-003   5.0055614208423943E-002   0.0000000000000000     
   6.9301971700619323E-003   5.5453143921278931E-002   0.0000000000000000     
   2.6566231086889635E-003   3.5050349263038225E-002   0.0000000000000000     
   2.8727406918693296E-003   3.9806800650794297E-002   0.0000000000000000     
   3.0828489148956879E-003   4.4776745336394516E-002   0.0000000000000000     
   3.2869477777680393E-003   4.9960183319838876E-002   0.0000000000000000     
   3.4850372804863831E-003   5.5357114601127362E-002   0.0000000000000000     
   2.6570399630933229E-005   3.5015264409683694E-002   0.0000000000000000     
   3.5276855865960344E-005   3.9769219128058780E-002   0.0000000000000000     
   4.9190084365881152E-005   4.4736523650216957E-002   0.0000000000000000     
   6.8310085130694393E-005   4.9917177976158210E-002   0.0000000000000000     
   9.2636858160400270E-005   5.5311182105882553E-002   0.0000000000000000     
   1.3978795350961725E-002   5.5795493036302365E-002   0.0000000000000000     
   1.4733559272285351E-002   6.1386248468650199E-002   0.0000000000000000     
   1.5467401843550917E-002   6.7165242143722687E-002   0.0000000000000000     
   1.6180323064758417E-002   7.3132474061519875E-002   0.0000000000000000     
   1.6872322935907860E-002   7.9287944222041704E-002   0.0000000000000000     
   1.0428116526887046E-002   5.5599270066337268E-002   0.0000000000000000     
   1.0985209883777642E-002   6.1194815539505953E-002   0.0000000000000000     
   1.1528025871976249E-002   6.6978138819221253E-002   0.0000000000000000     
   1.2056564491482857E-002   7.2949239905483215E-002   0.0000000000000000     
   1.2570825742297478E-002   7.9108118798291799E-002   0.0000000000000000     
   6.9301971700619323E-003   5.5453143921278931E-002   0.0000000000000000     
   7.2998643845674149E-003   6.1051021662043729E-002   0.0000000000000000     
   7.6604951280848949E-003   6.6836647331730725E-002   0.0000000000000000     
   8.0120894006143663E-003   7.2810020930339864E-002   0.0000000000000000     
   8.3546472021558300E-003   7.8971142457871221E-002   0.0000000000000000     
   3.4850372804863831E-003   5.5357114601127362E-002   0.0000000000000000     
   3.6775227746546719E-003   6.0954866836263562E-002   0.0000000000000000     
   3.8648096118768576E-003   6.6740767681251062E-002   0.0000000000000000     
   4.0468977921529394E-003   7.2714817136089877E-002   0.0000000000000000     
   4.2237873154829172E-003   7.8877015200779957E-002   0.0000000000000000     
   9.2636858160400270E-005   5.5311182105882553E-002   0.0000000000000000     
   1.1818505403941057E-004   6.0906351062165430E-002   0.0000000000000000     
   1.4096932335213707E-004   6.6690499867782305E-002   0.0000000000000000     
   1.6098966609857956E-004   7.2663628522733156E-002   0.0000000000000000     
   1.7824608227873869E-004   7.8825737027018034E-002   0.0000000000000000     
   1.6872322935907860E-002   7.9287944222041704E-002   0.0000000000000000     
   1.7540807903707486E-002   8.5615392710992985E-002   0.0000000000000000     
   1.8183184414865543E-002   9.2098559614078451E-002   0.0000000000000000     
   1.8799452469382038E-002   9.8737444931298088E-002   0.0000000000000000     
   1.9389612067256964E-002  0.10553204866265192        0.0000000000000000     
   1.2570825742297478E-002   7.9108118798291799E-002   0.0000000000000000     
   1.3069245327759202E-002   8.5440310664825644E-002   0.0000000000000000     
   1.3550258951207133E-002   9.1931350672263351E-002   0.0000000000000000     
   1.4013866612641269E-002   9.8581238820604891E-002   0.0000000000000000     
   1.4460068312061609E-002  0.10538997510985028        0.0000000000000000     
   8.3546472021558300E-003   7.8971142457871221E-002   0.0000000000000000     
   8.6874891548686384E-003   8.5306212426200567E-002   0.0000000000000000     
   9.0099358809121368E-003   9.1801431347203713E-002   0.0000000000000000     
   9.3219873802863253E-003   9.8456799220880728E-002   0.0000000000000000     
   9.6236436529912039E-003  0.10527231604723154        0.0000000000000000     
   4.2237873154829172E-003   7.8877015200779957E-002   0.0000000000000000     
   4.3955393850357892E-003   8.5213097995117754E-002   0.0000000000000000     
   4.5622152039805517E-003   9.1708801638899634E-002   0.0000000000000000     
   4.7238147723172056E-003   9.8364126132125584E-002   0.0000000000000000     
   4.8803380900457492E-003  0.10517907147479562        0.0000000000000000     
   1.7824608227873869E-004   7.8825737027018034E-002   0.0000000000000000     
   1.9339601826065815E-004   8.5160967371577218E-002   0.0000000000000000     
   2.0709692041238236E-004   9.1653461547351045E-002   0.0000000000000000     
   2.1934878873391186E-004   9.8303219554339502E-002   0.0000000000000000     
   2.3015162322524620E-004  0.10511024139254260        0.0000000000000000     
   1.9389612067256964E-002  0.10553204866265192        0.0000000000000000     
   1.9947989972824709E-002  0.11247405521184410        0.0000000000000000     
   2.0468912950419658E-002  0.11955514898257878        0.0000000000000000     
   2.0952381000041809E-002  0.12677532997485597        0.0000000000000000     
   2.1398394121691169E-002  0.13413459818867565        0.0000000000000000     
   1.4460068312061609E-002  0.10538997510985028        0.0000000000000000     
   1.4877876089152992E-002  0.11234399196701653        0.0000000000000000     
   1.5256301983600260E-002  0.11942972181912055        0.0000000000000000     
   1.5595345995403413E-002  0.12664716466616233        0.0000000000000000     
   1.5895008124562446E-002  0.13399632050814192        0.0000000000000000     
   9.6236436529912039E-003  0.10527231604723154        0.0000000000000000     
   9.9036684028601333E-003  0.11223196597907607        0.0000000000000000     
   1.0150825333726477E-002  0.11931973316923419        0.0000000000000000     
   1.0365114445590233E-002  0.12653561761770593        0.0000000000000000     
   1.0546535738451403E-002  0.13387961932449130        0.0000000000000000     
   4.8803380900457492E-003  0.10517907147479562        0.0000000000000000     
   5.0253669139461322E-003  0.11213797724802269        0.0000000000000000     
   5.1524830007983104E-003  0.11922518303291976        0.0000000000000000     
   5.2616863506022796E-003  0.12644068882948675        0.0000000000000000     
   5.3529769633580424E-003  0.13378449463772374        0.0000000000000000     
   2.3015162322524620E-004  0.10511024139254260        0.0000000000000000     
   2.4297162241099278E-004  0.11206202577385643        0.0000000000000000     
   2.6127498481575990E-004  0.11914607141017718        0.0000000000000000     
   2.8506171043955004E-004  0.12636237830150479        0.0000000000000000     
   3.1433179928236007E-004  0.13371094644783929        0.0000000000000000     
   2.1398394121691169E-002  0.13413459818867565        0.0000000000000000     
   2.1838927525257828E-002  0.14164039953431487        0.0000000000000000     
   2.2305956420631892E-002  0.14930017992205064        0.0000000000000000     
   2.2799480807813358E-002  0.15711393935188292        0.0000000000000000     
   2.3319500686802223E-002  0.16508167782381172        0.0000000000000000     
   1.5895008124562446E-002  0.13399632050814192        0.0000000000000000     
   1.6203273708508950E-002  0.14150182523615221        0.0000000000000000     
   1.6568128084674526E-002  0.14918831474128613        0.0000000000000000     
   1.6989571253059159E-002  0.15705578902354370        0.0000000000000000     
   1.7467603213662853E-002  0.16510424808292484        0.0000000000000000     
   1.0546535738451403E-002  0.13387961932449130        0.0000000000000000     
   1.0741016985096039E-002  0.14137768346982771        0.0000000000000000     
   1.0994485958310188E-002  0.14905575523395265        0.0000000000000000     
   1.1306942658093859E-002  0.15691383461686614        0.0000000000000000     
   1.1678387084447045E-002  0.16495192161856820        0.0000000000000000     
   5.3529769633580424E-003  0.13378449463772374        0.0000000000000000     
   5.4521573550190827E-003  0.14126797423534135        0.0000000000000000     
   5.5850300415388899E-003  0.14890250140005021        0.0000000000000000     
   5.7515950229174613E-003  0.15668807613185037        0.0000000000000000     
   5.9518522991548013E-003  0.16462469843074182        0.0000000000000000     
   3.1433179928236007E-004  0.13371094644783929        0.0000000000000000     
   3.3669481827808701E-004  0.14117269753269313        0.0000000000000000     
   3.3976033436062072E-004  0.14872855323957884        0.0000000000000000     
   3.2352834752996711E-004  0.15637851356849633        0.0000000000000000     
   2.8799885778612189E-004  0.16412257851944567        0.0000000000000000     
   0.0000000000000000        0.0000000000000000        0.0000000000000000     
   4.3522374000795768E-007   1.0733957645236419E-003   0.0000000000000000     
   9.9492072799805967E-007   2.5158163587743589E-003   0.0000000000000000     
   1.6790909639705499E-006   4.3272617827521502E-003   0.0000000000000000     
   2.4877344479251303E-006   6.5077320364570149E-003   0.0000000000000000     
   0.0000000000000000        0.0000000000000000        0.0000000000000000     
  -2.1248222205460759E-004   1.0755727486983077E-003   0.0000000000000000     
  -4.2588279925400276E-004   2.5206753783886529E-003   0.0000000000000000     
  -6.4020173159818543E-004   4.3353078890710365E-003   0.0000000000000000     
  -8.5543901908715595E-004   6.5194702807454576E-003   0.0000000000000000     
   0.0000000000000000        0.0000000000000000        0.0000000000000000     
  -4.2377513905273351E-004   1.0823284098306137E-003   0.0000000000000000     
  -8.5194921522009452E-004   2.5358688846145016E-003   0.0000000000000000     
  -1.2845222285020833E-003   4.3606214243516643E-003   0.0000000000000000     
  -1.7214941788986993E-003   6.5565860290421026E-003   0.0000000000000000     
   0.0000000000000000        0.0000000000000000        0.0000000000000000     
  -6.3344352725436964E-004   1.0936627479205593E-003   0.0000000000000000     
  -1.2772043271702771E-003   2.5613968774519042E-003   0.0000000000000000     
  -1.9312823997477224E-003   4.4032023885940347E-003   0.0000000000000000     
  -2.5956777449867054E-003   6.6190792813469500E-003   0.0000000000000000     
   0.0000000000000000        0.0000000000000000        0.0000000000000000     
  -8.4148738665951628E-004   1.1095757629681451E-003   0.0000000000000000     
  -1.7016481351045509E-003   2.5972593569008598E-003   0.0000000000000000     
  -2.5804822453351032E-003   4.4630507817981450E-003   0.0000000000000000     
  -3.4779897173511740E-003   6.7069500376599981E-003   0.0000000000000000     
   2.4877344479251303E-006   6.5077320364570149E-003   0.0000000000000000     
   3.5664659411887211E-006   9.0296858528019566E-003   0.0000000000000000     
   5.0609002050877822E-006   1.1865581964699968E-002   0.0000000000000000     
   6.9710372396227267E-006   1.5015420372151053E-002   0.0000000000000000     
   9.2968770447931278E-006   1.8479201075155209E-002   0.0000000000000000     
  -8.5543901908715595E-004   6.5194702807454576E-003   0.0000000000000000     
  -1.0724359204048880E-003   9.0450586595578423E-003   0.0000000000000000     
  -1.2920336942353560E-003   1.1883969131654119E-002   0.0000000000000000     
  -1.5142323405785598E-003   1.5036201697034290E-002   0.0000000000000000     
  -1.7390318594344991E-003   1.8501756355698347E-002   0.0000000000000000     
  -1.7214941788986993E-003   6.5565860290421026E-003   0.0000000000000000     
  -2.1626955360496722E-003   9.0938435537267371E-003   0.0000000000000000     
  -2.6079567695947306E-003   1.1942474853446497E-002   0.0000000000000000     
  -3.0572778795338752E-003   1.5102479928201375E-002   0.0000000000000000     
  -3.5106588658671053E-003   1.8573858777991378E-002   0.0000000000000000     
  -2.5956777449867054E-003   6.6190792813469500E-003   0.0000000000000000     
  -3.2672123809931639E-003   9.1760405353086411E-003   0.0000000000000000     
  -3.9427083258730365E-003   1.2041099130077094E-002   0.0000000000000000     
  -4.6221655796263236E-003   1.5214255065652315E-002   0.0000000000000000     
  -5.3055841422530231E-003   1.8695508342034300E-002   0.0000000000000000     
  -3.4779897173511740E-003   6.7069500376599981E-003   0.0000000000000000     
  -4.3859864552353630E-003   9.2916496043035472E-003   0.0000000000000000     
  -5.2962883630702741E-003   1.2179841961545916E-002   0.0000000000000000     
  -6.2088954408559029E-003   1.5371527109387106E-002   0.0000000000000000     
  -7.1238076885922546E-003   1.8866705047827115E-002   0.0000000000000000     
   9.2968770447931278E-006   1.8479201075155209E-002   0.0000000000000000     
   1.2276740599293510E-005   2.2228268921648760E-002   0.0000000000000000     
   1.6148948881816283E-005   2.6233968759568030E-002   0.0000000000000000     
   2.0913501892363222E-005   3.0496300588913002E-002   0.0000000000000000     
   2.6570399630933229E-005   3.5015264409683694E-002   0.0000000000000000     
  -1.7390318594344991E-003   1.8501756355698347E-002   0.0000000000000000     
  -1.9628205511421160E-003   2.2251911304597242E-002   0.0000000000000000     
  -2.1819867160403498E-003   2.6257944740681910E-002   0.0000000000000000     
  -2.3965303541292021E-003   3.0519856663952360E-002   0.0000000000000000     
  -2.6064514654086713E-003   3.5037647074408575E-002   0.0000000000000000     
  -3.5106588658671053E-003   1.8573858777991378E-002   0.0000000000000000     
  -3.9622752653926552E-003   2.2328272223625167E-002   0.0000000000000000     
  -4.4063026149087628E-003   2.6337381085911403E-002   0.0000000000000000     
  -4.8427409144154252E-003   3.0601185364850091E-002   0.0000000000000000     
  -5.2715901639126426E-003   3.5119685060441219E-002   0.0000000000000000     
  -5.3055841422530231E-003   1.8695508342034300E-002   0.0000000000000000     
  -5.9860874021523246E-003   2.2457351678732532E-002   0.0000000000000000     
  -6.6567987477234199E-003   2.6472277795256502E-002   0.0000000000000000     
  -7.3177181789663044E-003   3.0740286691606198E-002   0.0000000000000000     
  -7.9688456958809818E-003   3.5261378367781634E-002   0.0000000000000000     
  -7.1238076885922546E-003   1.8866705047827115E-002   0.0000000000000000     
  -8.0342569614211285E-003   2.2639149669919346E-002   0.0000000000000000     
  -8.9334751144843228E-003   2.6662634868717210E-002   0.0000000000000000     
  -9.8214621477818453E-003   3.0937160644220696E-002   0.0000000000000000     
  -1.0698218061313689E-002   3.5462726996429814E-002   0.0000000000000000     
   2.6570399630933229E-005   3.5015264409683694E-002   0.0000000000000000     
   3.5276855865960344E-005   3.9769219128058780E-002   0.0000000000000000     
   4.9190084365881152E-005   4.4736523650216957E-002   0.0000000000000000     
   6.8310085130694393E-005   4.9917177976158210E-002   0.0000000000000000     
   9.2636858160400270E-005   5.5311182105882553E-002   0.0000000000000000     
  -2.6064514654086713E-003   3.5037647074408575E-002   0.0000000000000000     
  -2.8063526396289048E-003   3.9789861328103013E-002   0.0000000000000000     
  -2.9908364665400524E-003   4.4755044781088105E-002   0.0000000000000000     
  -3.1599029461421130E-003   4.9933197433363857E-002   0.0000000000000000     
  -3.3135520784350857E-003   5.5324319284930257E-002   0.0000000000000000     
  -5.2715901639126426E-003   3.5119685060441219E-002   0.0000000000000000     
  -5.6859116664636717E-003   3.9871933983830175E-002   0.0000000000000000     
  -6.0787667251317647E-003   4.4836985946162332E-002   0.0000000000000000     
  -6.4501553399169218E-003   5.0014840947437689E-002   0.0000000000000000     
  -6.8000775108191447E-003   5.5405498987656232E-002   0.0000000000000000     
  -7.9688456958809818E-003   3.5261378367781634E-002   0.0000000000000000     
  -8.6034002246383363E-003   4.0015437095240282E-002   0.0000000000000000     
  -9.2146006914092544E-003   4.4982347145439645E-002   0.0000000000000000     
  -9.8024470961937324E-003   5.0162108518379718E-002   0.0000000000000000     
  -1.0366939438991770E-002   5.5554721214060493E-002   0.0000000000000000     
  -1.0698218061313689E-002   3.5462726996429814E-002   0.0000000000000000     
  -1.1558818314152900E-002   4.0220370662333332E-002   0.0000000000000000     
  -1.2398338365372517E-002   4.5191128378920038E-002   0.0000000000000000     
  -1.3216778214972540E-002   5.0375000146189938E-002   0.0000000000000000     
  -1.4014137862952974E-002   5.5771985964143025E-002   0.0000000000000000     
   9.2636858160400270E-005   5.5311182105882553E-002   0.0000000000000000     
   1.1818505403941057E-004   6.0906351062165430E-002   0.0000000000000000     
   1.4096932335213707E-004   6.6690499867782305E-002   0.0000000000000000     
   1.6098966609857956E-004   7.2663628522733156E-002   0.0000000000000000     
   1.7824608227873869E-004   7.8825737027018034E-002   0.0000000000000000     
  -3.3135520784350857E-003   5.5324319284930257E-002   0.0000000000000000     
  -3.4594651766824917E-003   6.0916730904213401E-002   0.0000000000000000     
  -3.6053235541478510E-003   6.6698752859639374E-002   0.0000000000000000     
  -3.7511272108311654E-003   7.2670385151208189E-002   0.0000000000000000     
  -3.8968761467324314E-003   7.8831627778919833E-002   0.0000000000000000     
  -6.8000775108191447E-003   5.5405498987656232E-002   0.0000000000000000     
  -7.1367443169151586E-003   6.0997262926871569E-002   0.0000000000000000     
  -7.4683668372816934E-003   6.6778435625137272E-002   0.0000000000000000     
  -7.7949450719187463E-003   7.2749017082453335E-002   0.0000000000000000     
  -8.1164790208263209E-003   7.8909007298819778E-002   0.0000000000000000     
  -1.0366939438991770E-002   5.5554721214060493E-002   0.0000000000000000     
  -1.0913652366658588E-002   6.1147947130139928E-002   0.0000000000000000     
  -1.1448160526049384E-002   6.6929548164275945E-002   0.0000000000000000     
  -1.1970463917164165E-002   7.2899524316468595E-002   0.0000000000000000     
  -1.2480562540002927E-002   7.9057875586717841E-002   0.0000000000000000     
  -1.4014137862952974E-002   5.5771985964143025E-002   0.0000000000000000     
  -1.4790189325912778E-002   6.1368783514018470E-002   0.0000000000000000     
  -1.5544704620450928E-002   6.7152090477055462E-002   0.0000000000000000     
  -1.6277683746567420E-002   7.3121906853253968E-002   0.0000000000000000     
  -1.6989126704262253E-002   7.9278232642614035E-002   0.0000000000000000     
   1.7824608227873869E-004   7.8825737027018034E-002   0.0000000000000000     
   1.9339601826065815E-004   8.5160967371577218E-002   0.0000000000000000     
   2.0709692041238236E-004   9.1653461547351045E-002   0.0000000000000000     
   2.1934878873391186E-004   9.8303219554339502E-002   0.0000000000000000     
   2.3015162322524620E-004  0.10511024139254260        0.0000000000000000     
  -3.8968761467324314E-003   7.8831627778919833E-002   0.0000000000000000     
  -4.0413041457097055E-003   8.5164982648052071E-002   0.0000000000000000     
  -4.1831449916210376E-003   9.1652951663882654E-002   0.0000000000000000     
  -4.3223986844664322E-003   9.8295534826411596E-002   0.0000000000000000     
  -4.4590652242458839E-003  0.10509273213563890        0.0000000000000000     
  -8.1164790208263209E-003   7.8909007298819778E-002   0.0000000000000000     
  -8.4309243071282562E-003   8.5240305917015452E-002   0.0000000000000000     
  -8.7362365539483799E-003   9.1724812579819223E-002   0.0000000000000000     
  -9.0324157612867023E-003   9.8362527287231077E-002   0.0000000000000000     
  -9.3194619291432201E-003  0.10515345003925103        0.0000000000000000     
  -1.2480562540002927E-002   7.9057875586717841E-002   0.0000000000000000     
  -1.2975464465994983E-002   8.5386937178467320E-002   0.0000000000000000     
  -1.3452177766569642E-002   9.1869044295160671E-002   0.0000000000000000     
  -1.3910702441726900E-002   9.8504196936797905E-002   0.0000000000000000     
  -1.4351038491466763E-002  0.10529239510337900        0.0000000000000000     
  -1.6989126704262253E-002   7.9278232642614035E-002   0.0000000000000000     
  -1.7674924622309900E-002   8.5604876432407703E-002   0.0000000000000000     
  -1.8330968629484821E-002   9.2085646809907051E-002   0.0000000000000000     
  -1.8957258725787025E-002   9.8720543775112066E-002   0.0000000000000000     
  -1.9553794911216515E-002  0.10550956732802279        0.0000000000000000     
   2.3015162322524620E-004  0.10511024139254260        0.0000000000000000     
   2.4297162241099278E-004  0.11206202577385643        0.0000000000000000     
   2.6127498481575990E-004  0.11914607141017718        0.0000000000000000     
   2.8506171043955004E-004  0.12636237830150479        0.0000000000000000     
   3.1433179928236007E-004  0.13371094644783929        0.0000000000000000     
  -4.4590652242458839E-003  0.10509273213563890        0.0000000000000000     
  -4.5808269322698417E-003  0.11203604389118603        0.0000000000000000     
  -4.6753661298487466E-003  0.11911697039267449        0.0000000000000000     
  -4.7426828169826020E-003  0.12633551164010431        0.0000000000000000     
  -4.7827769936714063E-003  0.13369166763347543        0.0000000000000000     
  -9.3194619291432201E-003  0.10515345003925103        0.0000000000000000     
  -9.5833382106209203E-003  0.11209196393462020        0.0000000000000000     
  -9.8100077588227867E-003  0.11917245207207972        0.0000000000000000     
  -9.9994705737488192E-003  0.12639491445162956        0.0000000000000000     
  -1.0151726655399021E-002  0.13375935107326975        0.0000000000000000     
  -1.4351038491466763E-002  0.10529239510337900        0.0000000000000000     
  -1.4764562212642243E-002  0.11222978590415897        0.0000000000000000     
  -1.5142649902106358E-002  0.11931251644839280        0.0000000000000000     
  -1.5485301559859102E-002  0.12654058673608054        0.0000000000000000     
  -1.5792517185900488E-002  0.13391399676722213        0.0000000000000000     
  -1.9553794911216515E-002  0.10550956732802279        0.0000000000000000     
  -2.0124498938333808E-002  0.11244950979980231        0.0000000000000000     
  -2.0673292559699456E-002  0.11953716352161382        0.0000000000000000     
  -2.1200175775313457E-002  0.12677252849345727        0.0000000000000000     
  -2.1705148585175804E-002  0.13415560471533269        0.0000000000000000     
   3.1433179928236007E-004  0.13371094644783929        0.0000000000000000     
   3.3669481827808701E-004  0.14117269753269313        0.0000000000000000     
   3.3976033436062072E-004  0.14872855323957884        0.0000000000000000     
   3.2352834752996711E-004  0.15637851356849633        0.0000000000000000     
   2.8799885778612189E-004  0.16412257851944567        0.0000000000000000     
  -4.7827769936714063E-003  0.13369166763347543        0.0000000000000000     
  -4.8425750055419601E-003  0.14113680708526641        0.0000000000000000     
  -4.9690031982210642E-003  0.14862229870795568        0.0000000000000000     
  -5.1620615717087228E-003  0.15614814250154330        0.0000000000000000     
  -5.4217501260049265E-003  0.16371433846602917        0.0000000000000000     
  -1.0151726655399021E-002  0.13375935107326975        0.0000000000000000     
  -1.0322856496856063E-002  0.14120525661644448        0.0000000000000000     
  -1.0568940591202619E-002  0.14867212576059807        0.0000000000000000     
  -1.0889978938438695E-002  0.15615995850573045        0.0000000000000000     
  -1.1285971538564282E-002  0.16366875485184168        0.0000000000000000     
  -1.5792517185900488E-002  0.13391399676722213        0.0000000000000000     
  -1.6104149655664229E-002  0.14137804612622737        0.0000000000000000     
  -1.6460051844584052E-002  0.14887803439750594        0.0000000000000000     
  -1.6860223752659952E-002  0.15641396158105789        0.0000000000000000     
  -1.7304665379891941E-002  0.16398582767688322        0.0000000000000000     
  -2.1705148585175804E-002  0.13415560471533269        0.0000000000000000     
  -2.2186454481966451E-002  0.14165517561461508        0.0000000000000000     
  -2.2642336958365351E-002  0.14924002461867938        0.0000000000000000     
  -2.3072796014372503E-002  0.15691015172752559        0.0000000000000000     
  -2.3477831649987905E-002  0.16466555694115376        0.0000000000000000     
   0.0000000000000000        0.0000000000000000        0.0000000000000000     
  -8.4148738665951628E-004   1.1095757629681451E-003   0.0000000000000000     
  -1.7016481351045509E-003   2.5972593569008598E-003   0.0000000000000000     
  -2.5804822453351032E-003   4.4630507817981450E-003   0.0000000000000000     
  -3.4779897173511740E-003   6.7069500376599981E-003   0.0000000000000000     
   0.0000000000000000        0.0000000000000000        0.0000000000000000     
  -1.0567192511016408E-003   1.1336445443726453E-003   0.0000000000000000     
  -2.1396771840339573E-003   2.6493347035692789E-003   0.0000000000000000     
  -3.2488737987969502E-003   4.5470704775899028E-003   0.0000000000000000     
  -4.3843090953906202E-003   6.8268518664345136E-003   0.0000000000000000     
   0.0000000000000000        0.0000000000000000        0.0000000000000000     
  -1.2879516544142102E-003   1.1694461815333352E-003   0.0000000000000000     
  -2.6056880189695400E-003   2.7235012980650732E-003   0.0000000000000000     
  -3.9532090936659908E-003   4.6621653495952141E-003   0.0000000000000000     
  -5.3305148785035596E-003   6.9854383361237574E-003   0.0000000000000000     
   0.0000000000000000        0.0000000000000000        0.0000000000000000     
  -1.5351845965972245E-003   1.2169806744502141E-003   0.0000000000000000     
  -3.0996806399112981E-003   2.8197591403882403E-003   0.0000000000000000     
  -4.6934881299422219E-003   4.8083353978140798E-003   0.0000000000000000     
  -6.3166070666899939E-003   7.1827094467277310E-003   0.0000000000000000     
   0.0000000000000000        0.0000000000000000        0.0000000000000000     
  -1.7984180776506843E-003   1.2762480231232826E-003   0.0000000000000000     
  -3.6216550468592323E-003   2.9381082305387817E-003   0.0000000000000000     
  -5.4697109076256439E-003   4.9855806222464990E-003   0.0000000000000000     
  -7.3425856599499207E-003   7.4186651982464328E-003   0.0000000000000000     
  -3.4779897173511740E-003   6.7069500376599981E-003   0.0000000000000000     
  -4.3859864552353630E-003   9.2916496043035472E-003   0.0000000000000000     
  -5.2962883630702741E-003   1.2179841961545916E-002   0.0000000000000000     
  -6.2088954408559029E-003   1.5371527109387106E-002   0.0000000000000000     
  -7.1238076885922546E-003   1.8866705047827115E-002   0.0000000000000000     
  -4.3843090953906202E-003   6.8268518664345136E-003   0.0000000000000000     
  -5.5333257746436474E-003   9.4467091976293410E-003   0.0000000000000000     
  -6.6832665373847151E-003   1.2364672798700611E-002   0.0000000000000000     
  -7.8341313836138241E-003   1.5580742669648319E-002   0.0000000000000000     
  -8.9859203133309720E-003   1.9094918810472473E-002   0.0000000000000000     
  -5.3305148785035596E-003   6.9854383361237574E-003   0.0000000000000000     
  -6.7235383550853936E-003   9.6472577522038958E-003   0.0000000000000000     
  -8.1182125050146357E-003   1.2601561092388821E-002   0.0000000000000000     
  -9.5145373282912848E-003   1.5848348356678529E-002   0.0000000000000000     
  -1.0912512824915340E-002   1.9387619545073027E-002   0.0000000000000000     
  -6.3166070666899939E-003   7.1827094467277310E-003   0.0000000000000000     
  -7.9566241965606035E-003   9.8932952680272131E-003   0.0000000000000000     
  -9.6011262659600350E-003   1.2890506842610550E-002   0.0000000000000000     
  -1.1250113274888292E-002   1.6174344170477733E-002   0.0000000000000000     
  -1.2903585223345370E-002   1.9744807251628776E-002   0.0000000000000000     
  -7.3425856599499207E-003   7.4186651982464328E-003   0.0000000000000000     
  -9.2325832990692719E-003   1.0184821745099295E-002   0.0000000000000000     
  -1.1132007820220911E-002   1.3231510049365796E-002   0.0000000000000000     
  -1.3040859223404842E-002   1.6558730111045940E-002   0.0000000000000000     
  -1.4959137508621056E-002   2.0166481930139722E-002   0.0000000000000000     
  -7.1238076885922546E-003   1.8866705047827115E-002   0.0000000000000000     
  -8.0342569614211285E-003   2.2639149669919346E-002   0.0000000000000000     
  -8.9334751144843228E-003   2.6662634868717210E-002   0.0000000000000000     
  -9.8214621477818453E-003   3.0937160644220696E-002   0.0000000000000000     
  -1.0698218061313689E-002   3.5462726996429814E-002   0.0000000000000000     
  -8.9859203133309720E-003   1.9094918810472473E-002   0.0000000000000000     
  -1.0131260304975524E-002   2.2881977221807275E-002   0.0000000000000000     
  -1.1262778336986853E-002   2.6916693904286915E-002   0.0000000000000000     
  -1.2380474409364954E-002   3.1199068857911402E-002   0.0000000000000000     
  -1.3484348522109829E-002   3.5729102082680736E-002   0.0000000000000000     
  -1.0912512824915340E-002   1.9387619545073027E-002   0.0000000000000000     
  -1.2301573794591984E-002   2.3194145359017967E-002   0.0000000000000000     
  -1.3671155037026381E-002   2.7242696499959015E-002   0.0000000000000000     
  -1.5021256552218544E-002   3.1533272967896160E-002   0.0000000000000000     
  -1.6351878340168467E-002   3.6065874762829415E-002   0.0000000000000000     
  -1.2903585223345370E-002   1.9744807251628776E-002   0.0000000000000000     
  -1.4545197430270506E-002   2.3575654081551437E-002   0.0000000000000000     
  -1.6158605214602922E-002   2.7640642655733502E-002   0.0000000000000000     
  -1.7743808576342612E-002   3.1939772974174975E-002   0.0000000000000000     
  -1.9300807515489592E-002   3.6473045036875831E-002   0.0000000000000000     
  -1.4959137508621056E-002   2.0166481930139722E-002   0.0000000000000000     
  -1.6862131212011088E-002   2.4026503389407688E-002   0.0000000000000000     
  -1.8725128869716459E-002   2.8110532371610392E-002   0.0000000000000000     
  -2.0548130481737165E-002   3.2418568876747836E-002   0.0000000000000000     
  -2.2331136048073217E-002   3.6950612904820004E-002   0.0000000000000000     
  -1.0698218061313689E-002   3.5462726996429814E-002   0.0000000000000000     
  -1.1558818314152900E-002   4.0220370662333332E-002   0.0000000000000000     
  -1.2398338365372517E-002   4.5191128378920038E-002   0.0000000000000000     
  -1.3216778214972540E-002   5.0375000146189938E-002   0.0000000000000000     
  -1.4014137862952974E-002   5.5771985964143025E-002   0.0000000000000000     
  -1.3484348522109829E-002   3.5729102082680736E-002   0.0000000000000000     
  -1.4571652854897298E-002   4.0489492880619926E-002   0.0000000000000000     
  -1.5639639587403182E-002   4.5462940553754001E-002   0.0000000000000000     
  -1.6688308719627478E-002   5.0649445102082934E-002   0.0000000000000000     
  -1.7717660251570191E-002   5.6049006525606737E-002   0.0000000000000000     
  -1.6351878340168467E-002   3.6065874762829415E-002   0.0000000000000000     
  -1.7661390766761459E-002   4.0825561945610711E-002   0.0000000000000000     
  -1.8948164197882863E-002   4.5797394577091997E-002   0.0000000000000000     
  -2.0212198633532661E-002   5.0981372657273281E-002   0.0000000000000000     
  -2.1453494073710867E-002   5.6377496186154563E-002   0.0000000000000000     
  -1.9300807515489592E-002   3.6473045036875831E-002   0.0000000000000000     
  -2.0828032049745395E-002   4.1228577857305666E-002   0.0000000000000000     
  -2.2323912196811565E-002   4.6194490448934054E-002   0.0000000000000000     
  -2.3788447956688108E-002   5.1370782811760982E-002   0.0000000000000000     
  -2.5221639329375010E-002   5.6757454945786462E-002   0.0000000000000000     
  -2.2331136048073217E-002   3.6950612904820004E-002   0.0000000000000000     
  -2.4071576703849094E-002   4.1698540615704806E-002   0.0000000000000000     
  -2.5766883584189288E-002   4.6654228169280158E-002   0.0000000000000000     
  -2.7417056689093791E-002   5.1817675565546048E-002   0.0000000000000000     
  -2.9022096018562614E-002   5.7188882804502475E-002   0.0000000000000000     
  -1.4014137862952974E-002   5.5771985964143025E-002   0.0000000000000000     
  -1.4790189325912778E-002   6.1368783514018470E-002   0.0000000000000000     
  -1.5544704620450928E-002   6.7152090477055462E-002   0.0000000000000000     
  -1.6277683746567420E-002   7.3121906853253968E-002   0.0000000000000000     
  -1.6989126704262253E-002   7.9278232642614035E-002   0.0000000000000000     
  -1.7717660251570191E-002   5.6049006525606737E-002   0.0000000000000000     
  -1.8721957523485887E-002   6.1647375994475978E-002   0.0000000000000000     
  -1.9695463875629139E-002   6.7430304678841202E-002   0.0000000000000000     
  -2.0638179307999941E-002   7.3397792578702409E-002   0.0000000000000000     
  -2.1550103820598299E-002   7.9549839694059613E-002   0.0000000000000000     
  -2.1453494073710867E-002   5.6377496186154563E-002   0.0000000000000000     
  -2.2664559288186059E-002   6.1971328487481214E-002   0.0000000000000000     
  -2.3837903046726824E-002   6.7748432884998641E-002   0.0000000000000000     
  -2.4973525349333163E-002   7.3708809378706816E-002   0.0000000000000000     
  -2.6071426196005075E-002   7.9852457968605808E-002   0.0000000000000000     
  -2.5221639329375010E-002   5.6757454945786462E-002   0.0000000000000000     
  -2.6617994620013300E-002   6.2340640993034172E-002   0.0000000000000000     
  -2.7972022133743994E-002   6.8106475095527752E-002   0.0000000000000000     
  -2.9283721870567089E-002   7.4054957253267245E-002   0.0000000000000000     
  -3.0553093830482582E-002   8.0186087466252595E-002   0.0000000000000000     
  -2.9022096018562614E-002   5.7188882804502475E-002   0.0000000000000000     
  -3.0582263518967610E-002   6.2755313511134850E-002   0.0000000000000000     
  -3.2097821136680645E-002   6.8504431310428562E-002   0.0000000000000000     
  -3.3568768871701710E-002   7.4436236202383627E-002   0.0000000000000000     
  -3.4995106724030813E-002   8.0550728187000029E-002   0.0000000000000000     
  -1.6989126704262253E-002   7.9278232642614035E-002   0.0000000000000000     
  -1.7674924622309900E-002   8.5604876432407703E-002   0.0000000000000000     
  -1.8330968629484821E-002   9.2085646809907051E-002   0.0000000000000000     
  -1.8957258725787025E-002   9.8720543775112066E-002   0.0000000000000000     
  -1.9553794911216515E-002  0.10550956732802279        0.0000000000000000     
  -2.1550103820598299E-002   7.9549839694059613E-002   0.0000000000000000     
  -2.2426018983768045E-002   8.5871941151468262E-002   0.0000000000000000     
  -2.3260706367852997E-002   9.2349592077483833E-002   0.0000000000000000     
  -2.4054165972853168E-002   9.8982792472106326E-002   0.0000000000000000     
  -2.4806397798768549E-002  0.10577154233533573        0.0000000000000000     
  -2.6071426196005075E-002   7.9852457968605808E-002   0.0000000000000000     
  -2.7125461758064465E-002   8.6165948808280657E-002   0.0000000000000000     
  -2.8129488206833246E-002   9.2635852051316470E-002   0.0000000000000000     
  -2.9083505542311403E-002   9.9262167697713358E-002   0.0000000000000000     
  -2.9987513764498954E-002  0.10604489574747118        0.0000000000000000     
  -3.0553093830482582E-002   8.0186087466252595E-002   0.0000000000000000     
  -3.1773252945199171E-002   8.6486899402844875E-002   0.0000000000000000     
  -3.2937314146425561E-002   9.2944426731405058E-002   0.0000000000000000     
  -3.4045277434161747E-002   9.9558669451933132E-002   0.0000000000000000     
  -3.5097142808407734E-002  0.10632962756442915        0.0000000000000000     
  -3.4995106724030813E-002   8.0550728187000029E-002   0.0000000000000000     
  -3.6369392545172158E-002   8.6834792935160929E-002   0.0000000000000000     
  -3.7684184186629950E-002   9.3275316117749488E-002   0.0000000000000000     
  -3.8939481648404196E-002   9.9872297734765733E-002   0.0000000000000000     
  -4.0135284930494883E-002  0.10662573778620961        0.0000000000000000     
  -1.9553794911216515E-002  0.10550956732802279        0.0000000000000000     
  -2.0124498938333808E-002  0.11244950979980231        0.0000000000000000     
  -2.0673292559699456E-002  0.11953716352161382        0.0000000000000000     
  -2.1200175775313457E-002  0.12677252849345727        0.0000000000000000     
  -2.1705148585175804E-002  0.13415560471533269        0.0000000000000000     
  -2.4806397798768549E-002  0.10577154233533573        0.0000000000000000     
  -2.5533633457343500E-002  0.11271245739585060        0.0000000000000000     
  -2.6252104560322388E-002  0.11980215338232944        0.0000000000000000     
  -2.6961811107705208E-002  0.12704063029477228        0.0000000000000000     
  -2.7662753099491962E-002  0.13442788813317910        0.0000000000000000     
  -2.9987513764498954E-002  0.10604489574747118        0.0000000000000000     
  -3.0862450839319194E-002  0.11297995046660420        0.0000000000000000     
  -3.1729254732695431E-002  0.12006324612112650        0.0000000000000000     
  -3.2587925444627686E-002  0.12729478271103811        0.0000000000000000     
  -3.3438462975115942E-002  0.13467456023633906        0.0000000000000000     
  -3.5097142808407734E-002  0.10632962756442915        0.0000000000000000     
  -3.6110951084260892E-002  0.11325198901206308        0.0000000000000000     
  -3.7104743076818603E-002  0.12032044173800495        0.0000000000000000     
  -3.8078518786080894E-002  0.12753498574225480        0.0000000000000000     
  -3.9032278212047737E-002  0.13489562102481259        0.0000000000000000     
  -4.0135284930494883E-002  0.10662573778620961        0.0000000000000000     
  -4.1279134192168603E-002  0.11352857303222726        0.0000000000000000     
  -4.2378569592691914E-002  0.12057374023296483        0.0000000000000000     
  -4.3433591132064832E-002  0.12776123938842229        0.0000000000000000     
  -4.4444198810287355E-002  0.13509107049859967        0.0000000000000000     
  -2.1705148585175804E-002  0.13415560471533269        0.0000000000000000     
  -2.2186454481966451E-002  0.14165517561461508        0.0000000000000000     
  -2.2642336958365351E-002  0.14924002461867938        0.0000000000000000     
  -2.3072796014372503E-002  0.15691015172752559        0.0000000000000000     
  -2.3477831649987905E-002  0.16466555694115376        0.0000000000000000     
  -2.7662753099491962E-002  0.13442788813317910        0.0000000000000000     
  -2.8312790780400741E-002  0.14195697458522044        0.0000000000000000     
  -2.8869784395149665E-002  0.14962093733856702        0.0000000000000000     
  -2.9333733943738716E-002  0.15741977639321875        0.0000000000000000     
  -2.9704639426167901E-002  0.16535349174917557        0.0000000000000000     
  -3.3438462975115942E-002  0.13467456023633906        0.0000000000000000     
  -3.4226178355605097E-002  0.14220377254165648        0.0000000000000000     
  -3.4896382617540113E-002  0.14988361347161758        0.0000000000000000     
  -3.5449075760920962E-002  0.15771408302622247        0.0000000000000000     
  -3.5884257785747650E-002  0.16569518120547097        0.0000000000000000     
  -3.9032278212047737E-002  0.13489562102481259        0.0000000000000000     
  -3.9926617207579548E-002  0.14239556948392312        0.0000000000000000     
  -4.0722131625536701E-002  0.15002805301783118        0.0000000000000000     
  -4.1418821465919256E-002  0.15779307162653677        0.0000000000000000     
  -4.2016686728727159E-002  0.16569062531003989        0.0000000000000000     
  -4.4444198810287355E-002  0.13509107049859967        0.0000000000000000     
  -4.5414107336324047E-002  0.14253236541202036        0.0000000000000000     
  -4.6347031419139449E-002  0.15005425597720767        0.0000000000000000     
  -4.7242971058733575E-002  0.15765674219416170        0.0000000000000000     
  -4.8101926255106425E-002  0.16533982406288239        0.0000000000000000     
   0.0000000000000000        0.0000000000000000        0.0000000000000000     
  -1.7984180776506843E-003   1.2762480231232826E-003   0.0000000000000000     
  -3.6216550468592323E-003   2.9381082305387817E-003   0.0000000000000000     
  -5.4697109076256439E-003   4.9855806222464990E-003   0.0000000000000000     
  -7.3425856599499207E-003   7.4186651982464328E-003   0.0000000000000000     
   0.0000000000000000        0.0000000000000000        0.0000000000000000     
  -2.0694610587362111E-003   1.3543765916326867E-003   0.0000000000000000     
  -4.1643454596249916E-003   3.0930436549370978E-003   0.0000000000000000     
  -6.2846532026663423E-003   5.2160011899132332E-003   0.0000000000000000     
  -8.4303842878602642E-003   7.7232491965610944E-003   0.0000000000000000     
   0.0000000000000000        0.0000000000000000        0.0000000000000000     
  -2.3401225010154271E-003   1.4584947440585731E-003   0.0000000000000000     
  -4.7204860980202277E-003   3.2990605000035879E-003   0.0000000000000000     
  -7.1410907910143999E-003   5.5216972678350448E-003   0.0000000000000000     
  -9.6019365799979457E-003   8.1264050475529440E-003   0.0000000000000000     
   0.0000000000000000        0.0000000000000000        0.0000000000000000     
  -2.6104024044883330E-003   1.5886024804009416E-003   0.0000000000000000     
  -5.2900769620449380E-003   3.5561587657382530E-003   0.0000000000000000     
  -8.0390236726698167E-003   5.9026688560119330E-003   0.0000000000000000     
  -1.0857242536362966E-002   8.6281327512219806E-003   0.0000000000000000     
   0.0000000000000000        0.0000000000000000        0.0000000000000000     
  -2.8803007691549278E-003   1.7446998006597925E-003   0.0000000000000000     
  -5.8731180516991251E-003   3.8643384521410908E-003   0.0000000000000000     
  -8.9784518476325910E-003   6.3589159544438960E-003   0.0000000000000000     
  -1.2196302156955326E-002   9.2284323075682070E-003   0.0000000000000000     
  -7.3425856599499207E-003   7.4186651982464328E-003   0.0000000000000000     
  -9.2325832990692719E-003   1.0184821745099295E-002   0.0000000000000000     
  -1.1132007820220911E-002   1.3231510049365796E-002   0.0000000000000000     
  -1.3040859223404842E-002   1.6558730111045940E-002   0.0000000000000000     
  -1.4959137508621056E-002   2.0166481930139722E-002   0.0000000000000000     
  -8.4303842878602642E-003   7.7232491965610944E-003   0.0000000000000000     
  -1.0592901006337908E-002   1.0557153205915933E-002   0.0000000000000000     
  -1.2763565649230424E-002   1.3660078749013010E-002   0.0000000000000000     
  -1.4942378216537816E-002   1.7032025825852327E-002   0.0000000000000000     
  -1.7129338708260083E-002   2.0672994436433875E-002   0.0000000000000000     
  -9.6019365799979457E-003   8.1264050475529440E-003   0.0000000000000000     
  -1.2079062662093009E-002   1.1045605672972927E-002   0.0000000000000000     
  -1.4548508234421723E-002   1.4211720977910640E-002   0.0000000000000000     
  -1.7010273296984100E-002   1.7624750962366088E-002   0.0000000000000000     
  -1.9464357849780137E-002   2.1284695626339258E-002   0.0000000000000000     
  -1.0857242536362966E-002   8.6281327512219806E-003   0.0000000000000000     
  -1.3691068266334570E-002   1.1650179146270274E-002   0.0000000000000000     
  -1.6486835575794816E-002   1.4886436736058687E-002   0.0000000000000000     
  -1.9244544464743701E-002   1.8336905520587220E-002   0.0000000000000000     
  -2.1964194933181216E-002   2.2001585499855866E-002   0.0000000000000000     
  -1.2196302156955326E-002   9.2284323075682070E-003   0.0000000000000000     
  -1.5428917819062601E-002   1.2370873625807974E-002   0.0000000000000000     
  -1.8578547673349696E-002   1.5684226023457148E-002   0.0000000000000000     
  -2.1645191719816600E-002   1.9168489500515723E-002   0.0000000000000000     
  -2.4628849958463324E-002   2.2823664056983706E-002   0.0000000000000000     
  -1.4959137508621056E-002   2.0166481930139722E-002   0.0000000000000000     
  -1.6862131212011088E-002   2.4026503389407688E-002   0.0000000000000000     
  -1.8725128869716459E-002   2.8110532371610392E-002   0.0000000000000000     
  -2.0548130481737165E-002   3.2418568876747836E-002   0.0000000000000000     
  -2.2331136048073217E-002   3.6950612904820004E-002   0.0000000000000000     
  -1.7129338708260083E-002   2.0672994436433875E-002   0.0000000000000000     
  -1.9294291886375003E-002   2.4556007494958208E-002   0.0000000000000000     
  -2.1407082512860349E-002   2.8654087915625882E-002   0.0000000000000000     
  -2.3467710587716132E-002   3.2967235698436882E-002   0.0000000000000000     
  -2.5476176110942335E-002   3.7495450843391225E-002   0.0000000000000000     
  -1.9464357849780137E-002   2.1284695626339258E-002   0.0000000000000000     
  -2.1883596199923520E-002   2.5173480610574509E-002   0.0000000000000000     
  -2.4240822654527951E-002   2.9273031555816190E-002   0.0000000000000000     
  -2.6536037213593426E-002   3.3583348462064296E-002   0.0000000000000000     
  -2.8769239877119948E-002   3.8104431329318823E-002   0.0000000000000000     
  -2.1964194933181216E-002   2.2001585499855866E-002   0.0000000000000000     
  -2.4630044152656651E-002   2.5878922736256582E-002   0.0000000000000000     
  -2.7226349294719263E-002   2.9967363292181311E-002   0.0000000000000000     
  -2.9753110359369065E-002   3.4266907167630041E-002   0.0000000000000000     
  -3.2210327346606046E-002   3.8777554362602801E-002   0.0000000000000000     
  -2.4628849958463324E-002   2.2823664056983706E-002   0.0000000000000000     
  -2.7533635744574382E-002   2.6672333872004433E-002   0.0000000000000000     
  -3.0363662433434285E-002   3.0737083124721246E-002   0.0000000000000000     
  -3.3118930025043042E-002   3.5017911815134146E-002   0.0000000000000000     
  -3.5799438519400643E-002   3.9514819943243129E-002   0.0000000000000000     
  -2.2331136048073217E-002   3.6950612904820004E-002   0.0000000000000000     
  -2.4071576703849094E-002   4.1698540615704806E-002   0.0000000000000000     
  -2.5766883584189288E-002   4.6654228169280158E-002   0.0000000000000000     
  -2.7417056689093791E-002   5.1817675565546048E-002   0.0000000000000000     
  -2.9022096018562614E-002   5.7188882804502475E-002   0.0000000000000000     
  -2.5476176110942335E-002   3.7495450843391225E-002   0.0000000000000000     
  -2.7428751451250340E-002   4.2233636898478068E-002   0.0000000000000000     
  -2.9321708977351493E-002   4.7176697411686584E-002   0.0000000000000000     
  -3.1155048689245811E-002   5.2324632383016746E-002   0.0000000000000000     
  -3.2928770586933276E-002   5.7677441812468574E-002   0.0000000000000000     
  -2.8769239877119948E-002   3.8104431329318823E-002   0.0000000000000000     
  -3.0936283014126896E-002   4.2832053383295390E-002   0.0000000000000000     
  -3.3033018993633659E-002   4.7761987849709565E-002   0.0000000000000000     
  -3.5059447815640216E-002   5.2894234728561369E-002   0.0000000000000000     
  -3.7015569480146601E-002   5.8228794019850781E-002   0.0000000000000000     
  -3.2210327346606046E-002   3.8777554362602801E-002   0.0000000000000000     
  -3.4594171392478772E-002   4.3493790070156746E-002   0.0000000000000000     
  -3.6900813633035760E-002   4.8410099483349116E-002   0.0000000000000000     
  -3.9130254068277033E-002   5.3526482602179890E-002   0.0000000000000000     
  -4.1282492698202590E-002   5.8842939426649074E-002   0.0000000000000000     
  -3.5799438519400643E-002   3.9514819943243129E-002   0.0000000000000000     
  -3.8402416586305950E-002   4.4218846959062162E-002   0.0000000000000000     
  -4.0925092895557819E-002   4.9121032312605242E-002   0.0000000000000000     
  -4.3367467447156242E-002   5.4221376003872335E-002   0.0000000000000000     
  -4.5729540241101235E-002   5.9519878032863460E-002   0.0000000000000000     
  -2.9022096018562614E-002   5.7188882804502475E-002   0.0000000000000000     
  -3.0582263518967610E-002   6.2755313511134850E-002   0.0000000000000000     
  -3.2097821136680645E-002   6.8504431310428562E-002   0.0000000000000000     
  -3.3568768871701710E-002   7.4436236202383627E-002   0.0000000000000000     
  -3.4995106724030813E-002   8.0550728187000029E-002   0.0000000000000000     
  -3.2928770586933276E-002   5.7677441812468574E-002   0.0000000000000000     
  -3.4649380138607487E-002   6.3224146942094744E-002   0.0000000000000000     
  -3.6323382812462029E-002   6.8953769013947924E-002   0.0000000000000000     
  -3.7950778608496910E-002   7.4866308028028114E-002   0.0000000000000000     
  -3.9531567526712108E-002   8.0961763984335286E-002   0.0000000000000000     
  -3.7015569480146601E-002   5.8228794019850781E-002   0.0000000000000000     
  -3.8911358632491455E-002   6.3755942186225378E-002   0.0000000000000000     
  -4.0756789918013438E-002   6.9465955690332717E-002   0.0000000000000000     
  -4.2551863336712563E-002   7.5358834532172819E-002   0.0000000000000000     
  -4.4296578888588817E-002   8.1434578711745642E-002   0.0000000000000000     
  -4.1282492698202590E-002   5.8842939426649074E-002   0.0000000000000000     
  -4.3368199000619501E-002   6.4350699243526752E-002   0.0000000000000000     
  -4.5398042453334869E-002   7.0040991339582956E-002   0.0000000000000000     
  -4.7372023056348675E-002   7.5913815714817742E-002   0.0000000000000000     
  -4.9290140809660939E-002   8.1969172369231083E-002   0.0000000000000000     
  -4.5729540241101235E-002   5.9519878032863460E-002   0.0000000000000000     
  -4.8019901242991637E-002   6.5008418113998823E-002   0.0000000000000000     
  -5.0247140418426310E-002   7.0678875961698640E-002   0.0000000000000000     
  -5.2411257767405253E-002   7.6531251575962883E-002   0.0000000000000000     
  -5.4512253289928467E-002   8.2565544956791581E-002   0.0000000000000000     
  -3.4995106724030813E-002   8.0550728187000029E-002   0.0000000000000000     
  -3.6369392545172158E-002   8.6834792935160929E-002   0.0000000000000000     
  -3.7684184186629950E-002   9.3275316117749488E-002   0.0000000000000000     
  -3.8939481648404196E-002   9.9872297734765733E-002   0.0000000000000000     
  -4.0135284930494883E-002  0.10662573778620961        0.0000000000000000     
  -3.9531567526712108E-002   8.0961763984335286E-002   0.0000000000000000     
  -4.1057805191692304E-002   8.7226593816703085E-002   0.0000000000000000     
  -4.2521547228022143E-002   9.3647254458965143E-002   0.0000000000000000     
  -4.3922793635701618E-002  0.10022374591112140        0.0000000000000000     
  -4.5261544414730737E-002  0.10695606817317191        0.0000000000000000     
  -4.4296578888588817E-002   8.1434578711745642E-002   0.0000000000000000     
  -4.5982415518468489E-002   8.7679266458945665E-002   0.0000000000000000     
  -4.7600852171177842E-002   9.4078976003667297E-002   0.0000000000000000     
  -4.9151888846716882E-002  0.10063370734591055        0.0000000000000000     
  -5.0635525545085602E-002  0.10734346048567539        0.0000000000000000     
  -4.9290140809660939E-002   8.1969172369231083E-002   0.0000000000000000     
  -5.1143223525500714E-002   8.8192810861888585E-002   0.0000000000000000     
  -5.2922099016097068E-002   9.4570480751855937E-002   0.0000000000000000     
  -5.4626767281450002E-002  0.10110218203913310        0.0000000000000000     
  -5.6257228321559515E-002  0.10778791472372008        0.0000000000000000     
  -5.4512253289928467E-002   8.2565544956791581E-002   0.0000000000000000     
  -5.6540229212788978E-002   8.8767227025531914E-002   0.0000000000000000     
  -5.8485287762779808E-002   9.5121768703531076E-002   0.0000000000000000     
  -6.0347428939900964E-002  0.10162916999078909        0.0000000000000000     
  -6.2126652744152439E-002  0.10828943088730596        0.0000000000000000     
  -4.0135284930494883E-002  0.10662573778620961        0.0000000000000000     
  -4.1279134192168603E-002  0.11352857303222726        0.0000000000000000     
  -4.2378569592691914E-002  0.12057374023296483        0.0000000000000000     
  -4.3433591132064832E-002  0.12776123938842229        0.0000000000000000     
  -4.4444198810287355E-002  0.13509107049859967        0.0000000000000000     
  -4.5261544414730737E-002  0.10695606817317191        0.0000000000000000     
  -4.6534310262661714E-002  0.11383580697060108        0.0000000000000000     
  -4.7737601877046794E-002  0.12085454802889335        0.0000000000000000     
  -4.8871419257885962E-002  0.12801229134804870        0.0000000000000000     
  -4.9935762405179225E-002  0.13530903692806720        0.0000000000000000     
  -5.0635525545085602E-002  0.10734346048567539        0.0000000000000000     
  -5.2043789395359669E-002  0.11419979527068881        0.0000000000000000     
  -5.3368707526614705E-002  0.12119427154867772        0.0000000000000000     
  -5.4610279938850724E-002  0.12832688931964212        0.0000000000000000     
  -5.5768506632067727E-002  0.13559764858358198        0.0000000000000000     
  -5.6257228321559515E-002  0.10778791472372008        0.0000000000000000     
  -5.7807571590262452E-002  0.11462053793249050        0.0000000000000000     
  -5.9271886541395653E-002  0.12159291079231795        0.0000000000000000     
  -6.0650173174959125E-002  0.12870503330320246        0.0000000000000000     
  -6.1942431490952882E-002  0.13595690546514402        0.0000000000000000     
  -6.2126652744152439E-002  0.10828943088730596        0.0000000000000000     
  -6.3825656847370058E-002  0.11509803495600611        0.0000000000000000     
  -6.5447138921389647E-002  0.12205046575981407        0.0000000000000000     
  -6.6991098966211179E-002  0.12914672329872978        0.0000000000000000     
  -6.8457536981834696E-002  0.13638680757275332        0.0000000000000000     
  -4.4444198810287355E-002  0.13509107049859967        0.0000000000000000     
  -4.5414107336324047E-002  0.14253236541202036        0.0000000000000000     
  -4.6347031419139449E-002  0.15005425597720767        0.0000000000000000     
  -4.7242971058733575E-002  0.15765674219416170        0.0000000000000000     
  -4.8101926255106425E-002  0.16533982406288239        0.0000000000000000     
  -4.9935762405179225E-002  0.13530903692806720        0.0000000000000000     
  -5.0978914712224731E-002  0.14268828950814180        0.0000000000000000     
  -5.2049159572320702E-002  0.15009355382746564        0.0000000000000000     
  -5.3146496985467112E-002  0.15752482988603861        0.0000000000000000     
  -5.4270926951663960E-002  0.16498211768386079        0.0000000000000000     
  -5.5768506632067727E-002  0.13559764858358198        0.0000000000000000     
  -5.6911305305667750E-002  0.14293747095448117        0.0000000000000000     
  -5.8106593659052866E-002  0.15027727804632346        0.0000000000000000     
  -5.9354371692223046E-002  0.15761706985910889        0.0000000000000000     
  -6.0654639405178297E-002  0.16495684639283745        0.0000000000000000     
  -6.1942431490952882E-002  0.13595690546514402        0.0000000000000000     
  -6.3211279116653071E-002  0.14327990975103835        0.0000000000000000     
  -6.4519333679335891E-002  0.15060542863378115        0.0000000000000000     
  -6.5866595179001355E-002  0.15793346211337253        0.0000000000000000     
  -6.7253063615649422E-002  0.16526401018981235        0.0000000000000000     
  -6.8457536981834696E-002  0.13638680757275332        0.0000000000000000     
  -6.9878836145180728E-002  0.14371560589781340        0.0000000000000000     
  -7.1287379633169848E-002  0.15107800558983878        0.0000000000000000     
  -7.2683167445802041E-002  0.15847400664882946        0.0000000000000000     
  -7.4066199583077336E-002  0.16590360907478549        0.0000000000000000     
   0.0000000000000000        0.0000000000000000        0.0000000000000000     
  -2.8803007691549278E-003   1.7446998006597925E-003   0.0000000000000000     
  -5.8731180516991251E-003   3.8643384521410908E-003   0.0000000000000000     
  -8.9784518476325910E-003   6.3589159544438960E-003   0.0000000000000000     
  -1.2196302156955326E-002   9.2284323075682070E-003   0.0000000000000000     
   0.0000000000000000        0.0000000000000000        0.0000000000000000     
  -3.2835298072636659E-003   1.9993330913768356E-003   0.0000000000000000     
  -6.6774696499819668E-003   4.3307905625442327E-003   0.0000000000000000     
  -1.0181819528154900E-002   6.9943724135021913E-003   0.0000000000000000     
  -1.3796579441782466E-002   9.9900786442507095E-003   0.0000000000000000     
   0.0000000000000000        0.0000000000000000        0.0000000000000000     
  -3.9538017310630008E-003   2.4250487390937822E-003   0.0000000000000000     
  -7.9109920398926416E-003   5.0627061002798054E-003   0.0000000000000000     
  -1.1871570926488918E-002   7.9129720835580709E-003   0.0000000000000000     
  -1.5835538390851837E-002   1.0975846688928578E-002   0.0000000000000000     
   0.0000000000000000        0.0000000000000000        0.0000000000000000     
  -4.8911165405529323E-003   3.0218467438106311E-003   0.0000000000000000     
  -9.5736852214311496E-003   6.0600850653478103E-003   0.0000000000000000     
  -1.4047706042634648E-002   9.1147149646115377E-003   0.0000000000000000     
  -1.8313179004163429E-002   1.2185736441601813E-002   0.0000000000000000     
   0.0000000000000000        0.0000000000000000        0.0000000000000000     
  -6.0954742357334614E-003   3.7897271055273825E-003   0.0000000000000000     
  -1.1665549194597492E-002   7.3229274577482455E-003   0.0000000000000000     
  -1.6710224876592086E-002   1.0599601056662590E-002   0.0000000000000000     
  -2.1229501281717248E-002   1.3619747902270414E-002   0.0000000000000000     
  -1.2196302156955326E-002   9.2284323075682070E-003   0.0000000000000000     
  -1.5428917819062601E-002   1.2370873625807974E-002   0.0000000000000000     
  -1.8578547673349696E-002   1.5684226023457148E-002   0.0000000000000000     
  -2.1645191719816600E-002   1.9168489500515723E-002   0.0000000000000000     
  -2.4628849958463324E-002   2.2823664056983706E-002   0.0000000000000000     
  -1.3796579441782466E-002   9.9900786442507095E-003   0.0000000000000000     
  -1.7404903449410460E-002   1.3220095524435625E-002   0.0000000000000000     
  -2.0889945609584657E-002   1.6586609323702765E-002   0.0000000000000000     
  -2.4251705922305078E-002   2.0089620042052135E-002   0.0000000000000000     
  -2.7490184387571701E-002   2.3729127679483732E-002   0.0000000000000000     
  -1.5835538390851837E-002   1.0975846688928578E-002   0.0000000000000000     
  -1.9731317286511504E-002   1.4210251255002821E-002   0.0000000000000000     
  -2.3487330466998003E-002   1.7575107120392286E-002   0.0000000000000000     
  -2.7103577932311374E-002   2.1070414285096990E-002   0.0000000000000000     
  -3.0580059682451585E-002   2.4696172749116903E-002   0.0000000000000000     
  -1.8313179004163429E-002   1.2185736441601813E-002   0.0000000000000000     
  -2.2408159330365725E-002   1.5341340817509565E-002   0.0000000000000000     
  -2.6370702245589742E-002   1.8649719413525719E-002   0.0000000000000000     
  -3.0200807749835492E-002   2.2110872229650271E-002   0.0000000000000000     
  -3.3898475843102981E-002   2.5724799265883228E-002   0.0000000000000000     
  -2.1229501281717248E-002   1.3619747902270414E-002   0.0000000000000000     
  -2.5435429580973123E-002   1.6613364211955854E-002   0.0000000000000000     
  -2.9540060945359856E-002   1.9810446203103051E-002   0.0000000000000000     
  -3.3543395374877445E-002   2.3210993875712002E-002   0.0000000000000000     
  -3.7445432869525890E-002   2.6815007229782702E-002   0.0000000000000000     
  -2.4628849958463324E-002   2.2823664056983706E-002   0.0000000000000000     
  -2.7533635744574382E-002   2.6672333872004433E-002   0.0000000000000000     
  -3.0363662433434285E-002   3.0737083124721246E-002   0.0000000000000000     
  -3.3118930025043042E-002   3.5017911815134146E-002   0.0000000000000000     
  -3.5799438519400643E-002   3.9514819943243129E-002   0.0000000000000000     
  -2.7490184387571701E-002   2.3729127679483732E-002   0.0000000000000000     
  -3.0627681816858716E-002   2.7547002980278314E-002   0.0000000000000000     
  -3.3686499021640295E-002   3.1585116688716636E-002   0.0000000000000000     
  -3.6666636001916449E-002   3.5843468804798703E-002   0.0000000000000000     
  -3.9568092757687148E-002   4.0322059328524514E-002   0.0000000000000000     
  -3.0580059682451585E-002   2.4696172749116903E-002   0.0000000000000000     
  -3.3945493210691659E-002   2.8496219023538483E-002   0.0000000000000000     
  -3.7228596010304572E-002   3.2514389619448136E-002   0.0000000000000000     
  -4.0429368081290364E-002   3.6750684536845851E-002   0.0000000000000000     
  -4.3547809423648998E-002   4.1205103775731652E-002   0.0000000000000000     
  -3.3898475843102981E-002   2.5724799265883228E-002   0.0000000000000000     
  -3.7487069926073195E-002   2.9519982001784933E-002   0.0000000000000000     
  -4.0989953399427133E-002   3.3524901916915713E-002   0.0000000000000000     
  -4.4407126263164794E-002   3.7739559011275577E-002   0.0000000000000000     
  -4.7738588517286171E-002   4.2163953284864532E-002   0.0000000000000000     
  -3.7445432869525890E-002   2.6815007229782702E-002   0.0000000000000000     
  -4.1252411963003346E-002   3.0618291915017668E-002   0.0000000000000000     
  -4.4970571189007963E-002   3.4616653581119400E-002   0.0000000000000000     
  -4.8599910547539746E-002   3.8810092228087893E-002   0.0000000000000000     
  -5.2140430038598695E-002   4.3198607855923166E-002   0.0000000000000000     
  -3.5799438519400643E-002   3.9514819943243129E-002   0.0000000000000000     
  -3.8402416586305950E-002   4.4218846959062162E-002   0.0000000000000000     
  -4.0925092895557819E-002   4.9121032312605242E-002   0.0000000000000000     
  -4.3367467447156242E-002   5.4221376003872335E-002   0.0000000000000000     
  -4.5729540241101235E-002   5.9519878032863460E-002   0.0000000000000000     
  -3.9568092757687148E-002   4.0322059328524514E-002   0.0000000000000000     
  -4.2389007142110621E-002   4.5009450766360953E-002   0.0000000000000000     
  -4.5127517008345060E-002   4.9894205624774902E-002   0.0000000000000000     
  -4.7783622356390436E-002   5.4976323903766361E-002   0.0000000000000000     
  -5.0357323186246784E-002   6.0255805603335315E-002   0.0000000000000000     
  -4.3547809423648998E-002   4.1205103775731652E-002   0.0000000000000000     
  -4.6581931606394962E-002   4.5867828208402434E-002   0.0000000000000000     
  -4.9529746198542682E-002   5.0729038707155089E-002   0.0000000000000000     
  -5.2391253200092198E-002   5.5788735271989617E-002   0.0000000000000000     
  -5.5166452611043484E-002   6.1046917902906013E-002   0.0000000000000000     
  -4.7738588517286171E-002   4.2163953284864532E-002   0.0000000000000000     
  -5.0981189979158924E-002   4.6793979285186603E-002   0.0000000000000000     
  -5.4131780466150720E-002   5.1625531559745794E-002   0.0000000000000000     
  -5.7190359978261517E-002   5.6658610108542125E-002   0.0000000000000000     
  -6.0156928515491349E-002   6.1893214931575569E-002   0.0000000000000000     
  -5.2140430038598695E-002   4.3198607855923166E-002   0.0000000000000000     
  -5.5586782260402576E-002   4.7787903996713448E-002   0.0000000000000000     
  -5.8933619811169138E-002   5.2583684182547011E-002   0.0000000000000000     
  -6.2180942690898404E-002   5.7585948413423849E-002   0.0000000000000000     
  -6.5328750899590352E-002   6.2794696689343954E-002   0.0000000000000000     
  -4.5729540241101235E-002   5.9519878032863460E-002   0.0000000000000000     
  -4.8019901242991637E-002   6.5008418113998823E-002   0.0000000000000000     
  -5.0247140418426310E-002   7.0678875961698640E-002   0.0000000000000000     
  -5.2411257767405253E-002   7.6531251575962883E-002   0.0000000000000000     
  -5.4512253289928467E-002   8.2565544956791581E-002   0.0000000000000000     
  -5.0357323186246784E-002   6.0255805603335315E-002   0.0000000000000000     
  -5.2854400214835062E-002   6.5724448999586710E-002   0.0000000000000000     
  -5.5280634159076206E-002   7.1374052368625443E-002   0.0000000000000000     
  -5.7636025018970242E-002   7.7204615710451535E-002   0.0000000000000000     
  -5.9920572794517166E-002   8.3216139025064972E-002   0.0000000000000000     
  -5.5166452611043484E-002   6.1046917902906013E-002   0.0000000000000000     
  -5.7859630771376958E-002   6.6494142102235462E-002   0.0000000000000000     
  -6.0475074021073001E-002   7.2120963372309124E-002   0.0000000000000000     
  -6.3012782360131608E-002   7.7927381713126936E-002   0.0000000000000000     
  -6.5472755788552814E-002   8.3913397124689010E-002   0.0000000000000000     
  -6.0156928515491349E-002   6.1893214931575569E-002   0.0000000000000000     
  -6.3035592912617358E-002   6.7317497421945108E-002   0.0000000000000000     
  -6.5830460004416683E-002   7.2919608972749628E-002   0.0000000000000000     
  -6.8541529790889386E-002   7.8699549583989184E-002   0.0000000000000000     
  -7.1168802272035384E-002   8.4657319255663721E-002   0.0000000000000000     
  -6.5328750899590352E-002   6.2794696689343954E-002   0.0000000000000000     
  -6.8382286638556236E-002   6.8194514958715591E-002   0.0000000000000000     
  -7.1346792109107299E-002   7.3769989169946995E-002   0.0000000000000000     
  -7.4222267311243512E-002   7.9521119323038153E-002   0.0000000000000000     
  -7.7008712244964903E-002   8.5447905417989106E-002   0.0000000000000000     
  -5.4512253289928467E-002   8.2565544956791581E-002   0.0000000000000000     
  -5.6540229212788978E-002   8.8767227025531914E-002   0.0000000000000000     
  -5.8485287762779808E-002   9.5121768703531076E-002   0.0000000000000000     
  -6.0347428939900964E-002  0.10162916999078909        0.0000000000000000     
  -6.2126652744152439E-002  0.10828943088730596        0.0000000000000000     
  -5.9920572794517166E-002   8.3216139025064972E-002   0.0000000000000000     
  -6.2124010286951005E-002   8.9394221506154031E-002   0.0000000000000000     
  -6.4236070297505776E-002   9.5724462347406988E-002   0.0000000000000000     
  -6.6256752826181500E-002  0.10220686154882391        0.0000000000000000     
  -6.8186057872978156E-002  0.10884141911040476        0.0000000000000000     
  -6.5472755788552814E-002   8.3913397124689010E-002   0.0000000000000000     
  -6.7845144454604517E-002   9.0065500860033301E-002   0.0000000000000000     
  -7.0120098506554693E-002   9.6370184172197962E-002   0.0000000000000000     
  -7.2297617944403328E-002  0.10282744706118294        0.0000000000000000     
  -7.4377702768150436E-002  0.10943728952698822        0.0000000000000000     
  -7.1168802272035384E-002   8.4657319255663721E-002   0.0000000000000000     
  -7.3703631715749521E-002   9.0781065087169807E-002   0.0000000000000000     
  -7.6137372389926516E-002   9.7058934177903927E-002   0.0000000000000000     
  -7.8470024294566454E-002  0.10349092652786614        0.0000000000000000     
  -8.0701587429669264E-002  0.11007704213705639        0.0000000000000000     
  -7.7008712244964903E-002   8.5447905417989106E-002   0.0000000000000000     
  -7.9699472070385996E-002   9.1540914187563466E-002   0.0000000000000000     
  -8.2287891947621331E-002   9.7790712364524940E-002   0.0000000000000000     
  -8.4773971876670878E-002  0.10419729994887353        0.0000000000000000     
  -8.7157711857534653E-002  0.11076067694060922        0.0000000000000000     
  -6.2126652744152439E-002  0.10828943088730596        0.0000000000000000     
  -6.3825656847370058E-002  0.11509803495600611        0.0000000000000000     
  -6.5447138921389647E-002  0.12205046575981407        0.0000000000000000     
  -6.6991098966211179E-002  0.12914672329872978        0.0000000000000000     
  -6.8457536981834696E-002  0.13638680757275332        0.0000000000000000     
  -6.8186057872978156E-002  0.10884141911040476        0.0000000000000000     
  -7.0035849040556777E-002  0.11562584473261170        0.0000000000000000     
  -7.1817989931578327E-002  0.12255784811590696        0.0000000000000000     
  -7.3532480546042847E-002  0.12963742926029048        0.0000000000000000     
  -7.5179320883950310E-002  0.13686458816576230        0.0000000000000000     
  -7.4377702768150436E-002  0.10943728952698822        0.0000000000000000     
  -7.6375952043696835E-002  0.11619752565368328        0.0000000000000000     
  -7.8307964836943383E-002  0.12310596952533749        0.0000000000000000     
  -8.0173741147890082E-002  0.13016262114195087        0.0000000000000000     
  -8.1973280976536902E-002  0.13736748050352343        0.0000000000000000     
  -8.0701587429669264E-002  0.11007704213705639        0.0000000000000000     
  -8.2845965856790299E-002  0.11681307771922086        0.0000000000000000     
  -8.4917063637484816E-002  0.12369482998810576        0.0000000000000000     
  -8.6914880771752870E-002  0.13072229894371101        0.0000000000000000     
  -8.8839417259594433E-002  0.13789548458603668        0.0000000000000000     
  -8.7157711857534653E-002  0.11076067694060922        0.0000000000000000     
  -8.9445890479837115E-002  0.11747250092922445        0.0000000000000000     
  -9.1645286333202639E-002  0.12432442950421167        0.0000000000000000     
  -9.3755899417631267E-002  0.13131646266557084        0.0000000000000000     
  -9.5777729733122971E-002  0.13844860041330204        0.0000000000000000     
  -6.8457536981834696E-002  0.13638680757275332        0.0000000000000000     
  -6.9878836145180728E-002  0.14371560589781340        0.0000000000000000     
  -7.1287379633169848E-002  0.15107800558983878        0.0000000000000000     
  -7.2683167445802041E-002  0.15847400664882946        0.0000000000000000     
  -7.4066199583077336E-002  0.16590360907478549        0.0000000000000000     
  -7.5179320883950310E-002  0.13686458816576230        0.0000000000000000     
  -7.6756974508182862E-002  0.14420078471661221        0.0000000000000000     
  -7.8263904981622612E-002  0.15160747879713007        0.0000000000000000     
  -7.9700112304269558E-002  0.15908467040731578        0.0000000000000000     
  -8.1065596476123714E-002  0.16663235954716937        0.0000000000000000     
  -8.1973280976536902E-002  0.13736748050352343        0.0000000000000000     
  -8.3688692322591643E-002  0.14469167152924087        0.0000000000000000     
  -8.5302083185762115E-002  0.15210631813828882        0.0000000000000000     
  -8.6813453566048290E-002  0.15961142033066739        0.0000000000000000     
  -8.8222803463450211E-002  0.16720697810637647        0.0000000000000000     
  -8.8839417259594433E-002  0.13789548458603668        0.0000000000000000     
  -9.0673989588407083E-002  0.14518826633569920        0.0000000000000000     
  -9.2401914245588371E-002  0.15257452361331508        0.0000000000000000     
  -9.4023191231138267E-002  0.16005425641888427        0.0000000000000000     
  -9.5537820545056829E-002  0.16762746475240681        0.0000000000000000     
  -9.5777729733122971E-002  0.13844860041330204        0.0000000000000000     
  -9.7712866305629198E-002  0.14569056913598732        0.0000000000000000     
  -9.9563398161101352E-002  0.15301209522220879        0.0000000000000000     
 -0.10132932529953949       0.16041317867196644        0.0000000000000000     
 -0.10301064772094355       0.16789381948526033        0.0000000000000000     
 </DataArray>
 <DataArray  type="Float64" Name="stress" NumberOfComponents="3" format="ascii">
   13416157136.803875        4024847141.0411625        2893876489.9047623     
   11766221607.537178        1890587719.9909415        1715838462.4762704     
   10313511082.014889        413744978.08874273        810825556.09284163     
   9058025560.2370014       -405681084.66543770        178837770.75447732     
   7999765042.2035227       -567690468.27159786       -180124893.53882349     
   10539693569.492983        3161908070.8478947        2225736869.4645290     
   9667367577.0569878        1589677101.5104909        1446733851.2946084     
   8943650048.4012451        512807678.10725117        863168020.78489995     
   8368540983.5257502       -68700199.361823082        475039377.93540430     
   7942040382.4305038       -154846530.89673471        282347922.74612045     
   8337780820.9295607        2501334246.2788682        1712397509.1304154     
   8021384555.6532669        1424627785.7529800        1275710203.5942166     
   7804980214.1930637        681227737.94739962        956872152.33337855     
   7688567796.5489578        271134102.86212969        755883355.34790182     
   7672147302.7209406        194346880.49716663        672743812.63778460     
   6810418891.1136084        2043125667.3340826        1353858408.9024208     
   6828272543.3260107        1395439772.7184081        1202767519.3750947     
   6897501579.3903465        919005157.60918713        1091937950.7382772     
   7018105999.3066206        613821822.00641894        1021369702.9919695     
   7190085803.0748320        479889765.91010427        991062776.13617170     
   5957607780.0451269        1787282334.0135381        1150119568.7805457     
   6088031540.0752192        1502113062.4067769        1227905798.6372421     
   6221214143.9930925        1226139937.0926127        1268365415.9995964     
   6357155591.7987452        959362958.07104635        1271498420.8676083     
   6495855883.4921770        701782125.34207702        1237304813.2412782     
   7999765042.2035227       -567690468.27159786       -180124893.53882349     
   7917557055.4872007       -200568051.98702383       -78387681.882229209     
   7793936838.9796104        28513598.326644897       -9196602.1044011042     
   7628904392.6807442        119554482.66940069        27448345.794652931     
   7422459716.5906067        72554601.041252136        31547161.814939372     
   7942040382.4305038       -154846530.89673471        282347922.74612045     
   7739605301.8267975        16209768.570969105        280979113.18678021     
   7513825257.3473358        109449521.78615618        264920082.55057874     
   7264700248.9921179        124872728.74882746        234170830.83750752     
   6992230276.7611475        62479389.458986759        188731358.04757565     
   7672147302.7209406        194346880.49716663        672743812.63778460     
   7400502016.2352915        184642129.54963017        589347458.76394641     
   7123579031.7894096        157345052.06797361        509116794.61514950     
   6841378349.3832903        112455648.05219340        432051820.19139761     
   6553899969.0169334        49973917.502292156        358152535.49268430     
   7190085803.0748320        479889765.91010427        991062776.13617170     
   6900247198.7126904        304729030.94896293        846717354.84927082     
   6623198162.3058338        172200189.17209435        723393534.08931994     
   6358938693.8542547        82303240.579496145        621091313.85631883     
   6107468793.3579617        35038185.171169996        539810694.15026510     
   6495855883.4921770        701782125.34207702        1237304813.2412782     
   6238840849.2589912        376470472.76896596        1053088801.4427550     
   6012682648.8966084        154014933.09852076        907750300.97308719     
   5817381282.4050236        34415506.330740452        801289311.83227408     
   5652936749.7842379        17672192.465623617        733705834.02031744     
   7422459716.5906067        72554601.041252136        31547161.814939372     
   7220157924.1617327       -17752455.731855392        14909028.454854948     
   7029894708.6164265       -67930922.893059731        2486543.6208381364     
   6851670069.9547005       -77980800.442339420       -5720292.6871139454     
   6685484008.1765432       -47902088.379716873       -9711480.4690028988     
   6992230276.7611475        62479389.458986759        188731358.04757565     
   6809502262.8570080        3279122.8888859749        180495066.04658633     
   6634473378.9088593       -30257377.161242008        175921388.18401828     
   6467143624.9167023       -38130110.691392183        175010324.45987311     
   6307513000.8805351       -20339077.701583862        177761874.87414429     
   6553899969.0169334        49973917.502292156        358152535.49268430     
   6389165635.3871193        21406411.660084486        353255396.76861078     
   6227790984.7857141        4037849.2459042072        351467837.79531360     
   6069776017.2127190       -2131769.7402422428        352789858.57279378     
   5915120732.6681328        2897554.7016382217        357221459.10105193     
   6107468793.3579617        35038185.171169996        539810694.15026510     
   5959148041.7520657        36629410.581727505        533190020.62092519     
   5809847526.2469931        34954756.328375816        529125892.45471871     
   5659567246.8427515        30014222.411113262        527618309.65164745     
   5508307203.5393343        21807808.829941750        528667272.21171153     
   5652936749.7842379        17672192.465623617        733705834.02031744     
   5519449481.9518452        48948119.653824806        720298937.60353184     
   5380643003.2926960        62493344.086174726        708895552.16223884     
   5236517313.8067932        58307865.762673378        699495677.69643581     
   5087072413.4941368        36391684.683323622        692099314.20612419     
   6685484008.1765432       -47902088.379716873       -9711480.4690028988     
   6511896748.9353809       -9273288.5295305252       -4202113.0196583206     
   6333372306.4544706        12898233.854820728        2999630.5890037739     
   6149910680.7338066        18612478.773340702        11893750.356985306     
   5961511871.7733965        7869446.2260246277        22480246.284275386     
   6307513000.8805351       -20339077.701583862        177761874.87414429     
   6134460812.1291609        620482.29123210907        174172103.24767920     
   5958453447.1037102        11729454.703775167        173379065.03651303     
   5779490905.8041782        12987839.536043406        175382760.24065503     
   5597573188.2305546        4395636.7880308628        180183188.86009082     
   5915120732.6681328        2897554.7016382217        357221459.10105193     
   5745758920.8522272        7134466.7707834244        346844889.85871655     
   5575423939.7279110        8127481.1452143192        340369411.28766966     
   5404115789.2951803        5876597.8249351978        337795023.38791007     
   5231834469.5540323        381816.80993604660        339121726.15944469     
   5508307203.5393343        21807808.829941750        528667272.21171153     
   5345791075.1045742        10268664.909121275        513816246.81345165     
   5184283784.3270731        2092313.1791498661        503970669.34247029     
   5023785331.2068195       -2721246.3599834442        499130539.79876477     
   4864295715.7438221       -4172013.7082698345        499295858.18233442     
   5087072413.4941368        36391684.683323622        692099314.20612419     
   4934557274.8862019        10023076.706239462        675086174.11188722     
   4785032980.9011879       -6376049.1944363117        664182839.20091569     
   4638499531.5390987       -12805693.018707037        659389309.47320914     
   4494956926.7999306       -9265854.7665755749        660705584.92876577     
   5961511871.7733965        7869446.2260246277        22480246.284275386     
   5782629602.8978167       -4385952.6680040359        16687071.404641872     
   5605804960.0935259       -9782597.9910683632        14383814.130431309     
   5431037943.3605356       -8320489.7431352139        15570474.461666116     
   5258328552.6988344        372.07577085494995        20247052.398328997     
   5597573188.2305546        4395636.7880308628        180183188.86009082     
   5429570352.2724476       -2560178.1005132198        175790942.27609479     
   5262849235.4729290       -5243595.7937929630        175054591.71423501     
   5097409837.8319807       -3654616.2918143272        177974137.17449418     
   4933252159.3496075        2206760.4054124355        184549578.65687421     
   5231834469.5540323        381816.80993604660        339121726.15944469     
   5075185290.5610943       -1132146.8588109016        335225183.13959706     
   4919041923.8140192       -960069.70801758766        335150514.55857021     
   4763404369.3128014        898048.26230907440        338897720.41634959     
   4608272627.0574503        4442207.0521845818        346466800.71295488     
   4864295715.7438221       -4172013.7082698345        499295858.18233442     
   4719474417.7637415       -101858.94290685654        494989793.99512863     
   4574383025.1168060        3067980.2662732601        494671582.66343158     
   4429021537.8030138        5337503.9192619324        498341224.18724167     
   4283389955.8223681        6706712.0160744190        505998718.56655979     
   4494956926.7999306       -9265854.7665755749        660705584.92876577     
   4362437733.8803911        530685.64720201492        655084774.84269989     
   4228872539.3812799        6840554.1290585995        653617796.02883220     
   4094261343.3025985        9663750.6790256500        656304648.48716784     
   3958604145.6443481        9000275.2970864773        663145332.21769953     
   5258328552.6988344        372.07577085494995        20247052.398328997     
   5060351785.0684042        2173701.4092686176        13594586.587612350     
   4861262015.9415531        637025.75471138954        11115478.162043296     
   4661059245.3182955       -4609654.8878879547        12809727.121616073     
   4459743473.1986084       -13566340.518563271        18677333.466340289     
   4933252159.3496075        2206760.4054124355        184549578.65687421     
   4745364519.5567865        1825259.3912267685        176872923.99645919     
   4556772815.9999256       -903120.83643937111        173373355.75236663     
   4367477048.6790218       -5978380.2775785923        174050873.92461351     
   4177477217.5940795       -13400518.932189703        178905478.51318350     
   4608272627.0574503        4442207.0521845818        346466800.71295488     
   4430484769.4770479        1509072.0027282238        338243051.22393721     
   4252401785.8649859       -2407816.4856038094        334200117.18243897     
   4074023676.2212648       -7308458.4128074646        334337998.58845276     
   3895350440.5458617       -13192853.778928995        338656695.44197774     
   4283389955.8223681        6706712.0160744190        505998718.56655979     
   4115712534.8291988        1225139.2438135147        497704968.27005768     
   3948148925.5367408       -3877061.1927499771        493595762.45225036     
   3780699127.9449930       -8599889.2936139107        493671101.11314231     
   3613363142.0539556       -12943345.058771610        497930984.25273240     
   3958604145.6443481        9000275.2970864773        663145332.21769953     
   3801047815.6132250        973461.11445617676        655258675.13480914     
   3644014235.0151873       -5310854.9578886032        651560291.56180048     
   3487503403.8502340       -9852672.9199514389        652050181.49867642     
   3331515322.1183691       -12651992.771721601        656728344.94543207     
   4459743473.1986084       -13566340.518563271        18677333.466340289     
   4301832076.5174704       -9375092.2683594227        14357520.655423786     
   4145117167.8707771       -1195550.5700266361        15105812.362789303     
   3989598747.2585077        10972284.576391697        20922208.588469502     
   3835276814.6806679        27128413.170917749        31806709.332438122     
   4177477217.5940795       -13400518.932189703        178905478.51318350     
   4032768806.7085857       -7198387.0517392159        175535251.27205974     
   3888788752.6477127        1431600.9107751846        176789012.36384952     
   3745537055.4114785        12489444.955420971        182666761.78854039     
   3603013714.9998679        25975145.082132578        193168499.54615313     
   3895350440.5458617       -13192853.778928995        338656695.44197774     
   3762576112.0691843       -5360509.2843024731        335689900.69255334     
   3630062009.2073278        3339253.9264144897        336902978.09064460     
   3497808131.9602895        12906435.853182316        342295927.63626707     
   3365814480.3280892        23341036.496070862        351868749.32939965     
   3613363142.0539556       -12943345.058771610        497930984.25273240     
   3491253992.5992723       -3861458.9660046101        494821468.91689378     
   3368936937.5496078        4527408.4768397808        495447709.54318935     
   3246411976.9049668        12223257.269753814        499809706.13162833     
   3123679110.6653414        19226087.412723184        507907458.68218869     
   3331515322.1183691       -12651992.771721601        656728344.94543207     
   3218802448.2988596       -2701236.0968520641        652929955.94508410     
   3105413537.6745601        4996064.5620577335        652423206.72148097     
   2991348590.2454762        10439909.205024004        655208097.27462554     
   2876607606.0116196        13630297.832063317        661284627.60451412     
   3835276814.6806679        27128413.170917749        31806709.332438122     
   3623748141.0685883        20367919.317871332        25495053.528983120     
   3407228737.5733547       -3028340.8123679161        22610633.584991995     
   3185718604.1949506       -43060367.219852090        23153449.500480756     
   2959217740.9333596       -99728159.904592633        27123501.275455169     
   3603013714.9998679        25975145.082132578        193168499.54615313     
   3400813358.9741855        19082813.548502922        181016958.22904748     
   3196252826.1395922        4323225.9851725101        172644234.04520756     
   2989332116.4960985       -18303617.607827902        168050326.99464303     
   2780051230.0437088       -48797717.230470777        167235237.07735324     
   3365814480.3280892        23341036.496070862        351868749.32939965     
   3173946959.8139086        16618222.659302831        336946301.08529913     
   2982349815.5651131        10796663.040463686        326154251.24826467     
   2791023047.5816889        5876357.6395251751        319492599.81829804     
   2599966655.8636432        1857306.4565263987        316961346.79540288     
   3123679110.6653414        19226087.412723184        507907458.68218869     
   2943148943.5878167        12974146.650386453        493283082.09774184     
   2765519705.8499465        16391970.353565693        483140685.19415635     
   2590791397.4517317        29479558.522235990        477480267.97143883     
   2418964018.3931489        52236911.156401753        476301830.42959636     
   2876607606.0116196        13630297.832063317        661284627.60451412     
   2708419310.2958899        8150585.5217261314        650027301.26637089     
   2545762496.9940820        21109147.924463391        643603535.88289392     
   2388637166.1061859        52505985.040258050        642013331.45408130     
   2237043317.6322298        102341096.86913645        645256687.97993624     
   5957607780.0451269        1787282334.0135381        1150119568.7805457     
   6088031540.0752192        1502113062.4067769        1227905798.6372421     
   6221214143.9930925        1226139937.0926127        1268365415.9995964     
   6357155591.7987452        959362958.07104635        1271498420.8676083     
   6495855883.4921770        701782125.34207702        1237304813.2412782     
   5434106629.4359274        1630231988.8307781        1033540290.8373861     
   5489410698.1331854        1372439307.7297344        1113923194.1382558     
   5546922039.8515120        1122004203.3655858        1167530657.2530437     
   5606640654.5909052        878926675.73833287        1194362680.1817498     
   5668566542.3513699        643206724.84797502        1194419262.9243736     
   4894674580.9978199        1468402374.2993460        936479877.14553905     
   4905005164.9572697        1247030145.6825278        1018815954.5460868     
   4916991451.0710802        1031176924.2469039        1084927764.0688131     
   4930633439.3392458        820842709.99247313        1134815305.7137172     
   4945931129.7617702        616027502.91923654        1168478579.4807997     
   4339311634.7308054        1301793490.4192417        858938327.70500433     
   4334814940.5474777        1125885576.2651582        942584079.86073446     
   4331422377.6517973        953658099.73656631        1020556736.4469032     
   4329133946.0437641        785111060.83346677        1092856297.4635103     
   4327949645.7233801        620244459.55585992        1159482762.9105546     
   3768017790.6348829        1130405337.1904650        800915642.51578188     
   3778840024.9038057        1009005599.4776243        885227570.08219922     
   3790214819.5936656        889447729.83457434        974417574.38731480     
   3802142174.7044635        771731728.26131487        1068485655.4311287     
   3814622090.2361970        655857594.75784564        1167431813.2136412     
   6495855883.4921770        701782125.34207702        1237304813.2412782     
   6238840849.2589912        376470472.76896596        1053088801.4427550     
   6012682648.8966084        154014933.09852076        907750300.97308719     
   5817381282.4050236        34415506.330740452        801289311.83227408     
   5652936749.7842379        17672192.465623617        733705834.02031744     
   5668566542.3513699        643206724.84797502        1194419262.9243736     
   5518189500.1301107        383739423.62644768        1073446941.4150021     
   5391941577.4130688        204702520.75230336        980431482.88942909     
   5289822774.2002392        106096016.22554159        915372887.34765446     
   5211833090.4916248        87919910.046161652        878271154.78967953     
   4945931129.7617702        616027502.91923654        1168478579.4807997     
   4870990227.1379881        413043997.32495713        1102900948.1662316     
   4813450729.6518364        268065175.52277803        1054359531.4904047     
   4773312637.3033152        181091037.51270103        1022854329.4533194     
   4750575950.0924234        152121583.29472446        1008385342.0549750     
   4327949645.7233801        620244459.55585992        1159482762.9105546     
   4297243030.2826242        464384193.86449373        1141450821.6964417     
   4277210105.6129146        344102897.40994573        1129534446.7760131     
   4267850871.7142496        259400570.19221735        1123733638.1492684     
   4269165328.5866332        210277212.21131015        1124048395.8162079     
   3814622090.2361970        655857594.75784564        1167431813.2136412     
   3796947909.5640192        537760013.24505830        1189096562.0056345     
   3783219705.2963018        432815686.41380644        1205956228.7462547     
   3773437477.4330463        341024614.26409304        1218010813.4355011     
   3767601225.9742522        262386796.79591775        1225260316.0733752     
   5652936749.7842379        17672192.465623617        733705834.02031744     
   5519449481.9518452        48948119.653824806        720298937.60353184     
   5380643003.2926960        62493344.086174726        708895552.16223884     
   5236517313.8067932        58307865.762673378        699495677.69643581     
   5087072413.4941368        36391684.683323622        692099314.20612419     
   5211833090.4916248        87919910.046161652        878271154.78967953     
   5076155800.3831043        85820348.063000679        854477086.54451883     
   4938360045.3524694        76659236.339464664        834696910.76639080     
   4798445825.3997240        60436574.875558853        818930627.45529592     
   4656413140.5248680        37152363.671278954        807178236.61123240     
   4750575950.0924234        152121583.29472446        1008385342.0549750     
   4618452584.8264618        118369716.27580571        977938305.53685832     
   4487411500.5430326        88225452.531993151        953515542.97731352     
   4357452697.2421350        61688792.063286066        935117054.37634277     
   4228576174.9237685        38759734.869684696        922742839.73394740     
   4269165328.5866332        210277212.21131015        1124048395.8162079     
   4146339835.2819219        146596224.29224038        1090682594.5805507     
   4027797368.8643856        97191992.663757801        1065351448.7950083     
   3913537929.3340254        62064517.325857162        1048054958.4595805     
   3803561516.6908402        41213798.278543949        1038793123.5742686     
   3767601225.9742522        262386796.79591775        1225260316.0733752     
   3659817551.7494807        170499872.11230612        1192709953.6755962     
   3559517650.3165269        103558856.73475850        1170204628.2194726     
   3466701521.6753936        61563750.663272858        1157744339.7050052     
   3381369165.8260775        44514553.897849202        1155329088.1321945     
   5087072413.4941368        36391684.683323622        692099314.20612419     
   4934557274.8862019        10023076.706239462        675086174.11188722     
   4785032980.9011879       -6376049.1944363117        664182839.20091569     
   4638499531.5390987       -12805693.018707037        659389309.47320914     
   4494956926.7999306       -9265854.7665755749        660705584.92876577     
   4656413140.5248680        37152363.671278954        807178236.61123240     
   4520797399.7756882        15855954.560785294        793962166.80932057     
   4387341477.0405407        1758938.8304061890        786465321.20782197     
   4256045372.3194313       -5138683.5198533535        784687699.80673397     
   4126909085.6123538       -4836912.4900019169        788629302.60605454     
   4228576174.9237685        38759734.869684696        922742839.73394740     
   4108743886.3680477        22200740.926190376        912354309.18065882     
   3990240389.2174778        10071051.666525841        907294421.84492970     
   3873065683.4720511        2370667.0906839371        907563177.72675765     
   3757219769.1317768       -900412.80133128166        913160576.82614326     
   3803561516.6908402        41213798.278543949        1038793123.5742686     
   3698396734.6632853        29057435.802462101        1030262601.2258999     
   3593729717.4319940        18560289.313915730        1026670141.1122407     
   3489560464.9969654        9722358.8129107952        1028015743.2332854     
   3385888977.3581939        2543644.2994401455        1034299407.5890368     
   3381369165.8260775        44514553.897849202        1155329088.1321945     
   3289755944.6613994        36426039.189593434        1147687042.9450467     
   3197809461.6840944        27226651.772585392        1144592479.0097542     
   3105529716.8941636        16916391.646822572        1146045396.3263128     
   3012916710.2916069        5495258.8123085499        1152045794.8947275     
   4494956926.7999306       -9265854.7665755749        660705584.92876577     
   4362437733.8803911        530685.64720201492        655084774.84269989     
   4228872539.3812799        6840554.1290585995        653617796.02883220     
   4094261343.3025985        9663750.6790256500        656304648.48716784     
   3958604145.6443481        9000275.2970864773        663145332.21769953     
   4126909085.6123538       -4836912.4900019169        788629302.60605454     
   4003783303.0665016        33355.434390068054        781654944.14512432     
   3880321007.3282623        3781912.7174971104        778889286.81237578     
   3756522198.3976436        6408759.3593351841        780332330.60781515     
   3632386876.2746372        7913895.3598837852        785984075.53143716     
   3757219769.1317768       -900412.80133128166        913160576.82614326     
   3643644167.9767056       -909386.06119227409        905660406.44206595     
   3530441542.0164428        324891.32829642296        902423807.04215682     
   3417611891.2509832        2802419.3671283722        903450778.62641680     
   3305155215.6803241        6523198.0553016663        908741321.19484901     
   3385888977.3581939        2543644.2994401455        1034299407.5890368     
   3282020328.6110115       -2297538.8395397663        1027101161.7335280     
   3179234143.4458179       -3530510.0385469198        1024221356.7181747     
   3077530421.8626151       -1155269.2975900173        1025659992.5429753     
   2976909163.8614063        4828183.3833405972        1031417069.2079316     
   3012916710.2916069        5495258.8123085499        1152045794.8947275     
   2918911784.9694061       -4131102.9006674290        1145977210.0195072     
   2826698811.6163902       -7784291.3830307722        1144281935.8404300     
   2736277790.2325449       -5464306.6348189116        1146959972.3574898     
   2647648720.8178811        2828851.3439909220        1154011319.5706892     
   3958604145.6443481        9000275.2970864773        663145332.21769953     
   3801047815.6132250        973461.11445617676        655258675.13480914     
   3644014235.0151873       -5310854.9578886032        651560291.56180048     
   3487503403.8502340       -9852672.9199514389        652050181.49867642     
   3331515322.1183691       -12651992.771721601        656728344.94543207     
   3632386876.2746372        7913895.3598837852        785984075.53143716     
   3486567640.0307045        2398062.4368481636        778081500.20388591     
   3340744832.5699539       -3129674.5422585011        774439727.83515799     
   3194918453.8923664       -8669315.5774841309        775058758.42524648     
   3049088503.9979529       -14220860.668782473        779938591.97416186     
   3305155215.6803241        6523198.0553016663        908741321.19484901     
   3171280300.2205553        3580514.4909706116        900208786.86440527     
   3036875492.8940449       -1128475.2958310843        896009584.94172323     
   2901940793.7007885       -7603771.3051161766        896143715.42679834     
   2766476202.6407952       -15845373.536867499        900611178.31962681     
   2976909163.8614063        4828183.3833405972        1031417069.2079316     
   2855185796.1827612        4520817.2767966986        1021640535.1163622     
   2732406215.9874597        692742.78139197826        1016269862.8814936     
   2608570423.2755027       -6656040.1028627157        1015305052.5033158     
   2483678418.0468888       -17525531.375973225        1018746103.9818363     
   2647648720.8178811        2828851.3439909220        1154011319.5706892     
   2538284127.9173245        5218970.7943184376        1142376744.9597640     
   2427337001.8502016        2333979.6894171238        1135220561.6544724     
   2314807342.6165037       -5826121.9707326889        1132542769.6548126     
   2200695150.2162361       -19261334.186109304        1134343368.9607868     
   3331515322.1183691       -12651992.771721601        656728344.94543207     
   3218802448.2988596       -2701236.0968520641        652929955.94508410     
   3105413537.6745601        4996064.5620577335        652423206.72148097     
   2991348590.2454762        10439909.205024004        655208097.27462554     
   2876607606.0116196        13630297.832063317        661284627.60451412     
   3049088503.9979529       -14220860.668782473        779938591.97416186     
   2944642375.1089473       -6912803.0923147202        776046761.32744861     
   2840492865.5902653        1383985.7185746431        775832179.10401595     
   2736639975.4419198        10669505.763908148        779294845.30384982     
   2633083704.6639023        20943757.043680429        786434759.92696142     
   2766476202.6407952       -15845373.536867499        900611178.31962681     
   2671398557.6723647       -10849493.361784458        897760671.56419241     
   2577590188.2493796       -1622694.7018860579        898973021.87855566     
   2485051094.3718362        11835022.442827463        904248229.26271772     
   2393781276.0397425        29523658.072361588        913586293.71668220     
   2483678418.0468888       -17525531.375973225        1018746103.9818363     
   2399070995.9891157       -14511306.905246019        1018071686.6553055     
   2316705505.6519008       -4023976.6993243694        1021845735.0451012     
   2236581947.0352464        13936459.241801620        1030068249.1512184     
   2158700320.1391487        39370000.918110847        1042739228.9736661     
   2200695150.2162361       -19261334.186109304        1134343368.9607868     
   2127659690.0591946       -17898243.722719431        1136979806.6007903     
   2057838817.7978284       -5819860.2737416029        1144450318.6036537     
   1991232533.4321308        16973816.160799623        1156754904.9693689     
   1927840836.9621115        50482785.580930233        1173893565.6979318     
   2876607606.0116196        13630297.832063317        661284627.60451412     
   2708419310.2958899        8150585.5217261314        650027301.26637089     
   2545762496.9940820        21109147.924463391        643603535.88289392     
   2388637166.1061859        52505985.040258050        642013331.45408130     
   2237043317.6322298        102341096.86913645        645256687.97993624     
   2633083704.6639023        20943757.043680429        786434759.92696142     
   2477705279.9141355        19056011.452176571        780689262.14637232     
   2324261872.7084866        23618324.341065407        779135034.91136336     
   2172753483.0469713        34630695.710392833        781772078.22191405     
   2023180110.9295690        52093125.560098052        788600392.07805884     
   2393781276.0397425        29523658.072361588        913586293.71668220     
   2249377606.8013930        30677344.563330770        909156748.81221545     
   2103312490.2373657        26292873.302043796        908276184.04423487     
   1955585926.3476532        16370244.288485169        910944599.41274345     
   1806197915.1322780        909457.52267718315        917161994.91771924     
   2158700320.1391487        39370000.918110847        1042739228.9736661     
   2023436290.9576602        43014584.855187535        1035429761.2638959     
   1882914349.5806928        29132794.807332993        1031026983.2815163     
   1737134496.0082545       -2275369.2254474163        1029530895.0265245     
   1586096730.2403307       -51209907.243143857        1030941496.4989221     
   1927840836.9621115        50482785.580930233        1173893565.6979318     
   1799881332.3829379        56067732.327744424        1159508299.5014217     
   1663067450.7384875        32138088.856976509        1147387432.6232080     
   1517399192.0287557       -21306144.831405103        1137530965.0632896     
   1362876556.2537518       -104264968.73735434        1129938896.8216660     
   3768017790.6348829        1130405337.1904650        800915642.51578188     
   3778840024.9038057        1009005599.4776243        885227570.08219922     
   3790214819.5936656        889447729.83457434        974417574.38731480     
   3802142174.7044635        771731728.26131487        1068485655.4311287     
   3814622090.2361970        655857594.75784564        1167431813.2136412     
   3207839396.8580961        962351819.05742884        757189086.56959867     
   3235701109.3441935        868367134.28208470        853519354.06905591     
   3263266404.9733949        773394393.31708694        951752285.08821976     
   3290535283.7456999        677433596.16243613        1051887879.6270888     
   3317507745.6611090        580484742.81813145        1153926137.6856647     
   2685822801.5484877        805746840.46454632        722535924.85818124     
   2722222811.6260672        736626854.43899095        829894058.79987335     
   2757477427.5689163        663688887.96433794        936179443.04227924     
   2791586649.3770385        586932941.04058790        1041392077.5853986     
   2824550477.0504298        506359013.66774023        1145531962.4292319     
   2201968004.7060571        660590401.41181707        696956157.38152957     
   2238405131.7494264        613784759.94834292        814351684.27465117     
   2272847887.3802333        560331213.77632737        927699048.24949384     
   2305296271.5984774        500229762.89576972        1036998249.3060580     
   2335750284.4041595        433480407.30667156        1142249287.4443436     
   1756275006.3308048        526882501.89924145        680449784.13964379     
   1784248069.7142711        499840850.81014055        806892230.49338925     
   1809377784.4073422        463321370.75305402        926311100.70986378     
   1831664150.4100173        417324061.72798198        1038706394.7890673     
   1851107167.7222967        361848923.73492473        1144078112.7309995     
   3814622090.2361970        655857594.75784564        1167431813.2136412     
   3796947909.5640192        537760013.24505830        1189096562.0056345     
   3783219705.2963018        432815686.41380644        1205956228.7462547     
   3773437477.4330463        341024614.26409304        1218010813.4355011     
   3767601225.9742522        262386796.79591775        1225260316.0733752     
   3317507745.6611090        580484742.81813145        1153926137.6856647     
   3292894048.4188104        473339429.50440335        1182423440.1913593     
   3272057683.0517950        378785222.44162273        1207860288.5716286     
   3254998649.5600653        296822121.62978888        1230236682.8264713     
   3241716947.9436169        227450127.06890130        1249552622.9558887     
   2824550477.0504298        506359013.66774023        1145531962.4292319     
   2797981914.4550023        411661363.91817009        1180665066.6979218     
   2775022039.2056828        328992671.98895657        1214482344.7671335     
   2755670851.3024697        258352937.88010037        1246983796.6368668     
   2739928350.7453632        199742161.59160054        1278169422.3071215     
   2335750284.4041595        433480407.30667156        1142249287.4443436     
   2312211507.6725969        352725816.48635656        1183821441.5253220     
   2292112773.7579627        283438035.05580765        1225822397.3327694     
   2275454082.6602612        225617063.01502788        1268252154.8666859     
   2262235434.3794875        179262900.36401296        1311110714.1270707     
   1851107167.7222967        361848923.73492473        1144078112.7309995     
   1835582828.0715911        296532787.20896310        1191892564.6735597     
   1823329886.7086389        242121311.64217955        1241880446.2685363     
   1814348343.6334386        198614497.03457040        1294041757.5159297     
   1808638198.8459921        166012343.38613898        1348376498.4157393     
   3767601225.9742522        262386796.79591775        1225260316.0733752     
   3659817551.7494807        170499872.11230612        1192709953.6755962     
   3559517650.3165269        103558856.73475850        1170204628.2194726     
   3466701521.6753936        61563750.663272858        1157744339.7050052     
   3381369165.8260775        44514553.897849202        1155329088.1321945     
   3241716947.9436169        227450127.06890130        1249552622.9558887     
   3162508158.3876510        153189352.14495695        1232236027.7346246     
   3089339188.1775837        99061308.374012709        1222787503.0647066     
   3022210037.3134179        65065995.756072044        1221207048.9461381     
   2961120705.7951517        51203414.291130066        1227494665.3789141     
   2739928350.7453632        199742161.59160054        1278169422.3071215     
   2683074541.8858881        141241565.23562574        1274401981.9087999     
   2630816598.9263973        98060521.879593611        1276325645.6715169     
   2583154521.8668866        70199031.523501515        1283940413.5952709     
   2540088310.7073593        57657094.167350888        1297246285.6800642     
   2262235434.3794875        179262900.36401296        1311110714.1270707     
   2221516702.2441945        134656511.38431692        1319207816.1981215     
   2183949882.5629649        100556497.25150025        1330819056.0399013     
   2149534975.3358006        76962857.965565920        1345944433.6524110     
   2118271980.5627003        63875593.526511788        1364583949.0356483     
   1808638198.8459921        166012343.38613898        1348376498.4157393     
   1777834639.4625692        133434190.59102768        1366653530.6025898     
   1748739039.0872912        106549234.48973596        1386267734.1698618     
   1721351397.7201600        85357475.082264960        1407219109.1175539     
   1695671715.3611743        69858912.368611813        1429507655.4456661     
   3381369165.8260775        44514553.897849202        1155329088.1321945     
   3289755944.6613994        36426039.189593434        1147687042.9450467     
   3197809461.6840944        27226651.772585392        1144592479.0097542     
   3105529716.8941636        16916391.646822572        1146045396.3263128     
   3012916710.2916069        5495258.8123085499        1152045794.8947275     
   2961120705.7951517        51203414.291130066        1227494665.3789141     
   2880001243.1207032        40657140.873924613        1219219451.5701666     
   2798990541.8000808        30473405.302805662        1215036053.5118074     
   2718088601.8332872        20652207.577782631        1214944471.2038388     
   2637295423.2203188        11193547.698846221        1218944704.6462600     
   2540088310.7073593        57657094.167350888        1297246285.6800642     
   2468160705.0903869        44262491.611366630        1288853596.9439108     
   2396783883.9936953        32703837.456314445        1284097058.4566855     
   2325957847.4172840        22981131.702200651        1282976670.2183824     
   2255682595.3611555        15094374.349019766        1285492432.2290084     
   2118271980.5627003        63875593.526511788        1364583949.0356483     
   2054234330.5704513        47242091.401921868        1356589479.0662856     
   1991189488.2649369        33917948.233113766        1351775493.8443851     
   1929137453.6461558        23903164.020082235        1350141993.3699470     
   1868078226.7141078        17197738.762827277        1351688977.6429696     
   1695671715.3611743        69858912.368611813        1429507655.4456661     
   1638222119.5608971        49595940.245594919        1422427097.9372876     
   1582207354.6138060        34115737.633197963        1418071359.6749096     
   1527627420.5199022        23418304.531426668        1416440440.6585290     
   1474482317.2791839        17503640.940275311        1417534340.8881466     
   3012916710.2916069        5495258.8123085499        1152045794.8947275     
   2918911784.9694061       -4131102.9006674290        1145977210.0195072     
   2826698811.6163902       -7784291.3830307722        1144281935.8404300     
   2736277790.2325449       -5464306.6348189116        1146959972.3574898     
   2647648720.8178811        2828851.3439909220        1154011319.5706892     
   2637295423.2203188        11193547.698846221        1218944704.6462600     
   2555582584.9971647        3500118.3126082420        1212677375.5209610     
   2475106784.3492484       -69852.489495158195        1211046126.0080061     
   2395868021.2765760        483635.29254412651        1214050956.1073902     
   2317866295.7791433        5160581.6587151289        1221691865.8191123     
   2255682595.3611555        15094374.349019766        1285492432.2290084     
   2187012612.5690441        9559107.7891154289        1278378958.7273717     
   2119024752.9582369        6297585.1668894291        1276164333.7542760     
   2051719016.5287354        5309806.4823474884        1278848557.3097236     
   1985095403.2805367        6595771.7354787588        1286431629.3937106     
   1868078226.7141078        17197738.762827277        1351688977.6429696     
   1813201867.6850467        14045865.528855801        1343081959.6387346     
   1758452717.4433532        11318021.586112261        1339636559.0792401     
   1703830775.9890256        9014206.9345859289        1341352775.9644895     
   1649336043.3220675        7134421.5742884874        1348230610.2944813     
   1474482317.2791839        17503640.940275311        1417534340.8881466     
   1434150350.3451760        16960391.531844556        1406786378.2550509     
   1393390677.8045940        14991456.768165886        1401462801.9828992     
   1352203299.6574476        11596836.649272084        1401563612.0716934     
   1310588215.9037249        6776531.1751263738        1407088808.5214272     
   2647648720.8178811        2828851.3439909220        1154011319.5706892     
   2538284127.9173245        5218970.7943184376        1142376744.9597640     
   2427337001.8502016        2333979.6894171238        1135220561.6544724     
   2314807342.6165037       -5826121.9707326889        1132542769.6548126     
   2200695150.2162361       -19261334.186109304        1134343368.9607868     
   2317866295.7791433        5160581.6587151289        1221691865.8191123     
   2220213058.8945155        4988721.0122224092        1208090723.7877729     
   2122012880.9644296        2993723.5475225449        1199611152.0238588     
   2023265761.9888716       -824410.73540544510        1196253150.5273705     
   1923971701.9678504       -6465681.8365457058        1198016719.2983081     
   1985095403.2805367        6595771.7354787588        1286431629.3937106     
   1900991176.5883868        4413227.2451294661        1272072110.7499173     
   1817375600.9718769        3859519.6735833883        1263477341.3353395     
   1734248676.4310093        4934649.0208427906        1260647321.1499772     
   1651610402.9657836        7638615.2869104147        1263582050.1938319     
   1649336043.3220675        7134421.5742884874        1348230610.2944813     
   1580618480.9989359        3492489.4930405021        1334320905.8461890     
   1513425161.8725533        4931368.0676150322        1326819129.5889072     
   1447756085.9429235        11451057.298032165        1325725281.5226328     
   1383611253.2100377        23051557.184267700        1331039361.6473653     
   1310588215.9037249        6776531.1751263738        1407088808.5214272     
   1259094972.1261647        2226507.7559536695        1394837109.0765977     
   1210161563.6664581        6209268.7296240926        1389636516.7845671     
   1163787990.5246062        18724814.096146047        1391487031.6453347     
   1119974252.7006094        39773143.855513632        1400388653.6588991     
   2200695150.2162361       -19261334.186109304        1134343368.9607868     
   2127659690.0591946       -17898243.722719431        1136979806.6007903     
   2057838817.7978284       -5819860.2737416029        1144450318.6036537     
   1991232533.4321308        16973816.160799623        1156754904.9693689     
   1927840836.9621115        50482785.580930233        1173893565.6979318     
   1923971701.9678504       -6465681.8365457058        1198016719.2983081     
   1861887058.6944408       -340294.61715769768        1203434660.4708271     
   1800747488.3101625        8935335.5660160780        1211343241.0165160     
   1740552990.8150284        21361208.712998033        1221742460.9353800     
   1681303566.2090380        36937324.823790967        1234632320.2274125     
   1651610402.9657836        7638615.2869104147        1263582050.1938319     
   1593781048.0340528        16517640.699700475        1269133727.3912425     
   1534627250.9849288        20981859.054520369        1274832608.9721417     
   1474149011.8184109        21031270.351358771        1280678694.9365299     
   1412346330.5345008        16665874.590227485        1286671985.2844107     
   1383611253.2100377        23051557.184267700        1331039361.6473653     
   1323341658.0780389        32675562.227879226        1334077007.3620417     
   1259478105.8221161        30319710.191747546        1334918422.4705284     
   1192020596.4422643        15984001.075852334        1333563606.9728234     
   1120969129.9384887       -10331565.119792461        1330012560.8689234     
   1119974252.7006094        39773143.855513632        1400388653.6588991     
   1050568888.8263962        48133469.967365861        1398264500.3832233     
   975300052.82172585        36948888.977693915        1391600681.5116761     
   894167744.68659806        6219400.8864922523        1380397197.0442526     
   807171964.42101085       -44054994.306235671        1364654046.9809573     
   1927840836.9621115        50482785.580930233        1173893565.6979318     
   1799881332.3829379        56067732.327744424        1159508299.5014217     
   1663067450.7384875        32138088.856976509        1147387432.6232080     
   1517399192.0287557       -21306144.831405103        1137530965.0632896     
   1362876556.2537518       -104264968.73735434        1129938896.8216660     
   1681303566.2090380        36937324.823790967        1234632320.2274125     
   1567487926.6418364        37344406.692954063        1210918572.9995008     
   1453518970.3921421        37240432.953808069        1197015214.5111995     
   1339396697.4599392        36625403.606305361        1192922244.7624876     
   1225121107.8452454        35499318.650494397        1198639663.7533920     
   1412346330.5345008        16665874.590227485        1286671985.2844107     
   1334234525.7544272        18363082.514283061        1263780994.1383502     
   1264670464.6746399        48552769.439288616        1258246381.1531906     
   1203654147.2951312        107234935.36521983        1270068146.3289399     
   1151185573.6158962        194409580.29209030        1299246289.6655903     
   1120969129.9384887       -10331565.119792461        1330012560.8689234     
   1100121129.7207029       -876240.20828819275        1318095562.9179461     
   1096521933.5859826        66075098.313427925        1331080932.5491841     
   1110171541.5343189        190522450.44533560        1368968669.7626324     
   1141069953.5657117        372465816.18743223        1431758774.5582900     
   807171964.42101085       -44054994.306235671        1364654046.9809573     
   865147738.54066789       -20373561.474752724        1373862279.3383107     
   949073377.12617302        89807419.576220751        1415518868.6991806     
   1058948880.1775132        286487948.84664482        1489623815.0635576     
   1194774247.6946909        569668026.33652997        1596177118.4314675     
   1756275006.3308048        526882501.89924145        680449784.13964379     
   1784248069.7142711        499840850.81014055        806892230.49338925     
   1809377784.4073422        463321370.75305402        926311100.70986378     
   1831664150.4100173        417324061.72798198        1038706394.7890673     
   1851107167.7222967        361848923.73492473        1144078112.7309995     
   1326597929.1930823        397979378.75792468        669969800.90646684     
   1339961052.6212788        375359208.14228392        792250666.09523106     
   1351178448.9580774        345586613.88865054        909296350.42333651     
   1360250118.2034781        308661595.99702388        1021106853.8907845     
   1367176060.3574810        264584154.46740457        1127682176.4975743     
   890790896.06324053        267237268.81897217        662469203.45594168     
   894653780.32648981        250571488.91388857        781402379.34522176     
   897068559.09733891        229078690.70080474        896888769.65045643     
   898035232.37578797        202758874.17972064        1008928374.3716458     
   897553800.16183686        171612039.35063630        1117521193.5087905     
   448853906.94128001        134656172.08238399        657947991.78806806     
   448326252.82990426        125477693.12495410        774347370.24336183     
   447048114.82512635        113797601.18951669        889088358.39122283     
   445019492.92694616        99615896.276071757        1002170956.2316515     
   442240387.13536364        82932578.384619057        1113595163.7646480     
   786961.82720034732        236088.54816010423        656406165.90284646     
   978470.13152238762        77820.775480834360        771085638.78965080     
   1117116.1414400837       -256654.64521326247        885895116.64563572     
   1202899.8569532186       -767337.71392230317        1000834599.4708011     
   1235821.2780617753       -1454228.4306466058        1115904087.2651472     
   1851107167.7222967        361848923.73492473        1144078112.7309995     
   1835582828.0715911        296532787.20896310        1191892564.6735597     
   1823329886.7086389        242121311.64217955        1241880446.2685363     
   1814348343.6334386        198614497.03457040        1294041757.5159297     
   1808638198.8459921        166012343.38613898        1348376498.4157393     
   1367176060.3574810        264584154.46740457        1127682176.4975743     
   1361023111.2677300        217060433.73463851        1183226305.8679616     
   1357330650.7001317        177738341.40904942        1239699825.4497750     
   1356098678.6546867        146617877.49063867        1297102735.2430143     
   1357327195.1313956        123699041.97940487        1355435035.2476814     
   897553800.16183686        171612039.35063630        1117521193.5087905     
   897217843.23021066        140814414.89021567        1179848938.9138048     
   898531465.05513847        115515386.28497469        1241862035.0892553     
   901494665.63662004        95714953.534912616        1303560482.0351424     
   906107444.97465503        81413116.640029788        1364944279.7514658     
   442240387.13536364        82932578.384619057        1113595163.7646480     
   444167023.95903420        67794730.675695881        1181760463.8110902     
   446932329.77365911        55452446.269954637        1248367075.1869788     
   450536304.57923758        45905725.167391777        1313414997.8923137     
   454978948.37577087        39154567.368011296        1376904231.9270952     
   1235821.2780617753       -1454228.4306466058        1115904087.2651472     
   1870653.4542000000       -1998618.9089206601        1188960880.5598178     
   2533244.8556926399       -2450478.6360133286        1259214945.7429445     
   3223595.4825399043       -2809807.6119237458        1326666282.8145275     
   3941705.3347418285       -3076605.8366523068        1391314891.7745662     
   1808638198.8459921        166012343.38613898        1348376498.4157393     
   1777834639.4625692        133434190.59102768        1366653530.6025898     
   1748739039.0872912        106549234.48973596        1386267734.1698618     
   1721351397.7201600        85357475.082264960        1407219109.1175539     
   1695671715.3611743        69858912.368611813        1429507655.4456661     
   1357327195.1313956        123699041.97940487        1355435035.2476814     
   1332795538.3676271        98597405.730685413        1375650243.4381354     
   1309459602.6869721        77481506.425673008        1397627470.7525845     
   1287319388.0894289        60351344.064368010        1421366717.1910262     
   1266374894.5749989        47206918.646773517        1446867982.7534628     
   906107444.97465503        81413116.640029788        1364944279.7514658     
   889061541.52646494        64152152.146473706        1386500053.0329864     
   872699121.23635495        49169464.846518099        1410242693.1820731     
   857020184.10432410        36465054.740159959        1436172200.1987269     
   842024730.13037312        26038921.827402204        1464288574.0829477     
   454978948.37577087        39154567.368011296        1376904231.9270952     
   446632648.93908221        30098429.838397503        1399202959.3871417     
   438457594.73544073        21613109.752274588        1424113401.4583285     
   430453785.76484632        13698607.109641567        1451635558.1406546     
   422621222.02729762        6354921.9104940146        1481769429.4341221     
   3941705.3347418285       -3076605.8366523068        1391314891.7745662     
   5508860.6054789145       -3563761.1935449005        1413758962.5006008     
   6735023.1842302289       -5187558.8570563886        1439239595.5813498     
   7620193.0709940698       -7947998.8271929519        1467756791.0168111     
   8164370.2657728391       -11845081.103946432        1499310548.8069861     
   1695671715.3611743        69858912.368611813        1429507655.4456661     
   1638222119.5608971        49595940.245594919        1422427097.9372876     
   1582207354.6138060        34115737.633197963        1418071359.6749096     
   1527627420.5199022        23418304.531426668        1416440440.6585290     
   1474482317.2791839        17503640.940275311        1417534340.8881466     
   1266374894.5749989        47206918.646773517        1446867982.7534628     
   1218812715.9465759        29405739.724289656        1443732428.4336100     
   1172249465.9246964        14934322.823613763        1444909654.2613688     
   1126685144.5093572        3792667.9447386265        1450399660.2367413     
   1082119751.7005599       -4019224.9123286009        1460202446.3597281     
   842024730.13037312        26038921.827402204        1464288574.0829477     
   808886999.82127738        12060645.449696153        1464589470.3305318     
   776312295.87207758       -40876.395023256540        1470791107.6273453     
   744300618.28277361       -10265643.706755072        1482893485.9733846     
   712851967.05336583       -18613656.485501826        1500896605.3686528     
   422621222.02729762        6354921.9104940146        1481769429.4341221     
   408444971.18499732       -2439342.5781934559        1484998223.6280589     
   394395844.45594835       -10809860.022710830        1495715719.7728381     
   380473841.84014869       -18756630.423063263        1513921917.8684573     
   366678963.33759809       -26279653.779252142        1539616817.9149215     
   8164370.2657728391       -11845081.103946432        1499310548.8069861     
   17486630.037737228       -14094224.359377492        1504958688.3261878     
   26500111.676307105       -17372628.059457269        1519683490.6978459     
   35204815.181483015       -21680292.204183772        1543484955.9219599     
   43600740.553261906       -27017216.793566298        1576363083.9985313     
   1474482317.2791839        17503640.940275311        1417534340.8881466     
   1434150350.3451760        16960391.531844556        1406786378.2550509     
   1393390677.8045940        14991456.768165886        1401462801.9828992     
   1352203299.6574476        11596836.649272084        1401563612.0716934     
   1310588215.9037249        6776531.1751263738        1407088808.5214272     
   1082119751.7005599       -4019224.9123286009        1460202446.3597281     
   1054250165.9153547       -5542684.5675931573        1456679580.9843907     
   1026225403.8937550       -7583398.3441746235        1457544978.6503057     
   998045465.63576221       -10141366.242064536        1462798639.3574731     
   969710351.14137697       -13216588.261263251        1472440563.1058877     
   712851967.05336583       -18613656.485501826        1500896605.3686528     
   694484410.07498574       -22005432.090194464        1504916788.1829486     
   676234206.23038912       -25006030.582274914        1512289110.7188017     
   658101355.51957464       -27615451.961748600        1523013572.9762144     
   640085857.94254625       -29833696.228601038        1537090174.9551888     
   366678963.33759809       -26279653.779252142        1539616817.9149215     
   354853082.82406753       -32427851.035958335        1551497999.8507190     
   343417084.81449664       -37276439.946132287        1565695198.1883855     
   332370969.30888563       -40825420.509774715        1582208412.9279194     
   321714736.30723286       -43074792.726886988        1601037644.0693173     
   43600740.553261906       -27017216.793566298        1576363083.9985313     
   35356184.162600011       -36809941.404890373        1596423215.9877088     
   27774039.646077354       -44394626.435750633        1617763241.0590587     
   20854307.003687035       -49771271.886169434        1640383159.2125857     
   14596986.235440284       -52939877.756110013        1664282970.4482870     
   1310588215.9037249        6776531.1751263738        1407088808.5214272     
   1259094972.1261647        2226507.7559536695        1394837109.0765977     
   1210161563.6664581        6209268.7296240926        1389636516.7845671     
   1163787990.5246062        18724814.096146047        1391487031.6453347     
   1119974252.7006094        39773143.855513632        1400388653.6588991     
   969710351.14137697       -13216588.261263251        1472440563.1058877     
   935397756.62972403       -16193746.411816537        1465814076.9720664     
   902487354.53501511       -14496929.839225829        1464989398.8280032     
   870979144.85724330       -8126138.5435087681        1469966528.6736927     
   840873127.59641504        2918627.4753497839        1480745466.5091412     
   640085857.94254625       -29833696.228601038        1537090174.9551888     
   619384486.51668310       -32308816.964564383        1534738318.7479737     
   598927664.60684776       -33968772.647102743        1536938971.3674753     
   578715392.21304083       -34813563.276211947        1543692132.8136907     
   558747669.33526087       -34843188.851898700        1554997803.0866213     
   321714736.30723286       -43074792.726886988        1601037644.0693173     
   311055161.78704071       -46118703.902293891        1601609834.4043152     
   299482493.88196236       -52206259.693988577        1605485234.4029834     
   286996732.59199780       -61337460.101970702        1612663844.0653276     
   273597877.91714686       -73512305.126240134        1623145663.3913434     
   14596986.235440284       -52939877.756110013        1664282970.4482870     
   10409782.440797158       -57623407.225003786        1666428623.9410925     
   4151842.3603541590       -69209390.979897127        1670628187.9345305     
  -4176834.0058859475       -87697829.020780653        1676881662.4286003     
  -14576246.657925401       -113088721.34766234        1685189047.4232993     
   1119974252.7006094        39773143.855513632        1400388653.6588991     
   1050568888.8263962        48133469.967365861        1398264500.3832233     
   975300052.82172585        36948888.977693915        1391600681.5116761     
   894167744.68659806        6219400.8864922523        1380397197.0442526     
   807171964.42101085       -44054994.306235671        1364654046.9809573     
   840873127.59641504        2918627.4753497839        1480745466.5091412     
   763365522.68122101       -3396006.6529504955        1475233897.5897851     
   682386105.22765136       -21283349.242503196        1471416030.4440484     
   597934875.23570275       -50743400.293319255        1469291865.0719240     
   510011832.70537698       -91776159.805394769        1468861401.4734206     
   558747669.33526087       -34843188.851898700        1554997803.0866213     
   490947444.43476897       -50489896.903646737        1548889088.0476842     
   422067066.58798444       -69737114.776374310        1550707442.1518469     
   352106535.79490179       -92584842.470092386        1560452865.3991187     
   281065852.05552185       -119033079.98480198        1578125357.7894914     
   273597877.91714686       -73512305.126240134        1623145663.3913434     
   233314654.08704355       -93148200.784719929        1619230071.7569127     
   194342936.90272319       -108412407.62392560        1629474916.6350777     
   156682726.36418742       -119304925.64384788        1653880198.0258358     
   120334022.47143883       -125825754.84448007        1692445915.9291868     
  -14576246.657925401       -113088721.34766234        1685189047.4232993     
  -9532848.3619630560       -131370918.29619084        1686256848.7174759     
  -786283.82813192904       -137309227.78515670        1707718453.8937349     
   11663446.943564229       -130903649.81457312        1749573862.9520733     
   27816343.953126796       -112154184.38443349        1811823075.8924978     
   807171964.42101085       -44054994.306235671        1364654046.9809573     
   865147738.54066789       -20373561.474752724        1373862279.3383107     
   949073377.12617302        89807419.576220751        1415518868.6991806     
   1058948880.1775132        286487948.84664482        1489623815.0635576     
   1194774247.6946909        569668026.33652997        1596177118.4314675     
   510011832.70537698       -91776159.805394769        1468861401.4734206     
   626959269.37943673       -64119641.093862653        1511661671.2550416     
   752144321.53404617       -9004404.1138308048        1566459073.8719125     
   885566989.16920114        73569551.134687901        1633253609.3240235     
   1027227272.2848980        183602224.65167847        1712045277.6113720     
   281065852.05552185       -119033079.98480198        1578125357.7894914     
   398552882.23176259       -104931096.10890874        1633853374.5125537     
   506565278.90326464       -122411223.91547835        1681127299.9025836     
   605103042.07001698       -171473463.40454555        1719947133.9595783     
   694166171.73202276       -252117814.57609770        1750312876.6835415     
   120334022.47143883       -125825754.84448007        1692445915.9291868     
   179928577.09765038       -142807926.51987791        1740437389.1108444     
   212336249.23382425       -250413039.82873374        1759523546.7911882     
   217557038.87996334       -448641094.77104235        1749704388.9702249     
   195590946.03606701       -737492091.34679818        1710979915.6479607     
   27816343.953126796       -112154184.38443349        1811823075.8924978     
  -28913646.022908267       -177750132.32679772        1831413715.0499079     
  -130542767.47426598       -393009851.85357076        1801647814.5377328     
  -277071020.40095198       -757933342.96477437        1722525374.3559759     
  -468498404.80297303       -1272520605.6604238        1594046394.5046430     
   786961.82720034732        236088.54816010423        656406165.90284646     
   978470.13152238762        77820.775480834360        771085638.78965080     
   1117116.1414400837       -256654.64521326247        885895116.64563572     
   1202899.8569532186       -767337.71392230317        1000834599.4708011     
   1235821.2780617753       -1454228.4306466058        1115904087.2651472     
  -447345324.62181371       -134203597.38654411        657827304.51861322     
  -446455918.06091738       -125361435.92358248        774079390.37387514     
  -444874287.60425675       -114211861.47473955        888661293.94140399     
  -442600433.25183147       -100754874.04001504        1001573015.2212003     
  -439634355.00364196       -84990473.619409084        1112814554.2132635     
  -889478337.74857783       -266843501.32457334        662194986.35370553     
  -893034425.09371686       -250543928.27475354        780888952.39928854     
  -895153202.35292244       -229453321.60515618        896112548.90022540     
  -895834669.52619517       -203571681.31578106        1007865775.8565158     
  -895078826.61353421       -172899007.40662849        1116148633.2681603     
  -1325612077.5530918       -397683623.26592755        669509211.40812302     
  -1338757050.9668756       -375469656.27803254        791514324.86589074     
  -1349719628.1045575       -345981035.03646362        908248881.52209926     
  -1358499808.9661372       -309217759.54122096        1019712881.3767478     
  -1365097593.5516148       -265179829.79230437        1125906324.4298368     
  -1755746544.0353558       -526723963.21060675        679769979.68186605     
  -1783623795.6803946       -500138619.93341947        805955507.77368224     
  -1808573564.8591621       -463795001.76866210        925070291.80702591     
  -1830595851.5716584       -417693108.71633416        1037114331.7818962     
  -1849690655.8178840       -361832940.77643645        1142087627.6982937     
   1235821.2780617753       -1454228.4306466058        1115904087.2651472     
   1870653.4542000000       -1998618.9089206601        1188960880.5598178     
   2533244.8556926399       -2450478.6360133286        1259214945.7429445     
   3223595.4825399043       -2809807.6119237458        1326666282.8145275     
   3941705.3347418285       -3076605.8366523068        1391314891.7745662     
  -439634355.00364196       -84990473.619409084        1112814554.2132635     
  -440278538.76476306       -70492168.741637141        1180887451.9081113     
  -441735616.93156546       -58703511.882802248        1247307828.0652156     
  -444005589.50404894       -49624503.042904735        1312075682.6845772     
  -447088456.48221385       -43255142.221945062        1375191015.7661948     
  -895078826.61353421       -172899007.40662849        1116148633.2681603     
  -893715721.81534159       -142372115.82383806        1178256872.7936437     
  -894006165.05386591       -117357051.03010422        1239862797.3551843     
  -895950156.32910728       -97853813.025426686        1300966406.9527826     
  -899547695.64106560       -83862401.809805810        1361567701.5864379     
  -1365097593.5516148       -265179829.79230437        1125906324.4298368     
  -1358440895.6975353       -217638460.15552384        1181069143.2164142     
  -1354278399.5112081       -178411096.07791841        1236879853.6128488     
  -1352610104.9926338       -147497737.55949020        1293338455.6191423     
  -1353436012.1418118       -124898384.60023534        1350444949.2352931     
  -1849690655.8178840       -361832940.77643645        1142087627.6982937     
  -1834454060.4113436       -296291201.73669326        1189324263.1764231     
  -1822552320.3035924       -241865647.02624547        1238358996.8382103     
  -1813985435.4946291       -198556276.64509314        1289191828.6836572     
  -1808753405.9844551       -166363090.59323478        1341822758.7127621     
   3941705.3347418285       -3076605.8366523068        1391314891.7745662     
   5508860.6054789145       -3563761.1935449005        1413758962.5006008     
   6735023.1842302289       -5187558.8570563886        1439239595.5813498     
   7620193.0709940698       -7947998.8271929519        1467756791.0168111     
   8164370.2657728391       -11845081.103946432        1499310548.8069861     
  -447088456.48221385       -43255142.221945062        1375191015.7661948     
  -435643638.87078315       -34689921.763888836        1396296509.1661341     
  -424811715.25352728       -28167681.286416486        1419874632.2084444     
  -414592685.63044840       -23688420.789533123        1445925384.8931246     
  -404986550.00154555       -21252140.273237005        1474448767.2201757     
  -899547695.64106560       -83862401.809805810        1361567701.5864379     
  -879836452.00991940       -66728176.433095038        1381017399.4743929     
  -861010003.67513871       -52543268.710934311        1402375794.2923760     
  -843068350.63672376       -41307678.643326432        1425642886.0403879     
  -826011492.89467335       -33021406.230267525        1450818674.7184277     
  -1353436012.1418118       -124898384.60023534        1350444949.2352931     
  -1327069578.8119297       -99678525.201163054        1367921633.4253771     
  -1301859842.0806036       -78314321.130609810        1386743081.8331461     
  -1277806801.9478304       -60805772.388567567        1406909294.4586010     
  -1254910458.4136131       -47152878.975044668        1428420271.3017430     
  -1808753405.9844551       -166363090.59323478        1341822758.7127621     
  -1777343019.2768154       -133540968.06809509        1357009211.0190866     
  -1747361230.4699194       -105480838.54543495        1372976494.8307538     
  -1718808039.5637684       -82182702.025258720        1389724610.1477635     
  -1691683446.5583615       -63646558.507560372        1407253556.9701178     
   8164370.2657728391       -11845081.103946432        1499310548.8069861     
   17486630.037737228       -14094224.359377492        1504958688.3261878     
   26500111.676307105       -17372628.059457269        1519683490.6978459     
   35204815.181483015       -21680292.204183772        1543484955.9219599     
   43600740.553261906       -27017216.793566298        1576363083.9985313     
  -404986550.00154555       -21252140.273237005        1474448767.2201757     
  -372997497.38897210       -13292987.676150769        1475523391.1445761     
  -341181486.83561403       -5910641.9431161582        1482601586.1279476     
  -309538518.34147435        894896.92585770786        1495683352.1702888     
  -278068591.90654993        7123628.9307784438        1514768689.2715957     
  -826011492.89467335       -33021406.230267525        1450818674.7184277     
  -780135909.70859671       -17488036.460800081        1447478141.8012362     
  -734297632.50755692       -2079019.9747881293        1447068088.1495280     
  -688496661.29155517        13205643.227762222        1449588513.7633038     
  -642732996.06059241        28365953.146851510        1455039418.6425614     
  -1254910458.4136131       -47152878.975044668        1428420271.3017430     
  -1203928606.9211361       -26679370.713322222        1420822940.2961662     
  -1152848325.3395176       -5877762.1544613838        1413082996.7625887     
  -1101669613.6687603        15251946.701529384        1405200440.7010059     
  -1050392471.9088610        36709755.854658782        1397175272.1114197     
  -1691683446.5583615       -63646558.507560372        1407253556.9701178     
  -1644375589.0265918       -40866990.433722675        1395557786.6293676     
  -1596833565.3314991       -17306868.482143462        1380646311.9671266     
  -1549057375.4730887        7033807.3471601605        1362519132.9833968     
  -1501047019.4513588        32155037.054197252        1341176249.6781745     
   43600740.553261906       -27017216.793566298        1576363083.9985313     
   35356184.162600011       -36809941.404890373        1596423215.9877088     
   27774039.646077354       -44394626.435750633        1617763241.0590587     
   20854307.003687035       -49771271.886169434        1640383159.2125857     
   14596986.235440284       -52939877.756110013        1664282970.4482870     
  -278068591.90654993        7123628.9307784438        1514768689.2715957     
  -279030768.84492964        3566159.4644179791        1521047706.0016816     
  -279857202.92801589        461166.18236716092        1530209754.9640462     
  -280547894.15581274       -2191350.9153848737        1542254836.1586955     
  -281102842.52831638       -4391391.8288271576        1557182949.5856240     
  -642732996.06059241        28365953.146851510        1455039418.6425614     
  -631832395.97495306        32417858.096979022        1446922872.9248979     
  -621322722.05286682        35166675.835260808        1443292498.5896254     
  -611203974.29433668        36612406.361690700        1444148295.6367409     
  -601476152.69936132        36755049.676270872        1449490264.0662460     
  -1050392471.9088610        36709755.854658782        1397175272.1114197     
  -1023048697.2274691        49745154.492792666        1374048716.7573588     
  -996622517.72847605        59721902.522926986        1357011471.9357917     
  -971113933.41188586        66639999.945054531        1346063537.6467214     
  -946522944.27769351        70499446.759188533        1341204913.8901489     
  -1501047019.4513588        32155037.054197252        1341176249.6781745     
  -1452679672.6024790        55548048.651857376        1302425237.4990592     
  -1405756589.9548461        74126846.245362043        1271366675.0025485     
  -1360277771.5084572        87891429.834718525        1248000562.1886382     
  -1316243217.2633178        96841799.419908643        1232326899.0573330     
   14596986.235440284       -52939877.756110013        1664282970.4482870     
   10409782.440797158       -57623407.225003786        1666428623.9410925     
   4151842.3603541590       -69209390.979897127        1670628187.9345305     
  -4176834.0058859475       -87697829.020780653        1676881662.4286003     
  -14576246.657925401       -113088721.34766234        1685189047.4232993     
  -281102842.52831638       -4391391.8288271576        1557182949.5856240     
  -276888560.44709355       -6901564.5134371072        1549662852.7657540     
  -273957867.97321206       -13690369.222515896        1546049983.0149298     
  -272310765.10668141       -24757805.956098773        1546344340.3331513     
  -271947251.84748983       -40103874.714144826        1550545924.7204192     
  -601476152.69936132        36755049.676270872        1449490264.0662460     
  -583565194.54679942        38006790.834593326        1433222754.7252281     
  -566150679.32312906        37603722.229943037        1422715789.0216718     
  -549232607.02834606        35545843.862335563        1417969366.9555783     
  -532810977.66245413        31833155.731756061        1418983488.5269437     
  -946522944.27769351        70499446.759188533        1341204913.8901489     
  -909620119.85832465        77101658.819070518        1317108329.8195133     
  -872426591.68939066        84672883.377500474        1300625605.9547572     
  -834942359.77088845        93213120.434493303        1291756742.2958786     
  -797167424.10282087        102722369.99003625        1290501738.8428710     
  -1316243217.2633178        96841799.419908643        1232326899.0573330     
  -1255053336.3816645        110383039.44000989        1201319578.0486152     
  -1192785605.0719922        127517114.22017258        1179779433.8141875     
  -1129440023.3343019        148244023.76039726        1167706466.3540506     
  -1065016591.1685886        172563768.06069607        1165100675.6682069     
  -14576246.657925401       -113088721.34766234        1685189047.4232993     
  -9532848.3619630560       -131370918.29619084        1686256848.7174759     
  -786283.82813192904       -137309227.78515670        1707718453.8937349     
   11663446.943564229       -130903649.81457312        1749573862.9520733     
   27816343.953126796       -112154184.38443349        1811823075.8924978     
  -271947251.84748983       -40103874.714144826        1550545924.7204192     
  -218710636.35031489       -36872556.571888074        1550004341.1705937     
  -162400020.54540709       -23394570.737189505        1561176001.9494376     
  -103015404.43276991        330082.78994025290        1584060907.0569513     
  -40556788.012399748        34301404.009514354        1618659056.4931316     
  -532810977.66245413        31833155.731756061        1418983488.5269437     
  -456182743.68810713        49137509.347585917        1416098493.2146270     
  -377109675.33616412        74591310.888733968        1416246182.6775665     
  -295591772.60662591        108194560.35520060        1419426556.9157617     
  -211629035.49949080        149947257.74698952        1425639615.9292088     
  -797167424.10282087        102722369.99003625        1290501738.8428710     
  -721949170.37534559        126659279.46221429        1284539304.8495767     
  -644915248.20040584        156648417.09260824        1272928996.0781209     
  -566065657.57800746        192689782.88119820        1255670812.5285058     
  -485400398.50814593        234783376.82799712        1232764754.2007275     
  -1065016591.1685886        172563768.06069607        1165100675.6682069     
  -1016009916.4120196        195692753.77203035        1155326776.0754406     
  -965816739.13812947        222776747.87443876        1131224442.1510971     
  -914437059.34690762        253815750.36795044        1092793673.8951831     
  -861870877.03836465        288809761.25253564        1040034471.3076936     
   27816343.953126796       -112154184.38443349        1811823075.8924978     
  -28913646.022908267       -177750132.32679772        1831413715.0499079     
  -130542767.47426598       -393009851.85357076        1801647814.5377328     
  -277071020.40095198       -757933342.96477437        1722525374.3559759     
  -468498404.80297303       -1272520605.6604238        1594046394.5046430     
  -40556788.012399748        34301404.009514354        1618659056.4931316     
  -186154000.27173612       -24589479.680213831        1577014064.9893267     
  -354899140.07312423       -160640121.84344602        1514818888.8788762     
  -546792207.41656840       -373850522.48019755        1432073528.1617880     
  -761833202.30205977       -664220681.59044361        1328777982.8380482     
  -211629035.49949080        149947257.74698952        1425639615.9292088     
  -363789598.43373138        122452599.79241483        1348135398.3530073     
  -517346884.97675157        90302196.475244701        1278887351.2331057     
  -672300895.12854552        53496047.795490891        1217895474.5694969     
  -828651628.88911998        12034153.753137946        1165159768.3621860     
  -485400398.50814593        234783376.82799712        1232764754.2007275     
  -561820440.50889623        263376106.09108183        1144777715.1409566     
  -617886002.18514585        359817103.10250366        1093853201.6004202     
  -653597083.53689933        524106367.86224639        1079991213.5791192     
  -668953684.56414938        756243900.37033200        1103191751.0770535     
  -861870877.03836465        288809761.25253564        1040034471.3076936     
  -780246526.49721801        398181039.21582830        966941015.35316932     
  -656516491.69830227        647904598.03835058        959716439.98082125     
  -490680772.64161140        1037980437.7201219        1018360745.1906453     
  -282739369.32714975        1568408558.2611349        1142873930.9826531     
  -1755746544.0353558       -526723963.21060675        679769979.68186605     
  -1783623795.6803946       -500138619.93341947        805955507.77368224     
  -1808573564.8591621       -463795001.76866210        925070291.80702591     
  -1830595851.5716584       -417693108.71633416        1037114331.7818962     
  -1849690655.8178840       -361832940.77643645        1142087627.6982937     
  -2201881129.1842866       -660564338.75528598        696089898.06325006     
  -2238293863.8745322       -614012557.33977711        813367545.53153932     
  -2272649106.2991257       -560602468.37209296        926542541.29929864     
  -2304946856.4580665       -500334071.85223305        1035614885.3665282     
  -2335187114.3513536       -433207367.78019732        1140584577.7332275     
  -2686015224.9888000       -805804567.49664009        721581573.44059098     
  -2722483178.8444161       -736742268.77885890        828936351.71796513     
  -2757763630.6349974       -663721629.84429657        935156570.65275252     
  -2791856580.3605452       -586742650.69295335        1040242230.2449528     
  -2824762028.0210581       -505805331.32482910        1144193330.4945660     
  -3208148831.4488969       -962444649.43466902        756245005.81388903     
  -3236191740.5900455       -868327754.25066400        852661926.33295977     
  -3263917137.8667789       -773152486.18527269        950912379.86738682     
  -3291325023.2790961       -676918845.23849547        1050996366.4171699     
  -3318415396.8269963       -579626831.41033053        1152913885.9823093     
  -3768281948.5645761       -1130484584.5693729        800080195.18314385     
  -3779419549.1114211       -1008769013.7551932        884544269.37652338     
  -3791109627.9944687       -888895037.39502192        973809968.94320214     
  -3803352185.2137179       -770862655.48885834        1067877293.8831803     
  -3816147220.7691698       -654671868.03670275        1166746244.1964569     
  -1849690655.8178840       -361832940.77643645        1142087627.6982937     
  -1834454060.4113436       -296291201.73669326        1189324263.1764231     
  -1822552320.3035924       -241865647.02624547        1238358996.8382103     
  -1813985435.4946291       -198556276.64509314        1289191828.6836572     
  -1808753405.9844551       -166363090.59323478        1341822758.7127621     
  -2335187114.3513536       -433207367.78019732        1140584577.7332275     
  -2312729667.8231111       -352435078.36259925        1181637796.5843935     
  -2293756346.0753975       -283276538.21343213        1222932675.7198594     
  -2278267149.1082144       -225731747.33269709        1264469215.1396246     
  -2266262076.9215598       -179800705.72039258        1306247414.8436904     
  -2824762028.0210581       -505805331.32482910        1144193330.4945660     
  -2799530695.7978516       -411136581.15739638        1178888984.9900708     
  -2777932757.8369150       -328579145.19753206        1212269861.8705168     
  -2759968214.1382484       -258133023.44523489        1244335961.1359041     
  -2745637064.7018538       -199798215.90050662        1275087282.7862329     
  -3318415396.8269963       -579626831.41033053        1152913885.9823093     
  -3294857144.3355651       -472395710.12108600        1181077828.3934550     
  -3275081555.5881448       -377773467.97854578        1206370555.2901831     
  -3259088630.5847359       -295760104.98270953        1228792066.6724942     
  -3246878369.3253379       -226355621.13357735        1248342362.5403883     
  -3816147220.7691698       -654671868.03670275        1166746244.1964569     
  -3798709013.4362521       -536212465.25366724        1188204326.7945457     
  -3785202739.3290877       -430859506.55647266        1205234755.9788589     
  -3775628398.4476733       -338612991.94511855        1217837531.7493963     
  -3769985990.7920127       -259472921.41960680        1226012654.1061568     
  -1808753405.9844551       -166363090.59323478        1341822758.7127621     
  -1777343019.2768154       -133540968.06809509        1357009211.0190866     
  -1747361230.4699194       -105480838.54543495        1372976494.8307538     
  -1718808039.5637684       -82182702.025258720        1389724610.1477635     
  -1691683446.5583615       -63646558.507560372        1407253556.9701178     
  -2266262076.9215598       -179800705.72039258        1306247414.8436904     
  -2226313125.5486197       -135098076.12990940        1312415357.7760923     
  -2189217352.1057281       -99906039.639585733        1321628940.3921494     
  -2154974756.5928817       -74224596.249416232        1333888162.6918602     
  -2123585339.0100842       -58053745.959405780        1349193024.6752267     
  -2745637064.7018538       -199798215.90050662        1275087282.7862329     
  -2690678668.1541529       -141273815.09184313        1270574706.3105254     
  -2639998029.5658021       -97008607.481012821        1271372577.6967845     
  -2593595148.9368000       -67002593.068014026        1277480896.9450107     
  -2551470026.2671490       -51255771.852851033        1288899664.0552022     
  -3246878369.3253379       -226355621.13357735        1248342362.5403883     
  -3170439647.0934134       -152068184.95389366        1231487256.6223857     
  -3099703262.8501425       -96788542.069720864        1222207406.7446613     
  -3034669216.5955243       -60516692.481055856        1220502812.9072151     
  -2975337508.3295574       -43252636.187898278        1226373475.1100452     
  -3769985990.7920127       -259472921.41960680        1226012654.1061568     
  -3665596062.3664031       -167481185.71606553        1195153008.7116728     
  -3568333051.9587502       -99245843.405709982        1174133427.5357776     
  -3478196959.5690517       -54766894.488536596        1162953910.5784714     
  -3395187785.1973095       -34044338.964551926        1161614457.8397560     
  -1691683446.5583615       -63646558.507560372        1407253556.9701178     
  -1644375589.0265918       -40866990.433722675        1395557786.6293676     
  -1596833565.3314991       -17306868.482143462        1380646311.9671266     
  -1549057375.4730887        7033807.3471601605        1362519132.9833968     
  -1501047019.4513588        32155037.054197252        1341176249.6781745     
  -2123585339.0100842       -58053745.959405780        1349193024.6752267     
  -2082180585.8216844       -43670543.800220966        1340775145.2792721     
  -2041082379.1949983       -30309163.513417125        1332969743.6132889     
  -2000290719.1300268       -17969605.098994493        1325776819.6772766     
  -1959805605.6267724       -6651868.5569572449        1319196373.4712367     
  -2551470026.2671490       -51255771.852851033        1288899664.0552022     
  -2505030714.4179459       -41987636.707072496        1283128844.0915041     
  -2459438661.8554907       -35543699.183786869        1281798683.9092386     
  -2414693868.5797858       -31923959.283002734        1284909183.5084062     
  -2370796334.5908303       -31128417.004712582        1292460342.8890061     
  -2975337508.3295574       -43252636.187898278        1226373475.1100452     
  -2912925974.8153758       -35818269.154269695        1222618883.0660634     
  -2851902413.3129764       -33010475.493255258        1227133132.8549755     
  -2792266823.8223610       -34829255.204852343        1239916224.4767809     
  -2734019206.3435302       -41274608.289053202        1260968157.9314818     
  -3395187785.1973095       -34044338.964551926        1161614457.8397560     
  -3305866367.0139751       -25162441.141825795        1159245262.2029510     
  -3218473633.5674562       -22709492.441820860        1168973090.4505002     
  -3133009584.8577566       -26685492.864548445        1190797942.5824065     
  -3049474220.8848748       -37090442.409994245        1224719818.5986660     
  -1501047019.4513588        32155037.054197252        1341176249.6781745     
  -1452679672.6024790        55548048.651857376        1302425237.4990592     
  -1405756589.9548461        74126846.245362043        1271366675.0025485     
  -1360277771.5084572        87891429.834718525        1248000562.1886382     
  -1316243217.2633178        96841799.419908643        1232326899.0573330     
  -1959805605.6267724       -6651868.5569572449        1319196373.4712367     
  -1895778600.8124406        9709594.2804940939        1294865793.5856671     
  -1832776153.4569876        22655865.588352561        1276511319.8586602     
  -1770798263.5604124        32186945.366614819        1264132952.2902122     
  -1709844931.1227198        38302833.615272760        1257730690.8803277     
  -2370796334.5908303       -31128417.004712582        1292460342.8890061     
  -2296013510.4511638       -23269654.519489646        1283039853.1630766     
  -2221835537.0280151       -17427061.089316368        1277879126.0716672     
  -2148262414.3213768       -13600636.714185238        1276978161.6147740     
  -2075294142.3312545       -11790381.394101262        1280336959.7924016     
  -2734019206.3435302       -41274608.289053202        1260968157.9314818     
  -2653384401.5186558       -43389697.748108983        1266947416.2312884     
  -2572934740.6679316       -46121933.787658215        1275470093.6415710     
  -2492670223.7913499       -49471316.407685876        1286536190.1623275     
  -2412590850.8889179       -53437845.608214855        1300145705.7935610     
  -3049474220.8848748       -37090442.409994245        1224719818.5986660     
  -2967891274.0149126       -50650535.405355096        1246588482.7903013     
  -2886073764.3767328       -63428752.506658316        1269284222.5683701     
  -2804021691.9703355       -75425093.713897943        1292807037.9328704     
  -2721735056.7957163       -86639559.027072191        1317156928.8838034     
  -1316243217.2633178        96841799.419908643        1232326899.0573330     
  -1255053336.3816645        110383039.44000989        1201319578.0486152     
  -1192785605.0719922        127517114.22017258        1179779433.8141875     
  -1129440023.3343019        148244023.76039726        1167706466.3540506     
  -1065016591.1685886        172563768.06069607        1165100675.6682069     
  -1709844931.1227198        38302833.615272760        1257730690.8803277     
  -1627021539.6847267        50523018.932611585        1236633322.2164869     
  -1543474725.2701068        65154614.172038674        1223014797.5223291     
  -1459204487.8788559        82197619.333569050        1216875116.7978561     
  -1374210827.5109816        101652034.41717732        1218214280.0430663     
  -2075294142.3312545       -11790381.394101262        1280336959.7924016     
  -1976518191.2072287       -2595536.0406169891        1268736044.7801478     
  -1877373244.5579672        7829294.3969843388        1262625640.9329715     
  -1777859302.3834662        19484109.918714166        1262005748.2508702     
  -1677976364.6837332        32368910.524556041        1266876366.7338474     
  -2412590850.8889179       -53437845.608214855        1300145705.7935610     
  -2303543290.9491682       -48972625.479677558        1297627745.7396054     
  -2194481162.9355698       -44458845.104987741        1298611964.0461173     
  -2085404466.8481293       -39896504.484154820        1303098360.7130964     
  -1976313202.6868458       -35285603.617179394        1311086935.7405484     
  -2721735056.7957163       -86639559.027072191        1317156928.8838034     
  -2608096838.9105444       -88608249.384566188        1323308425.0948532     
  -2494798480.4029207       -91709804.333888292        1330973766.8617630     
  -2381839981.2728448       -95944223.875033975        1340152954.1845348     
  -2269221341.5203161       -101311508.00801229        1350845987.0631680     
  -1065016591.1685886        172563768.06069607        1165100675.6682069     
  -1016009916.4120196        195692753.77203035        1155326776.0754406     
  -965816739.13812947        222776747.87443876        1131224442.1510971     
  -914437059.34690762        253815750.36795044        1092793673.8951831     
  -861870877.03836465        288809761.25253564        1040034471.3076936     
  -1374210827.5109816        101652034.41717732        1218214280.0430663     
  -1357265471.4865363        102043398.68383336        1215751069.2953827     
  -1340152478.7775655        102993551.89890707        1208200883.4187174     
  -1322871849.3840709        104502494.06239814        1195563722.4130752     
  -1305423583.3060541        106570225.17428708        1177839586.2784507     
  -1677976364.6837332        32368910.524556041        1266876366.7338474     
  -1666688158.2411344        17943904.091639400        1270535168.0263078     
  -1656251180.9468160        681467.16444718838        1278348453.3923817     
  -1646665432.8007786       -19418400.257014394        1290316222.8320718     
  -1637930913.8030260       -42355698.172752857        1306438476.3453758     
  -1976313202.6868458       -35285603.617179394        1311086935.7405484     
  -1944277976.6758261       -56605730.004598141        1319679072.2682145     
  -1914112845.6458876       -84159506.328957200        1341667152.0720887     
  -1885817809.5970452       -117946932.59029937        1377051175.1521742     
  -1859392868.5292847       -157968008.78858560        1425831141.5084662     
  -2269221341.5203161       -101311508.00801229        1350845987.0631680     
  -2190034926.7906051       -121605503.60485518        1363182782.0211024     
  -2113737472.8747871       -151529368.58133322        1398156979.4578409     
  -2040328979.7728548       -191083102.93743813        1455768579.3733811     
  -1969809447.4848168       -240266706.67318362        1536017581.7677264     
  -861870877.03836465        288809761.25253564        1040034471.3076936     
  -780246526.49721801        398181039.21582830        966941015.35316932     
  -656516491.69830227        647904598.03835058        959716439.98082125     
  -490680772.64161140        1037980437.7201219        1018360745.1906453     
  -282739369.32714975        1568408558.2611349        1142873930.9826531     
  -1305423583.3060541        106570225.17428708        1177839586.2784507     
  -1099729811.9159014        196734106.38498223        1164304737.8766537     
  -873353678.19586611        355839195.36195445        1184771501.1040547     
  -626295182.14595175        583885492.10518372        1239239875.9606485     
  -358554323.76616597        880872996.61466217        1327709862.4464502     
  -1637930913.8030260       -42355698.172752857        1306438476.3453758     
  -1399217061.4295061        1285984.3256830573        1327468359.9137614     
  -1161244168.6540074        42457801.497388184        1350632586.1583660     
  -924012235.47652173        81159753.342373371        1375931155.0791879     
  -687521261.89705789        117391839.86062661        1403364066.6762407     
  -1859392868.5292847       -157968008.78858560        1425831141.5084662     
  -1678708275.0380468       -188163326.96210521        1456431881.4644849     
  -1520187963.0727255       -292239583.55533946        1457299695.1437488     
  -1383831932.6333201       -470196778.56830049        1428434582.5462530     
  -1269640183.7198296       -722034912.00097275        1369836543.6720037     
  -1969809447.4848168       -240266706.67318362        1536017581.7677264     
  -1938203452.7415168       -371613827.47837222        1551195302.5288363     
  -1950185061.4520278       -648252959.79625809        1504772828.0602098     
  -2005754273.6163492       -1070184103.6268425        1396750158.3618510     
  -2104911089.2344813       -1637407258.9701362        1227127293.4337616     
  -3768281948.5645761       -1130484584.5693729        800080195.18314385     
  -3779419549.1114211       -1008769013.7551932        884544269.37652338     
  -3791109627.9944687       -888895037.39502192        973809968.94320214     
  -3803352185.2137179       -770862655.48885834        1067877293.8831803     
  -3816147220.7691698       -654671868.03670275        1166746244.1964569     
  -4339515191.5462170       -1301854557.4638653        858263155.04996264     
  -4335477566.6050854       -1125686417.8836470        942032947.04210019     
  -4332560664.3594103       -953254020.62160921        1020108386.6287576     
  -4330764484.8091869       -784557365.67775214        1092489473.8099351     
  -4330089027.9544182       -619596453.05207562        1159176208.5856321     
  -4894949175.6042013       -1468484752.6812603        935969898.91595221     
  -4905724833.1144629       -1246860596.7168140        1018382456.9543874     
  -4918189457.6794300       -1030866330.9347208        1084604684.8085632     
  -4932343049.2991028       -820501955.33498025        1134636582.4784794     
  -4948185607.9734831       -615767469.91759336        1168478149.9641366     
  -5434583900.7385244       -1630375170.2215574        1033200426.7811128     
  -5490161348.6395483       -1372291550.2546940        1113592799.1133852     
  -5547996007.9545307       -1121731968.3343563        1167298863.4826190     
  -5608087878.6834698       -878696424.46054339        1194318619.8888142     
  -5670436960.8263664       -643184918.63325596        1194652068.3319705     
  -5958419366.9491911       -1787525810.0847571        1149954738.6454444     
  -6088787113.1803465       -1501979278.4972873        1227663973.5190933     
  -6221980315.1847105       -1225850932.8205156        1268190922.6509249     
  -6357998972.9622850       -959140773.05444133        1271535586.0409381     
  -6496843086.5130692       -701848799.19906569        1237697963.6891339     
  -3816147220.7691698       -654671868.03670275        1166746244.1964569     
  -3798709013.4362521       -536212465.25366724        1188204326.7945457     
  -3785202739.3290877       -430859506.55647266        1205234755.9788589     
  -3775628398.4476733       -338612991.94511855        1217837531.7493963     
  -3769985990.7920127       -259472921.41960680        1226012654.1061568     
  -4330089027.9544182       -619596453.05207562        1159176208.5856321     
  -4298844324.9315920       -463300726.72079098        1141052377.6350214     
  -4278238872.9351625       -342469170.47749865        1129245122.1177516     
  -4268272671.9651322       -257101784.32219887        1123754442.0338216     
  -4268945722.0215001       -207198568.25489497        1124580337.3832326     
  -4948185607.9734831       -615767469.91759336        1168478149.9641366     
  -4872436612.5547018       -412426081.02624440        1102947201.3640735     
  -4814034185.9629650       -266906588.22504139        1054477057.0444671     
  -4772978328.1982698       -179208991.51398396        1023067717.0053170     
  -4749269039.2606182       -149333290.89307237        1008719181.2466240     
  -5670436960.8263664       -643184918.63325596        1194652068.3319705     
  -5519485876.3055840       -383588528.17003059        1073888797.9817016     
  -5392588678.4124908       -204171759.79910278        980930560.75900543     
  -5289745367.1470890       -104934613.52047372        915777356.66388202     
  -5210955942.5093718       -85877089.334140778        878429185.69633198     
  -6496843086.5130692       -701848799.19906569        1237697963.6891339     
  -6239992116.1842394       -376788068.15214777        1053877167.4879054     
  -6013902350.2837439       -154264685.19968104        908605633.26136684     
  -5818573788.8115826       -34278650.341663599        801883361.00951540     
  -5654006431.7677574       -16829963.578098774        733710350.73235476     
  -3769985990.7920127       -259472921.41960680        1226012654.1061568     
  -3665596062.3664031       -167481185.71606553        1195153008.7116728     
  -3568333051.9587502       -99245843.405709982        1174133427.5357776     
  -3478196959.5690517       -54766894.488536596        1162953910.5784714     
  -3395187785.1973095       -34044338.964551926        1161614457.8397560     
  -4268945722.0215001       -207198568.25489497        1124580337.3832326     
  -4149785288.7035303       -143837454.29091215        1092785904.4724565     
  -4034815591.4683657       -94445460.602946758        1069120400.7386520     
  -3924036630.3160062       -59022587.190996885        1053583826.1818179     
  -3817448405.2464490       -37568834.055063725        1046176180.8019539     
  -4749269039.2606182       -149333290.89307237        1008719181.2466240     
  -4620227058.3120575       -116069485.84717965        979415506.41056645     
  -4492439631.5111494       -86987527.960135698        956529625.70986009     
  -4365906758.8578959       -62087417.231938601        940061539.14450693     
  -4240628440.3522973       -41369153.662590027        930011246.71450579     
  -5210955942.5093718       -85877089.334140778        878429185.69633198     
  -5076921371.1919842       -84177280.384867430        855041814.52600038     
  -4941205172.0871029       -76872045.477276564        836361102.44940245     
  -4803807345.1947231       -63961384.611359358        822387049.46653855     
  -4664727890.5148430       -45445297.787124157        813119655.57740664     
  -5654006431.7677574       -16829963.578098774        733710350.73235476     
  -5519868227.3433132       -48160837.903974533        719664828.81875873     
  -5381112213.1962214       -64099013.154362917        708614830.95727873     
  -5237738389.3264828       -64644489.329262018        700560357.14791203     
  -5089746755.7340984       -49797266.428673983        695501407.39066017     
  -3395187785.1973095       -34044338.964551926        1161614457.8397560     
  -3305866367.0139751       -25162441.141825795        1159245262.2029510     
  -3218473633.5674562       -22709492.441820860        1168973090.4505002     
  -3133009584.8577566       -26685492.864548445        1190797942.5824065     
  -3049474220.8848748       -37090442.409994245        1224719818.5986660     
  -3817448405.2464490       -37568834.055063725        1046176180.8019539     
  -3698087774.3809977       -21254075.427352190        1039953326.0372503     
  -3580451165.3977852       -10686056.407111406        1043025258.4963608     
  -3464538578.2968168       -5864776.9943461418        1055391978.1792895     
  -3350350013.0780897       -6790237.1890563965        1077053485.0860333     
  -4240628440.3522973       -41369153.662590027        930011246.71450579     
  -4099234987.2634053       -20023451.367491245        920173506.15223730     
  -3959360893.2021799       -3742279.1646182537        916828316.15324652     
  -3821006158.1686220        7474362.9460306168        919975676.71753323     
  -3684170782.1627364        13626474.964452267        929615587.84509885     
  -4664727890.5148430       -45445297.787124157        813119655.57740664     
  -4509308005.6611996       -21470568.962251186        799905802.54791391     
  -4355202816.9806423       -1878160.7143456936        790382263.42115796     
  -4202412324.4731803        13331926.956578970        784549038.19714475     
  -4050936528.1388125        24159694.050531387        782406126.87586892     
  -5089746755.7340984       -49797266.428673983        695501407.39066017     
  -4928306829.5743771       -25595428.211620092        679150215.22427845     
  -4767976936.7331743       -5093701.0562996864        663687100.30009711     
  -4608757077.2104845        11707915.037309647        649112062.61811662     
  -4450647251.0063190        24809420.069180489        635425102.17833662     
  -3049474220.8848748       -37090442.409994245        1224719818.5986660     
  -2967891274.0149126       -50650535.405355096        1246588482.7903013     
  -2886073764.3767328       -63428752.506658316        1269284222.5683701     
  -2804021691.9703355       -75425093.713897943        1292807037.9328704     
  -2721735056.7957163       -86639559.027072191        1317156928.8838034     
  -3350350013.0780897       -6790237.1890563965        1077053485.0860333     
  -3264446898.9906950       -18730541.610292792        1088208770.9374127     
  -3178487373.2763109       -30482807.274899483        1101486389.3909733     
  -3092471435.9349313       -42047034.182852268        1116886340.4467134     
  -3006399086.9665632       -53423222.334176660        1134408624.1046309     
  -3684170782.1627364        13626474.964452267        929615587.84509885     
  -3590246766.5272026        4416179.4165499210        929849652.35812688     
  -3496444490.4059067       -5199914.5121378899        933501306.48908210     
  -3402763953.7988429       -15221806.821605206        940570550.23796284     
  -3309205156.7060194       -25649497.511862278        951057383.60476816     
  -4050936528.1388125        24159694.050531387        782406126.87586892     
  -3945290876.6244349        18789627.675178051        771511127.05244458     
  -3839945115.7655249        12419925.781613827        765328973.86269617     
  -3734899245.5620737        5050588.3698496819        763859667.30661821     
  -3630153266.0140867       -3318384.5601286888        767103207.38421321     
  -4450647251.0063190        24809420.069180489        635425102.17833662     
  -4329579229.2823954        24389803.165590763        613193195.02036476     
  -4208989249.3551631        22376713.606358767        596969391.51181436     
  -4088877311.2246199        18770151.391504765        586753691.65268195     
  -3969243414.8907657        13570116.521014929        582546095.44296765     
  -2721735056.7957163       -86639559.027072191        1317156928.8838034     
  -2608096838.9105444       -88608249.384566188        1323308425.0948532     
  -2494798480.4029207       -91709804.333888292        1330973766.8617630     
  -2381839981.2728448       -95944223.875033975        1340152954.1845348     
  -2269221341.5203161       -101311508.00801229        1350845987.0631680     
  -3006399086.9665632       -53423222.334176660        1134408624.1046309     
  -2887002349.8984857       -55406122.136210561        1134449538.9539127     
  -2768060284.7303457       -58904594.938029885        1137409517.4906139     
  -2649572891.4621372       -63918640.739623308        1143288559.7147360     
  -2531540170.0938616       -70448259.540992141        1152086665.6262760     
  -3309205156.7060194       -25649497.511862278        951057383.60476816     
  -3180034991.5077348       -26442134.074252605        944853769.14950132     
  -3051434310.7317677       -29133052.044366598        942974436.51321065     
  -2923403114.3781204       -33722251.422213078        945419385.69590068     
  -2795941402.4467940       -40209732.207789898        952188616.69756198     
  -3630153266.0140867       -3318384.5601286888        767103207.38421321     
  -3487194763.7382860       -1716285.1986825466        754521115.68161511     
  -3344920558.4071860       -2395175.6529095173        747668523.92955267     
  -3203330650.0207911       -5355055.9228138924        746545432.12802243     
  -3062425038.5790987       -10595926.008398294        751151840.27702737     
  -3969243414.8907657        13570116.521014929        582546095.44296765     
  -3808481666.5901389        18771424.490496874        563451578.55025566     
  -3648519027.7565989        21309034.236357927        551491779.73963451     
  -3489355498.3901515        21182945.758584499        546666699.01110816     
  -3330991078.4907913        18393159.057180166        548976336.36467254     
  -2269221341.5203161       -101311508.00801229        1350845987.0631680     
  -2190034926.7906051       -121605503.60485518        1363182782.0211024     
  -2113737472.8747871       -151529368.58133322        1398156979.4578409     
  -2040328979.7728548       -191083102.93743813        1455768579.3733811     
  -1969809447.4848168       -240266706.67318362        1536017581.7677264     
  -2531540170.0938616       -70448259.540992141        1152086665.6262760     
  -2399673801.2598801       -75528791.454871058        1157104487.0881341     
  -2269133644.4944615       -85030030.263966203        1176497148.3784082     
  -2139919699.7976091       -98951975.968279123        1210264649.4970958     
  -2012031967.1693127       -117294628.56778628        1258406990.4441993     
  -2795941402.4467940       -40209732.207789898        952188616.69756198     
  -2635002401.3667917       -37158996.996189713        951710671.53289330     
  -2473826863.6100292       -33319806.195377111        957345003.54625034     
  -2312414789.1765041       -28692159.805355191        969091612.73763025     
  -2150766178.0662122       -23276057.826114893        986950499.10704005     
  -3062425038.5790987       -10595926.008398294        751151840.27702737     
  -2896020727.1113377       -6496120.2287927866        747001335.35537684     
  -2727817130.2214851        3601303.6244437695        740700544.96136749     
  -2557814247.9095387        19696345.551329851        732249469.09498906     
  -2386012080.1755056        41789005.551840782        721648107.75625420     
  -3330991078.4907913        18393159.057180166        548976336.36467254     
  -3182728778.4935164        16459838.847317696        542976478.55559230     
  -3031104444.3288283        25733299.195511699        526563772.62376004     
  -2876118075.9967232        46213540.101759911        499738218.56917256     
  -2717769673.4971948        77900561.566080928        462499816.39183575     
  -1969809447.4848168       -240266706.67318362        1536017581.7677264     
  -1938203452.7415168       -371613827.47837222        1551195302.5288363     
  -1950185061.4520278       -648252959.79625809        1504772828.0602098     
  -2005754273.6163492       -1070184103.6268425        1396750158.3618510     
  -2104911089.2344813       -1637407258.9701362        1227127293.4337616     
  -2012031967.1693127       -117294628.56778628        1258406990.4441993     
  -2101308663.9858410       -241491278.43337297        1213779297.2509768     
  -2216097391.6564140       -450728031.14578986        1136115004.7938664     
  -2356398150.1810303       -745004886.70501626        1025414113.0728716     
  -2522210939.5596972       -1124321845.1110606        881676622.08799350     
  -2150766178.0662122       -23276057.826114893        986950499.10704005     
  -2279315292.2544241       -115839154.49566138        903605559.99254382     
  -2415300864.6969199       -233190445.34615445        815787617.58001208     
  -2558722895.3936887       -375329930.37757808        723496671.86944139     
  -2709581384.3447509       -542257609.58993697        626732722.86083865     
  -2386012080.1755056        41789005.551840782        721648107.75625420     
  -2472223337.5472693        5342544.3347598314        620674090.75354409     
  -2547795480.5735445        4359797.6026438475        543790666.41864872     
  -2612728509.2543316        38840765.355465651        490997834.75156307     
  -2667022423.5896473        108785447.59323430        462295595.75229585     
  -2717769673.4971948        77900561.566080928        462499816.39183575     
  -2680032799.8643656        122053818.05793238        364984889.53397495     
  -2613581239.2862883        261922697.70060384        320124151.30977499     
  -2518414991.7629590        497507200.49411333        327917601.71923178     
  -2394534057.2943797        828807326.43845451        388365240.76235271     
  -5958419366.9491911       -1787525810.0847571        1149954738.6454444     
  -6088787113.1803465       -1501979278.4972873        1227663973.5190933     
  -6221980315.1847105       -1225850932.8205156        1268190922.6509249     
  -6357998972.9622850       -959140773.05444133        1271535586.0409381     
  -6496843086.5130692       -701848799.19906569        1237697963.6891339     
  -6811410544.9558144       -2043423163.4867442        1353800050.3248408     
  -6829044362.3227463       -1395578327.8001938        1202691544.8502743     
  -6898053021.3094873       -918982964.17968059        1091876430.9902174     
  -7018436521.9160414       -613637072.62520361        1021354708.7446706     
  -7190194864.1424074       -479540653.13676524        991126378.11363375     
  -8338512405.4780092       -2501553721.6434031        1712303577.6351957     
  -8022053215.8197832       -1425002858.4094915        1275736381.6580451     
  -7805518253.6279688       -681532753.39695597        956938254.65173149     
  -7688907518.9025660       -271143406.60579681        755909196.61625588     
  -7672221011.6435785       -193834818.03601456        672649207.55161691     
  -10539724948.515779       -3161917484.5547338        2225465320.5765095     
  -9667813673.6714573       -1590252870.3251803        1446798483.9424059     
  -8944376012.1401482       -513500300.47234201        863376393.63546753     
  -8369411963.9218550        68340225.003780842        475199049.65569401     
  -7942921529.0165749        155268706.10318756        282266452.00308436     
  -13415048174.069122       -4024514452.2207365        2893285279.1487818     
  -11766325735.877769       -1891328363.5472608        1715877851.7033567     
  -10314626296.846031       -414885605.40583897        811190847.94142401     
  -9059949856.9739113        404813822.20352840        179224267.86298355     
  -8002296416.2614059        567769919.28084230       -180021888.53196421     
  -6496843086.5130692       -701848799.19906569        1237697963.6891339     
  -6239992116.1842394       -376788068.15214777        1053877167.4879054     
  -6013902350.2837439       -154264685.19968104        908605633.26136684     
  -5818573788.8115826       -34278650.341663599        801883361.00951540     
  -5654006431.7677574       -16829963.578098774        733710350.73235476     
  -7190194864.1424074       -479540653.13676524        991126378.11363375     
  -6900978861.4087782       -304491134.39557934        847063832.12424409     
  -6624567712.1555052       -172124460.58891320        723966175.00364172     
  -6360961416.3825884       -82440631.716764212        621833406.75182617     
  -6110159974.0900269       -35439647.779134512        540665527.36879766     
  -7672221011.6435785       -193834818.03601456        672649207.55161691     
  -7400881042.5220137       -183868831.40562201        589293987.88004339     
  -7124389575.9328241       -156731186.54981327        509319283.97135377     
  -6842746611.8760128       -112421883.46859026        432725095.82554907     
  -6555952150.3515730       -50940922.161953688        359511423.44262934     
  -7942921529.0165749        155268706.10318756        282266452.00308436     
  -7739698659.5239391       -14921159.182268143        280567634.75530249     
  -7513367941.6156988       -108084863.08237839        264664960.16450122     
  -7263929375.2918549       -124222405.59714270        234558428.23068681     
  -6991382960.5524063       -63333786.726555824        190248038.95385051     
  -8002296416.2614059        567769919.28084230       -180021888.53196421     
  -7917431712.4145622        202351882.27447271       -79115227.249978453     
  -7791502809.2041311       -26185490.186611176       -9996796.4169121888     
  -7624509706.6301193       -117842198.10241842        27333403.967234526     
  -7416452404.6925220       -72618241.472949028        32875373.902462997     
  -5654006431.7677574       -16829963.578098774        733710350.73235476     
  -5519868227.3433132       -48160837.903974533        719664828.81875873     
  -5381112213.1962214       -64099013.154362917        708614830.95727873     
  -5237738389.3264828       -64644489.329262018        700560357.14791203     
  -5089746755.7340984       -49797266.428673983        695501407.39066017     
  -6110159974.0900269       -35439647.779134512        540665527.36879766     
  -5959541895.6747732       -36932823.229744911        533217800.53500330     
  -5808276645.2462339       -36268758.636062622        528565752.97849739     
  -5656364222.8044062       -33447453.998081446        526709384.69928384     
  -5503804628.3492851       -28468909.315799952        527648695.69735849     
  -6555952150.3515730       -50940922.161953688        359511423.44262934     
  -6389425183.0164461       -22767694.258581638        354029081.02771819     
  -6226221681.3773861       -5672685.3421010971        351142573.11527354     
  -6066341645.4343977        344104.58747982979        350851899.70529461     
  -5909785075.1874733       -4717324.4698238373        353157060.79777867     
  -6991382960.5524063       -63333786.726555824        190248038.95385051     
  -6809518089.3683319       -5665450.9904837608        182098670.29690829     
  -6634947321.5896788        27689206.727512360        176345291.36760613     
  -6467670657.2164545        36730186.427427769        172987902.16594362     
  -6307688096.2486496        21457488.109255552        172026502.69192305     
  -7416452404.6925220       -72618241.472949028        32875373.902462997     
  -7219820614.7304230        14373906.574557781        17426568.342572875     
  -7034453565.8831091        63816917.572791576        4173907.7354920586     
  -6860351258.1505766        75710791.521745205       -6882607.9187651286     
  -6697513691.5328255        50055528.421433449       -15742978.620212857     
  -5089746755.7340984       -49797266.428673983        695501407.39066017     
  -4928306829.5743771       -25595428.211620092        679150215.22427845     
  -4767976936.7331743       -5093701.0562996864        663687100.30009711     
  -4608757077.2104845        11707915.037309647        649112062.61811662     
  -4450647251.0063190        24809420.069180489        635425102.17833662     
  -5503804628.3492851       -28468909.315799952        527648695.69735849     
  -5343011737.1665840       -19881521.783327579        514202317.35189456     
  -5182115125.3607340       -10948398.840363503        502973477.32450563     
  -5021114792.9317436       -1669540.4869303703        493962175.61518663     
  -4860010739.8796139        7955053.2769715786        487168412.22394282     
  -5909785075.1874733       -4717324.4698238373        353157060.79777867     
  -5745840758.7650070       -10604849.556885242        344031542.53850383     
  -5580578967.7777395       -12100792.761271477        338453023.67317885     
  -5413999702.2256660       -9205154.0829753876        336421504.20179421     
  -5246102962.1087933       -1917933.5220019817        337936984.12435663     
  -6307688096.2486496        21457488.109255552        172026502.69192305     
  -6136793894.3696499        2234588.4676845074        168637890.78411120     
  -5963368463.9841843       -8550882.8190071583        170125739.34611666     
  -5787411805.0922537       -10898925.750812531        176490048.37793797     
  -5608923917.6938581       -4809540.3277411461        187730817.87957445     
  -6697513691.5328255        50055528.421433449       -15742978.620212857     
  -6515871143.9805107        18636792.290381432       -11978637.911292901     
  -6330483613.9800692       -298669.01357388496       -2008375.6566838892     
  -6141351101.5315046       -6750855.4904527664        14167808.143611617     
  -5948473606.6348114       -719767.14024710655        36549913.489598744     
  -4450647251.0063190        24809420.069180489        635425102.17833662     
  -4329579229.2823954        24389803.165590763        613193195.02036476     
  -4208989249.3551631        22376713.606358767        596969391.51181436     
  -4088877311.2246199        18770151.391504765        586753691.65268195     
  -3969243414.8907657        13570116.521014929        582546095.44296765     
  -4860010739.8796139        7955053.2769715786        487168412.22394282     
  -4723615412.4220772        9210404.9805507660        472067902.85715926     
  -4587954546.9384212        8017550.1045358181        462362993.80361557     
  -4453028143.4286461        4376488.6489174366        458053685.06331563     
  -4318836201.8927479       -1712779.3862979412        459139976.63625807     
  -5246102962.1087933       -1917933.5220019817        337936984.12435663     
  -5096130338.4495773        487383.92917370796        329668715.67536759     
  -4947148596.9414358       -410239.12321639061        326183544.20344710     
  -4799157737.5843658       -4610802.6791777611        327481469.70859075     
  -4652157760.3783569       -12114306.738691568        333562492.19079459     
  -5608923917.6938581       -4809540.3277411461        187730817.87957445     
  -5447124007.3649006       -1779259.9885478020        185995633.47499475     
  -5286571399.3642063       -2906654.0768971443        188431042.71130434     
  -5127266093.6917715       -8191722.5927791595        195037045.58850044     
  -4969208090.3475952       -17634465.536187649        205813642.10658610     
  -5948473606.6348114       -719767.14024710655        36549913.489598744     
  -5776596419.1680479        2410473.2273819447        41048656.256040476     
  -5606222954.2067318        528305.24350166321        49105489.327192158     
  -5437353211.7508764       -6366271.0918982029        60720412.703056350     
  -5269987191.8004551       -18273255.778756857        75893426.383633062     
  -3969243414.8907657        13570116.521014929        582546095.44296765     
  -3808481666.5901389        18771424.490496874        563451578.55025566     
  -3648519027.7565989        21309034.236357927        551491779.73963451     
  -3489355498.3901515        21182945.758584499        546666699.01110816     
  -3330991078.4907913        18393159.057180166        548976336.36467254     
  -4318836201.8927479       -1712779.3862979412        459139976.63625807     
  -4141730481.9040303        3823736.5501277447        444335291.27132815     
  -3964713387.5661736        9064833.6503472328        434890818.05354452     
  -3787784918.8791909        14010511.914314032        430806556.98291039     
  -3610945075.8430700        18660771.342075348        432082508.05942154     
  -4652157760.3783569       -12114306.738691568        333562492.19079459     
  -4463778085.6585302       -7763587.9224109650        323876536.13924134     
  -4274776552.7733507       -1340008.5549583435        317776286.29988736     
  -4085153161.7228165        7156431.3636846542        315261742.67273182     
  -3894907912.5069323        17725731.833487272        316332905.25778234     
  -4969208090.3475952       -17634465.536187649        205813642.10658610     
  -4774624477.8536453       -15990548.927137375        202075313.15399551     
  -4578708523.3781204       -9905492.3795242310        200148184.47866288     
  -4381460226.9210253        620704.10667181015        200032256.08057761     
  -4182879588.4823551        15588040.531445026        201727527.95975855     
  -5269987191.8004551       -18273255.778756857        75893426.383633062     
  -5074269658.4893761       -20857146.464061975        78931622.315599516     
  -4876509299.3804998       -16631617.823386908        82006512.589871034     
  -4676706114.4738293       -5596669.8567259312        85118097.206456453     
  -4474860103.7693653        12247697.435913563        88266376.165343404     
  -3330991078.4907913        18393159.057180166        548976336.36467254     
  -3182728778.4935164        16459838.847317696        542976478.55559230     
  -3031104444.3288283        25733299.195511699        526563772.62376004     
  -2876118075.9967232        46213540.101759911        499738218.56917256     
  -2717769673.4971948        77900561.566080928        462499816.39183575     
  -3610945075.8430700        18660771.342075348        432082508.05942154     
  -3483518082.7748766        10455644.937624454        430572483.38784194     
  -3354704572.3031673        6872243.2115514278        424895487.55385703     
  -3224504544.4279456        7910566.1638569832        415051520.55746937     
  -3092917999.1492095        13570613.794541478        401040582.39868093     
  -3894907912.5069323        17725731.833487272        316332905.25778234     
  -3770470863.6239505        8602408.0576188564        317007944.16581446     
  -3646622814.1013670       -2484246.9195573330        319761888.87178957     
  -3523363763.9391785       -15534233.098049164        324594739.37571818     
  -3400693713.1373734       -30547550.477831125        331506495.67758244     
  -4182879588.4823551        15588040.531445026        201727527.95975855     
  -4043587121.0407543        10900128.207275391        202282860.88951373     
  -3906859169.7234359       -2336171.1978318691        211162976.57756096     
  -3772695734.5304189       -24120857.683944225        228367875.02390927     
  -3641096815.4616971       -54453931.251044273        253897556.22854170     
  -4474860103.7693653        12247697.435913563        88266376.165343404     
  -4302866855.0252609        17348805.386660576        86397233.558932051     
  -4135413639.1693711        7316470.3767254353        99098750.671164364     
  -3972500456.2016807       -17849307.593877554        126370927.50203922     
  -3814127306.1221743       -58148528.525116444        168213764.05156898     
  -2717769673.4971948        77900561.566080928        462499816.39183575     
  -2680032799.8643656        122053818.05793238        364984889.53397495     
  -2613581239.2862883        261922697.70060384        320124151.30977499     
  -2518414991.7629590        497507200.49411333        327917601.71923178     
  -2394534057.2943797        828807326.43845451        388365240.76235271     
  -3092917999.1492095        13570613.794541478        401040582.39868093     
  -2945158057.0486736        53475589.055760026        344505029.15328902     
  -2779404692.6259551        153358638.72425568        320928789.45646453     
  -2595657905.8810463        313219762.80006027        330311863.30820388     
  -2393917696.8139424        533058961.28316319        372654250.70851511     
  -3400693713.1373734       -30547550.477831125        331506495.67758244     
  -3199181774.2408342       -11772177.948758245        303442173.98442745     
  -2990397677.6451716        31243720.244062066        288642290.75474387     
  -2774341423.3503847        98500144.100631833        287106845.98852599     
  -2551013011.3564649        189997093.62098408        298835839.68579257     
  -3641096815.4616971       -54453931.251044273        253897556.22854170     
  -3442103951.4408593       -73689482.955660343        241796324.02738670     
  -3246560194.3439493       -104422057.74002588        223264655.20460850     
  -3054465544.1709681       -146651655.60418010        198302549.76020008     
  -2865820000.9219251       -200378276.54808974        166910007.69417834     
  -3814127306.1221743       -58148528.525116444        168213764.05156898     
  -3673924588.6487255       -132276325.96488881        159567479.28216800     
  -3547892242.7222624       -253638695.22794485        124795882.80606413     
  -3436030268.3428135       -422235636.31436110        63898974.623220056     
  -3338338665.5103235       -638067149.22401834       -23123245.266322743     
 </DataArray>
 <DataArray  type="Float64" Name="VM" NumberOfComponents="1" format="ascii">
   12935155528.589800     
   11340437542.294930     
   10210036560.969364     
   9272703094.0989189     
   8304049523.7514296     
   10130102411.226776     
   9321812742.0213833     
   8826134634.3790874     
   8443287604.7216387     
   8035480155.7956629     
   7982267911.5611115     
   7734791320.3965578     
   7668874187.6880817     
   7669226458.5633793     
   7665918716.1054535     
   6491565612.1842213     
   6586658038.5121880     
   6757088459.9888802     
   6960769400.4122858     
   7171038678.5193520     
   5657549516.4912767     
   5890570255.5434446     
   6115970727.2933626     
   6331280250.7073879     
   6536263142.2951984     
   8304049523.7514296     
   8020871533.1627655     
   7779735536.8517456     
   7569984545.8263140     
   7386651777.4507484     
   8035480155.7956629     
   7746815059.1085510     
   7473801747.7709684     
   7214485975.9031181     
   6968871947.1120434     
   7665918716.1054535     
   7380858326.6275873     
   7101188316.4418612     
   6826987526.1590471     
   6558460021.6804152     
   7171038678.5193520     
   6910452689.9822016     
   6657761293.5081758     
   6409116720.3367023     
   6161379299.3379002     
   6536263142.2951984     
   6327962852.7963943     
   6141828892.6668596     
   5963983146.6369267     
   5785419532.7422791     
   7386651777.4507484     
   7229096622.0430374     
   7064106455.0736513     
   6890998522.3055916     
   6709584384.8956099     
   6968871947.1120434     
   6815037639.8352394     
   6656631226.9853621     
   6493371952.5312834     
   6325205196.9769087     
   6558460021.6804152     
   6407768314.0977201     
   6255464722.6474485     
   6101516767.2761421     
   5945951883.8030291     
   6161379299.3379002     
   6012269273.0089560     
   5864502616.4919825     
   5718118397.4296808     
   5573173868.8776989     
   5785419532.7422791     
   5634983895.9049959     
   5488767519.5761652     
   5346687371.2382641     
   5208791351.3393679     
   6709584384.8956099     
   6516542406.3197975     
   6326935183.2347469     
   6140660152.3988771     
   5957708285.3054600     
   6325205196.9769087     
   6141564237.3010817     
   5960167493.6344013     
   5780994555.5702877     
   5604073336.8893242     
   5945951883.8030291     
   5773535111.5186453     
   5602468921.7446890     
   5432776510.8547688     
   5264513756.8165407     
   5573173868.8776989     
   5414306505.3052454     
   5256226297.9819632     
   5098969631.6075344     
   4942628165.8954830     
   5208791351.3393679     
   5066332060.0363884     
   4924480421.2897053     
   4783264980.6667728     
   4642840602.2375097     
   5957708285.3054600     
   5784896029.8074560     
   5610757967.3784161     
   5435269872.5361004     
   5258445306.4592934     
   5604073336.8893242     
   5439379449.7219896     
   5274195498.3646603     
   5108547138.7269115     
   4942496421.1348877     
   5264513756.8165407     
   5108853162.9517136     
   4953652651.8664904     
   4798989395.6720333     
   4644980427.2264681     
   4942628165.8954830     
   4796766014.6660204     
   4652424666.7960663     
   4509728625.8297033     
   4368850093.5958853     
   4642840602.2375097     
   4507322527.5334682     
   4374486322.5137768     
   4244491817.5654821     
   4117558069.3769727     
   5258445306.4592934     
   5059320078.6439352     
   4860981660.7242727     
   4663418561.4359188     
   4466659245.9322157     
   4942496421.1348877     
   4754332584.8761683     
   4567107354.7919474     
   4380854148.5150051     
   4195652196.1066408     
   4644980427.2264681     
   4468303563.3723574     
   4292812004.2817659     
   4118597194.7359281     
   3945805997.1233406     
   4368850093.5958853     
   4204423807.8119311     
   4041548281.9007945     
   3880387469.8688884     
   3721173944.8381443     
   4117558069.3769727     
   3966403543.0072160     
   3817304444.4818187     
   3670510402.5126209     
   3526355211.7404704     
   4466659245.9322157     
   4306599075.2272387     
   4145797633.5818071     
   3984288739.3851871     
   3822181866.7157164     
   4195652196.1066408     
   4047807229.7499843     
   3900112291.1216507     
   3752669127.2214055     
   3605653330.8555732     
   3945805997.1233406     
   3809887161.9296045     
   3675017073.7601738     
   3541353353.4570079     
   3409123812.8895411     
   3721173944.8381443     
   3596789616.3163681     
   3474321420.3120909     
   3353965955.4090786     
   3235984341.8917017     
   3526355211.7404704     
   3412967012.0475106     
   3302282767.4373441     
   3194517009.5943723     
   3089941773.1868505     
   3822181866.7157164     
   3613877035.1982307     
   3408968878.2812619     
   3207716271.7369494     
   3010687585.4457769     
   3605653330.8555732     
   3405774506.1303072     
   3208060284.6988816     
   3012620097.9055991     
   2819685990.7169261     
   3409123812.8895411     
   3219016704.0875230     
   3030091970.7376170     
   2842475980.2185669     
   2656387511.7197089     
   3235984341.8917017     
   3058446302.2696495     
   2881546527.1578712     
   2705671070.5048218     
   2531471253.9668131     
   3089941773.1868505     
   2929357073.8961945     
   2769528830.7401552     
   2611411494.9109354     
   2456616294.4891591     
   5657549516.4912767     
   5890570255.5434446     
   6115970727.2933626     
   6331280250.7073879     
   6536263142.2951984     
   5151012845.8212461     
   5310914337.0146875     
   5467444669.2200794     
   5617705237.3606968     
   5760226865.5497246     
   4643024519.7984743     
   4755147568.1393137     
   4868372152.7512312     
   4980067438.0572166     
   5088312253.9146709     
   4133851626.3186097     
   4224112631.6796017     
   4320254125.3853941     
   4420628215.1386433     
   4523788828.9563513     
   3625021996.4859219     
   3719642058.2409534     
   3825456378.4896240     
   3942411192.7953353     
   4070421737.6602306     
   6536263142.2951984     
   6327962852.7963943     
   6141828892.6668596     
   5963983146.6369267     
   5785419532.7422791     
   5760226865.5497246     
   5651282107.1372452     
   5558320856.2941713     
   5472291548.6017561     
   5387651700.0675869     
   5088312253.9146709     
   5053156376.6273861     
   5028505783.5636911     
   5009151255.1818008     
   4991890492.8718853     
   4523788828.9563513     
   4538183395.9659014     
   4557266384.6599350     
   4578546563.9124689     
   4600297307.0692043     
   4070421737.6602306     
   4111691185.2631660     
   4150377717.7868643     
   4185563779.0357943     
   4216501575.7426720     
   5785419532.7422791     
   5634983895.9049959     
   5488767519.5761652     
   5346687371.2382641     
   5208791351.3393679     
   5387651700.0675869     
   5246854167.8402519     
   5109291777.2165461     
   4975005065.9490414     
   4844086807.2274446     
   4991890492.8718853     
   4864824841.0637741     
   4740919474.8957329     
   4620143421.8603725     
   4502535212.2559347     
   4600297307.0692043     
   4491609097.4728088     
   4387031958.4078617     
   4286256743.8128963     
   4189187633.9078794     
   4216501575.7426720     
   4131223474.3168693     
   4052210184.2140355     
   3978630701.1376090     
   3910175794.8691363     
   5208791351.3393679     
   5066332060.0363884     
   4924480421.2897053     
   4783264980.6667728     
   4642840602.2375097     
   4844086807.2274446     
   4717765016.3968477     
   4593107267.3221378     
   4470237515.6369934     
   4349387546.0253325     
   4502535212.2559347     
   4391835970.8159304     
   4283863136.9868979     
   4178812561.4690938     
   4076968355.3203797     
   4189187633.9078794     
   4093389780.8916540     
   4001336256.6742606     
   3913265785.6574388     
   3829486118.7296844     
   3910175794.8691363     
   3828256117.1417804     
   3750991446.0275426     
   3678631101.5348458     
   3611477410.2193561     
   4642840602.2375097     
   4507322527.5334682     
   4374486322.5137768     
   4244491817.5654821     
   4117558069.3769727     
   4349387546.0253325     
   4226476138.1338668     
   4106365296.7977061     
   3989258213.1304474     
   3875417863.9204259     
   4076968355.3203797     
   3967381938.3092418     
   3860825916.8029237     
   3757548567.7796764     
   3657863548.0724540     
   3829486118.7296844     
   3734168404.6894407     
   3642232101.8963056     
   3553967567.3049660     
   3469740902.4073496     
   3611477410.2193561     
   3531559527.6079407     
   3455493316.4542084     
   3383600064.9340425     
   3316291350.8463092     
   4117558069.3769727     
   3966403543.0072160     
   3817304444.4818187     
   3670510402.5126209     
   3526355211.7404704     
   3875417863.9204259     
   3736847751.1400204     
   3601431930.6920748     
   3469499254.5626445     
   3341469171.2815032     
   3657863548.0724540     
   3532252019.2399607     
   3410944238.8713284     
   3294329151.3927312     
   3182888466.1569366     
   3469740902.4073496     
   3357148603.2368793     
   3250009947.2126269     
   3148742567.1722245     
   3053854005.3021078     
   3316291350.8463092     
   3216324020.2498999     
   3122896441.3761649     
   3036414448.3811016     
   2957367597.0406313     
   3526355211.7404704     
   3412967012.0475106     
   3302282767.4373441     
   3194517009.5943723     
   3089941773.1868505     
   3341469171.2815032     
   3240072215.9159875     
   3141690173.0956593     
   3046639946.7773890     
   2955310587.0963316     
   3182888466.1569366     
   3095705728.3567042     
   3012078009.5867472     
   2932439761.4095507     
   2857325149.8930893     
   3053854005.3021078     
   2983282714.5347977     
   2917013726.3937988     
   2855598849.8531680     
   2799725760.5839071     
   2957367597.0406313     
   2905771277.5400510     
   2859372378.7661252     
   2818819261.3556838     
   2784937044.0735779     
   3089941773.1868505     
   2929357073.8961945     
   2769528830.7401552     
   2611411494.9109354     
   2456616294.4891591     
   2955310587.0963316     
   2814355801.5271683     
   2677500721.8088350     
   2545646433.6814857     
   2419968887.1138945     
   2857325149.8930893     
   2733374062.8176975     
   2616144013.1346822     
   2506398027.1464005     
   2405050404.9238062     
   2799725760.5839071     
   2688020047.8365703     
   2584649015.0439777     
   2490260156.7591276     
   2405840864.7131033     
   2784937044.0735779     
   2678652576.6402111     
   2581253988.7774010     
   2493434233.3743186     
   2416751891.3769879     
   3625021996.4859219     
   3719642058.2409534     
   3825456378.4896240     
   3942411192.7953353     
   4070421737.6602306     
   3138357927.2173357     
   3255692324.6076741     
   3382418042.2366195     
   3518071050.1831613     
   3662197993.3274093     
   2695357739.5167861     
   2830905540.3707519     
   2973777635.3981662     
   3122893612.2998276     
   3277343235.8169746     
   2299497227.6560650     
   2450060469.8602715     
   2605405447.3738179     
   2763609779.8672442     
   2923240149.8960042     
   1955963247.4865818     
   2120086600.1385806     
   2285683274.1910100     
   2449793528.6776423     
   2610451194.2829051     
   4070421737.6602306     
   4111691185.2631660     
   4150377717.7868643     
   4185563779.0357943     
   4216501575.7426720     
   3662197993.3274093     
   3701745590.2696066     
   3739948135.8391652     
   3775898682.8009281     
   3808842169.4479775     
   3277343235.8169746     
   3320881934.0951815     
   3364658032.8536215     
   3407849496.1176748     
   3449779167.3256807     
   2923240149.8960042     
   2976484584.5631146     
   3031891785.0128522     
   3088786761.6971216     
   3146640013.8611898     
   2610451194.2829051     
   2678583427.4131885     
   2751088640.8951645     
   2827469532.5230622     
   2907375708.6405249     
   4216501575.7426720     
   4131223474.3168693     
   4052210184.2140355     
   3978630701.1376090     
   3910175794.8691363     
   3808842169.4479775     
   3754421278.6638794     
   3705863409.9745474     
   3662701729.2112546     
   3624840354.3135595     
   3449779167.3256807     
   3422305913.2119951     
   3399978537.5608149     
   3382571388.6253986     
   3370083475.6587729     
   3146640013.8611898     
   3142460012.8333488     
   3142192932.9816337     
   3145741374.0069370     
   3153112503.0632100     
   2907375708.6405249     
   2923098079.1783018     
   2940804116.6766877     
   2960439694.9006839     
   2981979453.8321652     
   3910175794.8691363     
   3828256117.1417804     
   3750991446.0275426     
   3678631101.5348458     
   3611477410.2193561     
   3624840354.3135595     
   3555060584.6431613     
   3489830904.5423260     
   3429368430.9797235     
   3373930990.9493756     
   3370083475.6587729     
   3311791097.7108936     
   3257909492.8508320     
   3208620000.2064810     
   3164135912.6307187     
   3153112503.0632100     
   3105812167.2484460     
   3062734056.4728322     
   3024017260.8835549     
   2989828519.9748187     
   2981979453.8321652     
   2945314728.6488023     
   2912618232.6126599     
   2883978168.1846881     
   2859511583.3219309     
   3611477410.2193561     
   3531559527.6079407     
   3455493316.4542084     
   3383600064.9340425     
   3316291350.8463092     
   3373930990.9493756     
   3306634090.6524687     
   3244414376.9159169     
   3187598509.0696831     
   3136584496.4617777     
   3164135912.6307187     
   3108853155.2855201     
   3059860625.0310869     
   3017456840.3700633     
   2981991455.3014379     
   2989828519.9748187     
   2945171940.7576008     
   2907964955.5225654     
   2878444665.9091206     
   2856881264.7232738     
   2859511583.3219309     
   2823100223.6815128     
   2795204343.9946537     
   2775977061.4132209     
   2765592684.4595900     
   3316291350.8463092     
   3216324020.2498999     
   3122896441.3761649     
   3036414448.3811016     
   2957367597.0406313     
   3136584496.4617777     
   3049056326.3722687     
   2968803741.8478470     
   2896262734.2394562     
   2831939420.7957492     
   2981991455.3014379     
   2908590687.7440825     
   2843409880.7975636     
   2786894314.2678485     
   2739558002.2829099     
   2856881264.7232738     
   2798943287.3596120     
   2750338850.1043277     
   2711492769.5660748     
   2682911557.8299966     
   2765592684.4595900     
   2723826977.6218781     
   2692635194.9683366     
   2672390291.3859291     
   2663577383.2398901     
   2957367597.0406313     
   2905771277.5400510     
   2859372378.7661252     
   2818819261.3556838     
   2784937044.0735779     
   2831939420.7957492     
   2794999476.0904155     
   2762017091.9942760     
   2733269950.4288454     
   2709057786.4287572     
   2739558002.2829099     
   2710384956.5748692     
   2683079620.1174698     
   2657624532.5412407     
   2634015245.7938910     
   2682911557.8299966     
   2654871802.6282458     
   2625840619.0520420     
   2595629213.4401813     
   2564188006.6179719     
   2663577383.2398901     
   2630755620.3756151     
   2593491185.7205882     
   2551568677.0581379     
   2505168533.8100171     
   2784937044.0735779     
   2678652576.6402111     
   2581253988.7774010     
   2493434233.3743186     
   2416751891.3769879     
   2709057786.4287572     
   2607459965.0935783     
   2521608780.6569681     
   2452643356.6399360     
   2401853887.4145322     
   2634015245.7938910     
   2558797670.2468457     
   2507966779.9250989     
   2484034651.9190445     
   2490651434.7124410     
   2564188006.6179719     
   2534434646.4595685     
   2539606824.2694111     
   2584471456.5310254     
   2676856633.6564956     
   2505168533.8100171     
   2535550141.4705005     
   2614316893.5159049     
   2749001512.2334118     
   2952071587.1731791     
   1955963247.4865818     
   2120086600.1385806     
   2285683274.1910100     
   2449793528.6776423     
   2610451194.2829051     
   1654348703.9660223     
   1821100434.3008418     
   1989629031.3454504     
   2157237356.8210773     
   2322163496.9232874     
   1394083207.2673707     
   1571873329.2632952     
   1750696475.8754225     
   1928549512.1446223     
   2104182342.8558388     
   1207413700.9398441     
   1399759867.2216754     
   1591654244.8038740     
   1782322792.5295656     
   1971309413.3799109     
   1136929044.9099586     
   1335559835.5586686     
   1534415873.7522500     
   1733497229.6774218     
   1932803982.5926945     
   2610451194.2829051     
   2678583427.4131885     
   2751088640.8951645     
   2827469532.5230622     
   2907375708.6405249     
   2322163496.9232874     
   2409180015.5109105     
   2498650573.0890789     
   2590192779.6288381     
   2683533286.2236285     
   2104182342.8558388     
   2207853688.0862632     
   2311616821.9399452     
   2415238550.4208832     
   2518552843.7521739     
   1971309413.3799109     
   2088406490.2208805     
   2203020892.6435146     
   2315077746.3481679     
   2424524739.2884908     
   1932803982.5926945     
   2059343380.5584698     
   2181028534.5645213     
   2297859356.4751787     
   2409835785.6582422     
   2907375708.6405249     
   2923098079.1783018     
   2940804116.6766877     
   2960439694.9006839     
   2981979453.8321652     
   2683533286.2236285     
   2707747401.4152794     
   2734833920.6054473     
   2764777038.1325841     
   2797576288.2725234     
   2518552843.7521739     
   2550423083.1664534     
   2586013264.6096501     
   2625325460.6093283     
   2668366792.6366634     
   2424524739.2884908     
   2461757596.0688438     
   2503504083.7628460     
   2549768396.7766509     
   2600554803.0166955     
   2409835785.6582422     
   2448715151.3303847     
   2492857607.2653770     
   2542265091.6144228     
   2596940514.4915957     
   2981979453.8321652     
   2945314728.6488023     
   2912618232.6126599     
   2883978168.1846881     
   2859511583.3219309     
   2797576288.2725234     
   2775539410.5140080     
   2760466775.6265669     
   2752478552.1056075     
   2751712584.3587551     
   2668366792.6366634     
   2660780879.3931193     
   2663150758.4190845     
   2675565134.8830457     
   2698118795.9022107     
   2600554803.0166955     
   2604513151.1710706     
   2621340275.9269304     
   2651061538.8847528     
   2693703791.5444870     
   2596940514.4915957     
   2606808940.1762552     
   2632447183.9729295     
   2673856782.2967620     
   2731038381.8284273     
   2859511583.3219309     
   2823100223.6815128     
   2795204343.9946537     
   2775977061.4132209     
   2765592684.4595900     
   2751712584.3587551     
   2735518911.4280219     
   2726589528.6826997     
   2725006187.3868890     
   2730855679.3427348     
   2698118795.9022107     
   2700444200.9541554     
   2708483523.9815092     
   2722268319.6375756     
   2741830538.1343513     
   2693703791.5444870     
   2712916793.6824694     
   2736115961.4217033     
   2763305402.3408380     
   2794490690.2851558     
   2731038381.8284273     
   2765792426.0952253     
   2802757394.1772165     
   2841922017.5955639     
   2883279709.3767061     
   2765592684.4595900     
   2723826977.6218781     
   2692635194.9683366     
   2672390291.3859291     
   2663577383.2398901     
   2730855679.3427348     
   2708544169.7236962     
   2695618425.8839674     
   2692239437.4138527     
   2698600257.4387994     
   2741830538.1343513     
   2733305270.7110515     
   2732536782.5048561     
   2739566906.8359423     
   2754439336.6296558     
   2794490690.2851558     
   2794403316.3467259     
   2800142609.2612510     
   2811723151.5623436     
   2829165637.1176734     
   2883279709.3767061     
   2887036844.9041314     
   2894493073.2410188     
   2905707897.4409475     
   2920777207.0858860     
   2663577383.2398901     
   2630755620.3756151     
   2593491185.7205882     
   2551568677.0581379     
   2505168533.8100171     
   2698600257.4387994     
   2667260018.4959593     
   2641178267.9898181     
   2620476676.2403140     
   2605379686.4726872     
   2754439336.6296558     
   2732313805.1769514     
   2725163908.2405415     
   2733164855.8312244     
   2756458226.7949786     
   2829165637.1176734     
   2819674312.9680409     
   2834811655.9612565     
   2874619155.8723540     
   2939144952.4978237     
   2920777207.0858860     
   2923436904.3761430     
   2961022362.5564837     
   3033450954.7838140     
   3140792989.7470374     
   2505168533.8100171     
   2535550141.4705005     
   2614316893.5159049     
   2749001512.2334118     
   2952071587.1731791     
   2605379686.4726872     
   2700509707.8501010     
   2816728041.8029923     
   2954156844.5797420     
   3113454918.7651224     
   2756458226.7949786     
   2867072736.0626874     
   2968529797.8541021     
   3061693385.2628050     
   3148210161.8897834     
   2939144952.4978237     
   3027512269.1733551     
   3073879385.0815549     
   3087168811.6341863     
   3083626759.8500152     
   3140792989.7470374     
   3176400524.3483739     
   3139744911.1311507     
   3056552131.7152781     
   2977511930.5894036     
   1136929044.9099586     
   1335559835.5586686     
   1534415873.7522500     
   1733497229.6774218     
   1932803982.5926945     
   1206773956.0020590     
   1398809039.5863588     
   1590378648.8167591     
   1780701561.6641223     
   1969316051.5420043     
   1393029882.4439809     
   1570318776.3597620     
   1748600957.2633595     
   1925869902.4417500     
   2100872496.5073526     
   1653164596.4038589     
   1819359786.8306489     
   1987263608.4609900     
   2154183875.1248803     
   2318363774.0256591     
   1954879013.6667817     
   2118510368.5246494     
   2283528387.7832937     
   2446985869.2637596     
   2606931536.8367820     
   1932803982.5926945     
   2059343380.5584698     
   2181028534.5645213     
   2297859356.4751787     
   2409835785.6582422     
   1969316051.5420043     
   2085968281.3324134     
   2199994427.1279373     
   2311319490.9752917     
   2419890743.4034162     
   2100872496.5073526     
   2203775212.5342922     
   2306486731.4258752     
   2408769538.2354736     
   2510454251.1031046     
   2318363774.0256591     
   2404548220.5321550     
   2492769047.8170948     
   2582629634.8444462     
   2673845798.9583321     
   2606931536.8367820     
   2674500735.9947820     
   2745902796.9715962     
   2820609202.7531385     
   2898244417.2688522     
   2409835785.6582422     
   2448715151.3303847     
   2492857607.2653770     
   2542265091.6144228     
   2596940514.4915957     
   2419890743.4034162     
   2454548461.8438063     
   2493476361.2777433     
   2536676535.6070299     
   2584154877.2568235     
   2510454251.1031046     
   2538007510.3841887     
   2568819251.4813309     
   2602886529.8376846     
   2640214729.7788057     
   2673845798.9583321     
   2693027649.7872252     
   2714440464.7390614     
   2738059682.3309212     
   2763874893.3442411     
   2898244417.2688522     
   2909270576.5042248     
   2921519761.2357640     
   2934927982.1791520     
   2949451077.5951061     
   2596940514.4915957     
   2606808940.1762552     
   2632447183.9729295     
   2673856782.2967620     
   2731038381.8284273     
   2584154877.2568235     
   2581831407.9134092     
   2590124616.8106570     
   2609079908.7272315     
   2638735737.3092222     
   2640214729.7788057     
   2623138146.7204180     
   2611453402.0746045     
   2605228331.7587943     
   2604527057.8333783     
   2763874893.3442411     
   2733907332.8816090     
   2704205670.4859147     
   2674785225.2897868     
   2645662076.9501009     
   2949451077.5951061     
   2912247433.6314631     
   2870730480.3495898     
   2824871530.0593104     
   2774653766.0841136     
   2731038381.8284273     
   2765792426.0952253     
   2802757394.1772165     
   2841922017.5955639     
   2883279709.3767061     
   2638735737.3092222     
   2649457364.7204881     
   2665159471.7660332     
   2685841969.1065369     
   2711505094.0602169     
   2604527057.8333783     
   2588726163.1274476     
   2580389153.6431580     
   2579531219.8422875     
   2586174367.4166279     
   2645662076.9501009     
   2600773838.8524284     
   2565303831.1740718     
   2539267480.1750627     
   2522716207.4008970     
   2774653766.0841136     
   2698701879.7663078     
   2633433186.7466955     
   2578789151.3417959     
   2534803870.3539553     
   2883279709.3767061     
   2887036844.9041314     
   2894493073.2410188     
   2905707897.4409475     
   2920777207.0858860     
   2711505094.0602169     
   2697993479.2290592     
   2691152430.6904845     
   2691015931.0765119     
   2697635165.1101456     
   2586174367.4166279     
   2554712251.2545304     
   2532901627.2851624     
   2520784456.6733155     
   2518413064.7463822     
   2522716207.4008970     
   2471398330.0592899     
   2432498598.2966795     
   2406148677.1391916     
   2392508919.1681628     
   2534803870.3539553     
   2460769408.1926093     
   2401403179.3268113     
   2357044540.3598900     
   2328132432.4141040     
   2920777207.0858860     
   2923436904.3761430     
   2961022362.5564837     
   3033450954.7838140     
   3140792989.7470374     
   2697635165.1101456     
   2692335395.2493114     
   2708308202.7408271     
   2745613439.2728105     
   2804350908.4355960     
   2518413064.7463822     
   2499787531.3214293     
   2488606924.7212853     
   2485030630.0402360     
   2489246706.5008688     
   2392508919.1681628     
   2361952246.8750129     
   2324333032.0541096     
   2279640830.9378977     
   2227964888.2288880     
   2328132432.4141040     
   2296461944.1827054     
   2244236881.6016259     
   2171476488.5073609     
   2078500496.4239030     
   3140792989.7470374     
   3176400524.3483739     
   3139744911.1311507     
   3056552131.7152781     
   2977511930.5894036     
   2804350908.4355960     
   2737078845.7484236     
   2641737383.9160733     
   2527218065.1864352     
   2410914008.4450207     
   2489246706.5008688     
   2375771800.9327855     
   2286739691.6939445     
   2222751430.6529441     
   2183935054.3128462     
   2227964888.2288880     
   2112942808.4609787     
   2079211843.6296325     
   2131566112.0790682     
   2275168594.0726566     
   2078500496.4239030     
   1970516921.1107595     
   2009806274.5445900     
   2222310481.2183537     
   2627123953.9777279     
   1954879013.6667817     
   2118510368.5246494     
   2283528387.7832937     
   2446985869.2637596     
   2606931536.8367820     
   2298644174.1019497     
   2448944792.0616312     
   2603958454.2930527     
   2761768513.2602391     
   2920949632.6259923     
   2694742168.4820957     
   2830254727.2993951     
   2973037622.9760289     
   3122009043.2098913     
   3276259297.9332414     
   3137924867.9644351     
   3255449592.0053239     
   3382324239.7005181     
   3518076133.9837136     
   3662244761.5220442     
   3624685440.5363545     
   3719720609.6230559     
   3825920233.2605634     
   3943214508.1795754     
   4071503534.4082065     
   2606931536.8367820     
   2674500735.9947820     
   2745902796.9715962     
   2820609202.7531385     
   2898244417.2688522     
   2920949632.6259923     
   2974331115.7518029     
   3029602185.6131573     
   3086069666.7619348     
   3143190019.8126726     
   3276259297.9332414     
   3320354445.3502913     
   3364654297.9531426     
   3408333054.9766173     
   3450711747.9258447     
   3662244761.5220442     
   3702377538.5881143     
   3741339709.4768782     
   3778228973.4117699     
   3812293640.9353981     
   4071503534.4082065     
   4112941455.7490478     
   4152141803.7910547     
   4188190121.5464935     
   4220335575.8827443     
   2898244417.2688522     
   2909270576.5042248     
   2921519761.2357640     
   2934927982.1791520     
   2949451077.5951061     
   3143190019.8126726     
   3137077177.4088264     
   3134333575.7708316     
   3134843896.0678005     
   3138577432.4017153     
   3450711747.9258447     
   3423838167.6712275     
   3401773423.8767323     
   3384275383.2832870     
   3371295880.7463074     
   3812293640.9353981     
   3760634504.4111381     
   3714685103.1068988     
   3673977780.1998444     
   3638377191.7692122     
   4220335575.8827443     
   4139552899.5075502     
   4065030897.8913288     
   3995966572.7807989     
   3932037211.9231062     
   2949451077.5951061     
   2912247433.6314631     
   2870730480.3495898     
   2824871530.0593104     
   2774653766.0841136     
   3138577432.4017153     
   3104752344.4699101     
   3071725481.9796724     
   3039505545.3510799     
   3008102908.0226941     
   3371295880.7463074     
   3333319728.7171974     
   3300258768.0722241     
   3272255164.1008034     
   3249493239.7745423     
   3638377191.7692122     
   3586986969.0669408     
   3543707322.7173047     
   3508972962.2487054     
   3483366349.9694500     
   3932037211.9231062     
   3857168735.0873866     
   3792821193.6436377     
   3739900331.5053988     
   3699645696.4139338     
   2774653766.0841136     
   2698701879.7663078     
   2633433186.7466955     
   2578789151.3417959     
   2534803870.3539553     
   3008102908.0226941     
   2939814669.4602566     
   2879157567.1182542     
   2826279434.1400542     
   2781400397.9651418     
   3249493239.7745423     
   3187062263.3154883     
   3130025874.4894810     
   3078639036.5166492     
   3033200368.0396972     
   3483366349.9694500     
   3426757821.5256414     
   3374007048.9086614     
   3325366548.8445210     
   3281106997.4340792     
   3699645696.4139338     
   3650009225.3764577     
   3603280759.8818331     
   3559604346.9598632     
   3519125648.9914823     
   2534803870.3539553     
   2460769408.1926093     
   2401403179.3268113     
   2357044540.3598900     
   2328132432.4141040     
   2781400397.9651418     
   2705501732.9401102     
   2640912614.3022141     
   2588113689.6859436     
   2547669122.3914285     
   3033200368.0396972     
   2954754512.0962825     
   2884780863.8580713     
   2823788034.1011987     
   2772344473.4344993     
   3281106997.4340792     
   3201158032.3375425     
   3127193496.5347919     
   3059656710.4557300     
   2999028243.2568355     
   3519125648.9914823     
   3439819357.4160185     
   3364239315.1742373     
   3292699959.5948105     
   3225536532.8339915     
   2328132432.4141040     
   2296461944.1827054     
   2244236881.6016259     
   2171476488.5073609     
   2078500496.4239030     
   2547669122.3914285     
   2534804604.7791967     
   2514734881.8639193     
   2487422752.9300871     
   2452860677.4498715     
   2772344473.4344993     
   2766018281.3120270     
   2765288669.2808752     
   2770317017.6167340     
   2781291148.6526065     
   2999028243.2568355     
   2982955304.1241641     
   2984967714.5778890     
   3006094423.1342235     
   3047548928.9963717     
   3225536532.8339915     
   3181119688.1729403     
   3167819876.0008988     
   3188631238.5619855     
   3246944372.1003041     
   2078500496.4239030     
   1970516921.1107595     
   2009806274.5445900     
   2222310481.2183537     
   2627123953.9777279     
   2452860677.4498715     
   2351867534.0184340     
   2326196934.8648829     
   2388723300.0524421     
   2551231016.0771542     
   2781291148.6526065     
   2691862951.5034251     
   2621491885.7250247     
   2571952128.7423229     
   2544694053.5981941     
   3047548928.9963717     
   2983484045.9273829     
   2885010142.8611612     
   2758020772.4725003     
   2616477124.1264682     
   3246944372.1003041     
   3223831083.8581128     
   3122861544.7636323     
   2979018445.2318492     
   2860538535.1680403     
   3624685440.5363545     
   3719720609.6230559     
   3825920233.2605634     
   3943214508.1795754     
   4071503534.4082065     
   4133599725.0702281     
   4224384647.5096884     
   4321065566.1201277     
   4421981214.1739883     
   4525674689.9416628     
   4642944714.9531441     
   4755560006.8796005     
   4869330444.7049112     
   4981609661.6696310     
   5090461886.3410597     
   5151206080.4527559     
   5311423582.3773880     
   5468357865.1010151     
   5619087220.5168600     
   5762116219.2469254     
   5658124174.2491961     
   5891138657.6041613     
   6116653809.6875734     
   6332163465.3903217     
   6537388550.2405748     
   4071503534.4082065     
   4112941455.7490478     
   4152141803.7910547     
   4188190121.5464935     
   4220335575.8827443     
   4525674689.9416628     
   4539719592.5624990     
   4558621689.3028746     
   4579884774.5093279     
   4601777068.5224190     
   5090461886.3410597     
   5054769180.2395887     
   5029615534.1917963     
   5009798400.3461370     
   4992111379.3588018     
   5762116219.2469254     
   5652819162.6324730     
   5559438706.9910908     
   5472959385.7053556     
   5387842655.7486305     
   6537388550.2405748     
   6329319674.0296335     
   6143271026.8506641     
   5965448338.4999933     
   5786873758.0963011     
   4220335575.8827443     
   4139552899.5075502     
   4065030897.8913288     
   3995966572.7807989     
   3932037211.9231062     
   4601777068.5224190     
   4497449911.1004219     
   4397344889.7064314     
   4301169257.7812815     
   4208843126.3463039     
   4992111379.3588018     
   4868415247.2175798     
   4748014451.2542591     
   4630882841.5349550     
   4517075660.5873938     
   5387842655.7486305     
   5248632631.8202038     
   5112736742.3334150     
   4980196710.6384602     
   4851108362.2628574     
   5786873758.0963011     
   5635527981.6632662     
   5488347500.6522655     
   5345263872.2170086     
   5206314718.9779978     
   3932037211.9231062     
   3857168735.0873866     
   3792821193.6436377     
   3739900331.5053988     
   3699645696.4139338     
   4208843126.3463039     
   4103926686.3898320     
   4005644630.5267453     
   3914626405.2629194     
   3831745591.1641879     
   4517075660.5873938     
   4388872911.2690420     
   4264206624.6134772     
   4143400686.7505345     
   4026916651.4075279     
   4851108362.2628574     
   4707127589.6871157     
   4564397846.4505243     
   4423010843.2288465     
   4283108436.0639997     
   5206314718.9779978     
   5054350230.5668459     
   4902120466.4068708     
   4749608112.0244932     
   4596802107.8657799     
   3699645696.4139338     
   3650009225.3764577     
   3603280759.8818331     
   3559604346.9598632     
   3519125648.9914823     
   3831745591.1641879     
   3761437825.9487667     
   3694135726.2060237     
   3630072117.1087127     
   3569499511.5952258     
   4026916651.4075279     
   3936954108.0690708     
   3849836875.6097546     
   3765800963.0138755     
   3685125188.8079176     
   4283108436.0639997     
   4174385218.8583918     
   4068194918.4733505     
   3964694956.1912775     
   3864106558.3414536     
   4596802107.8657799     
   4469839642.9381981     
   4345042224.0422688     
   4222423298.8874841     
   4102075132.2110109     
   3519125648.9914823     
   3439819357.4160185     
   3364239315.1742373     
   3292699959.5948105     
   3225536532.8339915     
   3569499511.5952258     
   3469700573.7068706     
   3373970547.1157956     
   3282726183.2760291     
   3196439745.4780226     
   3685125188.8079176     
   3564755357.2846756     
   3448304635.1214652     
   3336209326.3334031     
   3229004580.1646924     
   3864106558.3414536     
   3723231336.7757530     
   3585737340.0270162     
   3451983800.9339042     
   3322468573.6517982     
   4102075132.2110109     
   3940660939.6484199     
   3781840971.9444423     
   3625810085.9000483     
   3472928501.3767867     
   3225536532.8339915     
   3181119688.1729403     
   3167819876.0008988     
   3188631238.5619855     
   3246944372.1003041     
   3196439745.4780226     
   3098316780.2558670     
   3019220051.6998820     
   2961675218.1642876     
   2928616496.8023577     
   3229004580.1646924     
   3092565926.0358467     
   2964461248.9273729     
   2845901067.1849537     
   2738336983.0452299     
   3322468573.6517982     
   3168942779.1735630     
   3016079384.7234297     
   2863869606.1604719     
   2712348984.5663695     
   3472928501.3767867     
   3326693700.2568073     
   3177745252.9420161     
   3025941396.9378805     
   2871545667.3947396     
   3246944372.1003041     
   3223831083.8581128     
   3122861544.7636323     
   2979018445.2318492     
   2860538535.1680403     
   2928616496.8023577     
   2895884833.7869906     
   2826244523.3120942     
   2739806324.6058979     
   2668694770.0164165     
   2738336983.0452299     
   2719222679.2014794     
   2705801041.7459407     
   2701464867.1570659     
   2710159623.8589554     
   2712348984.5663695     
   2698302006.2768769     
   2718365972.0402737     
   2766328950.8446774     
   2838331862.7647047     
   2871545667.3947396     
   2814999660.2770076     
   2809164477.1228642     
   2857524617.2283778     
   2976206475.8161392     
   5658124174.2491961     
   5891138657.6041613     
   6116653809.6875734     
   6332163465.3903217     
   6537388550.2405748     
   6492350998.0751572     
   6587292335.7110062     
   6757592351.0014744     
   6961158319.6028032     
   7171322414.5339584     
   7982811161.7169228     
   7735310732.4477520     
   7669294506.2916107     
   7669564338.6060162     
   7666209917.1444359     
   10129949222.560556     
   9322067074.1791687     
   8826599652.5628529     
   8444000054.2004166     
   8036567736.6322718     
   12933850082.421993     
   11340294048.587742     
   10210697699.413614     
   9274185817.9937077     
   8306611670.6106033     
   6537388550.2405748     
   6329319674.0296335     
   6143271026.8506641     
   5965448338.4999933     
   5786873758.0963011     
   7171322414.5339584     
   6911402796.9483194     
   6659328429.0853958     
   6411260038.2632313     
   6164067374.5267887     
   7666209917.1444359     
   7381589179.6088438     
   7102330312.0802402     
   6828491666.3703671     
   6560250202.3793888     
   8036567736.6322718     
   7747504585.2534361     
   7473984308.3783379     
   7214070374.1338634     
   6967728400.3664865     
   8306611670.6106033     
   8021692843.3057661     
   7778462392.6068201     
   7566425008.6672573     
   7380630888.9616747     
   5786873758.0963011     
   5635527981.6632662     
   5488347500.6522655     
   5345263872.2170086     
   5206314718.9779978     
   6164067374.5267887     
   6012517326.4443512     
   5862156539.4053669     
   5713024794.1745272     
   5565179960.1804123     
   6560250202.3793888     
   6407480770.8530493     
   6253035465.1566029     
   6096874584.5809832     
   5939011975.3277273     
   6967728400.3664865     
   6813990717.1155615     
   6655847208.7192240     
   6493030573.5220280     
   6325465677.6051092     
   7380630888.9616747     
   7227081319.6566696     
   7066581845.3786430     
   6898528556.4320250     
   6722736519.8453360     
   5206314718.9779978     
   5054350230.5668459     
   4902120466.4068708     
   4749608112.0244932     
   4596802107.8657799     
   5565179960.1804123     
   5406954277.9347992     
   5249442649.7844753     
   5092662318.4286003     
   4936641419.4861898     
   5939011975.3277273     
   5771389591.5870304     
   5605276974.6830778     
   5440696563.3607349     
   5277702388.9664278     
   6325465677.6051092     
   6144857501.9155235     
   5966378532.3645172     
   5790045235.4260550     
   5615941851.5796804     
   6722736519.8453360     
   6525242485.5621004     
   6330335240.5299397     
   6138027511.5783157     
   5948450633.5336857     
   4596802107.8657799     
   4469839642.9381981     
   4345042224.0422688     
   4222423298.8874841     
   4102075132.2110109     
   4936641419.4861898     
   4798403705.5750055     
   4661278148.2611771     
   4525307388.6912632     
   4390601372.6151266     
   5277702388.9664278     
   5128262163.9618196     
   4979100019.8971987     
   4830273348.3075762     
   4681896274.6263323     
   5615941851.5796804     
   5455754246.1692209     
   5295186318.5797892     
   5134300527.4133596     
   4973207059.4909773     
   5948450633.5336857     
   5778239464.3940954     
   5607132238.1062155     
   5435190495.2571135     
   5262516368.2610817     
   4102075132.2110109     
   3940660939.6484199     
   3781840971.9444423     
   3625810085.9000483     
   3472928501.3767867     
   4390601372.6151266     
   4214508802.3548079     
   4040094547.7757058     
   3867474959.2577796     
   3696855618.8799496     
   4681896274.6263323     
   4495042621.5613661     
   4309400589.2950048     
   4125037283.0599895     
   3942063097.2243271     
   4973207059.4909773     
   4779482088.3032103     
   4586882752.5563211     
   4395446781.1746454     
   4205235965.0706415     
   5262516368.2610817     
   5065718449.0616302     
   4870286492.9075661     
   4676234884.5141315     
   4483603745.4822378     
   3472928501.3767867     
   3326693700.2568073     
   3177745252.9420161     
   3025941396.9378805     
   2871545667.3947396     
   3696855618.8799496     
   3567577325.3133874     
   3437841309.1521831     
   3307537314.1945148     
   3176601856.2099609     
   3942063097.2243271     
   3814504132.0979705     
   3687214125.1952233     
   3560292966.3063569     
   3433869201.1461124     
   4205235965.0706415     
   4064178429.1178899     
   3922779160.9919820     
   3781437547.1837163     
   3640833849.7798734     
   4483603745.4822378     
   4314163557.2490501     
   4142634163.9477510     
   3969644936.7289462     
   3796584001.3711209     
   2871545667.3947396     
   2814999660.2770076     
   2809164477.1228642     
   2857524617.2283778     
   2976206475.8161392     
   3176601856.2099609     
   3031560790.5701480     
   2912703366.5125318     
   2824159294.1772742     
   2776275679.3765368     
   3433869201.1461124     
   3236274514.0869603     
   3047429852.3535538     
   2868315998.0606194     
   2701177505.2527709     
   3640833849.7798734     
   3431509766.6917996     
   3218941733.6077905     
   3003547193.4538817     
   2786109206.5316029     
   3796584001.3711209     
   3620170024.2341318     
   3434925214.8377776     
   3247463894.7440734     
   3069715711.6789441     
 </DataArray>
 <DataArray  type="Float64" Name="strain" NumberOfComponents="3" format="ascii">
  0.20347838324152545        0.0000000000000000       0.12540131456253970     
  0.18665075485899826       -2.7321312704503529E-002   7.4353000040638384E-002
  0.16982312647647108       -4.4671805775262058E-002   3.5135774097356472E-002
  0.15299549809394389       -5.2051479212275639E-002   7.7496367326940173E-003
  0.13616786971141670       -4.9460333015544242E-002  -7.8054120533490173E-003
  0.15985201913731023        0.0000000000000000        9.6448597676796269E-002
  0.15317440744339736       -2.1842219526776761E-002   6.2691800222766367E-002
  0.14649679574948449       -3.6171455606885367E-002   3.7403947567345663E-002
  0.13981918405557162       -4.2987708240325800E-002   2.0585039710534186E-002
  0.13314157236165872       -4.2290977427098086E-002   1.2235076652331887E-002
  0.12645634245076501        0.0000000000000000        7.4203892062318005E-002
  0.12656660366545622       -1.6363126349050006E-002   5.5280775489082723E-002
  0.12667686488014740       -2.7671105438508658E-002   4.1464459934446404E-002
  0.12678712609483864       -3.3923937268375962E-002   3.2754945398409077E-002
  0.12689738730952985       -3.5121621838651924E-002   2.9152231880970669E-002
  0.10329135318188973        0.0000000000000000        5.8667197719104905E-002
  0.10682734352517480       -1.0884033171323245E-002   5.2119925839587439E-002
  0.11036333386845985       -1.9170755270131949E-002   4.7317311198658681E-002
  0.11389932421174492       -2.4860166296426126E-002   4.4259353796318679E-002
  0.11743531455503001       -2.7952266250205755E-002   4.2946053632567441E-002
   9.0357051330684432E-002   0.0000000000000000        4.9838514647156981E-002
   9.3956627022553113E-002  -5.4049399935964847E-003   5.3209251274280486E-002
   9.7556202714421808E-002  -1.0670405101755247E-002   5.4962501359982506E-002
  0.10115577840629052       -1.5796395324476284E-002   5.5098264904263027E-002
  0.10475535409815923       -2.0782910661759600E-002   5.3616541907122055E-002
  0.13616786971141670       -4.9460333015544242E-002  -7.8054120533490173E-003
  0.13296212451805514       -4.2930586143886403E-002  -3.3967995482299326E-003
  0.12975637932469361       -3.8494457556120631E-002  -3.9851942452404782E-004
  0.12655063413133208       -3.6151947252247046E-002   1.1894283177682936E-003
  0.12334488893797052       -3.5903055232265502E-002   1.3670436786473728E-003
  0.13314157236165872       -4.2290977427098086E-002   1.2235076652331887E-002
  0.12891237285425844       -3.8427863699617835E-002   1.2175761571427142E-002
  0.12468317334685815       -3.5744967590300741E-002   1.1479870243858412E-002
  0.12045397383945783       -3.4242289099146797E-002   1.0147402669625325E-002
  0.11622477433205752       -3.3919828226155954E-002   8.1783588487282788E-003
  0.12689738730952985       -3.5121621838651924E-002   2.9152231880970669E-002
  0.12241848962284005       -3.3925141255349289E-002   2.5538389879771011E-002
  0.11793959193615029       -3.2995477624480823E-002   2.2061727766656478E-002
  0.11346069424946054       -3.2332630946046562E-002   1.8722245541627231E-002
  0.10898179656277077       -3.1936601220046462E-002   1.5519943204682987E-002
  0.11743531455503001       -2.7952266250205755E-002   4.2946053632567441E-002
  0.11348047482380003       -2.9422418811080736E-002   3.6691085376801734E-002
  0.10952563509257010       -3.0245987658660933E-002   3.1347053143870533E-002
  0.10557079536134011       -3.0422972792946340E-002   2.6913956933773818E-002
  0.10161595563011017       -2.9953374213936970E-002   2.3391796746511487E-002
  0.10475535409815923       -2.0782910661759600E-002   5.3616541907122055E-002
  0.10209832845713837       -2.4919696366812193E-002   4.5633848062519383E-002
   9.9441302816117530E-002  -2.7496497692841029E-002   3.9335846375500444E-002
   9.6784277175096689E-002  -2.8513314639846112E-002   3.4722536846065209E-002
   9.4127251534075848E-002  -2.7970147207827464E-002   3.1793919474213755E-002
  0.12334488893797052       -3.5903055232265502E-002   1.3670436786473728E-003
  0.12042472768135482       -3.6396663883006247E-002   6.4605789971038108E-004
  0.11750456642473908       -3.6281655591299797E-002   1.0775022356965258E-004
  0.11458440516812338       -3.5558030357145831E-002  -2.4787934977493764E-004
  0.11166424391150764       -3.4225788180544670E-002  -4.2083082032345898E-004
  0.11622477433205752       -3.3919828226155954E-002   8.1783588487282788E-003
  0.11347530876650569       -3.3992859266136932E-002   7.8214528620187407E-003
  0.11072584320095386       -3.3676656513898326E-002   7.6232601546407930E-003
  0.10797637763540201       -3.2971219969440052E-002   7.5837807265945016E-003
  0.10522691206985016       -3.1876549632762402E-002   7.7030145778795855E-003
  0.10898179656277077       -3.1936601220046462E-002   1.5519943204682987E-002
  0.10637906186481823       -3.1589054649267520E-002   1.5307733859973135E-002
  0.10377632716686572       -3.1071657436496834E-002   1.5230272971130256E-002
  0.10117359246891321       -3.0384409581734301E-002   1.5287560538154398E-002
   9.8570857770960682E-002  -2.9527311084980024E-002   1.5479596561045583E-002
  0.10161595563011017       -2.9953374213936970E-002   2.3391796746511487E-002
   9.9135986976292445E-002  -2.9185250032398198E-002   2.3104900893573425E-002
   9.6656018322474668E-002  -2.8466658359095367E-002   2.2928788673037812E-002
   9.4176049668656961E-002  -2.7797599194028536E-002   2.2863460084904724E-002
   9.1696081014839198E-002  -2.7178072537197645E-002   2.2908915129174166E-002
   9.4127251534075848E-002  -2.7970147207827464E-002   3.1793919474213755E-002
   9.1746084100928285E-002  -2.6781445415528807E-002   3.1212953962819714E-002
   8.9364916667780736E-002  -2.5861659281693903E-002   3.0718807260363683E-002
   8.6983749234633201E-002  -2.5210788806322749E-002   3.0311479366845553E-002
   8.4602581801485666E-002  -2.4828833989415294E-002   2.9990970282265383E-002
  0.11166424391150764       -3.4225788180544670E-002  -4.2083082032345898E-004
  0.10857797892490401       -3.2714038553502411E-002  -1.8209156418519390E-004
  0.10549171393830040       -3.1451890968025337E-002   1.2998399219016354E-004
  0.10240544895169675       -3.0439345424113355E-002   5.1539584880269662E-004
   9.9319183965093150E-002  -2.9676401921766571E-002   9.7414400565193349E-004
  0.10522691206985016       -3.1876549632762402E-002   7.7030145778795855E-003
  0.10223791112402986       -3.0661962689125272E-002   7.5474578073994325E-003
   9.9248910178209623E-002  -2.9596776323788966E-002   7.5130928182488982E-003
   9.6259909232389418E-002  -2.8680990536753499E-002   7.5999196104283850E-003
   9.3270908286569087E-002  -2.7914605328018927E-002   7.8079381839372686E-003
   9.8570857770960682E-002  -2.9527311084980024E-002   1.5479596561045583E-002
   9.5726976347016532E-002  -2.8609886824748076E-002   1.5029945227211051E-002
   9.2883094923072451E-002  -2.7741661679552651E-002   1.4749341155799019E-002
   9.0039213499128329E-002  -2.6922635649393647E-002   1.4637784346809436E-002
   8.7195332075184193E-002  -2.6152808734271227E-002   1.4695274800242603E-002
   9.1696081014839198E-002  -2.7178072537197645E-002   2.2908915129174166E-002
   8.9045174593863977E-002  -2.6557810960370853E-002   2.2265370695249573E-002
   8.6394268172888797E-002  -2.5886547035316197E-002   2.1838729004840379E-002
   8.3743361751913575E-002  -2.5164280762033822E-002   2.1628990057946475E-002
   8.1092455330938396E-002  -2.4391012140523610E-002   2.1636153854567824E-002
   8.4602581801485666E-002  -2.4828833989415294E-002   2.9990970282265383E-002
   8.2192505864572163E-002  -2.4505735095993686E-002   2.9253734211515114E-002
   7.9782429927658660E-002  -2.4031432391079882E-002   2.8781256365373015E-002
   7.7372353990745185E-002  -2.3405925874673945E-002   2.8573536743839063E-002
   7.4962278053831710E-002  -2.2629215546775910E-002   2.8630575346913184E-002
   9.9319183965093150E-002  -2.9676401921766571E-002   9.7414400565193349E-004
   9.6399089811636973E-002  -2.8986247225622486E-002   7.2310642753448118E-004
   9.3478995658180769E-002  -2.8192068100318768E-002   6.2329861231869010E-004
   9.0558901504724607E-002  -2.7293864545854932E-002   6.7472056000553171E-004
   8.7638807351268389E-002  -2.6291636562231324E-002   8.7737227059425660E-004
   9.3270908286569087E-002  -2.7914605328018927E-002   7.8079381839372686E-003
   9.0505640095043360E-002  -2.7190521396370793E-002   7.6176074986307740E-003
   8.7740371903517772E-002  -2.6401639440594524E-002   7.5856989742835168E-003
   8.4975103711992087E-002  -2.5547959460690144E-002   7.7122126108947475E-003
   8.2209835520466401E-002  -2.4629481456657831E-002   7.9971484084645494E-003
   8.7195332075184193E-002  -2.6152808734271227E-002   1.4695274800242603E-002
   8.4592082243645630E-002  -2.5394795567118988E-002   1.4526424602715873E-002
   8.1988832412107082E-002  -2.4611210780870391E-002   1.4523188964204709E-002
   7.9385582580568478E-002  -2.3802054375525523E-002   1.4685567884708484E-002
   7.6782332749029902E-002  -2.2967326351084172E-002   1.5013561364228045E-002
   8.1092455330938396E-002  -2.4391012140523610E-002   2.1636153854567824E-002
   7.8658416257443561E-002  -2.3599069737867157E-002   2.1449557739788908E-002
   7.6224377183948741E-002  -2.2820782121146146E-002   2.1435768582082036E-002
   7.3790338110453935E-002  -2.2056149290360708E-002   2.1594786381447139E-002
   7.1356299036959087E-002  -2.1305171245510596E-002   2.1926611137884258E-002
   7.4962278053831710E-002  -2.2629215546775910E-002   2.8630575346913184E-002
   7.2704642136437181E-002  -2.1803343908615255E-002   2.8387006909850326E-002
   7.0447006219042707E-002  -2.1030353461422090E-002   2.8323437827916062E-002
   6.8189370301648178E-002  -2.0310244205195900E-002   2.8439868101110606E-002
   6.5931734384253704E-002  -1.9643016139936964E-002   2.8736297729433646E-002
   8.7638807351268389E-002  -2.6291636562231324E-002   8.7737227059425660E-004
   8.4328327910760392E-002  -2.5265530568520878E-002   5.8909875212986851E-004
   8.1017848470252340E-002  -2.4295692983795913E-002   4.8167072035520953E-004
   7.7707369029744372E-002  -2.3382123808056279E-002   5.5508817527002985E-004
   7.4396889589236292E-002  -2.2524823041302433E-002   8.0935111687474581E-004
   8.2209835520466401E-002  -2.4629481456657831E-002   7.9971484084645494E-003
   7.9080282362323645E-002  -2.3696401607930156E-002   7.6644933731798981E-003
   7.5950729204180972E-002  -2.2798916093940289E-002   7.5128454159358871E-003
   7.2821176046038258E-002  -2.1937024914688085E-002   7.5422045367332519E-003
   6.9691622887895599E-002  -2.1110728070173557E-002   7.7525707355712847E-003
   7.6782332749029902E-002  -2.2967326351084172E-002   1.5013561364228045E-002
   7.3833867464603825E-002  -2.2127272647339769E-002   1.4657198886370612E-002
   7.0885402180177789E-002  -2.1302139204084997E-002   1.4482005077905688E-002
   6.7936936895751782E-002  -2.0491926021319780E-002   1.4487979938832954E-002
   6.4988471611325677E-002  -1.9696633099044791E-002   1.4675123469152368E-002
   7.1356299036959087E-002  -2.1305171245510596E-002   2.1926611137884258E-002
   6.8589083217600919E-002  -2.0558143686749103E-002   2.1567215291702500E-002
   6.5821867398242764E-002  -1.9805362314229538E-002   2.1389149706264182E-002
   6.3054651578884624E-002  -1.9046827127951863E-002   2.1392414381569500E-002
   6.0287435759526449E-002  -1.8282538127915970E-002   2.1577009317618405E-002
   6.5931734384253704E-002  -1.9643016139936964E-002   2.8736297729433646E-002
   6.3345929621314800E-002  -1.8989014726158521E-002   2.8394542589175065E-002
   6.0760124858375897E-002  -1.8308585424374080E-002   2.8234279301011356E-002
   5.8174320095436993E-002  -1.7601728234583697E-002   2.8255507864942644E-002
   5.5588515332498090E-002  -1.6868443156787205E-002   2.8458228280968723E-002
   7.4396889589236292E-002  -2.2524823041302433E-002   8.0935111687474581E-004
   7.1744076736632967E-002  -2.1665411920393340E-002   6.2215922840169746E-004
   6.9091263884029752E-002  -2.0745511682187662E-002   6.5458520238753648E-004
   6.6438451031426510E-002  -1.9765122326686015E-002   9.0662903883367840E-004
   6.3785638178823212E-002  -1.8724243853888045E-002   1.3782907377389852E-003
   6.9691622887895599E-002  -2.1110728070173557E-002   7.7525707355712847E-003
   6.7248805380401788E-002  -2.0283817151071915E-002   7.6065275551225886E-003
   6.4805987872908005E-002  -1.9420083748058981E-002   7.6608572024334798E-003
   6.2363170365414208E-002  -1.8519527861133714E-002   7.9155596775034170E-003
   5.9920352857920467E-002  -1.7582149490297128E-002   8.3706349803333024E-003
   6.4988471611325677E-002  -1.9696633099044791E-002   1.4675123469152368E-002
   6.2736404414241248E-002  -1.8902222381750960E-002   1.4546562363343979E-002
   6.0484337217156722E-002  -1.8094655813929730E-002   1.4599129050594600E-002
   5.8232270020072245E-002  -1.7273933395581743E-002   1.4832823530904905E-002
   5.5980202822987796E-002  -1.6440055126705932E-002   1.5247645804273985E-002
   6.0287435759526449E-002  -1.8282538127915970E-002   2.1577009317618405E-002
   5.8206873838151228E-002  -1.7520627612429771E-002   2.1442263653065397E-002
   5.6126311916775931E-002  -1.6769227879800709E-002   2.1469400746871540E-002
   5.4045749995400683E-002  -1.6028338930028939E-002   2.1658420599037227E-002
   5.1965188074025406E-002  -1.5297960763114654E-002   2.2009323209561511E-002
   5.5588515332498090E-002  -1.6868443156787205E-002   2.8458228280968723E-002
   5.3660213652131916E-002  -1.6139032843108497E-002   2.8293631424286980E-002
   5.1731911971765715E-002  -1.5443799945671841E-002   2.8271672291264177E-002
   4.9803610291399486E-002  -1.4782744464476982E-002   2.8392350881900438E-002
   4.7875308611033340E-002  -1.4155866399523709E-002   2.8655667196195611E-002
   6.3785638178823212E-002  -1.8724243853888045E-002   1.3782907377389852E-003
   6.0293962754553787E-002  -1.7779275383378423E-002   1.1047856529226019E-003
   5.6802287330284418E-002  -1.7086616034739571E-002   9.7979412201631977E-004
   5.3310611906015104E-002  -1.6646265807972287E-002   1.0033161450208328E-003
   4.9818936481745624E-002  -1.6458224703076674E-002   1.1753517219363907E-003
   5.9920352857920467E-002  -1.7582149490297128E-002   8.3706349803333024E-003
   5.6584808581827239E-002  -1.6686019902395877E-002   7.8440681899253906E-003
   5.3249264305734012E-002  -1.5909210364278420E-002   7.4812501419589950E-003
   4.9913720029640785E-002  -1.5251720875944293E-002   7.2821808364345320E-003
   4.6578175753547502E-002  -1.4713551437393058E-002   7.2468602733519738E-003
   5.5980202822987796E-002  -1.6440055126705932E-002   1.5247645804273985E-002
   5.2816024883601959E-002  -1.5592764421414496E-002   1.4601006380362963E-002
   4.9651846944216232E-002  -1.4731804693817838E-002   1.4133350887424803E-002
   4.6487669004830520E-002  -1.3857175943916358E-002   1.3844679325459582E-002
   4.3323491065444752E-002  -1.2968878171709441E-002   1.3734991694467458E-002
   5.1965188074025406E-002  -1.5297960763114654E-002   2.2009323209561511E-002
   4.8987611659878347E-002  -1.4499508940432643E-002   2.1375600224235479E-002
   4.6010035245731280E-002  -1.3554399023356971E-002   2.0936096358413443E-002
   4.3032458831584353E-002  -1.2462631011888060E-002   2.0690811612095683E-002
   4.0054882417437140E-002  -1.1224204906025714E-002   2.0639745985282509E-002
   4.7875308611033340E-002  -1.4155866399523709E-002   2.8655667196195611E-002
   4.5099568910656196E-002  -1.3406253459450679E-002   2.8167849721542737E-002
   4.2323829210279051E-002  -1.2376993352896021E-002   2.7889486554925402E-002
   3.9548089509901810E-002  -1.1068086079859964E-002   2.7820577696343524E-002
   3.6772349809524818E-002  -9.4795316403422092E-003   2.7961123145797240E-002
   9.0357051330684432E-002   0.0000000000000000        4.9838514647156981E-002
   9.3956627022553113E-002  -5.4049399935964847E-003   5.3209251274280486E-002
   9.7556202714421808E-002  -1.0670405101755247E-002   5.4962501359982506E-002
  0.10115577840629052       -1.5796395324476284E-002   5.5098264904263027E-002
  0.10475535409815923       -2.0782910661759600E-002   5.3616541907122055E-002
   8.2417283879778230E-002   0.0000000000000000        4.4786745936286732E-002
   8.4627981763571086E-002  -4.5730650285036875E-003   4.8270005079324420E-002
   8.6838679647363928E-002  -9.0345401431644583E-003   5.0592995147631895E-002
   8.9049377531156756E-002  -1.3384425343982313E-002   5.1755716141209156E-002
   9.1260075414949612E-002  -1.7622720630957264E-002   5.1758168060056189E-002
   7.4235897811800275E-002   0.0000000000000000        4.0580794676306695E-002
   7.5514935354208529E-002  -3.7411900634108874E-003   4.4148691363663763E-002
   7.6793972896616811E-002  -7.3986751845736692E-003   4.7013536442981896E-002
   7.8073010439025065E-002  -1.0972455363488343E-002   4.9175329914261080E-002
   7.9352047981433332E-002  -1.4462530600154913E-002   5.0634071777501316E-002
   6.5812893126750552E-002   0.0000000000000000        3.7220660867216857E-002
   6.6617487794465510E-002  -2.9093150983180880E-003   4.0845310127298494E-002
   6.7422082462180455E-002  -5.7628102259828801E-003   4.4224125246032475E-002
   6.8226677129895399E-002  -8.5604853829943720E-003   4.7357106223418780E-002
   6.9031271797610372E-002  -1.1302340569352568E-002   5.0244253059457372E-002
   5.7148269824629061E-002   0.0000000000000000        3.4706344509017217E-002
   5.7935639084341975E-002  -2.0774401332252900E-003   3.8359861370228635E-002
   5.8723008344054889E-002  -4.1269452673920910E-003   4.2224761556783640E-002
   5.9510377603767817E-002  -6.1485154025004013E-003   4.6301045068682246E-002
   6.0297746863480717E-002  -8.1421505385502208E-003   5.0588711905924455E-002
  0.10475535409815923       -2.0782910661759600E-002   5.3616541907122055E-002
  0.10209832845713837       -2.4919696366812193E-002   4.5633848062519383E-002
   9.9441302816117530E-002  -2.7496497692841029E-002   3.9335846375500444E-002
   9.6784277175096689E-002  -2.8513314639846112E-002   3.4722536846065209E-002
   9.4127251534075848E-002  -2.7970147207827464E-002   3.1793919474213755E-002
   9.1260075414949612E-002  -1.7622720630957264E-002   5.1758168060056189E-002
   9.0051127884036269E-002  -2.1195290440209756E-002   4.6516034127983427E-002
   8.8842180353122954E-002  -2.3547999207860285E-002   4.2485364258541929E-002
   8.7633232822209625E-002  -2.4680846933908838E-002   3.9666158451731694E-002
   8.6424285291296282E-002  -2.4593833618355432E-002   3.8058416707552778E-002
   7.9352047981433332E-002  -1.4462530600154913E-002   5.0634071777501316E-002
   7.9117950465675019E-002  -1.7470884513607322E-002   4.7792374420536708E-002
   7.8883852949916719E-002  -1.9599500722879547E-002   4.5688913031250875E-002
   7.8649755434158419E-002  -2.0848379227971562E-002   4.4323687609643843E-002
   7.8415657918400106E-002  -2.1217520028883378E-002   4.3696698155715585E-002
   6.9031271797610372E-002  -1.1302340569352568E-002   5.0244253059457372E-002
   6.9298796202054605E-002  -1.3746478587004896E-002   4.9462868940179143E-002
   6.9566320606498852E-002  -1.5651002237898812E-002   4.8946492693627233E-002
   6.9833845010943085E-002  -1.7015911522034296E-002   4.8695124319801636E-002
   7.0101369415387332E-002  -1.7841206439411329E-002   4.8708763818702337E-002
   6.0297746863480717E-002  -8.1421505385502208E-003   5.0588711905924455E-002
   6.0593665093175028E-002  -1.0022072660402457E-002   5.1527517686910829E-002
   6.0889583322869333E-002  -1.1702503752918068E-002   5.2258103245671032E-002
   6.1185501552563637E-002  -1.3183443816097014E-002   5.2780468582205045E-002
   6.1481419782257948E-002  -1.4464892849939300E-002   5.3094613696512923E-002
   9.4127251534075848E-002  -2.7970147207827464E-002   3.1793919474213755E-002
   9.1746084100928285E-002  -2.6781445415528807E-002   3.1212953962819714E-002
   8.9364916667780736E-002  -2.5861659281693903E-002   3.0718807260363683E-002
   8.6983749234633201E-002  -2.5210788806322749E-002   3.0311479366845553E-002
   8.4602581801485666E-002  -2.4828833989415294E-002   2.9990970282265383E-002
   8.6424285291296282E-002  -2.4593833618355432E-002   3.8058416707552778E-002
   8.4173494932736737E-002  -2.3950439867532178E-002   3.7027340416929150E-002
   8.1922704574177177E-002  -2.3414146287771272E-002   3.6170199466543602E-002
   7.9671914215617604E-002  -2.2984952879072637E-002   3.5486993856396157E-002
   7.7421123857058072E-002  -2.2662859641436356E-002   3.4977723586486736E-002
   7.8415657918400106E-002  -2.1217520028883378E-002   4.3696698155715585E-002
   7.6382361165728677E-002  -2.1119434319535550E-002   4.2377326573263860E-002
   7.4349064413057248E-002  -2.0966633293848611E-002   4.1319006862350252E-002
   7.2315767660385818E-002  -2.0759116951822577E-002   4.0521739022974852E-002
   7.0282470907714389E-002  -2.0496885293457431E-002   3.9985523055137723E-002
   7.0101369415387332E-002  -1.7841206439411329E-002   4.8708763818702337E-002
   6.8372682799904161E-002  -1.8288428771538936E-002   4.7262912431823859E-002
   6.6643996184420976E-002  -1.8519120299925966E-002   4.6165229447783694E-002
   6.4915309568937804E-002  -1.8533281024572509E-002   4.5415714866581823E-002
   6.3186622953454619E-002  -1.8330910945478472E-002   4.5014368688218308E-002
   6.1481419782257948E-002  -1.4464892849939300E-002   5.3094613696512923E-002
   6.0144459835263148E-002  -1.5457423223542301E-002   5.1684097992609174E-002
   5.8807499888268326E-002  -1.6071607306003328E-002   5.0708867222843818E-002
   5.7470539941273532E-002  -1.6307445097322421E-002   5.0168921387216896E-002
   5.6133579994278718E-002  -1.6164936597499568E-002   5.0064260485728429E-002
   8.4602581801485666E-002  -2.4828833989415294E-002   2.9990970282265383E-002
   8.2192505864572163E-002  -2.4505735095993686E-002   2.9253734211515114E-002
   7.9782429927658660E-002  -2.4031432391079882E-002   2.8781256365373015E-002
   7.7372353990745185E-002  -2.3405925874673945E-002   2.8573536743839063E-002
   7.4962278053831710E-002  -2.2629215546775910E-002   2.8630575346913184E-002
   7.7421123857058072E-002  -2.2662859641436356E-002   3.4977723586486736E-002
   7.5267343556790878E-002  -2.2339721089532021E-002   3.4405027228403891E-002
   7.3113563256523656E-002  -2.1907391738029268E-002   3.4080163919005618E-002
   7.0959782956256462E-002  -2.1365871586928049E-002   3.4003133658291808E-002
   6.8806002655989240E-002  -2.0715160636228469E-002   3.4173936446262362E-002
   7.0282470907714389E-002  -2.0496885293457431E-002   3.9985523055137723E-002
   6.8368061068169839E-002  -2.0173707083070397E-002   3.9535353397828550E-002
   6.6453651228625329E-002  -1.9783351084978626E-002   3.9316091613280285E-002
   6.4539241389080765E-002  -1.9325817299182192E-002   3.9327737701492831E-002
   6.2624831549536270E-002  -1.8801105725681069E-002   3.9570291662466207E-002
   6.3186622953454619E-002  -1.8330910945478472E-002   4.5014368688218308E-002
   6.1494658398709115E-002  -1.8007693076608725E-002   4.4644712719788995E-002
   5.9802693843963653E-002  -1.7659310431928039E-002   4.4489039448197099E-002
   5.8110729289218198E-002  -1.7285763011436313E-002   4.4547348873442368E-002
   5.6418764734472694E-002  -1.6887050815133635E-002   4.4819640995524927E-002
   5.6133579994278718E-002  -1.6164936597499568E-002   5.0064260485728429E-002
   5.4647135548408693E-002  -1.5841679070147108E-002   4.9733105194285351E-002
   5.3160691102538647E-002  -1.5535269778877384E-002   4.9599007423756017E-002
   5.1674246656668615E-002  -1.5245708723690441E-002   4.9661967174140217E-002
   5.0187802210798577E-002  -1.4972995904586228E-002   4.9921984445438189E-002
   7.4962278053831710E-002  -2.2629215546775910E-002   2.8630575346913184E-002
   7.2704642136437181E-002  -2.1803343908615255E-002   2.8387006909850326E-002
   7.0447006219042707E-002  -2.1030353461422090E-002   2.8323437827916062E-002
   6.8189370301648178E-002  -2.0310244205195900E-002   2.8439868101110606E-002
   6.5931734384253704E-002  -1.9643016139936964E-002   2.8736297729433646E-002
   6.8806002655989240E-002  -2.0715160636228469E-002   3.4173936446262362E-002
   6.6729554940603078E-002  -2.0018360591426004E-002   3.3871714246288723E-002
   6.4653107225216888E-002  -1.9338573158016362E-002   3.3751869095202953E-002
   6.2576659509830712E-002  -1.8675798335999295E-002   3.3814400993005325E-002
   6.0500211794444536E-002  -1.8030036125375126E-002   3.4059309939695609E-002
   6.2624831549536270E-002  -1.8801105725681069E-002   3.9570291662466207E-002
   6.0731949729917724E-002  -1.8233377274236733E-002   3.9245284279156190E-002
   5.8839067910299234E-002  -1.7646792854610609E-002   3.9105031638493465E-002
   5.6946186090680743E-002  -1.7041352466802776E-002   3.9149533740478061E-002
   5.5053304271062226E-002  -1.6417056110813261E-002   3.9378790585110124E-002
   5.6418764734472694E-002  -1.6887050815133635E-002   4.4819640995524927E-002
   5.4711826504381222E-002  -1.6448393957047388E-002   4.4507717008452879E-002
   5.3004888274289702E-002  -1.5955012551204871E-002   4.4382925457787568E-002
   5.1297950044198203E-002  -1.5406906597606242E-002   4.4445266343528932E-002
   4.9591011814106731E-002  -1.4804076096251353E-002   4.4694739665677038E-002
   5.0187802210798577E-002  -1.4972995904586228E-002   4.9921984445438189E-002
   4.8669185263993442E-002  -1.4663410639858154E-002   4.9659012434178640E-002
   4.7150568317188321E-002  -1.4263232247799129E-002   4.9585550553085306E-002
   4.5631951370383179E-002  -1.3772460728409708E-002   4.9701598802157895E-002
   4.4113334423578066E-002  -1.3191096081689557E-002   5.0007157181396533E-002
   6.5931734384253704E-002  -1.9643016139936964E-002   2.8736297729433646E-002
   6.3345929621314800E-002  -1.8989014726158521E-002   2.8394542589175065E-002
   6.0760124858375897E-002  -1.8308585424374080E-002   2.8234279301011356E-002
   5.8174320095436993E-002  -1.7601728234583697E-002   2.8255507864942644E-002
   5.5588515332498090E-002  -1.6868443156787205E-002   2.8458228280968723E-002
   6.0500211794444536E-002  -1.8030036125375126E-002   3.4059309939695609E-002
   5.8097470354994171E-002  -1.7392870492872720E-002   3.3716865008835056E-002
   5.5694728915543862E-002  -1.6755885405220744E-002   3.3559054872856847E-002
   5.3291987476093525E-002  -1.6119080862419900E-002   3.3585879531760683E-002
   5.0889246036643132E-002  -1.5482456864469474E-002   3.3797338985547015E-002
   5.5053304271062226E-002  -1.6417056110813261E-002   3.9378790585110124E-002
   5.2836769097887731E-002  -1.5796726259586599E-002   3.9009047430790894E-002
   5.0620233924713237E-002  -1.5203185386067408E-002   3.8827082014141340E-002
   4.8403698751538729E-002  -1.4636433490255882E-002   3.8832894335161260E-002
   4.6187163578364263E-002  -1.4096470572151770E-002   3.9026484393850494E-002
   4.9591011814106731E-002  -1.4804076096251353E-002   4.4694739665677038E-002
   4.7563825849995370E-002  -1.4200582026300528E-002   4.4271089855042363E-002
   4.5536639885884037E-002  -1.3650485366914100E-002   4.4038360724864722E-002
   4.3509453921772689E-002  -1.3153786118091891E-002   4.3996552275143687E-002
   4.1482267957661342E-002  -1.2710484279833997E-002   4.4145664505879575E-002
   4.4113334423578066E-002  -1.3191096081689557E-002   5.0007157181396533E-002
   4.2278640611317156E-002  -1.2604437793014650E-002   4.9502992281589775E-002
   4.0443946799056274E-002  -1.2097785347760723E-002   4.9192891005027134E-002
   3.8609252986795392E-002  -1.1671138745928063E-002   4.9076853351708541E-002
   3.6774559174534482E-002  -1.1324497987516335E-002   4.9154879321634093E-002
   5.5588515332498090E-002  -1.6868443156787205E-002   2.8458228280968723E-002
   5.3660213652131916E-002  -1.6139032843108497E-002   2.8293631424286980E-002
   5.1731911971765715E-002  -1.5443799945671841E-002   2.8271672291264177E-002
   4.9803610291399486E-002  -1.4782744464476982E-002   2.8392350881900438E-002
   4.7875308611033340E-002  -1.4155866399523709E-002   2.8655667196195611E-002
   5.0889246036643132E-002  -1.5482456864469474E-002   3.3797338985547015E-002
   4.9111936933944028E-002  -1.4838425260416649E-002   3.3628692990856107E-002
   4.7334627831244883E-002  -1.4179397899308416E-002   3.3619394427840690E-002
   4.5557318728545786E-002  -1.3505374781144462E-002   3.3769443296500161E-002
   4.3780009625846633E-002  -1.2816355905924837E-002   3.4078839596834998E-002
   4.6187163578364263E-002  -1.4096470572151770E-002   3.9026484393850494E-002
   4.4577556761348336E-002  -1.3537817677724898E-002   3.8902962434448338E-002
   4.2967949944332423E-002  -1.2914995852944998E-002   3.8955497614737412E-002
   4.1358343127316462E-002  -1.2228005097812055E-002   3.9184089934717767E-002
   3.9748736310300570E-002  -1.1476845412326020E-002   3.9588739394389560E-002
   4.1482267957661342E-002  -1.2710484279833997E-002   4.4145664505879575E-002
   4.0057073134344832E-002  -1.2237210095033015E-002   4.4116439755063241E-002
   3.8631878311028302E-002  -1.1650593806581577E-002   4.4279981851954385E-002
   3.7206683487711764E-002  -1.0950635414479538E-002   4.4636290796552798E-002
   3.5781488664395261E-002  -1.0137334918727231E-002   4.5185366588858862E-002
   3.6774559174534482E-002  -1.1324497987516335E-002   4.9154879321634093E-002
   3.5550486052933511E-002  -1.0936602512341298E-002   4.9269124952700916E-002
   3.4326412931332512E-002  -1.0386191760218169E-002   4.9592847139491664E-002
   3.3102339809731512E-002  -9.6732657311473270E-003   5.0126045882005990E-002
   3.1878266688130541E-002  -8.7978244251283866E-003   5.0868721180243714E-002
   4.7875308611033340E-002  -1.4155866399523709E-002   2.8655667196195611E-002
   4.5099568910656196E-002  -1.3406253459450679E-002   2.8167849721542737E-002
   4.2323829210279051E-002  -1.2376993352896021E-002   2.7889486554925402E-002
   3.9548089509901810E-002  -1.1068086079859964E-002   2.7820577696343524E-002
   3.6772349809524818E-002  -9.4795316403422092E-003   2.7961123145797240E-002
   4.3780009625846633E-002  -1.2816355905924837E-002   3.4078839596834998E-002
   4.1199807941308036E-002  -1.2070926208701066E-002   3.3829868026342802E-002
   3.8619606256769454E-002  -1.1227670624524677E-002   3.3762518179492412E-002
   3.6039404572230892E-002  -1.0286589153394976E-002   3.3876790056282940E-002
   3.3459202887692330E-002  -9.2476817953128787E-003   3.4172683656715885E-002
   3.9748736310300570E-002  -1.1476845412326020E-002   3.9588739394389560E-002
   3.7336240057206566E-002  -1.0735598957951453E-002   3.9396792448529339E-002
   3.4923743804112541E-002  -1.0078347896152764E-002   3.9358634641916843E-002
   3.2511247551018460E-002  -9.5050922269301792E-003   3.9474265974552218E-002
   3.0098751297924581E-002  -9.0158319502834372E-003   3.9743686446434501E-002
   3.5781488664395261E-002  -1.0137334918727231E-002   4.5185366588858862E-002
   3.3508865258351728E-002  -9.4002717072018405E-003   4.4868622988102153E-002
   3.1236241852308215E-002  -8.9290251677812474E-003   4.4677835942199040E-002
   2.8963618446264817E-002  -8.7235953004653980E-003   4.4613005451149400E-002
   2.6690995040221231E-002  -8.7839821052540512E-003   4.4674131514953294E-002
   3.1878266688130541E-002  -8.7978244251283866E-003   5.0868721180243714E-002
   2.9717683544743578E-002  -8.0649444564522832E-003   5.0245359645061605E-002
   2.7557100401356574E-002  -7.7797024394094944E-003   4.9720122080339019E-002
   2.5396517257969618E-002  -7.9420983740005301E-003   4.9293008486075887E-002
   2.3235934114582635E-002  -8.5521322602246652E-003   4.8964018862272196E-002
   5.7148269824629061E-002   0.0000000000000000        3.4706344509017217E-002
   5.7935639084341975E-002  -2.0774401332252900E-003   3.8359861370228635E-002
   5.8723008344054889E-002  -4.1269452673920910E-003   4.2224761556783640E-002
   5.9510377603767817E-002  -6.1485154025004013E-003   4.6301045068682246E-002
   6.0297746863480717E-002  -8.1421505385502208E-003   5.0588711905924455E-002
   4.8652230852347794E-002   0.0000000000000000        3.2811527084682608E-002
   4.9586516150992799E-002  -1.7057199753528884E-003   3.6985838676325759E-002
   5.0520801449637810E-002  -3.4264254695821894E-003   4.1242599020489525E-002
   5.1455086748282815E-002  -5.1621164826878962E-003   4.5581808117173848E-002
   5.2389372046927826E-002  -6.9127930146700208E-003   5.0003465966378800E-002
   4.0734979156818729E-002   0.0000000000000000        3.1309890077187853E-002
   4.1687245921572830E-002  -1.3339998174804850E-003   3.5962075881327847E-002
   4.2639512686326923E-002  -2.7259056717722843E-003   4.0567775865165433E-002
   4.3591779451081038E-002  -4.1757175628753945E-003   4.5126990028700603E-002
   4.4544046215835131E-002  -5.6834354907898130E-003   4.9639718371933386E-002
   3.3396514738041866E-002   0.0000000000000000        3.0201433486532949E-002
   3.4237828396082061E-002  -9.6227965960808248E-004   3.5288572985234884E-002
   3.5079142054122256E-002  -2.0253858739623766E-003   4.0200292090811399E-002
   3.5920455712162437E-002  -3.1893186430628903E-003   4.4936590803262517E-002
   3.6761769370202632E-002  -4.4540779669096035E-003   4.9497469122588220E-002
   2.6636837596017208E-002   0.0000000000000000        2.9486157312717899E-002
   2.7238263574520485E-002  -5.9055950173567996E-004   3.4965329988046870E-002
   2.7839689553023766E-002  -1.3248660761524776E-003   4.0140147697427429E-002
   2.8441115531527044E-002  -2.2029197232503860E-003   4.5010610440859584E-002
   2.9042541510030322E-002  -3.2247204430294043E-003   4.9576718218343307E-002
   6.0297746863480717E-002  -8.1421505385502208E-003   5.0588711905924455E-002
   6.0593665093175028E-002  -1.0022072660402457E-002   5.1527517686910829E-002
   6.0889583322869333E-002  -1.1702503752918068E-002   5.2258103245671032E-002
   6.1185501552563637E-002  -1.3183443816097014E-002   5.2780468582205045E-002
   6.1481419782257948E-002  -1.4464892849939300E-002   5.3094613696512923E-002
   5.2389372046927826E-002  -6.9127930146700208E-003   5.0003465966378800E-002
   5.2514870326124820E-002  -8.5754797503539947E-003   5.1238349074958903E-002
   5.2640368605321806E-002  -1.0047201374565263E-002   5.2340612504770574E-002
   5.2765866884518807E-002  -1.1327957887303845E-002   5.3310256255813759E-002
   5.2891365163715780E-002  -1.2417749288569729E-002   5.4147280328088514E-002
   4.4544046215835131E-002  -5.6834354907898130E-003   4.9639718371933386E-002
   4.4574725087992526E-002  -7.1288868403055110E-003   5.1162152890243277E-002
   4.4605403960149927E-002  -8.3918989962124702E-003   5.2627568273242456E-002
   4.4636082832307328E-002  -9.4724719585106767E-003   5.4035964520930894E-002
   4.4666761704464722E-002  -1.0370605727200142E-002   5.5387341633308600E-002
   3.6761769370202632E-002  -4.4540779669096035E-003   4.9497469122588220E-002
   3.6773229378778166E-002  -5.6822939302570413E-003   5.1298929132763953E-002
   3.6784689387353672E-002  -6.7365966178596854E-003   5.3118970551086678E-002
   3.6796149395929206E-002  -7.6169860297175054E-003   5.4957593377556388E-002
   3.6807609404504733E-002  -8.3234621658305561E-003   5.6814797612173062E-002
   2.9042541510030322E-002  -3.2247204430294043E-003   4.9576718218343307E-002
   2.9110383198481703E-002  -4.2357010202085706E-003   5.1648677802520915E-002
   2.9178224886933085E-002  -5.0812942395068693E-003   5.3814819338303239E-002
   2.9246066575384460E-002  -5.7615001009243541E-003   5.6075142825690288E-002
   2.9313908263835842E-002  -6.2763186044609773E-003   5.8429648264682034E-002
   6.1481419782257948E-002  -1.4464892849939300E-002   5.3094613696512923E-002
   6.0144459835263148E-002  -1.5457423223542301E-002   5.1684097992609174E-002
   5.8807499888268326E-002  -1.6071607306003328E-002   5.0708867222843818E-002
   5.7470539941273532E-002  -1.6307445097322421E-002   5.0168921387216896E-002
   5.6133579994278718E-002  -1.6164936597499568E-002   5.0064260485728429E-002
   5.2891365163715780E-002  -1.2417749288569729E-002   5.4147280328088514E-002
   5.1942522545736072E-002  -1.3259384922855642E-002   5.3396894535167064E-002
   5.0993679927756330E-002  -1.3795674134654372E-002   5.2987458466137283E-002
   5.0044837309776602E-002  -1.4026616923965887E-002   5.2918972120999323E-002
   4.9095994691796881E-002  -1.3952213290790258E-002   5.3191435499752943E-002
   4.4666761704464722E-002  -1.0370605727200142E-002   5.5387341633308600E-002
   4.4011701205253342E-002  -1.1061346622169014E-002   5.5224085882714664E-002
   4.3356640706041984E-002  -1.1519740963305426E-002   5.5307444645765730E-002
   4.2701580206830604E-002  -1.1745788750609410E-002   5.5637417922461734E-002
   4.2046519707619232E-002  -1.1739489984080947E-002   5.6214005712802786E-002
   3.6807609404504733E-002  -8.3234621658305561E-003   5.6814797612173062E-002
   3.6351995813814993E-002  -8.8633083214823567E-003   5.7165672035251934E-002
   3.5896382223125252E-002  -9.2438077919564880E-003   5.7668825761729055E-002
   3.5440768632435511E-002  -9.4649605772529032E-003   5.8324258791604473E-002
   3.4985155041745777E-002  -9.5267666773716370E-003   5.9131971124878099E-002
   2.9313908263835842E-002  -6.2763186044609773E-003   5.8429648264682034E-002
   2.8963406371421013E-002  -6.6652700207957168E-003   5.9221652992778893E-002
   2.8612904479006177E-002  -6.9678746206075243E-003   6.0071601814027348E-002
   2.8262402586591340E-002  -7.1841324038963844E-003   6.0979494728427341E-002
   2.7911900694176511E-002  -7.3140433706623403E-003   6.1945331735978867E-002
   5.6133579994278718E-002  -1.6164936597499568E-002   5.0064260485728429E-002
   5.4647135548408693E-002  -1.5841679070147108E-002   4.9733105194285351E-002
   5.3160691102538647E-002  -1.5535269778877384E-002   4.9599007423756017E-002
   5.1674246656668615E-002  -1.5245708723690441E-002   4.9661967174140217E-002
   5.0187802210798577E-002  -1.4972995904586228E-002   4.9921984445438189E-002
   4.9095994691796881E-002  -1.3952213290790258E-002   5.3191435499752943E-002
   4.7796735014308762E-002  -1.3722387201038105E-002   5.2832842901373883E-002
   4.6497475336820651E-002  -1.3487062620620310E-002   5.2651562318844991E-002
   4.5198215659332540E-002  -1.3246239549536725E-002   5.2647593752166350E-002
   4.3898955981844415E-002  -1.2999917987787490E-002   5.2820937201337931E-002
   4.2046519707619232E-002  -1.1739489984080947E-002   5.6214005712802786E-002
   4.0914699293449618E-002  -1.1603095331929159E-002   5.5850322534236135E-002
   3.9782878879280018E-002  -1.1438855462363236E-002   5.5644205866456374E-002
   3.8651058465110397E-002  -1.1246770375383077E-002   5.5595655709463232E-002
   3.7519238050940824E-002  -1.1026840070988780E-002   5.5704672063257035E-002
   3.4985155041745777E-002  -9.5267666773716370E-003   5.9131971124878099E-002
   3.4001028385831245E-002  -9.4838034628202256E-003   5.8785544092872379E-002
   3.3016901729916712E-002  -9.3906483041061202E-003   5.8576938066590020E-002
   3.2032775074002186E-002  -9.2473012012294076E-003   5.8506153046031038E-002
   3.1048648418087660E-002  -9.0537621541900842E-003   5.8573189031195350E-002
   2.7911900694176511E-002  -7.3140433706623403E-003   6.1945331735978867E-002
   2.7055722291453643E-002  -7.3645115937112371E-003   6.1638507577282467E-002
   2.6199543888730775E-002  -7.3424411458490636E-003   6.1449758919246082E-002
   2.5343365486007907E-002  -7.2478320270757341E-003   6.1379085761869595E-002
   2.4487187083285025E-002  -7.0806842373913326E-003   6.1426488105153026E-002
   5.0187802210798577E-002  -1.4972995904586228E-002   4.9921984445438189E-002
   4.8669185263993442E-002  -1.4663410639858154E-002   4.9659012434178640E-002
   4.7150568317188321E-002  -1.4263232247799129E-002   4.9585550553085306E-002
   4.5631951370383179E-002  -1.3772460728409708E-002   4.9701598802157895E-002
   4.4113334423578066E-002  -1.3191096081689557E-002   5.0007157181396533E-002
   4.3898955981844415E-002  -1.2999917987787490E-002   5.2820937201337931E-002
   4.2575542491723031E-002  -1.2719577619775685E-002   5.2549352939241650E-002
   4.1252129001601620E-002  -1.2376698129904495E-002   5.2478665460346935E-002
   3.9928715511480209E-002  -1.1971279518173811E-002   5.2608874764653576E-002
   3.8605302021358812E-002  -1.1503321784583798E-002   5.2939980852161533E-002
   3.7519238050940824E-002  -1.1026840070988780E-002   5.5704672063257035E-002
   3.6402414670538494E-002  -1.0775744599693299E-002   5.5396421544852775E-002
   3.5285591290136170E-002  -1.0490164012009695E-002   5.5300454462685292E-002
   3.4168767909733853E-002  -1.0170098307937886E-002   5.5416770816754696E-002
   3.3051944529331551E-002  -9.8155474874780380E-003   5.5745370607060793E-002
   3.1048648418087660E-002  -9.0537621541900842E-003   5.8573189031195350E-002
   3.0149801800439829E-002  -8.8319115796109682E-003   5.8200218251011834E-002
   2.9250955182791992E-002  -8.6036298941148948E-003   5.8050917560100404E-002
   2.8352108565144165E-002  -8.3689170977020305E-003   5.8125286958461211E-002
   2.7453261947496348E-002  -8.1277731903721950E-003   5.8423326446094187E-002
   2.4487187083285025E-002  -7.0806842373913326E-003   6.1426488105153026E-002
   2.3817703881427045E-002  -6.8880785595284710E-003   6.0960743057718869E-002
   2.3148220679569072E-002  -6.7170957762202055E-003   6.0730054752592300E-002
   2.2478737477711098E-002  -6.5677358874660363E-003   6.0734423189773387E-002
   2.1809254275853118E-002  -6.4399988932665186E-003   6.0973848369261840E-002
   4.4113334423578066E-002  -1.3191096081689557E-002   5.0007157181396533E-002
   4.2278640611317156E-002  -1.2604437793014650E-002   4.9502992281589775E-002
   4.0443946799056274E-002  -1.2097785347760723E-002   4.9192891005027134E-002
   3.8609252986795392E-002  -1.1671138745928063E-002   4.9076853351708541E-002
   3.6774559174534482E-002  -1.1324497987516335E-002   4.9154879321634093E-002
   3.8605302021358812E-002  -1.1503321784583798E-002   5.2939980852161533E-002
   3.6978607376514150E-002  -1.1017919944268872E-002   5.2350598030803497E-002
   3.5351912731669544E-002  -1.0560169012363438E-002   5.1983149921033880E-002
   3.3725218086824889E-002  -1.0130068988867782E-002   5.1837636522852719E-002
   3.2098523441980234E-002  -9.7276198737816788E-003   5.1914057836260019E-002
   3.3051944529331551E-002  -9.8155474874780380E-003   5.5745370607060793E-002
   3.1661120140247467E-002  -9.4314020955231087E-003   5.5123124799163079E-002
   3.0270295751163363E-002  -9.0225526769663264E-003   5.4750684791198052E-002
   2.8879471362079277E-002  -8.5889992318076685E-003   5.4628050583165680E-002
   2.7488646972995176E-002  -8.1307417600470777E-003   5.4755222175066051E-002
   2.7453261947496348E-002  -8.1277731903721950E-003   5.8423326446094187E-002
   2.6326178902517063E-002  -7.8448842467773380E-003   5.7820572586668187E-002
   2.5199095857537816E-002  -7.4849363415691837E-003   5.7495495615519310E-002
   2.4072012812558566E-002  -7.0479294747474155E-003   5.7448095532647424E-002
   2.2944929767579291E-002  -6.5338636463123934E-003   5.7678372338052494E-002
   2.1809254275853118E-002  -6.4399988932665186E-003   6.0973848369261840E-002
   2.0973783663322976E-002  -6.2583663980315951E-003   6.0442941393319238E-002
   2.0138313050792847E-002  -5.9473200061718884E-003   6.0217582393997909E-002
   1.9302842438262705E-002  -5.5068597176872632E-003   6.0297771371297840E-002
   1.8467371825732590E-002  -4.9369855325778200E-003   6.0683508325218960E-002
   3.6774559174534482E-002  -1.1324497987516335E-002   4.9154879321634093E-002
   3.5550486052933511E-002  -1.0936602512341298E-002   4.9269124952700916E-002
   3.4326412931332512E-002  -1.0386191760218169E-002   4.9592847139491664E-002
   3.3102339809731512E-002  -9.6732657311473270E-003   5.0126045882005990E-002
   3.1878266688130541E-002  -8.7978244251283866E-003   5.0868721180243714E-002
   3.2098523441980234E-002  -9.7276198737816788E-003   5.1914057836260019E-002
   3.1033152451326471E-002  -9.3151068704248330E-003   5.2148835287069178E-002
   2.9967781460672631E-002  -8.8548151821172122E-003   5.2491540444049023E-002
   2.8902410470018815E-002  -8.3467448088585076E-003   5.2942173307199802E-002
   2.7837039479365014E-002  -7.7908957506486742E-003   5.3500733876521211E-002
   2.7488646972995176E-002  -8.1307417600470777E-003   5.4755222175066051E-002
   2.6480429263735714E-002  -7.6936112285085900E-003   5.4995794853620508E-002
   2.5472211554476210E-002  -7.3234386040159707E-003   5.5242746388792806E-002
   2.4463993845216723E-002  -7.0202238865694089E-003   5.5496076780582965E-002
   2.3455776135957208E-002  -6.7839670761687121E-003   5.5755786028991131E-002
   2.2944929767579291E-002  -6.5338636463123934E-003   5.7678372338052494E-002
   2.1892316490161254E-002  -6.0721155865922083E-003   5.7810003652355141E-002
   2.0839703212743199E-002  -5.7920620259147883E-003   5.7846464973722894E-002
   1.9787089935325144E-002  -5.6937029642804499E-003   5.7787756302155678E-002
   1.8734476657907111E-002  -5.7770384016889859E-003   5.7633877637653347E-002
   1.8467371825732590E-002  -4.9369855325778200E-003   6.0683508325218960E-002
   1.7268814130603105E-002  -4.4506199446758821E-003   6.0591461683273007E-002
   1.6070256435473627E-002  -4.2606854478137307E-003   6.0302696198839295E-002
   1.4871698740344174E-002  -4.3671820419914527E-003   5.9817211871917617E-002
   1.3673141045214693E-002  -4.7701097272089821E-003   5.9135008702508152E-002
   3.1878266688130541E-002  -8.7978244251283866E-003   5.0868721180243714E-002
   2.9717683544743578E-002  -8.0649444564522832E-003   5.0245359645061605E-002
   2.7557100401356574E-002  -7.7797024394094944E-003   4.9720122080339019E-002
   2.5396517257969618E-002  -7.9420983740005301E-003   4.9293008486075887E-002
   2.3235934114582635E-002  -8.5521322602246652E-003   4.8964018862272196E-002
   2.7837039479365014E-002  -7.7908957506486742E-003   5.3500733876521211E-002
   2.5938076743899169E-002  -7.2150328549932807E-003   5.2473138163311700E-002
   2.4039114008433331E-002  -6.6469209693972436E-003   5.1870659295485316E-002
   2.2140151272967461E-002  -6.0865600938612742E-003   5.1693297273041131E-002
   2.0241188537501620E-002  -5.5339502283846542E-003   5.1941052095980322E-002
   2.3455776135957208E-002  -6.7839670761687121E-003   5.5755786028991131E-002
   2.2145426683335703E-002  -6.3651212535340840E-003   5.4763843079328509E-002
   2.0835077230714222E-002  -5.5141394993850554E-003   5.4524009849971598E-002
   1.9524727778092756E-002  -4.2310218137219923E-003   5.5036286340920726E-002
   1.8214378325471153E-002  -2.5157681965446432E-003   5.6300672552175579E-002
   1.8734476657907111E-002  -5.7770384016889859E-003   5.7633877637653347E-002
   1.8339733363053157E-002  -5.5152096520749844E-003   5.7117474393111003E-002
   1.7944990068199235E-002  -4.3813580293727804E-003   5.7680173743797983E-002
   1.7550246773345303E-002  -2.3754835335826679E-003   5.9321975689714070E-002
   1.7155503478491367E-002   5.0241383529531225E-004   6.2042880230859229E-002
   1.3673141045214693E-002  -4.7701097272089821E-003   5.9135008702508152E-002
   1.4520996783051562E-002  -4.6652980506158848E-003   5.9534032104660128E-002
   1.5368852520888446E-002  -3.2485765593605193E-003   6.1339150976964490E-002
   1.6216708258725329E-002  -5.1994525344348577E-004   6.4550365319420835E-002
   1.7064563996562199E-002   3.5205958671353788E-003   6.9167675132030260E-002
   2.6636837596017208E-002   0.0000000000000000        2.9486157312717899E-002
   2.7238263574520485E-002  -5.9055950173567996E-004   3.4965329988046870E-002
   2.7839689553023766E-002  -1.3248660761524776E-003   4.0140147697427429E-002
   2.8441115531527044E-002  -2.2029197232503860E-003   4.5010610440859584E-002
   2.9042541510030322E-002  -3.2247204430294043E-003   4.9576718218343307E-002
   2.0120068592761747E-002   0.0000000000000000        2.9032024705946895E-002
   2.0455888169643225E-002  -4.4381846073499390E-004   3.4330862197460010E-002
   2.0791707746524706E-002  -9.9611534664621228E-004   3.9402841851677917E-002
   2.1127527323406184E-002  -1.6568906577336595E-003   4.4247963668600662E-002
   2.1463346900287662E-002  -2.4261443939973286E-003   4.8866227648228226E-002
   1.3510328590292482E-002   0.0000000000000000        2.8706998816424138E-002
   1.3658038894205388E-002  -2.9707741973430610E-004   3.3860769771626276E-002
   1.3805749198118292E-002  -6.6736461713994867E-004   3.8865180018186445E-002
   1.3953459502031196E-002  -1.1108615922169286E-003   4.3720229556104655E-002
   1.4101169805944100E-002  -1.6275683449652463E-003   4.8425918385380920E-002
   6.8076175886094131E-003   0.0000000000000000        2.8511079644149617E-002
   6.8447157482069672E-003  -1.5033637873361960E-004   3.3555052710545680E-002
   6.8818139078045230E-003  -3.3861388763368680E-004   3.8527162196952992E-002
   6.9189120674020771E-003  -5.6483252670020160E-004   4.3427408103371569E-002
   6.9560102269996321E-003  -8.2899229593316726E-004   4.8255790429801410E-002
   1.1935587712538602E-005   0.0000000000000000        2.8444267189123344E-002
   1.5918731647968955E-005  -3.5953377329313654E-006   3.3413711014218202E-002
   1.9901875583401042E-005  -9.8631581274214591E-006   3.8388788387977546E-002
   2.3885019518831829E-005  -1.8803461183471148E-005   4.3369499310401384E-002
   2.7868163454262615E-005  -3.0416246901085638E-005   4.8355843781489709E-002
   2.9042541510030322E-002  -3.2247204430294043E-003   4.9576718218343307E-002
   2.9110383198481703E-002  -4.2357010202085706E-003   5.1648677802520915E-002
   2.9178224886933085E-002  -5.0812942395068693E-003   5.3814819338303239E-002
   2.9246066575384460E-002  -5.7615001009243541E-003   5.6075142825690288E-002
   2.9313908263835842E-002  -6.2763186044609773E-003   5.8429648264682034E-002
   2.1463346900287662E-002  -2.4261443939973286E-003   4.8866227648228226E-002
   2.1598416352455640E-002  -3.1874416607613415E-003   5.1273139920945003E-002
   2.1733485804623615E-002  -3.8243475633498352E-003   5.3720325769490249E-002
   2.1868555256791586E-002  -4.3368621017627887E-003   5.6207785193863956E-002
   2.2003624708959571E-002  -4.7249852760002306E-003   5.8735518194066194E-002
   1.4101169805944100E-002  -1.6275683449652463E-003   4.8425918385380920E-002
   1.4249558646052433E-002  -2.1391823013141254E-003   5.1126787352931538E-002
   1.4397947486160767E-002  -2.5674008871927802E-003   5.3814021520534397E-002
   1.4546336326269105E-002  -2.9122241026012237E-003   5.6487620888189510E-002
   1.4694725166377435E-002  -3.1736519475394458E-003   5.9147585455896851E-002
   6.9560102269996321E-003  -8.2899229593316726E-004   4.8255790429801410E-002
   7.0638100792720900E-003  -1.0909229418669063E-003   5.1209620098480575E-002
   7.1716099315445453E-003  -1.3104542110357184E-003   5.4095906591435747E-002
   7.2794097838170015E-003  -1.4875861034396585E-003   5.6914649908666924E-002
   7.3872096360894585E-003  -1.6223186190786661E-003   5.9665850050174121E-002
   2.7868163454262615E-005  -3.0416246901085638E-005   4.8355843781489709E-002
   4.1170652114603298E-005  -4.2663582419677666E-005   5.1521638157592101E-002
   5.4473140774943980E-005  -5.3507534878685344E-005   5.4565980982194263E-002
   6.7775629435283796E-005  -6.2948104278095281E-005   5.7488872255296190E-002
   8.1078118095625346E-005  -7.0985290617914254E-005   6.0290311976897867E-002
   2.9313908263835842E-002  -6.2763186044609773E-003   5.8429648264682034E-002
   2.8963406371421013E-002  -6.6652700207957168E-003   5.9221652992778893E-002
   2.8612904479006177E-002  -6.9678746206075243E-003   6.0071601814027348E-002
   2.8262402586591340E-002  -7.1841324038963844E-003   6.0979494728427341E-002
   2.7911900694176511E-002  -7.3140433706623403E-003   6.1945331735978867E-002
   2.2003624708959571E-002  -4.7249852760002306E-003   5.8735518194066194E-002
   2.1720271944140362E-002  -5.0206875963267131E-003   5.9611510548985870E-002
   2.1436919179321171E-002  -5.2559395730069781E-003   6.0563857065945324E-002
   2.1153566414501973E-002  -5.4307412060410100E-003   6.1592557744944473E-002
   2.0870213649682778E-002  -5.5450924954287689E-003   6.2697612585983387E-002
   1.4694725166377435E-002  -3.1736519475394458E-003   5.9147585455896851E-002
   1.4496931598042048E-002  -3.3761051718577632E-003   6.0081668964762747E-002
   1.4299138029706658E-002  -3.5440045254064726E-003   6.1110516704556500E-002
   1.4101344461371269E-002  -3.6773500081856217E-003   6.2234128675278166E-002
   1.3903550893035875E-002  -3.7761416201951628E-003   6.3452504876927732E-002
   7.3872096360894585E-003  -1.6223186190786661E-003   5.9665850050174121E-002
   7.2933853331260496E-003  -1.7315227473887864E-003   6.0632128240109474E-002
   7.1995610301626399E-003  -1.8320694778059606E-003   6.1711580729860903E-002
   7.1057367271992310E-003  -1.9239588103302056E-003   6.2904207519428365E-002
   7.0119124242358239E-003  -2.0071907449615879E-003   6.4210008608811958E-002
   8.1078118095625346E-005  -7.0985290617914254E-005   6.0290311976897867E-002
   1.0963314939237308E-004  -8.6940322919809576E-005   6.1262888375026039E-002
   1.3818818068911908E-004  -1.2013443020542428E-004   6.2367049141858498E-002
   1.6674321198586594E-004  -1.7056761247485289E-004   6.3602794277395153E-002
   1.9529824328261280E-004  -2.3823986972797140E-004   6.4970123781636066E-002
   2.7911900694176511E-002  -7.3140433706623403E-003   6.1945331735978867E-002
   2.7055722291453643E-002  -7.3645115937112371E-003   6.1638507577282467E-002
   2.6199543888730775E-002  -7.3424411458490636E-003   6.1449758919246082E-002
   2.5343365486007907E-002  -7.2478320270757341E-003   6.1379085761869595E-002
   2.4487187083285025E-002  -7.0806842373913326E-003   6.1426488105153026E-002
   2.0870213649682778E-002  -5.5450924954287689E-003   6.2697612585983387E-002
   2.0166516567154819E-002  -5.6039679176613857E-003   6.2561738565456437E-002
   1.9462819484626873E-002  -5.6123419492299202E-003   6.2612751684659310E-002
   1.8759122402098927E-002  -5.5702145901344756E-003   6.2850651943592128E-002
   1.8055425319570974E-002  -5.4775858403749433E-003   6.3275439342254880E-002
   1.3903550893035875E-002  -3.7761416201951628E-003   6.3452504876927732E-002
   1.3421146769772810E-002  -3.8434242416114511E-003   6.3465543714323044E-002
   1.2938742646509741E-002  -3.8822427526107751E-003   6.3734281330518297E-002
   1.2456338523246669E-002  -3.8925971531931195E-003   6.4258717725513337E-002
   1.1973934399983607E-002  -3.8744874433585264E-003   6.5038852899308289E-002
   7.0119124242358239E-003  -2.0071907449615879E-003   6.4210008608811958E-002
   6.8196128993075894E-003  -2.0828805655615443E-003   6.4349923023882552E-002
   6.6273133743793601E-003  -2.1521435559915892E-003   6.4814347856822982E-002
   6.4350138494511282E-003  -2.2149797162517981E-003   6.5603283107633151E-002
   6.2427143245228946E-003  -2.2713890463421926E-003   6.6716728776313267E-002
   1.9529824328261280E-004  -2.3823986972797140E-004   6.4970123781636066E-002
   3.6191495575917457E-004  -3.2233688951164435E-004   6.5214876494134807E-002
   5.2853166823573806E-004  -4.2204435937248999E-004   6.5852951263573323E-002
   6.9514838071230243E-004  -5.3736227931047795E-004   6.6884348089951598E-002
   8.6176509318886332E-004  -6.6829064932574789E-004   6.8309066973269689E-002
   2.4487187083285025E-002  -7.0806842373913326E-003   6.1426488105153026E-002
   2.3817703881427045E-002  -6.8880785595284710E-003   6.0960743057718869E-002
   2.3148220679569072E-002  -6.7170957762202055E-003   6.0730054752592300E-002
   2.2478737477711098E-002  -6.5677358874660363E-003   6.0734423189773387E-002
   2.1809254275853118E-002  -6.4399988932665186E-003   6.0973848369261840E-002
   1.8055425319570974E-002  -5.4775858403749433E-003   6.3275439342254880E-002
   1.7598549521427212E-002  -5.3636289057033271E-003   6.3122781842656933E-002
   1.7141673723283457E-002  -5.2575169918716858E-003   6.3160282408179919E-002
   1.6684797925139695E-002  -5.1592500988798876E-003   6.3387941038823836E-002
   1.6227922126995933E-002  -5.0688282267279394E-003   6.3805757734588464E-002
   1.1973934399983607E-002  -3.8744874433585264E-003   6.5038852899308289E-002
   1.1684767328367400E-002  -3.8391792518781692E-003   6.5213060821261104E-002
   1.1395600256751192E-002  -3.7979382075231938E-003   6.5532528131148071E-002
   1.1106433185134988E-002  -3.7507643102936833E-003   6.5997254828969287E-002
   1.0817266113518777E-002  -3.6976575601894157E-003   6.6607240914724850E-002
   6.2427143245228946E-003  -2.2713890463421926E-003   6.6716728776313267E-002
   6.0763573022475838E-003  -2.3147295980529767E-003   6.7231579993531160E-002
   5.9100002799722723E-003  -2.3383594231746879E-003   6.7846791921496702E-002
   5.7436432576969676E-003  -2.3422785217073402E-003   6.8562364560209837E-002
   5.5772862354216499E-003  -2.3264868936509475E-003   6.9378297909670414E-002
   8.6176509318886332E-004  -6.6829064932574789E-004   6.8309066973269689E-002
   7.7331944306778533E-004  -7.9027994422783965E-004   6.9178339359467378E-002
   6.8487379294670907E-004  -8.7878063882623064E-004   7.0103073779225880E-002
   5.9642814282563107E-004  -9.3379273312125914E-004   7.1083270232545376E-002
   5.0798249270455481E-004  -9.5531622711236830E-004   7.2118928719425768E-002
   2.1809254275853118E-002  -6.4399988932665186E-003   6.0973848369261840E-002
   2.0973783663322976E-002  -6.2583663980315951E-003   6.0442941393319238E-002
   2.0138313050792847E-002  -5.9473200061718884E-003   6.0217582393997909E-002
   1.9302842438262705E-002  -5.5068597176872632E-003   6.0297771371297840E-002
   1.8467371825732590E-002  -4.9369855325778200E-003   6.0683508325218960E-002
   1.6227922126995933E-002  -5.0688282267279394E-003   6.3805757734588464E-002
   1.5670931342554484E-002  -4.9468845566788960E-003   6.3518610002122874E-002
   1.5113940558113048E-002  -4.7540522699955068E-003   6.3482873949213467E-002
   1.4556949773671599E-002  -4.4903313666780284E-003   6.3698549575860020E-002
   1.3999958989230170E-002  -4.1557218467262458E-003   6.4165636882062782E-002
   1.0817266113518777E-002  -3.6976575601894157E-003   6.6607240914724850E-002
   1.0484618860100874E-002  -3.6354027153261553E-003   6.6505327145745530E-002
   1.0151971606682977E-002  -3.5607845338192848E-003   6.6600688759257259E-002
   9.8193243532650725E-003  -3.4738030156687364E-003   6.6893325755259928E-002
   9.4866770998471746E-003  -3.3744581608746160E-003   6.7383238133753590E-002
   5.5772862354216499E-003  -2.3264868936509475E-003   6.9378297909670414E-002
   5.4148462159621484E-003  -2.3239208739734354E-003   6.9403092824186996E-002
   5.2524061965026495E-003  -2.3675167976429552E-003   6.9571026824129287E-002
   5.0899661770431506E-003  -2.4572746646595008E-003   6.9882099909497536E-002
   4.9275261575836482E-003  -2.5931944750230695E-003   7.0336312080291549E-002
   5.0798249270455481E-004  -9.5531622711236830E-004   7.2118928719425768E-002
   4.6161341013830487E-004  -1.0124390326207156E-003   7.2211907037447343E-002
   4.1524432757205493E-004  -1.1742490614667228E-003   7.2393888143829660E-002
   3.6887524500580412E-004  -1.4407463136502478E-003   7.2664872038572678E-002
   3.2250616243955504E-004  -1.8119307891714120E-003   7.3024858721676300E-002
   1.8467371825732590E-002  -4.9369855325778200E-003   6.0683508325218960E-002
   1.7268814130603105E-002  -4.4506199446758821E-003   6.0591461683273007E-002
   1.6070256435473627E-002  -4.2606854478137307E-003   6.0302696198839295E-002
   1.4871698740344174E-002  -4.3671820419914527E-003   5.9817211871917617E-002
   1.3673141045214693E-002  -4.7701097272089821E-003   5.9135008702508152E-002
   1.3999958989230170E-002  -4.1557218467262458E-003   6.4165636882062782E-002
   1.2739738744618437E-002  -3.8734277242886139E-003   6.3926802228890689E-002
   1.1479518500006707E-002  -3.7666530135133103E-003   6.3761361319242094E-002
   1.0219298255394976E-002  -3.8353977144005014E-003   6.3669314153116705E-002
   8.9590780107832585E-003  -4.0796618269501317E-003   6.3650660730514896E-002
   9.4866770998471746E-003  -3.3744581608746160E-003   6.7383238133753590E-002
   8.4349068917643835E-003  -3.2962355039012903E-003   6.7118527148732982E-002
   7.3831366836816115E-003  -3.2726205792128274E-003   6.7197322493246697E-002
   6.3313664755988248E-003  -3.3036133868093818E-003   6.7619624167295139E-002
   5.2795962675160416E-003  -3.3892139266909760E-003   6.8385432170877961E-002
   4.9275261575836482E-003  -2.5931944750230695E-003   7.0336312080291549E-002
   4.3543185720409921E-003  -2.7190432835138834E-003   7.0166636442799551E-002
   3.7811109864983477E-003  -2.7785881449123757E-003   7.0610579720853370E-002
   3.2079034009556964E-003  -2.7718290592184018E-003   7.1668141914452879E-002
   2.6346958154130472E-003  -2.6987660264318619E-003   7.3339323023598094E-002
   3.2250616243955504E-004  -1.8119307891714120E-003   7.3024858721676300E-002
   4.9797378544823648E-004  -2.1418510631266985E-003   7.3071130111090621E-002
   6.7344140845691791E-004  -2.2845557106119518E-003   7.4001133002061847E-002
   8.4890903146560281E-004  -2.2400447316273733E-003   7.5814867394589841E-002
   1.0243766544742808E-003  -2.0083181261728589E-003   7.8512333288674907E-002
   1.3673141045214693E-002  -4.7701097272089821E-003   5.9135008702508152E-002
   1.4520996783051562E-002  -4.6652980506158848E-003   5.9534032104660128E-002
   1.5368852520888446E-002  -3.2485765593605193E-003   6.1339150976964490E-002
   1.6216708258725329E-002  -5.1994525344348577E-004   6.4550365319420835E-002
   1.7064563996562199E-002   3.5205958671353788E-003   6.9167675132030260E-002
   8.9590780107832585E-003  -4.0796618269501317E-003   6.3650660730514896E-002
   1.0769919361793258E-002  -4.2034570317948938E-003   6.5505339087718467E-002
   1.2580760712803257E-002  -3.9107950095674110E-003   6.7879893201116204E-002
   1.4391602063813246E-002  -3.2016757602678740E-003   7.0774323070707690E-002
   1.6202443414823242E-002  -2.0760992838965153E-003   7.4188628696492787E-002
   5.2795962675160416E-003  -3.3892139266909760E-003   6.8385432170877961E-002
   7.1672035177405870E-003  -3.7416160129739584E-003   7.0800312895543990E-002
   9.0548107679651359E-003  -4.5730134597742958E-003   7.2848849662445286E-002
   1.0942418018189678E-002  -5.8834062670925103E-003   7.4531042471581724E-002
   1.2830025268414202E-002  -7.6727944349284094E-003   7.5846891322953469E-002
   2.6346958154130472E-003  -2.6987660264318619E-003   7.3339323023598094E-002
   3.7128492508935627E-003  -3.2797749941528842E-003   7.5418953528136587E-002
   4.7910026863740730E-003  -5.2352319099813506E-003   7.6246020360951489E-002
   5.8691561218546006E-003  -8.5651367739171883E-003   7.5820523522043076E-002
   6.9473095573351074E-003  -1.3269489585960303E-002   7.4142463011411627E-002
   1.0243766544742808E-003  -2.0083181261728589E-003   7.8512333288674907E-002
   4.0685656125218420E-004  -2.8179339753320876E-003   7.9361260985496007E-002
  -2.1066353196991239E-004  -5.8974503601881834E-003   7.8071405296635088E-002
  -8.2818362519199509E-004  -1.1246867280741479E-002   7.4642766222092288E-002
  -1.4457037184140986E-003  -1.8866184736992198E-002   6.9075343761867858E-002
   1.1935587712538602E-005   0.0000000000000000        2.8444267189123344E-002
   1.5918731647968955E-005  -3.5953377329313654E-006   3.3413711014218202E-002
   1.9901875583401042E-005  -9.8631581274214591E-006   3.8388788387977546E-002
   2.3885019518831829E-005  -1.8803461183471148E-005   4.3369499310401384E-002
   2.7868163454262615E-005  -3.0416246901085638E-005   4.8355843781489709E-002
  -6.7847374234308415E-003   0.0000000000000000        2.8505849862473238E-002
  -6.8141247880640441E-003   1.4292232491154577E-004   3.3543440249534588E-002
  -6.8435121526972476E-003   3.2084041344229101E-004   3.8508656070794171E-002
  -6.8728995173304493E-003   5.3375426559224004E-004   4.3401497326252016E-002
  -6.9022868819636546E-003   7.8166388136139200E-004   4.8221964015908086E-002
  -1.3490421455853430E-002   0.0000000000000000        2.8695116075327241E-002
  -1.3631187443521512E-002   2.8943998755602508E-004   3.3838521270635837E-002
  -1.3771953431189594E-002   6.5154398501200955E-004   3.8831543785676437E-002
  -1.3912719418857682E-002   1.0863119923679582E-003   4.3674183620449017E-002
  -1.4053485406525762E-002   1.5937440096238631E-003   4.8366440774953612E-002
  -2.0105116509555227E-002   0.0000000000000000        2.9012065827685330E-002
  -2.0435269234724433E-002   4.3595765020050287E-004   3.4298954077521933E-002
  -2.0765421959893643E-002   9.8224755658172765E-004   3.9357451532624300E-002
  -2.1095574685062849E-002   1.6388697191436694E-003   4.4187558192992409E-002
  -2.1425727410232059E-002   2.4058241378863343E-003   4.8789274058626264E-002
  -2.6628822584536232E-002   0.0000000000000000        2.9456699119547528E-002
  -2.7226370161672814E-002   5.8247531284498152E-004   3.4924738670192898E-002
  -2.7823917738809392E-002   1.3129511281514423E-003   4.0086379311637790E-002
  -2.8421465315945971E-002   2.1914274459193892E-003   4.4941621043882170E-002
  -2.9019012893082549E-002   3.2179042661488119E-003   4.9490463866926064E-002
   2.7868163454262615E-005  -3.0416246901085638E-005   4.8355843781489709E-002
   4.1170652114603298E-005  -4.2663582419677666E-005   5.1521638157592101E-002
   5.4473140774943980E-005  -5.3507534878685344E-005   5.4565980982194263E-002
   6.7775629435283796E-005  -6.2948104278095281E-005   5.7488872255296190E-002
   8.1078118095625346E-005  -7.0985290617914254E-005   6.0290311976897867E-002
  -6.9022868819636546E-003   7.8166388136139200E-004   4.8221964015908086E-002
  -6.9855148023711990E-003   1.0265232147965296E-003   5.1171789582684826E-002
  -7.0687427227787460E-003   1.2302862199444565E-003   5.4050005882826012E-002
  -7.1519706431862930E-003   1.3929528968051662E-003   5.6856612916331685E-002
  -7.2351985635938391E-003   1.5145232453786517E-003   5.9591610683201776E-002
  -1.4053485406525762E-002   1.5937440096238631E-003   4.8366440774953612E-002
  -1.4183401451136503E-002   2.0957100120127400E-003   5.1057797821057890E-002
  -1.4313317495747243E-002   2.5140799747675915E-003   5.3727387885391324E-002
  -1.4443233540357987E-002   2.8488538978884244E-003   5.6375210967953913E-002
  -1.4573149584968730E-002   3.1000317813752315E-003   5.9001267068745644E-002
  -2.1425727410232059E-002   2.4058241378863343E-003   4.8789274058626264E-002
  -2.1552489294181302E-002   3.1648968092289455E-003   5.1179662872711279E-002
  -2.1679251178130542E-002   3.7978737295907331E-003   5.3598126989890117E-002
  -2.1806013062079781E-002   4.3047548989716663E-003   5.6044666410162834E-002
  -2.1932774946029021E-002   4.6855403173718044E-003   5.8519281133529368E-002
  -2.9019012893082549E-002   3.2179042661488119E-003   4.9490463866926064E-002
  -2.9092778331505594E-002   4.2340836064451645E-003   5.1537384737644999E-002
  -2.9166543769928645E-002   5.0816674844138699E-003   5.3662223196322453E-002
  -2.9240309208351689E-002   5.7606559000549264E-003   5.5864979242958482E-002
  -2.9314074646774744E-002   6.2710488533683634E-003   5.8145652877553022E-002
   8.1078118095625346E-005  -7.0985290617914254E-005   6.0290311976897867E-002
   1.0963314939237308E-004  -8.6940322919809576E-005   6.1262888375026039E-002
   1.3818818068911908E-004  -1.2013443020542428E-004   6.2367049141858498E-002
   1.6674321198586594E-004  -1.7056761247485289E-004   6.3602794277395153E-002
   1.9529824328261280E-004  -2.3823986972797140E-004   6.4970123781636066E-002
  -7.2351985635938391E-003   1.5145232453786517E-003   5.9591610683201776E-002
  -7.0872777056936081E-003   1.6000528316224352E-003   6.0506182063865814E-002
  -6.9393568477933727E-003   1.6545972214940287E-003   6.1527900729032595E-002
  -6.7914359898931407E-003   1.6781564149933566E-003   6.2656766678702069E-002
  -6.6435151319929071E-003   1.6707304121204442E-003   6.3892779912874287E-002
  -1.4573149584968730E-002   3.1000317813752315E-003   5.9001267068745644E-002
  -1.4330299984666514E-002   3.2870459861646800E-003   5.9844087310557029E-002
  -1.4087450384364307E-002   3.4293288731934556E-003   6.0769617752669633E-002
  -1.3844600784062097E-002   3.5268804424615110E-003   6.1777858395083478E-002
  -1.3601751183759885E-002   3.5797006939689083E-003   6.2868809237798529E-002
  -2.1932774946029021E-002   4.6855403173718044E-003   5.8519281133529368E-002
  -2.1619433687526349E-002   4.9740391407069318E-003   5.9276604115099676E-002
  -2.1306092429023676E-002   5.2040605248928539E-003   6.0092200212769661E-002
  -2.0992751170521004E-002   5.3756044699296932E-003   6.0966069426539378E-002
  -2.0679409912018328E-002   5.4886709758173204E-003   6.1898211756408861E-002
  -2.9314074646774744E-002   6.2710488533683634E-003   5.8145652877553022E-002
  -2.8954678814273115E-002   6.6610322952491592E-003   5.8803732477493750E-002
  -2.8595282981771483E-002   6.9787921765923494E-003   5.9495648109332666E-002
  -2.8235887149269848E-002   7.2243284973978646E-003   6.0221399773069756E-002
  -2.7876491316768226E-002   7.3976412576658018E-003   6.0980987468705103E-002
   1.9529824328261280E-004  -2.3823986972797140E-004   6.4970123781636066E-002
   3.6191495575917457E-004  -3.2233688951164435E-004   6.5214876494134807E-002
   5.2853166823573806E-004  -4.2204435937248999E-004   6.5852951263573323E-002
   6.9514838071230243E-004  -5.3736227931047795E-004   6.6884348089951598E-002
   8.6176509318886332E-004  -6.6829064932574789E-004   6.8309066973269689E-002
  -6.6435151319929071E-003   1.6707304121204442E-003   6.3892779912874287E-002
  -6.1501600181021144E-003   1.6434376923423477E-003   6.3939346949598297E-002
  -5.6568049042113192E-003   1.6073967351261341E-003   6.4246068732211059E-002
  -5.1634497903205283E-003   1.5626075404716671E-003   6.4812945260712518E-002
  -4.6700946764297244E-003   1.5090701083790570E-003   6.5639976535102479E-002
  -1.3601751183759885E-002   3.5797006939689083E-003   6.2868809237798529E-002
  -1.2914824979505943E-002   3.6092122741963155E-003   6.2724052811386904E-002
  -1.2227898775252008E-002   3.6368378296246489E-003   6.2706283819812886E-002
  -1.1540972570998063E-002   3.6625773602538127E-003   6.2815502263076500E-002
  -1.0854046366744131E-002   3.6864308660838202E-003   6.3051708141177665E-002
  -2.0679409912018328E-002   5.4886709758173204E-003   6.1898211756408861E-002
  -1.9932079928452324E-002   5.5749868560503093E-003   6.1568994079500540E-002
  -1.9184749944886319E-002   5.6662789241232322E-003   6.1233596526378845E-002
  -1.8437419961320319E-002   5.7625471800359582E-003   6.0892019097043594E-002
  -1.7690089977754311E-002   5.8637916237886181E-003   6.0544261791494858E-002
  -2.7876491316768226E-002   7.3976412576658018E-003   6.0980987468705103E-002
  -2.7201924864941249E-002   7.5407614379042476E-003   6.0474170753939266E-002
  -2.6527358413114266E-002   7.6957200186217704E-003   5.9828006851908817E-002
  -2.5852791961287282E-002   7.8625169998181137E-003   5.9042495762613861E-002
  -2.5178225509460302E-002   8.0411523814934160E-003   5.8117637486054224E-002
   8.6176509318886332E-004  -6.6829064932574789E-004   6.8309066973269689E-002
   7.7331944306778533E-004  -7.9027994422783965E-004   6.9178339359467378E-002
   6.8487379294670907E-004  -8.7878063882623064E-004   7.0103073779225880E-002
   5.9642814282563107E-004  -9.3379273312125914E-004   7.1083270232545376E-002
   5.0798249270455481E-004  -9.5531622711236830E-004   7.2118928719425768E-002
  -4.6700946764297244E-003   1.5090701083790570E-003   6.5639976535102479E-002
  -4.6683436114042503E-003   1.4545898352982811E-003   6.5912067260072871E-002
  -4.6665925463787675E-003   1.4069721176795322E-003   6.6309089381775335E-002
  -4.6648414813532874E-003   1.3662169555226488E-003   6.6831042900210136E-002
  -4.6630904163278038E-003   1.3323243488277958E-003   6.7477927815377037E-002
  -1.0854046366744131E-002   3.6864308660838202E-003   6.3051708141177665E-002
  -1.0692629223400779E-002   3.6994596148244158E-003   6.2699991160078905E-002
  -1.0531212080057417E-002   3.6927248741853470E-003   6.2542674938883769E-002
  -1.0369794936714064E-002   3.6662266441665281E-003   6.2579759477592103E-002
  -1.0208377793370711E-002   3.6199649247679877E-003   6.2811244776203992E-002
  -1.7690089977754311E-002   5.8637916237886181E-003   6.0544261791494858E-002
  -1.7299537392921782E-002   5.9443293943505573E-003   5.9542111059485550E-002
  -1.6908984808089236E-002   5.9784776306911636E-003   5.8803830450550980E-002
  -1.6518432223256704E-002   5.9662363328103381E-003   5.8329419964691265E-002
  -1.6127879638424169E-002   5.9076055007082767E-003   5.8118879601906454E-002
  -2.5178225509460302E-002   8.0411523814934160E-003   5.8117637486054224E-002
  -2.4489068119967271E-002   8.1891991738766851E-003   5.6438426958292570E-002
  -2.3799910730474244E-002   8.2642303871969316E-003   5.5092555916777100E-002
  -2.3110753340981213E-002   8.2662460214542616E-003   5.4080024361507655E-002
  -2.2421595951488172E-002   8.1952460766483992E-003   5.3400832292484435E-002
   5.0798249270455481E-004  -9.5531622711236830E-004   7.2118928719425768E-002
   4.6161341013830487E-004  -1.0124390326207156E-003   7.2211907037447343E-002
   4.1524432757205493E-004  -1.1742490614667228E-003   7.2393888143829660E-002
   3.6887524500580412E-004  -1.4407463136502478E-003   7.2664872038572678E-002
   3.2250616243955504E-004  -1.8119307891714120E-003   7.3024858721676300E-002
  -4.6630904163278038E-003   1.3323243488277958E-003   6.7477927815377037E-002
  -4.5803015182177068E-003   1.2694167270115159E-003   6.7152056953182673E-002
  -4.4975126201076219E-003   1.1416165194907957E-003   6.6995499263980296E-002
  -4.4147237219975292E-003   9.4892372626509403E-004   6.7008254747769891E-002
  -4.3319348238874400E-003   6.9133834733503541E-004   6.7190323404551500E-002
  -1.0208377793370711E-002   3.6199649247679877E-003   6.2811244776203992E-002
  -9.9161205299529570E-003   3.5512724866438861E-003   6.2106319371426549E-002
  -9.6238632665352000E-003   3.4574821004480297E-003   6.1651017524272440E-002
  -9.3316060031174448E-003   3.3385937661806562E-003   6.1445339234741728E-002
  -9.0393487396996826E-003   3.1946074838415384E-003   6.1489284502834224E-002
  -1.6127879638424169E-002   5.9076055007082767E-003   5.8118879601906454E-002
  -1.5545843625067429E-002   5.8331282462761314E-003   5.7074694292178915E-002
  -1.4963807611710681E-002   5.7733476814052949E-003   5.6360442924706149E-002
  -1.4381771598353941E-002   5.7282638060959972E-003   5.5976125499488077E-002
  -1.3799735584997195E-002   5.6978766203480413E-003   5.5921742016524410E-002
  -2.2421595951488172E-002   8.1952460766483992E-003   5.3400832292484435E-002
  -2.1469470803561125E-002   8.1149840059084877E-003   5.2057181715439993E-002
  -2.0517345655634067E-002   8.0892132623628377E-003   5.1123775465281462E-002
  -1.9565220507707017E-002   8.1179338460114631E-003   5.0600613542008857E-002
  -1.8613095359779959E-002   8.2011457568545443E-003   5.0487695945622302E-002
   3.2250616243955504E-004  -1.8119307891714120E-003   7.3024858721676300E-002
   4.9797378544823648E-004  -2.1418510631266985E-003   7.3071130111090621E-002
   6.7344140845691791E-004  -2.2845557106119518E-003   7.4001133002061847E-002
   8.4890903146560281E-004  -2.2400447316273733E-003   7.5814867394589841E-002
   1.0243766544742808E-003  -2.0083181261728589E-003   7.8512333288674907E-002
  -4.3319348238874400E-003   6.9133834733503541E-004   6.7190323404551500E-002
  -3.4608144896458078E-003   4.7901057222010657E-004   6.7166854784059066E-002
  -2.5896941554041705E-003   4.2209059044054364E-004   6.7650960084475631E-002
  -1.7185738211625331E-003   5.2057840199618705E-004   6.8642639305801223E-002
  -8.4745348692090092E-004   7.7447400688723800E-004   7.0141892448035703E-002
  -9.0393487396996826E-003   3.1946074838415384E-003   6.1489284502834224E-002
  -7.8487332748730480E-003   3.0998722075669671E-003   6.1364268039300507E-002
  -6.6581178100464048E-003   3.1287368914930530E-003   6.1370667916027882E-002
  -5.4675023452197685E-003   3.2812015356198064E-003   6.1508484133016343E-002
  -4.2768868803931270E-003   3.5572661399472794E-003   6.1777716690265716E-002
  -1.3799735584997195E-002   5.6978766203480413E-003   5.5921742016524410E-002
  -1.2665782570233498E-002   5.7207338429136334E-003   5.5663369876814993E-002
  -1.1531829555469806E-002   5.8353831925454999E-003   5.5160256496718574E-002
  -1.0397876540706116E-002   6.0418246692433408E-003   5.4412401876235250E-002
  -9.2639235259424184E-003   6.3400582730073485E-003   5.3419806015364862E-002
  -1.8613095359779959E-002   8.2011457568545443E-003   5.0487695945622302E-002
  -1.7911962375727147E-002   8.3415954782606050E-003   5.0064160296602433E-002
  -1.7210829391674353E-002   8.5420294935979607E-003   4.9019725826547539E-002
  -1.6509696407621545E-002   8.8024478028670451E-003   4.7354392535457937E-002
  -1.5808563423568754E-002   9.1228504060674176E-003   4.5068160423333392E-002
   1.0243766544742808E-003  -2.0083181261728589E-003   7.8512333288674907E-002
   4.0685656125218420E-004  -2.8179339753320876E-003   7.9361260985496007E-002
  -2.1066353196991239E-004  -5.8974503601881834E-003   7.8071405296635088E-002
  -8.2818362519199509E-004  -1.1246867280741479E-002   7.4642766222092288E-002
  -1.4457037184140986E-003  -1.8866184736992198E-002   6.9075343761867858E-002
  -8.4745348692090092E-004   7.7447400688723800E-004   7.0141892448035703E-002
  -2.9796192727945328E-003   5.2094534002178339E-004   6.8337276149537496E-002
  -5.1117850586681734E-003  -9.0283966369181234E-004   6.5642151851417974E-002
  -7.2439508445418174E-003  -3.4968810042537851E-003   6.2056519553677483E-002
  -9.3761166304154459E-003  -7.2611786816637602E-003   5.7580379256315428E-002
  -4.2768868803931270E-003   3.5572661399472794E-003   6.1777716690265716E-002
  -6.6754229728575977E-003   3.8598246553755711E-003   5.8419200595296983E-002
  -9.0739590653220823E-003   4.0917710328045032E-003   5.5418451886767917E-002
  -1.1472495157786547E-002   4.2531052722342422E-003   5.2775470564678198E-002
  -1.3871031250251024E-002   4.3438273736645661E-003   5.0490256629028063E-002
  -9.2639235259424184E-003   6.3400582730073485E-003   5.3419806015364862E-002
  -1.0680554538937013E-002   7.1987039707291783E-003   4.9607034322774787E-002
  -1.2097185551931617E-002   9.0863817293007909E-003   4.7400305402684882E-002
  -1.3513816564926220E-002   1.2003091548721936E-002   4.6799619255095168E-002
  -1.4930447577920817E-002   1.5948833428992948E-002   4.7804975880005651E-002
  -1.5808563423568754E-002   9.1228504060674176E-003   4.5068160423333392E-002
  -1.4995013971032777E-002   1.0537583286083230E-002   4.1900777331970673E-002
  -1.4181464518496792E-002   1.4080992425797356E-002   4.1587712399168919E-002
  -1.3367915065960800E-002   1.9753077825210089E-002   4.4128965624927963E-002
  -1.2554365613424837E-002   2.7553839484321330E-002   4.9524537009248304E-002
  -2.6628822584536232E-002   0.0000000000000000        2.9456699119547528E-002
  -2.7226370161672814E-002   5.8247531284498152E-004   3.4924738670192898E-002
  -2.7823917738809392E-002   1.3129511281514423E-003   4.0086379311637790E-002
  -2.8421465315945971E-002   2.1914274459193892E-003   4.4941621043882170E-002
  -2.9019012893082549E-002   3.2179042661488119E-003   4.9490463866926064E-002
  -3.3395197125961680E-002   0.0000000000000000        3.0163895582740834E-002
  -3.4234834944543317E-002   9.5792669704304091E-004   3.5245926973033373E-002
  -3.5074472763124961E-002   2.0198710586274114E-003   4.0150176789636276E-002
  -3.5914110581706606E-002   3.1858330847531141E-003   4.4876645032549553E-002
  -3.6753748400288243E-002   4.4558127754201465E-003   4.9425331701773191E-002
  -4.0737897578996804E-002   0.0000000000000000        3.1268534849092276E-002
  -4.1691008303512640E-002   1.3333780812410994E-003   3.5920575241111821E-002
  -4.2644119028028477E-002   2.7267909891033780E-003   4.0523451394952607E-002
  -4.3597229752544320E-002   4.1802387235868365E-003   4.5077163310614621E-002
  -4.4550340477060163E-002   5.6937212846914741E-003   4.9581710988097862E-002
  -4.8656923943641600E-002   0.0000000000000000        3.2770616918601857E-002
  -4.9594890238580769E-002   1.7088294654391584E-003   3.6948683474428257E-002
  -5.0532856533519951E-002   3.4337109195793484E-003   4.1206203127586764E-002
  -5.1470822828459127E-002   5.1746443624205562E-003   4.5543175878077366E-002
  -5.2408789123398289E-002   6.9316297939628086E-003   4.9959601725900069E-002
  -5.7152276219896075E-002   0.0000000000000000        3.4670141791269565E-002
  -5.7946480749747717E-002   2.0842808496372173E-003   3.8330251672982679E-002
  -5.8740685279599365E-002   4.1406308500553119E-003   4.2198431987538761E-002
  -5.9534889809451007E-002   6.1690500012542837E-003   4.6274682734937810E-002
  -6.0329094339302648E-002   8.1695383032341362E-003   5.0559003915179798E-002
  -2.9019012893082549E-002   3.2179042661488119E-003   4.9490463866926064E-002
  -2.9092778331505594E-002   4.2340836064451645E-003   5.1537384737644999E-002
  -2.9166543769928645E-002   5.0816674844138699E-003   5.3662223196322453E-002
  -2.9240309208351689E-002   5.7606559000549264E-003   5.5864979242958482E-002
  -2.9314074646774744E-002   6.2710488533683634E-003   5.8145652877553022E-002
  -3.6753748400288243E-002   4.4558127754201465E-003   4.9425331701773191E-002
  -3.6783319071905518E-002   5.6897303664055661E-003   5.1204304518657054E-002
  -3.6812889743522800E-002   6.7475060934864533E-003   5.2993749281193901E-002
  -3.6842460415140083E-002   7.6291399566627846E-003   5.4793665989383733E-002
  -3.6872031086757372E-002   8.3346319559345905E-003   5.6604054643226584E-002
  -4.4550340477060163E-002   5.6937212846914741E-003   4.9581710988097862E-002
  -4.4603162024177211E-002   7.1453771263659850E-003   5.1085189349569737E-002
  -4.4655983571294258E-002   8.4133447025590419E-003   5.2531694014389063E-002
  -4.4708805118411299E-002   9.4976240132706603E-003   5.3921224982555839E-002
  -4.4761626665528360E-002   1.0398215058500825E-002   5.5253782254070100E-002
  -5.2408789123398289E-002   6.9316297939628086E-003   4.9959601725900069E-002
  -5.2552307188320657E-002   8.6010238863263918E-003   5.1180039230383050E-002
  -5.2695825253243019E-002   1.0079183311631629E-002   5.2276057395907932E-002
  -5.2839343318165387E-002   1.1366108069878521E-002   5.3247656222474744E-002
  -5.2982861383087748E-002   1.2461798161067069E-002   5.4094835710083500E-002
  -6.0329094339302648E-002   8.1695383032341362E-003   5.0559003915179798E-002
  -6.0630754564335872E-002   1.0056670646286809E-002   5.1488854161096984E-002
  -6.0932414789369095E-002   1.1745021920704226E-002   5.2226839425750550E-002
  -6.1234075014402298E-002   1.3234592126486391E-002   5.2772959709140504E-002
  -6.1535735239435514E-002   1.4525381263633286E-002   5.3127215011266798E-002
  -2.9314074646774744E-002   6.2710488533683634E-003   5.8145652877553022E-002
  -2.8954678814273115E-002   6.6610322952491592E-003   5.8803732477493750E-002
  -2.8595282981771483E-002   6.9787921765923494E-003   5.9495648109332666E-002
  -2.8235887149269848E-002   7.2243284973978646E-003   6.0221399773069756E-002
  -2.7876491316768226E-002   7.3976412576658018E-003   6.0980987468705103E-002
  -3.6872031086757372E-002   8.3346319559345905E-003   5.6604054643226584E-002
  -3.6429728378494119E-002   8.8799310255779432E-003   5.6871332170297335E-002
  -3.5987425670230874E-002   9.2809860998688785E-003   5.7270587416993139E-002
  -3.5545122961967608E-002   9.5377971788074695E-003   5.7801820383313940E-002
  -3.5102820253704370E-002   9.6503642623936570E-003   5.8465031069259821E-002
  -4.4761626665528360E-002   1.0398215058500825E-002   5.5253782254070100E-002
  -4.4138275393776662E-002   1.1098829755906712E-002   5.5058237273456101E-002
  -4.3514924122024970E-002   1.1583180023145463E-002   5.5092811700193998E-002
  -4.2891572850273264E-002   1.1851265860217100E-002   5.5357505534283799E-002
  -4.2268221578521559E-002   1.1903087267121561E-002   5.5852318775725426E-002
  -5.2982861383087748E-002   1.2461798161067069E-002   5.4094835710083500E-002
  -5.2080319860120759E-002   1.3317728486235508E-002   5.3364447786970054E-002
  -5.1177778337153777E-002   1.3885373946422034E-002   5.2962320958935327E-002
  -5.0275236814186788E-002   1.4164734541626690E-002   5.2888455225979319E-002
  -4.9372695291219799E-002   1.4155810271849482E-002   5.3142850588101954E-002
  -6.1535735239435514E-002   1.4525381263633286E-002   5.3127215011266798E-002
  -6.0255861777526391E-002   1.5536627216564257E-002   5.1789963710839153E-002
  -5.8975988315617289E-002   1.6187567869698584E-002   5.0879115193217028E-002
  -5.7696114853708180E-002   1.6478203223036315E-002   5.0394669458400425E-002
  -5.6416241391799064E-002   1.6408533276577347E-002   5.0336626506389426E-002
  -2.7876491316768226E-002   7.3976412576658018E-003   6.0980987468705103E-002
  -2.7201924864941249E-002   7.5407614379042476E-003   6.0474170753939266E-002
  -2.6527358413114266E-002   7.6957200186217704E-003   5.9828006851908817E-002
  -2.5852791961287282E-002   7.8625169998181137E-003   5.9042495762613861E-002
  -2.5178225509460302E-002   8.0411523814934160E-003   5.8117637486054224E-002
  -3.5102820253704370E-002   9.6503642623936570E-003   5.8465031069259821E-002
  -3.4484657044693640E-002   9.6830605324380731E-003   5.8100256295435124E-002
  -3.3866493835682888E-002   9.7002591707513741E-003   5.7762022223242518E-002
  -3.3248330626672144E-002   9.7019601773335601E-003   5.7450328852681989E-002
  -3.2630167417661421E-002   9.6881635521845755E-003   5.7165176183753594E-002
  -4.2268221578521559E-002   1.1903087267121561E-002   5.5852318775725426E-002
  -4.1540573723430410E-002   1.1825359626971857E-002   5.5602249910631840E-002
  -4.0812925868339248E-002   1.1704798322881007E-002   5.5544609636067006E-002
  -4.0085278013248085E-002   1.1541403354848883E-002   5.5679397952030939E-002
  -3.9357630158156943E-002   1.1335174722875610E-002   5.6006614858523603E-002
  -4.9372695291219799E-002   1.4155810271849482E-002   5.3142850588101954E-002
  -4.8369674901151578E-002   1.3967658721505717E-002   5.2980151599529415E-002
  -4.7366654511083330E-002   1.3709337475010627E-002   5.3175769090382276E-002
  -4.6363634121015095E-002   1.3380846532364267E-002   5.3729703060660508E-002
  -4.5360613730946901E-002   1.2982185893566763E-002   5.4641953510364216E-002
  -5.6416241391799064E-002   1.6408533276577347E-002   5.0336626506389426E-002
  -5.4971960577857124E-002   1.6109957816039445E-002   5.0233961362127877E-002
  -5.3527679763915162E-002   1.5713876627140265E-002   5.0655500586188340E-002
  -5.2083398949973207E-002   1.5220289709879644E-002   5.1601244178570947E-002
  -5.0639118136031280E-002   1.4629197064257804E-002   5.3071192139275525E-002
  -2.5178225509460302E-002   8.0411523814934160E-003   5.8117637486054224E-002
  -2.4489068119967271E-002   8.1891991738766851E-003   5.6438426958292570E-002
  -2.3799910730474244E-002   8.2642303871969316E-003   5.5092555916777100E-002
  -2.3110753340981213E-002   8.2662460214542616E-003   5.4080024361507655E-002
  -2.2421595951488172E-002   8.1952460766483992E-003   5.3400832292484435E-002
  -3.2630167417661421E-002   9.6881635521845755E-003   5.7165176183753594E-002
  -3.1644857984943146E-002   9.6407195754037722E-003   5.6110851055378913E-002
  -3.0659548552224893E-002   9.5414785270908145E-003   5.5315490527208612E-002
  -2.9674239119506614E-002   9.3904404072456416E-003   5.4779094599242531E-002
  -2.8688929686788357E-002   9.1876052158681443E-003   5.4501663271480871E-002
  -3.9357630158156943E-002   1.1335174722875610E-002   5.6006614858523603E-002
  -3.8150543568255285E-002   1.1092239976930991E-002   5.5598393637066652E-002
  -3.6943456978353675E-002   1.0818726666984805E-002   5.5374762129772243E-002
  -3.5736370388452024E-002   1.0514634793037131E-002   5.5335720336640207E-002
  -3.4529283798550400E-002   1.0179964355087917E-002   5.5481268257670732E-002
  -4.5360613730946901E-002   1.2982185893566763E-002   5.4641953510364216E-002
  -4.4006124869903719E-002   1.2543760378458130E-002   5.4901054703355837E-002
  -4.2651636008860565E-002   1.2095974806878686E-002   5.5270370724468082E-002
  -4.1297147147817397E-002   1.1638829178828650E-002   5.5749901573700855E-002
  -3.9942658286774228E-002   1.1172323494307676E-002   5.6339647251054309E-002
  -5.0639118136031280E-002   1.4629197064257804E-002   5.3071192139275525E-002
  -4.9211601889888434E-002   1.3995280779985311E-002   5.4018834254246390E-002
  -4.7784085643745589E-002   1.3373222946772692E-002   5.5002316311296040E-002
  -4.6356569397602770E-002   1.2763023564620047E-002   5.6021638310424379E-002
  -4.4929053151459911E-002   1.2164682633527379E-002   5.7076800251631477E-002
  -2.2421595951488172E-002   8.1952460766483992E-003   5.3400832292484435E-002
  -2.1469470803561125E-002   8.1149840059084877E-003   5.2057181715439993E-002
  -2.0517345655634067E-002   8.0892132623628377E-003   5.1123775465281462E-002
  -1.9565220507707017E-002   8.1179338460114631E-003   5.0600613542008857E-002
  -1.8613095359779959E-002   8.2011457568545443E-003   5.0487695945622302E-002
  -2.8688929686788357E-002   9.1876052158681443E-003   5.4501663271480871E-002
  -2.7369640756075168E-002   8.9771580139671597E-003   5.3587443962714434E-002
  -2.6050351825361973E-002   8.8032838625511783E-003   5.2997307892634266E-002
  -2.4731062894648780E-002   8.6659827616204325E-003   5.2731255061240434E-002
  -2.3411773963935581E-002   8.5652547111745303E-003   5.2789285468532871E-002
  -3.4529283798550400E-002   1.0179964355087917E-002   5.5481268257670732E-002
  -3.2928992173250723E-002   9.8393320220258595E-003   5.4978561940473070E-002
  -3.1328700547951040E-002   9.5173544627395745E-003   5.4713777773762101E-002
  -2.9728408922651346E-002   9.2140316772292355E-003   5.4686915757537716E-002
  -2.8128117297351665E-002   8.9293636654945996E-003   5.4897975891800052E-002
  -3.9942658286774228E-002   1.1172323494307676E-002   5.6339647251054309E-002
  -3.8147525055087741E-002   1.0701506030084545E-002   5.6230535648716232E-002
  -3.6352391823401227E-002   1.0231425062928054E-002   5.6273185108665087E-002
  -3.4557258591714712E-002   9.7620805928380662E-003   5.6467595630900841E-002
  -3.2762125360028198E-002   9.2934726198145717E-003   5.6813767215423763E-002
  -4.4929053151459911E-002   1.2164682633527379E-002   5.7076800251631477E-002
  -4.3025239401586243E-002   1.1563680038143287E-002   5.7343365087443643E-002
  -4.1121425651712569E-002   1.0945495663116464E-002   5.7675529897343064E-002
  -3.9217611901838909E-002   1.0310129508446991E-002   5.8073294681329837E-002
  -3.7313798151965213E-002   9.6575815741347104E-003   5.8536659439403949E-002
  -1.8613095359779959E-002   8.2011457568545443E-003   5.0487695945622302E-002
  -1.7911962375727147E-002   8.3415954782606050E-003   5.0064160296602433E-002
  -1.7210829391674353E-002   8.5420294935979607E-003   4.9019725826547539E-002
  -1.6509696407621545E-002   8.8024478028670451E-003   4.7354392535457937E-002
  -1.5808563423568754E-002   9.1228504060674176E-003   4.5068160423333392E-002
  -2.3411773963935581E-002   8.5652547111745303E-003   5.2789285468532871E-002
  -2.3131308184861438E-002   8.4870506688299041E-003   5.2682546336133257E-002
  -2.2850842405787292E-002   8.4173215922029448E-003   5.2355371614811089E-002
  -2.2570376626713171E-002   8.3560674812936560E-003   5.1807761304566595E-002
  -2.2289910847639004E-002   8.3032883361017218E-003   5.1039715405399533E-002
  -2.8128117297351665E-002   8.9293636654945996E-003   5.4897975891800052E-002
  -2.7867855491143768E-002   8.6325058593996612E-003   5.5056523947806676E-002
  -2.7607593684935833E-002   8.2926136908081996E-003   5.5395099647003211E-002
  -2.7347331878727905E-002   7.9096871597203206E-003   5.5913702989389774E-002
  -2.7087070072520002E-002   7.4837262661359150E-003   5.6612333974966289E-002
  -3.2762125360028198E-002   9.2934726198145717E-003   5.6813767215423763E-002
  -3.2121604294574113E-002   8.7779610499691615E-003   5.7186093131622623E-002
  -3.1481083229120008E-002   8.1679057894134856E-003   5.8138909923123844E-002
  -3.0840562163665926E-002   7.4633068381469029E-003   5.9672217589927551E-002
  -3.0200041098211818E-002   6.6641641961699971E-003   6.1786016132033536E-002
  -3.7313798151965213E-002   9.6575815741347104E-003   5.8536659439403949E-002
  -3.5892554595152476E-002   8.9234162405387729E-003   5.9071253887581110E-002
  -3.4471311038339787E-002   8.0431978880183830E-003   6.0586802443173104E-002
  -3.3050067481527057E-002   7.0169265165736378E-003   6.3083305106179849E-002
  -3.1628823924714361E-002   5.8446021262043568E-003   6.6560761876601482E-002
  -1.5808563423568754E-002   9.1228504060674176E-003   4.5068160423333392E-002
  -1.4995013971032777E-002   1.0537583286083230E-002   4.1900777331970673E-002
  -1.4181464518496792E-002   1.4080992425797356E-002   4.1587712399168919E-002
  -1.3367915065960800E-002   1.9753077825210089E-002   4.4128965624927963E-002
  -1.2554365613424837E-002   2.7553839484321330E-002   4.9524537009248304E-002
  -2.2289910847639004E-002   8.3032883361017218E-003   5.1039715405399533E-002
  -1.9312500730523270E-002   8.7775508326625451E-003   5.0453205307988330E-002
  -1.6335090613407540E-002   1.0297421647011903E-002   5.1340098381175703E-002
  -1.3357680496291780E-002   1.2862900779149488E-002   5.3700394624961442E-002
  -1.0380270379176076E-002   1.6473988229075198E-002   5.7534094039346173E-002
  -2.7087070072520002E-002   7.4837262661359150E-003   5.6612333974966289E-002
  -2.3326714278786853E-002   7.0175183792422491E-003   5.7523628929596324E-002
  -1.9566358485053729E-002   6.5138508682265062E-003   5.8527412066862530E-002
  -1.5806002691320563E-002   5.9727237330888319E-003   5.9623683386764811E-002
  -1.2045646897587432E-002   5.3941369738290668E-003   6.0812442889303764E-002
  -3.0200041098211818E-002   6.6641641961699971E-003   6.1786016132033536E-002
  -2.7037654615823588E-002   5.2574859258218143E-003   6.3112048196794349E-002
  -2.3875268133435396E-002   2.7302800894413032E-003   6.3149653456229110E-002
  -2.0712881651047167E-002  -9.1745331297174090E-004   6.1898831910337626E-002
  -1.7550495168658965E-002  -5.6857142814170647E-003   5.9359583559120160E-002
  -3.1628823924714361E-002   5.8446021262043568E-003   6.6560761876601482E-002
  -3.0445321741633419E-002   3.4974534724013795E-003   6.7218463109582904E-002
  -2.9261819558552504E-002  -1.0532906893441635E-003   6.5206822549275761E-002
  -2.8078317375471611E-002  -7.8076303590322964E-003   6.0525840195680206E-002
  -2.6894815192390675E-002  -1.6765565536663196E-002   5.3175516048796334E-002
  -5.7152276219896075E-002   0.0000000000000000        3.4670141791269565E-002
  -5.7946480749747717E-002   2.0842808496372173E-003   3.8330251672982679E-002
  -5.8740685279599365E-002   4.1406308500553119E-003   4.2198431987538761E-002
  -5.9534889809451007E-002   6.1690500012542837E-003   4.6274682734937810E-002
  -6.0329094339302648E-002   8.1695383032341362E-003   5.0559003915179798E-002
  -6.5815980405117630E-002   0.0000000000000000        3.7191403385498381E-002
  -6.6629527353999865E-002   2.9159475349646476E-003   4.0821427705157676E-002
  -6.7443074302882114E-002   5.7752363114368932E-003   4.4204696753912830E-002
  -6.8256621251764349E-002   8.5778663294167317E-003   4.7341210531763850E-002
  -6.9070168200646584E-002   1.1323837588904161E-002   5.0230969038710729E-002
  -7.4240062496663720E-002   0.0000000000000000        4.0558695619691262E-002
  -7.5527777568323642E-002   3.7476142202920804E-003   4.4129906468023457E-002
  -7.6815492639983565E-002   7.4098417728184719E-003   4.6999536341704402E-002
  -7.8103207711643474E-002   1.0986682657579176E-002   4.9167585240734106E-002
  -7.9390922783303425E-002   1.4478136874574193E-002   5.0634053165112589E-002
  -8.2424522494534289E-002   0.0000000000000000        4.4772018493848223E-002
  -8.4641231392719007E-002   4.5792809056195132E-003   4.8255687961580022E-002
  -8.6857940290903726E-002   9.0444472342000506E-003   5.0582950750913493E-002
  -8.9074649189088445E-002   1.3395498985741624E-002   5.1753806861848613E-002
  -9.1291358087273164E-002   1.7632436160244232E-002   5.1768256294385390E-002
  -9.0369360398729393E-002   0.0000000000000000        4.9831372007969256E-002
  -9.3969888827186002E-002   5.4109475909469452E-003   5.3198772185827380E-002
  -9.7570417255642611E-002   1.0679052695581632E-002   5.4954939981540080E-002
 -0.10117094568409921        1.5804315313904069E-002   5.5099875395107321E-002
 -0.10477147411255583        2.0786735445914251E-002   5.3633578426529133E-002
  -6.0329094339302648E-002   8.1695383032341362E-003   5.0559003915179798E-002
  -6.0630754564335872E-002   1.0056670646286809E-002   5.1488854161096984E-002
  -6.0932414789369095E-002   1.1745021920704226E-002   5.2226839425750550E-002
  -6.1234075014402298E-002   1.3234592126486391E-002   5.2772959709140504E-002
  -6.1535735239435514E-002   1.4525381263633286E-002   5.3127215011266798E-002
  -6.9070168200646584E-002   1.1323837588904161E-002   5.0230969038710729E-002
  -6.9330901781922583E-002   1.3772542845978111E-002   4.9445603030850931E-002
  -6.9591635363198553E-002   1.5683374856717502E-002   4.8933955291769235E-002
  -6.9852368944474538E-002   1.7056333621122344E-002   4.8696025821465601E-002
  -7.0113102525750537E-002   1.7891419139192587E-002   4.8731814619940077E-002
  -7.9390922783303425E-002   1.4478136874574193E-002   5.0634053165112589E-002
  -7.9145146470780470E-002   1.7488415045669434E-002   4.7794378725776521E-002
  -7.8899370158257542E-002   1.9621727792730803E-002   4.5694005805260243E-002
  -7.8653593845734573E-002   2.0878075115758284E-002   4.4332934403563735E-002
  -7.8407817533211618E-002   2.1257457014751888E-002   4.3711164520687039E-002
  -9.1291358087273164E-002   1.7632436160244232E-002   5.1768256294385390E-002
  -9.0073488630909582E-002   2.1204287245360744E-002   4.6535181245873733E-002
  -8.8855619174545999E-002   2.3560080728744076E-002   4.2506990966223568E-002
  -8.7637749718182445E-002   2.4699816610394214E-002   3.9683685455434888E-002
  -8.6419880261818835E-002   2.4623494890311182E-002   3.8065264713507720E-002
 -0.10477147411255583        2.0786735445914251E-002   5.3633578426529133E-002
 -0.10211592826230992        2.4920159445052069E-002   4.5668010591142567E-002
  -9.9460382412063994E-002   2.7498433664757370E-002   3.9372910774659230E-002
  -9.6804836561818070E-002   2.8521558105030188E-002   3.4748278977079002E-002
  -9.4149290711572131E-002   2.7989532765870476E-002   3.1794115198402043E-002
  -6.1535735239435514E-002   1.4525381263633286E-002   5.3127215011266798E-002
  -6.0255861777526391E-002   1.5536627216564257E-002   5.1789963710839153E-002
  -5.8975988315617289E-002   1.6187567869698584E-002   5.0879115193217028E-002
  -5.7696114853708180E-002   1.6478203223036315E-002   5.0394669458400425E-002
  -5.6416241391799064E-002   1.6408533276577347E-002   5.0336626506389426E-002
  -7.0113102525750537E-002   1.7891419139192587E-002   4.8731814619940077E-002
  -6.8443900873604288E-002   1.8351635538669118E-002   4.7354055860473115E-002
  -6.6774699221458025E-002   1.8599986947292715E-002   4.6328550698674920E-002
  -6.5105497569311790E-002   1.8636473365063418E-002   4.5655299134545441E-002
  -6.3436295917165500E-002   1.8461094791981186E-002   4.5334301168084672E-002
  -7.8407817533211618E-002   2.1257457014751888E-002   4.3711164520687039E-002
  -7.6423436875965062E-002   2.1166643860773961E-002   4.2441338611124549E-002
  -7.4439056218718477E-002   2.1012406024886816E-002   4.1449617114093937E-002
  -7.2454675561471907E-002   2.0794743507090502E-002   4.0736000029595300E-002
  -7.0470294904225336E-002   2.0513656307384984E-002   4.0300487357628582E-002
  -8.6419880261818835E-002   2.4623494890311182E-002   3.8065264713507720E-002
  -8.4194469784608747E-002   2.3981652182878802E-002   3.7051811962793349E-002
  -8.1969059307398659E-002   2.3424825102480902E-002   3.6242314439474108E-002
  -7.9743648830188585E-002   2.2953013649117626E-002   3.5636772143550002E-002
  -7.7518238352978441E-002   2.2566217822788816E-002   3.5235185075020957E-002
  -9.4149290711572131E-002   2.7989532765870476E-002   3.1794115198402043E-002
  -9.1756999599535344E-002   2.6796660504983656E-002   3.1185475915479544E-002
  -8.9364708487498543E-002   2.5837244180075058E-002   3.0706642674815411E-002
  -8.6972417375461741E-002   2.5111283791144714E-002   3.0357615476409524E-002
  -8.4580126263424940E-002   2.4618779338192592E-002   3.0138394320261941E-002
  -5.6416241391799064E-002   1.6408533276577347E-002   5.0336626506389426E-002
  -5.4971960577857124E-002   1.6109957816039445E-002   5.0233961362127877E-002
  -5.3527679763915162E-002   1.5713876627140265E-002   5.0655500586188340E-002
  -5.2083398949973207E-002   1.5220289709879644E-002   5.1601244178570947E-002
  -5.0639118136031280E-002   1.4629197064257804E-002   5.3071192139275525E-002
  -6.3436295917165500E-002   1.8461094791981186E-002   4.5334301168084672E-002
  -6.1528525862546535E-002   1.8136204281449117E-002   4.5064644128280845E-002
  -5.9620755807927535E-002   1.7724154886870402E-002   4.5197761201508965E-002
  -5.7712985753308549E-002   1.7224946608244980E-002   4.5733652387769212E-002
  -5.5805215698689549E-002   1.6638579445572843E-002   4.6672317687061440E-002
  -7.0470294904225336E-002   2.0513656307384984E-002   4.0300487357628582E-002
  -6.8220465864219301E-002   2.0162450746858841E-002   3.9874185266596952E-002
  -6.5970636824213252E-002   1.9734433146600599E-002   3.9729227033307349E-002
  -6.3720807784207190E-002   1.9229603506610290E-002   3.9865612657759772E-002
  -6.1470978744201196E-002   1.8647961826887882E-002   4.0283342139954284E-002
  -7.7518238352978441E-002   2.2566217822788816E-002   3.5235185075020957E-002
  -7.5047780582875409E-002   2.2188697212268481E-002   3.4662584777076268E-002
  -7.2577322812772307E-002   2.1744711406330781E-002   3.4249898081583512E-002
  -7.0106865042669234E-002   2.1234260404975554E-002   3.3997124988542939E-002
  -6.7636407272566201E-002   2.0657344208202921E-002   3.3904265497954320E-002
  -8.4580126263424940E-002   2.4618779338192592E-002   3.0138394320261941E-002
  -8.2010470018514858E-002   2.4214943677678222E-002   2.9429842659718736E-002
  -7.9440813773604735E-002   2.3754989666060877E-002   2.8759774346337544E-002
  -7.6871157528694625E-002   2.3238917303340920E-002   2.8128189380118386E-002
  -7.4301501283784543E-002   2.2666726589517933E-002   2.7535087761061255E-002
  -5.0639118136031280E-002   1.4629197064257804E-002   5.3071192139275525E-002
  -4.9211601889888434E-002   1.3995280779985311E-002   5.4018834254246390E-002
  -4.7784085643745589E-002   1.3373222946772692E-002   5.5002316311296040E-002
  -4.6356569397602770E-002   1.2763023564620047E-002   5.6021638310424379E-002
  -4.4929053151459911E-002   1.2164682633527379E-002   5.7076800251631477E-002
  -5.5805215698689549E-002   1.6638579445572843E-002   4.6672317687061440E-002
  -5.4313795608460121E-002   1.6010058801448596E-002   4.7155713407287886E-002
  -5.2822375518230685E-002   1.5384390078466564E-002   4.7731076873608842E-002
  -5.1330955428001257E-002   1.4761573276627117E-002   4.8398408086024247E-002
  -4.9839535337771843E-002   1.4141608395929872E-002   4.9157707044534010E-002
  -6.1470978744201196E-002   1.8647961826887882E-002   4.0283342139954284E-002
  -5.9859527005869460E-002   1.8024836822911845E-002   4.0293484935518833E-002
  -5.8248075267537752E-002   1.7395557210160568E-002   4.0451723281193556E-002
  -5.6636623529206023E-002   1.6760122988634128E-002   4.0758057176978391E-002
  -5.5025171790874350E-002   1.6118534158332393E-002   4.1212486622873287E-002
  -6.7636407272566201E-002   2.0657344208202921E-002   3.3904265497954320E-002
  -6.5848796082116468E-002   2.0039614844375140E-002   3.3432148838939267E-002
  -6.4061184891666817E-002   1.9406724341854521E-002   3.3164255534050169E-002
  -6.2273573701217139E-002   1.8758672700641198E-002   3.3100585583286789E-002
  -6.0485962510767467E-002   1.8095459920734955E-002   3.3241138986649238E-002
  -7.4301501283784543E-002   2.2666726589517933E-002   2.7535087761061255E-002
  -7.2281602837201211E-002   2.2054392865838490E-002   2.6571705117549138E-002
  -7.0261704390617852E-002   2.1417891473548466E-002   2.5868673632178624E-002
  -6.8241805944034520E-002   2.0757222412648178E-002   2.5425993304949553E-002
  -6.6221907497451160E-002   2.0072385683137406E-002   2.5243664135861932E-002
  -4.4929053151459911E-002   1.2164682633527379E-002   5.7076800251631477E-002
  -4.3025239401586243E-002   1.1563680038143287E-002   5.7343365087443643E-002
  -4.1121425651712569E-002   1.0945495663116464E-002   5.7675529897343064E-002
  -3.9217611901838909E-002   1.0310129508446991E-002   5.8073294681329837E-002
  -3.7313798151965213E-002   9.6575815741347104E-003   5.8536659439403949E-002
  -4.9839535337771843E-002   1.4141608395929872E-002   4.9157707044534010E-002
  -4.7839675220960373E-002   1.3511576380555584E-002   4.9159480021336216E-002
  -4.5839815104148945E-002   1.2858558174684565E-002   4.9287745757926604E-002
  -4.3839954987337511E-002   1.2182553778316965E-002   4.9542504254305231E-002
  -4.1840094870526062E-002   1.1483563191452772E-002   4.9923755510471957E-002
  -5.5025171790874350E-002   1.6118534158332393E-002   4.1212486622873287E-002
  -5.2868372521424317E-002   1.5459472722967799E-002   4.0943663329811725E-002
  -5.0711573251974291E-002   1.4771620686252727E-002   4.0862225582239127E-002
  -4.8554773982524280E-002   1.4054978048187053E-002   4.0968173380155695E-002
  -4.6397974713074289E-002   1.3309544808770807E-002   4.1261506723561020E-002
  -6.0485962510767467E-002   1.8095459920734955E-002   3.3241138986649238E-002
  -5.8111331302978020E-002   1.7407369065380054E-002   3.2695915012869989E-002
  -5.5736700095188559E-002   1.6684683197820776E-002   3.2398969370280618E-002
  -5.3362068887399111E-002   1.5927402318057057E-002   3.2350302058880974E-002
  -5.0987437679609657E-002   1.5135526426088855E-002   3.2549913078671187E-002
  -6.6221907497451160E-002   2.0072385683137406E-002   2.5243664135861932E-002
  -6.3568551565621467E-002   1.9355265407792310E-002   2.4416235070511078E-002
  -6.0915195633791774E-002   1.8597745709388963E-002   2.3897977122050829E-002
  -5.8261839701962109E-002   1.7799826587927163E-002   2.3688890290481351E-002
  -5.5608483770132416E-002   1.6961508043406959E-002   2.3788974575802480E-002
  -3.7313798151965213E-002   9.6575815741347104E-003   5.8536659439403949E-002
  -3.5892554595152476E-002   8.9234162405387729E-003   5.9071253887581110E-002
  -3.4471311038339787E-002   8.0431978880183830E-003   6.0586802443173104E-002
  -3.3050067481527057E-002   7.0169265165736378E-003   6.3083305106179849E-002
  -3.1628823924714361E-002   5.8446021262043568E-003   6.6560761876601482E-002
  -4.1840094870526062E-002   1.1483563191452772E-002   4.9923755510471957E-002
  -3.9616919397056978E-002   1.0739555815384882E-002   5.0141194440485815E-002
  -3.7393743923587859E-002   9.9285010514062050E-003   5.0981543096397686E-002
  -3.5170568450118761E-002   9.0503988995167296E-003   5.2444801478207487E-002
  -3.2947392976649614E-002   8.1052493597167929E-003   5.4530969585915301E-002
  -4.6397974713074289E-002   1.3309544808770807E-002   4.1261506723561020E-002
  -4.3730911704465587E-002   1.2555695390230798E-002   4.1240795766425378E-002
  -4.1063848695856935E-002   1.1813804214793860E-002   4.1484950153670846E-002
  -3.8396785687248289E-002   1.1083871282459933E-002   4.1993969885297314E-002
  -3.5729722678639629E-002   1.0365896593229146E-002   4.2767854961305071E-002
  -5.0987437679609657E-002   1.5135526426088855E-002   3.2549913078671187E-002
  -4.8234531517378332E-002   1.4371834965076810E-002   3.2370057865399662E-002
  -4.5481625355146972E-002   1.3699107378181488E-002   3.2097023614992594E-002
  -4.2728719192915626E-002   1.3117343665403191E-002   3.1730810327449524E-002
  -3.9975813030684294E-002   1.2626543826741540E-002   3.1271418002771015E-002
  -5.5608483770132416E-002   1.6961508043406959E-002   2.3788974575802480E-002
  -5.3127778835795197E-002   1.6187974539922878E-002   2.3528980737409000E-002
  -5.0647073901458034E-002   1.5584410541569338E-002   2.2817763480362935E-002
  -4.8166368967120857E-002   1.5150816048346283E-002   2.1655322804664145E-002
  -4.5685664032783652E-002   1.4887191060253990E-002   2.0041658710312882E-002
  -3.1628823924714361E-002   5.8446021262043568E-003   6.6560761876601482E-002
  -3.0445321741633419E-002   3.4974534724013795E-003   6.7218463109582904E-002
  -2.9261819558552504E-002  -1.0532906893441635E-003   6.5206822549275761E-002
  -2.8078317375471611E-002  -7.8076303590322964E-003   6.0525840195680206E-002
  -2.6894815192390675E-002  -1.6765565536663196E-002   5.3175516048796334E-002
  -3.2947392976649614E-002   8.1052493597167929E-003   5.4530969585915301E-002
  -3.3814354674263816E-002   6.4816886793729878E-003   5.2597102880875657E-002
  -3.4681316371877956E-002   3.5683531058522400E-003   4.9231650207734207E-002
  -3.5548278069492095E-002  -6.3475736084511736E-004   4.4434611566491103E-002
  -3.6415239767106311E-002  -6.1276427207191952E-003   3.8205986957146387E-002
  -3.5729722678639629E-002   1.0365896593229146E-002   4.2767854961305071E-002
  -3.7409392431762091E-002   9.4659238863444295E-003   3.9156240933010233E-002
  -3.9089062184884560E-002   8.1899969010486920E-003   3.5350796761800522E-002
  -4.0768731938006925E-002   6.5381156373421432E-003   3.1351522447675792E-002
  -4.2448401691129498E-002   4.5102800952248057E-003   2.7158417990636341E-002
  -3.9975813030684294E-002   1.2626543826741540E-002   3.1271418002771015E-002
  -4.1230435014128292E-002   1.2450159093315677E-002   2.6895877265986912E-002
  -4.2485056997572296E-002   1.2811640696245120E-002   2.3564262211474778E-002
  -4.3739678981016189E-002   1.3710988635529418E-002   2.1276572839234401E-002
  -4.4994300964460290E-002   1.5148202911168807E-002   2.0032809149266154E-002
  -4.5685664032783652E-002   1.4887191060253990E-002   2.0041658710312882E-002
  -4.5277482421362425E-002   1.5434394300287368E-002   1.5816011879805580E-002
  -4.4869300809941157E-002   1.7433284491441506E-002   1.3872046556756917E-002
  -4.4461119198519881E-002   2.0883861633716683E-002   1.4209762741166712E-002
  -4.4052937587098606E-002   2.5786125727112807E-002   1.6829160433035284E-002
  -9.0369360398729393E-002   0.0000000000000000        4.9831372007969256E-002
  -9.3969888827186002E-002   5.4109475909469452E-003   5.3198772185827380E-002
  -9.7570417255642611E-002   1.0679052695581632E-002   5.4954939981540080E-002
 -0.10117094568409921        1.5804315313904069E-002   5.5099875395107321E-002
 -0.10477147411255583        2.0786735445914251E-002   5.3633578426529133E-002
 -0.10330639326516318        0.0000000000000000        5.8664668847409771E-002
 -0.10683951439971147        1.0885583014943833E-002   5.2116633610178556E-002
 -0.11037263553425973        1.9173882370219428E-002   4.7314645342909425E-002
 -0.11390575666880801        2.4864898065826813E-002   4.4258704045602393E-002
 -0.11743887780335630        2.7958630101765948E-002   4.2948809718257465E-002
 -0.12646743814974981        0.0000000000000000        7.4199821697525148E-002
 -0.12657587263828227        1.6360218438940723E-002   5.5281909871848618E-002
 -0.12668430712681469        2.7668712044857244E-002   4.1467324368241701E-002
 -0.12679274161534712        3.3925480817749550E-002   3.2756065186704424E-002
 -0.12690117610387958        3.5130524757617652E-002   2.9148132327236731E-002
 -0.15985249505248933        0.0000000000000000        9.6436830558315409E-002
 -0.15317896354289839        2.1834853862937618E-002   6.2694600970837594E-002
 -0.14650543203330743        3.6163541719495047E-002   3.7412977057536927E-002
 -0.13983190052371647        4.2986063569672280E-002   2.0591958818413407E-002
 -0.13315836901412553        4.2302419413469343E-002   1.2231546253466990E-002
 -0.20346156397338169        0.0000000000000000       0.12537569542978055     
 -0.18664878711355987        2.7309489286934503E-002   7.4354706907145462E-002
 -0.16983601025373798        4.4658371394132840E-002   3.5151603410795040E-002
 -0.15302323339391616        5.2046646321595030E-002   7.7663849407292873E-003
 -0.13621045653409430        4.9474314069321061E-002  -7.8009485030517828E-003
 -0.10477147411255583        2.0786735445914251E-002   5.3633578426529133E-002
 -0.10211592826230992        2.4920159445052069E-002   4.5668010591142567E-002
  -9.9460382412063994E-002   2.7498433664757370E-002   3.9372910774659230E-002
  -9.6804836561818070E-002   2.8521558105030188E-002   3.4748278977079002E-002
  -9.4149290711572131E-002   2.7989532765870476E-002   3.1794115198402043E-002
 -0.11743887780335630        2.7958630101765948E-002   4.2948809718257465E-002
 -0.11349385868483507        2.9430042067117565E-002   3.6706099392050578E-002
 -0.10954883956631385        3.0254097550962304E-002   3.1371867583491142E-002
 -0.10560382044779265        3.0430796553300204E-002   2.6946114292579135E-002
 -0.10165880132927144        2.9960139074131226E-002   2.3428839519314567E-002
 -0.12690117610387958        3.5130524757617652E-002   2.9148132327236731E-002
 -0.12242867321833879        3.3939924689183040E-002   2.5536072808135211E-002
 -0.11795617033279800        3.3009761437167232E-002   2.2070502305425330E-002
 -0.11348366744725726        3.2340035001570226E-002   1.8751420819107127E-002
 -0.10901116456171646        3.1930745382391969E-002   1.5578828349180604E-002
 -0.13315836901412553        4.2302419413469343E-002   1.2231546253466990E-002
 -0.12892037186282099        3.8449807311248564E-002   1.2157930839396442E-002
 -0.12468237471151643        3.5765425323372187E-002   1.1468814940461720E-002
 -0.12044437756021188        3.4249273449840238E-002   1.0164198556663095E-002
 -0.11620638040890732        3.3901351690652767E-002   8.2440816880001884E-003
 -0.13621045653409430        4.9474314069321061E-002  -7.8009485030517828E-003
 -0.13296895461828173        4.2959689933314019E-002  -3.4283265141657332E-003
 -0.12972745270246913        3.8521089209577135E-002  -4.3319451139952822E-004
 -0.12648595078665656        3.6158511898110292E-002   1.1844475052468295E-003
 -0.12324444887084396        3.5871957998913462E-002   1.4245995357733965E-003
  -9.4149290711572131E-002   2.7989532765870476E-002   3.1794115198402043E-002
  -9.1756999599535344E-002   2.6796660504983656E-002   3.1185475915479544E-002
  -8.9364708487498543E-002   2.5837244180075058E-002   3.0706642674815411E-002
  -8.6972417375461741E-002   2.5111283791144714E-002   3.0357615476409524E-002
  -8.4580126263424940E-002   2.4618779338192592E-002   3.0138394320261941E-002
 -0.10165880132927144        2.9960139074131226E-002   2.3428839519314567E-002
  -9.9141034145097492E-002   2.9182162424544786E-002   2.3106104689850145E-002
  -9.6623266960923590E-002   2.8436903915630127E-002   2.2904515962401555E-002
  -9.4105499776749701E-002   2.7724363547387342E-002   2.2824073336968967E-002
  -9.1587732592575757E-002   2.7044541319816429E-002   2.2864776813552201E-002
 -0.10901116456171646        3.1930745382391969E-002   1.5578828349180604E-002
 -0.10637658124564786        3.1567664344105871E-002   1.5341260177867789E-002
 -0.10374199792957925        3.1036563651185241E-002   1.5216178168328520E-002
 -0.10110741461351069        3.0337443303629984E-002   1.5203582320562768E-002
  -9.8472831297442109E-002   2.9470303301440307E-002   1.5303472634570409E-002
 -0.11620638040890732        3.3901351690652767E-002   8.2440816880001884E-003
 -0.11346364090118644        3.3953166263666928E-002   7.8909423795326932E-003
 -0.11072090139346555        3.3636223386740265E-002   7.6416292925962654E-003
 -0.10797816188574470        3.2950523059872734E-002   7.4961424271908902E-003
 -0.10523542237802377        3.1896065283064177E-002   7.4544817833166657E-003
 -0.12324444887084396        3.5871957998913462E-002   1.4245995357733965E-003
 -0.12040221311171317        3.6338668183228076E-002   7.5515129484482468E-004
 -0.11755997735258245        3.6235883122295406E-002   1.8086933520465587E-004
 -0.11471774159345167        3.5563602816115300E-002  -2.9824634314648893E-004
 -0.11187550583432093        3.4321827264688021E-002  -6.8219574020922380E-004
  -8.4580126263424940E-002   2.4618779338192592E-002   3.0138394320261941E-002
  -8.2010470018514858E-002   2.4214943677678222E-002   2.9429842659718736E-002
  -7.9440813773604735E-002   2.3754989666060877E-002   2.8759774346337544E-002
  -7.6871157528694625E-002   2.3238917303340920E-002   2.8128189380118386E-002
  -7.4301501283784543E-002   2.2666726589517933E-002   2.7535087761061255E-002
  -9.1587732592575757E-002   2.7044541319816429E-002   2.2864776813552201E-002
  -8.8950788010526444E-002   2.6383699989444134E-002   2.2282100418582099E-002
  -8.6313843428477088E-002   2.5728102312797610E-002   2.1795517350728578E-002
  -8.3676898846427733E-002   2.5077748289876540E-002   2.1405027609991422E-002
  -8.1039954264378419E-002   2.4432637920680927E-002   2.1110631196370855E-002
  -9.8472831297442109E-002   2.9470303301440307E-002   1.5303472634570409E-002
  -9.5710988398299016E-002   2.8552456301210276E-002   1.4908033510001834E-002
  -9.2949145499155977E-002   2.7701214959534176E-002   1.4666297692504417E-002
  -9.0187302600012897E-002   2.6916579276412077E-002   1.4578265182077749E-002
  -8.7425459700869887E-002   2.6198549251843936E-002   1.4643935978722121E-002
 -0.10523542237802377        3.1896065283064177E-002   7.4544817833166657E-003
 -0.10229107118183260        3.0721212612976331E-002   7.3076419339781519E-003
  -9.9346719985641360E-002   2.9674327606270798E-002   7.3721153716650549E-003
  -9.6402368789450160E-002   2.8755410262947725E-002   7.6479020963773122E-003
  -9.3458017593258932E-002   2.7964460583006938E-002   8.1350021081148926E-003
 -0.11187550583432093        3.4321827264688021E-002  -6.8219574020922380E-004
 -0.10869103636112709        3.2889968924742247E-002  -5.1907430948935906E-004
 -0.10550656688793328        3.1647440253007447E-002  -8.7029611789635197E-005
 -0.10232209741473948        3.0594241249483310E-002   6.1393835288983678E-004
  -9.9137627941545625E-002   2.9730371914169940E-002   1.5838295845492789E-003
  -7.4301501283784543E-002   2.2666726589517933E-002   2.7535087761061255E-002
  -7.2281602837201211E-002   2.2054392865838490E-002   2.6571705117549138E-002
  -7.0261704390617852E-002   2.1417891473548466E-002   2.5868673632178624E-002
  -6.8241805944034520E-002   2.0757222412648178E-002   2.5425993304949553E-002
  -6.6221907497451160E-002   2.0072385683137406E-002   2.5243664135861932E-002
  -8.1039954264378419E-002   2.4432637920680927E-002   2.1110631196370855E-002
  -7.8772975565270714E-002   2.3771583811786234E-002   2.0456275790476902E-002
  -7.6505996866163023E-002   2.3073398569767700E-002   2.0035729731490010E-002
  -7.4239018167055359E-002   2.2338082194625186E-002   1.9848993019410344E-002
  -7.1972039467947641E-002   2.1565634686358776E-002   1.9896065654237849E-002
  -8.7425459700869887E-002   2.6198549251843936E-002   1.4643935978722121E-002
  -8.4937942560472171E-002   2.5488774757734117E-002   1.4285644345932595E-002
  -8.2450425420074525E-002   2.4728905665986910E-002   1.4134620248816041E-002
  -7.9962908279676864E-002   2.3918941976602198E-002   1.4190863687372266E-002
  -7.7475391139279148E-002   2.3058883689580256E-002   1.4454374661601099E-002
  -9.3458017593258932E-002   2.7964460583006938E-002   8.1350021081148926E-003
  -9.0776503822805610E-002   2.7205965703682042E-002   8.0598107839164393E-003
  -8.8094990052352287E-002   2.6384412762206079E-002   8.1653451841565208E-003
  -8.5413476281898965E-002   2.5499801758579205E-002   8.4516053088350192E-003
  -8.2731962511445656E-002   2.4552132692801515E-002   8.9185911579520646E-003
  -9.9137627941545625E-002   2.9730371914169940E-002   1.5838295845492789E-003
  -9.6288659352271044E-002   2.8923156649629939E-002   1.7787751044284206E-003
  -9.3439690762996380E-002   2.8039919858425355E-002   2.1279045375116601E-003
  -9.0590722173721785E-002   2.7080661540556078E-002   2.6312178837991085E-003
  -8.7741753584447135E-002   2.6045381696022996E-002   3.2887151432907658E-003
  -6.6221907497451160E-002   2.0072385683137406E-002   2.5243664135861932E-002
  -6.3568551565621467E-002   1.9355265407792310E-002   2.4416235070511078E-002
  -6.0915195633791774E-002   1.8597745709388963E-002   2.3897977122050829E-002
  -5.8261839701962109E-002   1.7799826587927163E-002   2.3688890290481351E-002
  -5.5608483770132416E-002   1.6961508043406959E-002   2.3788974575802480E-002
  -7.1972039467947641E-002   2.1565634686358776E-002   1.9896065654237849E-002
  -6.9047960047817811E-002   2.0772381352022279E-002   1.9254529288424221E-002
  -6.6123880627687953E-002   1.9974647498669985E-002   1.8845268782320262E-002
  -6.3199801207558082E-002   1.9172433126301187E-002   1.8668284135926118E-002
  -6.0275721787428210E-002   1.8365738234916607E-002   1.8723575349241600E-002
  -7.7475391139279148E-002   2.3058883689580256E-002   1.4454374661601099E-002
  -7.4357483488030118E-002   2.2189497296252469E-002   1.4034649899367126E-002
  -7.1239575836781061E-002   2.1351549287950786E-002   1.3770305739661787E-002
  -6.8121668185532031E-002   2.0545039664675493E-002   1.3661342182485044E-002
  -6.5003760534282973E-002   1.9769968426426116E-002   1.3707759227837235E-002
  -8.2731962511445656E-002   2.4552132692801515E-002   8.9185911579520646E-003
  -7.9497121886258404E-002   2.3606613240482605E-002   8.7565969033398059E-003
  -7.6262281261071055E-002   2.2728451077231863E-002   8.6730879940753909E-003
  -7.3027440635883789E-002   2.1917646203049659E-002   8.6680644301583634E-003
  -6.9792600010696482E-002   2.1174198617935860E-002   8.7415262115895370E-003
  -8.7741753584447135E-002   2.6045381696022996E-002   3.2887151432907658E-003
  -8.4466875242502626E-002   2.5023729184712518E-002   3.4203703003426456E-003
  -8.1191996900558061E-002   2.4105352866512719E-002   3.5536155455610785E-003
  -7.7917118558613524E-002   2.3290252741423711E-002   3.6884508789464462E-003
  -7.4642240216668987E-002   2.2578428809445383E-002   3.8248763004982145E-003
  -5.5608483770132416E-002   1.6961508043406959E-002   2.3788974575802480E-002
  -5.3127778835795197E-002   1.6187974539922878E-002   2.3528980737409000E-002
  -5.0647073901458034E-002   1.5584410541569338E-002   2.2817763480362935E-002
  -4.8166368967120857E-002   1.5150816048346283E-002   2.1655322804664145E-002
  -4.5685664032783652E-002   1.4887191060253990E-002   2.0041658710312882E-002
  -6.0275721787428210E-002   1.8365738234916607E-002   1.8723575349241600E-002
  -5.8110912937602732E-002   1.7591851162834793E-002   1.8658140946806484E-002
  -5.5946104087777213E-002   1.6888060248375025E-002   1.8412137794000472E-002
  -5.3781295237951714E-002   1.6254365491537345E-002   1.7985565890823674E-002
  -5.1616486388126201E-002   1.5690766892321739E-002   1.7378425237276174E-002
  -6.5003760534282973E-002   1.9769968426426116E-002   1.3707759227837235E-002
  -6.2884193100687269E-002   1.8995727785746735E-002   1.3737010913851960E-002
  -6.0764625667091662E-002   1.8191709955180879E-002   1.3856348517777548E-002
  -5.8645058233496063E-002   1.7357914934728408E-002   1.4065772039614455E-002
  -5.6525490799900401E-002   1.6494342724389682E-002   1.4365281479361905E-002
  -6.9792600010696482E-002   2.1174198617935860E-002   8.7415262115895370E-003
  -6.7447619325048946E-002   2.0399604408658359E-002   8.7655906385455951E-003
  -6.5102638639401439E-002   1.9495359661986650E-002   9.1503956516943083E-003
  -6.2757657953753931E-002   1.8461464377919692E-002   9.8959412510360688E-003
  -6.0412677268106403E-002   1.7297918556457750E-002   1.1002227436570141E-002
  -7.4642240216668987E-002   2.2578428809445383E-002   3.8248763004982145E-003
  -7.1801191610687654E-002   2.1803481031570648E-002   3.7438801208870554E-003
  -6.8960143004706487E-002   2.0799009368792282E-002   4.2942791957504556E-003
  -6.6119094398725292E-002   1.9565013821110443E-002   5.4760735250883666E-003
  -6.3278045792743987E-002   1.8101494388525596E-002   7.2892631089013227E-003
  -4.5685664032783652E-002   1.4887191060253990E-002   2.0041658710312882E-002
  -4.5277482421362425E-002   1.5434394300287368E-002   1.5816011879805580E-002
  -4.4869300809941157E-002   1.7433284491441506E-002   1.3872046556756917E-002
  -4.4461119198519881E-002   2.0883861633716683E-002   1.4209762741166712E-002
  -4.4052937587098606E-002   2.5786125727112807E-002   1.6829160433035284E-002
  -5.1616486388126201E-002   1.5690766892321739E-002   1.7378425237276174E-002
  -4.9353345562756695E-002   1.5617050102839369E-002   1.4928551263309192E-002
  -4.7090204737387197E-002   1.6453000775200705E-002   1.3906914209780130E-002
  -4.4827063912017739E-002   1.8198618909406238E-002   1.4313514076688835E-002
  -4.2563923086648192E-002   2.0853904505455767E-002   1.6148350864035654E-002
  -5.6525490799900401E-002   1.6494342724389682E-002   1.4365281479361905E-002
  -5.3260835347603452E-002   1.5799705905391537E-002   1.3149160872658522E-002
  -4.9996179895306511E-002   1.5472717058960229E-002   1.2507832599372236E-002
  -4.6731524443009577E-002   1.5513376185095790E-002   1.2441296659502794E-002
  -4.3466868990712670E-002   1.5921683283798727E-002   1.2949553053051011E-002
  -6.0412677268106403E-002   1.7297918556457750E-002   1.1002227436570141E-002
  -5.6999951775902682E-002   1.5982361707943288E-002   1.0477840707853424E-002
  -5.3587226283699024E-002   1.4492433342719314E-002   9.6748017255330349E-003
  -5.0174500791495241E-002   1.2828133460785176E-002   8.5931104896086706E-003
  -4.6761775299291639E-002   1.0989462062141464E-002   7.2327670000810612E-003
  -6.3278045792743987E-002   1.8101494388525596E-002   7.2892631089013227E-003
  -6.0570694847654316E-002   1.6165017510495483E-002   6.9145907688939467E-003
  -5.7863343902564646E-002   1.3512149626478898E-002   5.4078215882627789E-003
  -5.5155992957475086E-002   1.0142890736474716E-002   2.7689555670062024E-003
  -5.2448642012385305E-002   6.0572408404846456E-003  -1.0020072948739855E-003
 </DataArray>
 </PointData>
 </Piece>
 <Piece  NumberOfPoints="          1600 "  NumberOfCells="         1024 ">
 <Points>
 <DataArray  type="Float64" NumberOfComponents="3"  format="ascii" >
  0.50000000000000000        0.0000000000000000        0.0000000000000000     
  0.53125000000000000        0.0000000000000000        0.0000000000000000     
  0.56250000000000000        0.0000000000000000        0.0000000000000000     
  0.59375000000000000        0.0000000000000000        0.0000000000000000     
  0.62500000000000000        0.0000000000000000        0.0000000000000000     
  0.50000000000000000        3.1250000000000000E-002   0.0000000000000000     
  0.53125000000000000        3.1250000000000000E-002   0.0000000000000000     
  0.56250000000000000        3.1250000000000000E-002   0.0000000000000000     
  0.59375000000000000        3.1250000000000000E-002   0.0000000000000000     
  0.62500000000000000        3.1250000000000000E-002   0.0000000000000000     
  0.50000000000000000        6.2500000000000000E-002   0.0000000000000000     
  0.53125000000000000        6.2500000000000000E-002   0.0000000000000000     
  0.56250000000000000        6.2500000000000000E-002   0.0000000000000000     
  0.59375000000000000        6.2500000000000000E-002   0.0000000000000000     
  0.62500000000000000        6.2500000000000000E-002   0.0000000000000000     
  0.50000000000000000        9.3750000000000000E-002   0.0000000000000000     
  0.53125000000000000        9.3750000000000000E-002   0.0000000000000000     
  0.56250000000000000        9.3750000000000000E-002   0.0000000000000000     
  0.59375000000000000        9.3750000000000000E-002   0.0000000000000000     
  0.62500000000000000        9.3750000000000000E-002   0.0000000000000000     
  0.50000000000000000       0.12500000000000000        0.0000000000000000     
  0.53125000000000000       0.12500000000000000        0.0000000000000000     
  0.56250000000000000       0.12500000000000000        0.0000000000000000     
  0.59375000000000000       0.12500000000000000        0.0000000000000000     
  0.62500000000000000       0.12500000000000000        0.0000000000000000     
  0.62500000000000000        0.0000000000000000        0.0000000000000000     
  0.65625000000000000        0.0000000000000000        0.0000000000000000     
  0.68750000000000000        0.0000000000000000        0.0000000000000000     
  0.71875000000000000        0.0000000000000000        0.0000000000000000     
  0.75000000000000000        0.0000000000000000        0.0000000000000000     
  0.62500000000000000        3.1250000000000000E-002   0.0000000000000000     
  0.65625000000000000        3.1250000000000000E-002   0.0000000000000000     
  0.68750000000000000        3.1250000000000000E-002   0.0000000000000000     
  0.71875000000000000        3.1250000000000000E-002   0.0000000000000000     
  0.75000000000000000        3.1250000000000000E-002   0.0000000000000000     
  0.62500000000000000        6.2500000000000000E-002   0.0000000000000000     
  0.65625000000000000        6.2500000000000000E-002   0.0000000000000000     
  0.68750000000000000        6.2500000000000000E-002   0.0000000000000000     
  0.71875000000000000        6.2500000000000000E-002   0.0000000000000000     
  0.75000000000000000        6.2500000000000000E-002   0.0000000000000000     
  0.62500000000000000        9.3750000000000000E-002   0.0000000000000000     
  0.65625000000000000        9.3750000000000000E-002   0.0000000000000000     
  0.68750000000000000        9.3750000000000000E-002   0.0000000000000000     
  0.71875000000000000        9.3750000000000000E-002   0.0000000000000000     
  0.75000000000000000        9.3750000000000000E-002   0.0000000000000000     
  0.62500000000000000       0.12500000000000000        0.0000000000000000     
  0.65625000000000000       0.12500000000000000        0.0000000000000000     
  0.68750000000000000       0.12500000000000000        0.0000000000000000     
  0.71875000000000000       0.12500000000000000        0.0000000000000000     
  0.75000000000000000       0.12500000000000000        0.0000000000000000     
  0.75000000000000000        0.0000000000000000        0.0000000000000000     
  0.78125000000000000        0.0000000000000000        0.0000000000000000     
  0.81250000000000000        0.0000000000000000        0.0000000000000000     
  0.84375000000000000        0.0000000000000000        0.0000000000000000     
  0.87500000000000000        0.0000000000000000        0.0000000000000000     
  0.75000000000000000        3.1250000000000000E-002   0.0000000000000000     
  0.78125000000000000        3.1250000000000000E-002   0.0000000000000000     
  0.81250000000000000        3.1250000000000000E-002   0.0000000000000000     
  0.84375000000000000        3.1250000000000000E-002   0.0000000000000000     
  0.87500000000000000        3.1250000000000000E-002   0.0000000000000000     
  0.75000000000000000        6.2500000000000000E-002   0.0000000000000000     
  0.78125000000000000        6.2500000000000000E-002   0.0000000000000000     
  0.81250000000000000        6.2500000000000000E-002   0.0000000000000000     
  0.84375000000000000        6.2500000000000000E-002   0.0000000000000000     
  0.87500000000000000        6.2500000000000000E-002   0.0000000000000000     
  0.75000000000000000        9.3750000000000000E-002   0.0000000000000000     
  0.78125000000000000        9.3750000000000000E-002   0.0000000000000000     
  0.81250000000000000        9.3750000000000000E-002   0.0000000000000000     
  0.84375000000000000        9.3750000000000000E-002   0.0000000000000000     
  0.87500000000000000        9.3750000000000000E-002   0.0000000000000000     
  0.75000000000000000       0.12500000000000000        0.0000000000000000     
  0.78125000000000000       0.12500000000000000        0.0000000000000000     
  0.81250000000000000       0.12500000000000000        0.0000000000000000     
  0.84375000000000000       0.12500000000000000        0.0000000000000000     
  0.87500000000000000       0.12500000000000000        0.0000000000000000     
  0.87500000000000000        0.0000000000000000        0.0000000000000000     
  0.90625000000000000        0.0000000000000000        0.0000000000000000     
  0.93750000000000000        0.0000000000000000        0.0000000000000000     
  0.96875000000000000        0.0000000000000000        0.0000000000000000     
   1.0000000000000000        0.0000000000000000        0.0000000000000000     
  0.87500000000000000        3.1250000000000000E-002   0.0000000000000000     
  0.90625000000000000        3.1250000000000000E-002   0.0000000000000000     
  0.93750000000000000        3.1250000000000000E-002   0.0000000000000000     
  0.96875000000000000        3.1250000000000000E-002   0.0000000000000000     
   1.0000000000000000        3.1250000000000000E-002   0.0000000000000000     
  0.87500000000000000        6.2500000000000000E-002   0.0000000000000000     
  0.90625000000000000        6.2500000000000000E-002   0.0000000000000000     
  0.93750000000000000        6.2500000000000000E-002   0.0000000000000000     
  0.96875000000000000        6.2500000000000000E-002   0.0000000000000000     
   1.0000000000000000        6.2500000000000000E-002   0.0000000000000000     
  0.87500000000000000        9.3750000000000000E-002   0.0000000000000000     
  0.90625000000000000        9.3750000000000000E-002   0.0000000000000000     
  0.93750000000000000        9.3750000000000000E-002   0.0000000000000000     
  0.96875000000000000        9.3750000000000000E-002   0.0000000000000000     
   1.0000000000000000        9.3750000000000000E-002   0.0000000000000000     
  0.87500000000000000       0.12500000000000000        0.0000000000000000     
  0.90625000000000000       0.12500000000000000        0.0000000000000000     
  0.93750000000000000       0.12500000000000000        0.0000000000000000     
  0.96875000000000000       0.12500000000000000        0.0000000000000000     
   1.0000000000000000       0.12500000000000000        0.0000000000000000     
   1.0000000000000000        0.0000000000000000        0.0000000000000000     
   1.0312500000000000        0.0000000000000000        0.0000000000000000     
   1.0625000000000000        0.0000000000000000        0.0000000000000000     
   1.0937500000000000        0.0000000000000000        0.0000000000000000     
   1.1250000000000000        0.0000000000000000        0.0000000000000000     
   1.0000000000000000        3.1250000000000000E-002   0.0000000000000000     
   1.0312500000000000        3.1250000000000000E-002   0.0000000000000000     
   1.0625000000000000        3.1250000000000000E-002   0.0000000000000000     
   1.0937500000000000        3.1250000000000000E-002   0.0000000000000000     
   1.1250000000000000        3.1250000000000000E-002   0.0000000000000000     
   1.0000000000000000        6.2500000000000000E-002   0.0000000000000000     
   1.0312500000000000        6.2500000000000000E-002   0.0000000000000000     
   1.0625000000000000        6.2500000000000000E-002   0.0000000000000000     
   1.0937500000000000        6.2500000000000000E-002   0.0000000000000000     
   1.1250000000000000        6.2500000000000000E-002   0.0000000000000000     
   1.0000000000000000        9.3750000000000000E-002   0.0000000000000000     
   1.0312500000000000        9.3750000000000000E-002   0.0000000000000000     
   1.0625000000000000        9.3750000000000000E-002   0.0000000000000000     
   1.0937500000000000        9.3750000000000000E-002   0.0000000000000000     
   1.1250000000000000        9.3750000000000000E-002   0.0000000000000000     
   1.0000000000000000       0.12500000000000000        0.0000000000000000     
   1.0312500000000000       0.12500000000000000        0.0000000000000000     
   1.0625000000000000       0.12500000000000000        0.0000000000000000     
   1.0937500000000000       0.12500000000000000        0.0000000000000000     
   1.1250000000000000       0.12500000000000000        0.0000000000000000     
   1.1250000000000000        0.0000000000000000        0.0000000000000000     
   1.1562500000000000        0.0000000000000000        0.0000000000000000     
   1.1875000000000000        0.0000000000000000        0.0000000000000000     
   1.2187500000000000        0.0000000000000000        0.0000000000000000     
   1.2500000000000000        0.0000000000000000        0.0000000000000000     
   1.1250000000000000        3.1250000000000000E-002   0.0000000000000000     
   1.1562500000000000        3.1250000000000000E-002   0.0000000000000000     
   1.1875000000000000        3.1250000000000000E-002   0.0000000000000000     
   1.2187500000000000        3.1250000000000000E-002   0.0000000000000000     
   1.2500000000000000        3.1250000000000000E-002   0.0000000000000000     
   1.1250000000000000        6.2500000000000000E-002   0.0000000000000000     
   1.1562500000000000        6.2500000000000000E-002   0.0000000000000000     
   1.1875000000000000        6.2500000000000000E-002   0.0000000000000000     
   1.2187500000000000        6.2500000000000000E-002   0.0000000000000000     
   1.2500000000000000        6.2500000000000000E-002   0.0000000000000000     
   1.1250000000000000        9.3750000000000000E-002   0.0000000000000000     
   1.1562500000000000        9.3750000000000000E-002   0.0000000000000000     
   1.1875000000000000        9.3750000000000000E-002   0.0000000000000000     
   1.2187500000000000        9.3750000000000000E-002   0.0000000000000000     
   1.2500000000000000        9.3750000000000000E-002   0.0000000000000000     
   1.1250000000000000       0.12500000000000000        0.0000000000000000     
   1.1562500000000000       0.12500000000000000        0.0000000000000000     
   1.1875000000000000       0.12500000000000000        0.0000000000000000     
   1.2187500000000000       0.12500000000000000        0.0000000000000000     
   1.2500000000000000       0.12500000000000000        0.0000000000000000     
   1.2500000000000000        0.0000000000000000        0.0000000000000000     
   1.2812500000000000        0.0000000000000000        0.0000000000000000     
   1.3125000000000000        0.0000000000000000        0.0000000000000000     
   1.3437500000000000        0.0000000000000000        0.0000000000000000     
   1.3750000000000000        0.0000000000000000        0.0000000000000000     
   1.2500000000000000        3.1250000000000000E-002   0.0000000000000000     
   1.2812500000000000        3.1250000000000000E-002   0.0000000000000000     
   1.3125000000000000        3.1250000000000000E-002   0.0000000000000000     
   1.3437500000000000        3.1250000000000000E-002   0.0000000000000000     
   1.3750000000000000        3.1250000000000000E-002   0.0000000000000000     
   1.2500000000000000        6.2500000000000000E-002   0.0000000000000000     
   1.2812500000000000        6.2500000000000000E-002   0.0000000000000000     
   1.3125000000000000        6.2500000000000000E-002   0.0000000000000000     
   1.3437500000000000        6.2500000000000000E-002   0.0000000000000000     
   1.3750000000000000        6.2500000000000000E-002   0.0000000000000000     
   1.2500000000000000        9.3750000000000000E-002   0.0000000000000000     
   1.2812500000000000        9.3750000000000000E-002   0.0000000000000000     
   1.3125000000000000        9.3750000000000000E-002   0.0000000000000000     
   1.3437500000000000        9.3750000000000000E-002   0.0000000000000000     
   1.3750000000000000        9.3750000000000000E-002   0.0000000000000000     
   1.2500000000000000       0.12500000000000000        0.0000000000000000     
   1.2812500000000000       0.12500000000000000        0.0000000000000000     
   1.3125000000000000       0.12500000000000000        0.0000000000000000     
   1.3437500000000000       0.12500000000000000        0.0000000000000000     
   1.3750000000000000       0.12500000000000000        0.0000000000000000     
   1.3750000000000000        0.0000000000000000        0.0000000000000000     
   1.4062500000000000        0.0000000000000000        0.0000000000000000     
   1.4375000000000000        0.0000000000000000        0.0000000000000000     
   1.4687500000000000        0.0000000000000000        0.0000000000000000     
   1.5000000000000000        0.0000000000000000        0.0000000000000000     
   1.3750000000000000        3.1250000000000000E-002   0.0000000000000000     
   1.4062500000000000        3.1250000000000000E-002   0.0000000000000000     
   1.4375000000000000        3.1250000000000000E-002   0.0000000000000000     
   1.4687500000000000        3.1250000000000000E-002   0.0000000000000000     
   1.5000000000000000        3.1250000000000000E-002   0.0000000000000000     
   1.3750000000000000        6.2500000000000000E-002   0.0000000000000000     
   1.4062500000000000        6.2500000000000000E-002   0.0000000000000000     
   1.4375000000000000        6.2500000000000000E-002   0.0000000000000000     
   1.4687500000000000        6.2500000000000000E-002   0.0000000000000000     
   1.5000000000000000        6.2500000000000000E-002   0.0000000000000000     
   1.3750000000000000        9.3750000000000000E-002   0.0000000000000000     
   1.4062500000000000        9.3750000000000000E-002   0.0000000000000000     
   1.4375000000000000        9.3750000000000000E-002   0.0000000000000000     
   1.4687500000000000        9.3750000000000000E-002   0.0000000000000000     
   1.5000000000000000        9.3750000000000000E-002   0.0000000000000000     
   1.3750000000000000       0.12500000000000000        0.0000000000000000     
   1.4062500000000000       0.12500000000000000        0.0000000000000000     
   1.4375000000000000       0.12500000000000000        0.0000000000000000     
   1.4687500000000000       0.12500000000000000        0.0000000000000000     
   1.5000000000000000       0.12500000000000000        0.0000000000000000     
  0.50000000000000000       0.12500000000000000        0.0000000000000000     
  0.53125000000000000       0.12500000000000000        0.0000000000000000     
  0.56250000000000000       0.12500000000000000        0.0000000000000000     
  0.59375000000000000       0.12500000000000000        0.0000000000000000     
  0.62500000000000000       0.12500000000000000        0.0000000000000000     
  0.50000000000000000       0.15625000000000000        0.0000000000000000     
  0.53125000000000000       0.15625000000000000        0.0000000000000000     
  0.56250000000000000       0.15625000000000000        0.0000000000000000     
  0.59375000000000000       0.15625000000000000        0.0000000000000000     
  0.62500000000000000       0.15625000000000000        0.0000000000000000     
  0.50000000000000000       0.18750000000000000        0.0000000000000000     
  0.53125000000000000       0.18750000000000000        0.0000000000000000     
  0.56250000000000000       0.18750000000000000        0.0000000000000000     
  0.59375000000000000       0.18750000000000000        0.0000000000000000     
  0.62500000000000000       0.18750000000000000        0.0000000000000000     
  0.50000000000000000       0.21875000000000000        0.0000000000000000     
  0.53125000000000000       0.21875000000000000        0.0000000000000000     
  0.56250000000000000       0.21875000000000000        0.0000000000000000     
  0.59375000000000000       0.21875000000000000        0.0000000000000000     
  0.62500000000000000       0.21875000000000000        0.0000000000000000     
  0.50000000000000000       0.25000000000000000        0.0000000000000000     
  0.53125000000000000       0.25000000000000000        0.0000000000000000     
  0.56250000000000000       0.25000000000000000        0.0000000000000000     
  0.59375000000000000       0.25000000000000000        0.0000000000000000     
  0.62500000000000000       0.25000000000000000        0.0000000000000000     
  0.62500000000000000       0.12500000000000000        0.0000000000000000     
  0.65625000000000000       0.12500000000000000        0.0000000000000000     
  0.68750000000000000       0.12500000000000000        0.0000000000000000     
  0.71875000000000000       0.12500000000000000        0.0000000000000000     
  0.75000000000000000       0.12500000000000000        0.0000000000000000     
  0.62500000000000000       0.15625000000000000        0.0000000000000000     
  0.65625000000000000       0.15625000000000000        0.0000000000000000     
  0.68750000000000000       0.15625000000000000        0.0000000000000000     
  0.71875000000000000       0.15625000000000000        0.0000000000000000     
  0.75000000000000000       0.15625000000000000        0.0000000000000000     
  0.62500000000000000       0.18750000000000000        0.0000000000000000     
  0.65625000000000000       0.18750000000000000        0.0000000000000000     
  0.68750000000000000       0.18750000000000000        0.0000000000000000     
  0.71875000000000000       0.18750000000000000        0.0000000000000000     
  0.75000000000000000       0.18750000000000000        0.0000000000000000     
  0.62500000000000000       0.21875000000000000        0.0000000000000000     
  0.65625000000000000       0.21875000000000000        0.0000000000000000     
  0.68750000000000000       0.21875000000000000        0.0000000000000000     
  0.71875000000000000       0.21875000000000000        0.0000000000000000     
  0.75000000000000000       0.21875000000000000        0.0000000000000000     
  0.62500000000000000       0.25000000000000000        0.0000000000000000     
  0.65625000000000000       0.25000000000000000        0.0000000000000000     
  0.68750000000000000       0.25000000000000000        0.0000000000000000     
  0.71875000000000000       0.25000000000000000        0.0000000000000000     
  0.75000000000000000       0.25000000000000000        0.0000000000000000     
  0.75000000000000000       0.12500000000000000        0.0000000000000000     
  0.78125000000000000       0.12500000000000000        0.0000000000000000     
  0.81250000000000000       0.12500000000000000        0.0000000000000000     
  0.84375000000000000       0.12500000000000000        0.0000000000000000     
  0.87500000000000000       0.12500000000000000        0.0000000000000000     
  0.75000000000000000       0.15625000000000000        0.0000000000000000     
  0.78125000000000000       0.15625000000000000        0.0000000000000000     
  0.81250000000000000       0.15625000000000000        0.0000000000000000     
  0.84375000000000000       0.15625000000000000        0.0000000000000000     
  0.87500000000000000       0.15625000000000000        0.0000000000000000     
  0.75000000000000000       0.18750000000000000        0.0000000000000000     
  0.78125000000000000       0.18750000000000000        0.0000000000000000     
  0.81250000000000000       0.18750000000000000        0.0000000000000000     
  0.84375000000000000       0.18750000000000000        0.0000000000000000     
  0.87500000000000000       0.18750000000000000        0.0000000000000000     
  0.75000000000000000       0.21875000000000000        0.0000000000000000     
  0.78125000000000000       0.21875000000000000        0.0000000000000000     
  0.81250000000000000       0.21875000000000000        0.0000000000000000     
  0.84375000000000000       0.21875000000000000        0.0000000000000000     
  0.87500000000000000       0.21875000000000000        0.0000000000000000     
  0.75000000000000000       0.25000000000000000        0.0000000000000000     
  0.78125000000000000       0.25000000000000000        0.0000000000000000     
  0.81250000000000000       0.25000000000000000        0.0000000000000000     
  0.84375000000000000       0.25000000000000000        0.0000000000000000     
  0.87500000000000000       0.25000000000000000        0.0000000000000000     
  0.87500000000000000       0.12500000000000000        0.0000000000000000     
  0.90625000000000000       0.12500000000000000        0.0000000000000000     
  0.93750000000000000       0.12500000000000000        0.0000000000000000     
  0.96875000000000000       0.12500000000000000        0.0000000000000000     
   1.0000000000000000       0.12500000000000000        0.0000000000000000     
  0.87500000000000000       0.15625000000000000        0.0000000000000000     
  0.90625000000000000       0.15625000000000000        0.0000000000000000     
  0.93750000000000000       0.15625000000000000        0.0000000000000000     
  0.96875000000000000       0.15625000000000000        0.0000000000000000     
   1.0000000000000000       0.15625000000000000        0.0000000000000000     
  0.87500000000000000       0.18750000000000000        0.0000000000000000     
  0.90625000000000000       0.18750000000000000        0.0000000000000000     
  0.93750000000000000       0.18750000000000000        0.0000000000000000     
  0.96875000000000000       0.18750000000000000        0.0000000000000000     
   1.0000000000000000       0.18750000000000000        0.0000000000000000     
  0.87500000000000000       0.21875000000000000        0.0000000000000000     
  0.90625000000000000       0.21875000000000000        0.0000000000000000     
  0.93750000000000000       0.21875000000000000        0.0000000000000000     
  0.96875000000000000       0.21875000000000000        0.0000000000000000     
   1.0000000000000000       0.21875000000000000        0.0000000000000000     
  0.87500000000000000       0.25000000000000000        0.0000000000000000     
  0.90625000000000000       0.25000000000000000        0.0000000000000000     
  0.93750000000000000       0.25000000000000000        0.0000000000000000     
  0.96875000000000000       0.25000000000000000        0.0000000000000000     
   1.0000000000000000       0.25000000000000000        0.0000000000000000     
   1.0000000000000000       0.12500000000000000        0.0000000000000000     
   1.0312500000000000       0.12500000000000000        0.0000000000000000     
   1.0625000000000000       0.12500000000000000        0.0000000000000000     
   1.0937500000000000       0.12500000000000000        0.0000000000000000     
   1.1250000000000000       0.12500000000000000        0.0000000000000000     
   1.0000000000000000       0.15625000000000000        0.0000000000000000     
   1.0312500000000000       0.15625000000000000        0.0000000000000000     
   1.0625000000000000       0.15625000000000000        0.0000000000000000     
   1.0937500000000000       0.15625000000000000        0.0000000000000000     
   1.1250000000000000       0.15625000000000000        0.0000000000000000     
   1.0000000000000000       0.18750000000000000        0.0000000000000000     
   1.0312500000000000       0.18750000000000000        0.0000000000000000     
   1.0625000000000000       0.18750000000000000        0.0000000000000000     
   1.0937500000000000       0.18750000000000000        0.0000000000000000     
   1.1250000000000000       0.18750000000000000        0.0000000000000000     
   1.0000000000000000       0.21875000000000000        0.0000000000000000     
   1.0312500000000000       0.21875000000000000        0.0000000000000000     
   1.0625000000000000       0.21875000000000000        0.0000000000000000     
   1.0937500000000000       0.21875000000000000        0.0000000000000000     
   1.1250000000000000       0.21875000000000000        0.0000000000000000     
   1.0000000000000000       0.25000000000000000        0.0000000000000000     
   1.0312500000000000       0.25000000000000000        0.0000000000000000     
   1.0625000000000000       0.25000000000000000        0.0000000000000000     
   1.0937500000000000       0.25000000000000000        0.0000000000000000     
   1.1250000000000000       0.25000000000000000        0.0000000000000000     
   1.1250000000000000       0.12500000000000000        0.0000000000000000     
   1.1562500000000000       0.12500000000000000        0.0000000000000000     
   1.1875000000000000       0.12500000000000000        0.0000000000000000     
   1.2187500000000000       0.12500000000000000        0.0000000000000000     
   1.2500000000000000       0.12500000000000000        0.0000000000000000     
   1.1250000000000000       0.15625000000000000        0.0000000000000000     
   1.1562500000000000       0.15625000000000000        0.0000000000000000     
   1.1875000000000000       0.15625000000000000        0.0000000000000000     
   1.2187500000000000       0.15625000000000000        0.0000000000000000     
   1.2500000000000000       0.15625000000000000        0.0000000000000000     
   1.1250000000000000       0.18750000000000000        0.0000000000000000     
   1.1562500000000000       0.18750000000000000        0.0000000000000000     
   1.1875000000000000       0.18750000000000000        0.0000000000000000     
   1.2187500000000000       0.18750000000000000        0.0000000000000000     
   1.2500000000000000       0.18750000000000000        0.0000000000000000     
   1.1250000000000000       0.21875000000000000        0.0000000000000000     
   1.1562500000000000       0.21875000000000000        0.0000000000000000     
   1.1875000000000000       0.21875000000000000        0.0000000000000000     
   1.2187500000000000       0.21875000000000000        0.0000000000000000     
   1.2500000000000000       0.21875000000000000        0.0000000000000000     
   1.1250000000000000       0.25000000000000000        0.0000000000000000     
   1.1562500000000000       0.25000000000000000        0.0000000000000000     
   1.1875000000000000       0.25000000000000000        0.0000000000000000     
   1.2187500000000000       0.25000000000000000        0.0000000000000000     
   1.2500000000000000       0.25000000000000000        0.0000000000000000     
   1.2500000000000000       0.12500000000000000        0.0000000000000000     
   1.2812500000000000       0.12500000000000000        0.0000000000000000     
   1.3125000000000000       0.12500000000000000        0.0000000000000000     
   1.3437500000000000       0.12500000000000000        0.0000000000000000     
   1.3750000000000000       0.12500000000000000        0.0000000000000000     
   1.2500000000000000       0.15625000000000000        0.0000000000000000     
   1.2812500000000000       0.15625000000000000        0.0000000000000000     
   1.3125000000000000       0.15625000000000000        0.0000000000000000     
   1.3437500000000000       0.15625000000000000        0.0000000000000000     
   1.3750000000000000       0.15625000000000000        0.0000000000000000     
   1.2500000000000000       0.18750000000000000        0.0000000000000000     
   1.2812500000000000       0.18750000000000000        0.0000000000000000     
   1.3125000000000000       0.18750000000000000        0.0000000000000000     
   1.3437500000000000       0.18750000000000000        0.0000000000000000     
   1.3750000000000000       0.18750000000000000        0.0000000000000000     
   1.2500000000000000       0.21875000000000000        0.0000000000000000     
   1.2812500000000000       0.21875000000000000        0.0000000000000000     
   1.3125000000000000       0.21875000000000000        0.0000000000000000     
   1.3437500000000000       0.21875000000000000        0.0000000000000000     
   1.3750000000000000       0.21875000000000000        0.0000000000000000     
   1.2500000000000000       0.25000000000000000        0.0000000000000000     
   1.2812500000000000       0.25000000000000000        0.0000000000000000     
   1.3125000000000000       0.25000000000000000        0.0000000000000000     
   1.3437500000000000       0.25000000000000000        0.0000000000000000     
   1.3750000000000000       0.25000000000000000        0.0000000000000000     
   1.3750000000000000       0.12500000000000000        0.0000000000000000     
   1.4062500000000000       0.12500000000000000        0.0000000000000000     
   1.4375000000000000       0.12500000000000000        0.0000000000000000     
   1.4687500000000000       0.12500000000000000        0.0000000000000000     
   1.5000000000000000       0.12500000000000000        0.0000000000000000     
   1.3750000000000000       0.15625000000000000        0.0000000000000000     
   1.4062500000000000       0.15625000000000000        0.0000000000000000     
   1.4375000000000000       0.15625000000000000        0.0000000000000000     
   1.4687500000000000       0.15625000000000000        0.0000000000000000     
   1.5000000000000000       0.15625000000000000        0.0000000000000000     
   1.3750000000000000       0.18750000000000000        0.0000000000000000     
   1.4062500000000000       0.18750000000000000        0.0000000000000000     
   1.4375000000000000       0.18750000000000000        0.0000000000000000     
   1.4687500000000000       0.18750000000000000        0.0000000000000000     
   1.5000000000000000       0.18750000000000000        0.0000000000000000     
   1.3750000000000000       0.21875000000000000        0.0000000000000000     
   1.4062500000000000       0.21875000000000000        0.0000000000000000     
   1.4375000000000000       0.21875000000000000        0.0000000000000000     
   1.4687500000000000       0.21875000000000000        0.0000000000000000     
   1.5000000000000000       0.21875000000000000        0.0000000000000000     
   1.3750000000000000       0.25000000000000000        0.0000000000000000     
   1.4062500000000000       0.25000000000000000        0.0000000000000000     
   1.4375000000000000       0.25000000000000000        0.0000000000000000     
   1.4687500000000000       0.25000000000000000        0.0000000000000000     
   1.5000000000000000       0.25000000000000000        0.0000000000000000     
  0.50000000000000000       0.25000000000000000        0.0000000000000000     
  0.53125000000000000       0.25000000000000000        0.0000000000000000     
  0.56250000000000000       0.25000000000000000        0.0000000000000000     
  0.59375000000000000       0.25000000000000000        0.0000000000000000     
  0.62500000000000000       0.25000000000000000        0.0000000000000000     
  0.50000000000000000       0.28125000000000000        0.0000000000000000     
  0.53125000000000000       0.28125000000000000        0.0000000000000000     
  0.56250000000000000       0.28125000000000000        0.0000000000000000     
  0.59375000000000000       0.28125000000000000        0.0000000000000000     
  0.62500000000000000       0.28125000000000000        0.0000000000000000     
  0.50000000000000000       0.31250000000000000        0.0000000000000000     
  0.53125000000000000       0.31250000000000000        0.0000000000000000     
  0.56250000000000000       0.31250000000000000        0.0000000000000000     
  0.59375000000000000       0.31250000000000000        0.0000000000000000     
  0.62500000000000000       0.31250000000000000        0.0000000000000000     
  0.50000000000000000       0.34375000000000000        0.0000000000000000     
  0.53125000000000000       0.34375000000000000        0.0000000000000000     
  0.56250000000000000       0.34375000000000000        0.0000000000000000     
  0.59375000000000000       0.34375000000000000        0.0000000000000000     
  0.62500000000000000       0.34375000000000000        0.0000000000000000     
  0.50000000000000000       0.37500000000000000        0.0000000000000000     
  0.53125000000000000       0.37500000000000000        0.0000000000000000     
  0.56250000000000000       0.37500000000000000        0.0000000000000000     
  0.59375000000000000       0.37500000000000000        0.0000000000000000     
  0.62500000000000000       0.37500000000000000        0.0000000000000000     
  0.62500000000000000       0.25000000000000000        0.0000000000000000     
  0.65625000000000000       0.25000000000000000        0.0000000000000000     
  0.68750000000000000       0.25000000000000000        0.0000000000000000     
  0.71875000000000000       0.25000000000000000        0.0000000000000000     
  0.75000000000000000       0.25000000000000000        0.0000000000000000     
  0.62500000000000000       0.28125000000000000        0.0000000000000000     
  0.65625000000000000       0.28125000000000000        0.0000000000000000     
  0.68750000000000000       0.28125000000000000        0.0000000000000000     
  0.71875000000000000       0.28125000000000000        0.0000000000000000     
  0.75000000000000000       0.28125000000000000        0.0000000000000000     
  0.62500000000000000       0.31250000000000000        0.0000000000000000     
  0.65625000000000000       0.31250000000000000        0.0000000000000000     
  0.68750000000000000       0.31250000000000000        0.0000000000000000     
  0.71875000000000000       0.31250000000000000        0.0000000000000000     
  0.75000000000000000       0.31250000000000000        0.0000000000000000     
  0.62500000000000000       0.34375000000000000        0.0000000000000000     
  0.65625000000000000       0.34375000000000000        0.0000000000000000     
  0.68750000000000000       0.34375000000000000        0.0000000000000000     
  0.71875000000000000       0.34375000000000000        0.0000000000000000     
  0.75000000000000000       0.34375000000000000        0.0000000000000000     
  0.62500000000000000       0.37500000000000000        0.0000000000000000     
  0.65625000000000000       0.37500000000000000        0.0000000000000000     
  0.68750000000000000       0.37500000000000000        0.0000000000000000     
  0.71875000000000000       0.37500000000000000        0.0000000000000000     
  0.75000000000000000       0.37500000000000000        0.0000000000000000     
  0.75000000000000000       0.25000000000000000        0.0000000000000000     
  0.78125000000000000       0.25000000000000000        0.0000000000000000     
  0.81250000000000000       0.25000000000000000        0.0000000000000000     
  0.84375000000000000       0.25000000000000000        0.0000000000000000     
  0.87500000000000000       0.25000000000000000        0.0000000000000000     
  0.75000000000000000       0.28125000000000000        0.0000000000000000     
  0.78125000000000000       0.28125000000000000        0.0000000000000000     
  0.81250000000000000       0.28125000000000000        0.0000000000000000     
  0.84375000000000000       0.28125000000000000        0.0000000000000000     
  0.87500000000000000       0.28125000000000000        0.0000000000000000     
  0.75000000000000000       0.31250000000000000        0.0000000000000000     
  0.78125000000000000       0.31250000000000000        0.0000000000000000     
  0.81250000000000000       0.31250000000000000        0.0000000000000000     
  0.84375000000000000       0.31250000000000000        0.0000000000000000     
  0.87500000000000000       0.31250000000000000        0.0000000000000000     
  0.75000000000000000       0.34375000000000000        0.0000000000000000     
  0.78125000000000000       0.34375000000000000        0.0000000000000000     
  0.81250000000000000       0.34375000000000000        0.0000000000000000     
  0.84375000000000000       0.34375000000000000        0.0000000000000000     
  0.87500000000000000       0.34375000000000000        0.0000000000000000     
  0.75000000000000000       0.37500000000000000        0.0000000000000000     
  0.78125000000000000       0.37500000000000000        0.0000000000000000     
  0.81250000000000000       0.37500000000000000        0.0000000000000000     
  0.84375000000000000       0.37500000000000000        0.0000000000000000     
  0.87500000000000000       0.37500000000000000        0.0000000000000000     
  0.87500000000000000       0.25000000000000000        0.0000000000000000     
  0.90625000000000000       0.25000000000000000        0.0000000000000000     
  0.93750000000000000       0.25000000000000000        0.0000000000000000     
  0.96875000000000000       0.25000000000000000        0.0000000000000000     
   1.0000000000000000       0.25000000000000000        0.0000000000000000     
  0.87500000000000000       0.28125000000000000        0.0000000000000000     
  0.90625000000000000       0.28125000000000000        0.0000000000000000     
  0.93750000000000000       0.28125000000000000        0.0000000000000000     
  0.96875000000000000       0.28125000000000000        0.0000000000000000     
   1.0000000000000000       0.28125000000000000        0.0000000000000000     
  0.87500000000000000       0.31250000000000000        0.0000000000000000     
  0.90625000000000000       0.31250000000000000        0.0000000000000000     
  0.93750000000000000       0.31250000000000000        0.0000000000000000     
  0.96875000000000000       0.31250000000000000        0.0000000000000000     
   1.0000000000000000       0.31250000000000000        0.0000000000000000     
  0.87500000000000000       0.34375000000000000        0.0000000000000000     
  0.90625000000000000       0.34375000000000000        0.0000000000000000     
  0.93750000000000000       0.34375000000000000        0.0000000000000000     
  0.96875000000000000       0.34375000000000000        0.0000000000000000     
   1.0000000000000000       0.34375000000000000        0.0000000000000000     
  0.87500000000000000       0.37500000000000000        0.0000000000000000     
  0.90625000000000000       0.37500000000000000        0.0000000000000000     
  0.93750000000000000       0.37500000000000000        0.0000000000000000     
  0.96875000000000000       0.37500000000000000        0.0000000000000000     
   1.0000000000000000       0.37500000000000000        0.0000000000000000     
   1.0000000000000000       0.25000000000000000        0.0000000000000000     
   1.0312500000000000       0.25000000000000000        0.0000000000000000     
   1.0625000000000000       0.25000000000000000        0.0000000000000000     
   1.0937500000000000       0.25000000000000000        0.0000000000000000     
   1.1250000000000000       0.25000000000000000        0.0000000000000000     
   1.0000000000000000       0.28125000000000000        0.0000000000000000     
   1.0312500000000000       0.28125000000000000        0.0000000000000000     
   1.0625000000000000       0.28125000000000000        0.0000000000000000     
   1.0937500000000000       0.28125000000000000        0.0000000000000000     
   1.1250000000000000       0.28125000000000000        0.0000000000000000     
   1.0000000000000000       0.31250000000000000        0.0000000000000000     
   1.0312500000000000       0.31250000000000000        0.0000000000000000     
   1.0625000000000000       0.31250000000000000        0.0000000000000000     
   1.0937500000000000       0.31250000000000000        0.0000000000000000     
   1.1250000000000000       0.31250000000000000        0.0000000000000000     
   1.0000000000000000       0.34375000000000000        0.0000000000000000     
   1.0312500000000000       0.34375000000000000        0.0000000000000000     
   1.0625000000000000       0.34375000000000000        0.0000000000000000     
   1.0937500000000000       0.34375000000000000        0.0000000000000000     
   1.1250000000000000       0.34375000000000000        0.0000000000000000     
   1.0000000000000000       0.37500000000000000        0.0000000000000000     
   1.0312500000000000       0.37500000000000000        0.0000000000000000     
   1.0625000000000000       0.37500000000000000        0.0000000000000000     
   1.0937500000000000       0.37500000000000000        0.0000000000000000     
   1.1250000000000000       0.37500000000000000        0.0000000000000000     
   1.1250000000000000       0.25000000000000000        0.0000000000000000     
   1.1562500000000000       0.25000000000000000        0.0000000000000000     
   1.1875000000000000       0.25000000000000000        0.0000000000000000     
   1.2187500000000000       0.25000000000000000        0.0000000000000000     
   1.2500000000000000       0.25000000000000000        0.0000000000000000     
   1.1250000000000000       0.28125000000000000        0.0000000000000000     
   1.1562500000000000       0.28125000000000000        0.0000000000000000     
   1.1875000000000000       0.28125000000000000        0.0000000000000000     
   1.2187500000000000       0.28125000000000000        0.0000000000000000     
   1.2500000000000000       0.28125000000000000        0.0000000000000000     
   1.1250000000000000       0.31250000000000000        0.0000000000000000     
   1.1562500000000000       0.31250000000000000        0.0000000000000000     
   1.1875000000000000       0.31250000000000000        0.0000000000000000     
   1.2187500000000000       0.31250000000000000        0.0000000000000000     
   1.2500000000000000       0.31250000000000000        0.0000000000000000     
   1.1250000000000000       0.34375000000000000        0.0000000000000000     
   1.1562500000000000       0.34375000000000000        0.0000000000000000     
   1.1875000000000000       0.34375000000000000        0.0000000000000000     
   1.2187500000000000       0.34375000000000000        0.0000000000000000     
   1.2500000000000000       0.34375000000000000        0.0000000000000000     
   1.1250000000000000       0.37500000000000000        0.0000000000000000     
   1.1562500000000000       0.37500000000000000        0.0000000000000000     
   1.1875000000000000       0.37500000000000000        0.0000000000000000     
   1.2187500000000000       0.37500000000000000        0.0000000000000000     
   1.2500000000000000       0.37500000000000000        0.0000000000000000     
   1.2500000000000000       0.25000000000000000        0.0000000000000000     
   1.2812500000000000       0.25000000000000000        0.0000000000000000     
   1.3125000000000000       0.25000000000000000        0.0000000000000000     
   1.3437500000000000       0.25000000000000000        0.0000000000000000     
   1.3750000000000000       0.25000000000000000        0.0000000000000000     
   1.2500000000000000       0.28125000000000000        0.0000000000000000     
   1.2812500000000000       0.28125000000000000        0.0000000000000000     
   1.3125000000000000       0.28125000000000000        0.0000000000000000     
   1.3437500000000000       0.28125000000000000        0.0000000000000000     
   1.3750000000000000       0.28125000000000000        0.0000000000000000     
   1.2500000000000000       0.31250000000000000        0.0000000000000000     
   1.2812500000000000       0.31250000000000000        0.0000000000000000     
   1.3125000000000000       0.31250000000000000        0.0000000000000000     
   1.3437500000000000       0.31250000000000000        0.0000000000000000     
   1.3750000000000000       0.31250000000000000        0.0000000000000000     
   1.2500000000000000       0.34375000000000000        0.0000000000000000     
   1.2812500000000000       0.34375000000000000        0.0000000000000000     
   1.3125000000000000       0.34375000000000000        0.0000000000000000     
   1.3437500000000000       0.34375000000000000        0.0000000000000000     
   1.3750000000000000       0.34375000000000000        0.0000000000000000     
   1.2500000000000000       0.37500000000000000        0.0000000000000000     
   1.2812500000000000       0.37500000000000000        0.0000000000000000     
   1.3125000000000000       0.37500000000000000        0.0000000000000000     
   1.3437500000000000       0.37500000000000000        0.0000000000000000     
   1.3750000000000000       0.37500000000000000        0.0000000000000000     
   1.3750000000000000       0.25000000000000000        0.0000000000000000     
   1.4062500000000000       0.25000000000000000        0.0000000000000000     
   1.4375000000000000       0.25000000000000000        0.0000000000000000     
   1.4687500000000000       0.25000000000000000        0.0000000000000000     
   1.5000000000000000       0.25000000000000000        0.0000000000000000     
   1.3750000000000000       0.28125000000000000        0.0000000000000000     
   1.4062500000000000       0.28125000000000000        0.0000000000000000     
   1.4375000000000000       0.28125000000000000        0.0000000000000000     
   1.4687500000000000       0.28125000000000000        0.0000000000000000     
   1.5000000000000000       0.28125000000000000        0.0000000000000000     
   1.3750000000000000       0.31250000000000000        0.0000000000000000     
   1.4062500000000000       0.31250000000000000        0.0000000000000000     
   1.4375000000000000       0.31250000000000000        0.0000000000000000     
   1.4687500000000000       0.31250000000000000        0.0000000000000000     
   1.5000000000000000       0.31250000000000000        0.0000000000000000     
   1.3750000000000000       0.34375000000000000        0.0000000000000000     
   1.4062500000000000       0.34375000000000000        0.0000000000000000     
   1.4375000000000000       0.34375000000000000        0.0000000000000000     
   1.4687500000000000       0.34375000000000000        0.0000000000000000     
   1.5000000000000000       0.34375000000000000        0.0000000000000000     
   1.3750000000000000       0.37500000000000000        0.0000000000000000     
   1.4062500000000000       0.37500000000000000        0.0000000000000000     
   1.4375000000000000       0.37500000000000000        0.0000000000000000     
   1.4687500000000000       0.37500000000000000        0.0000000000000000     
   1.5000000000000000       0.37500000000000000        0.0000000000000000     
  0.50000000000000000       0.37500000000000000        0.0000000000000000     
  0.53125000000000000       0.37500000000000000        0.0000000000000000     
  0.56250000000000000       0.37500000000000000        0.0000000000000000     
  0.59375000000000000       0.37500000000000000        0.0000000000000000     
  0.62500000000000000       0.37500000000000000        0.0000000000000000     
  0.50000000000000000       0.40625000000000000        0.0000000000000000     
  0.53125000000000000       0.40625000000000000        0.0000000000000000     
  0.56250000000000000       0.40625000000000000        0.0000000000000000     
  0.59375000000000000       0.40625000000000000        0.0000000000000000     
  0.62500000000000000       0.40625000000000000        0.0000000000000000     
  0.50000000000000000       0.43750000000000000        0.0000000000000000     
  0.53125000000000000       0.43750000000000000        0.0000000000000000     
  0.56250000000000000       0.43750000000000000        0.0000000000000000     
  0.59375000000000000       0.43750000000000000        0.0000000000000000     
  0.62500000000000000       0.43750000000000000        0.0000000000000000     
  0.50000000000000000       0.46875000000000000        0.0000000000000000     
  0.53125000000000000       0.46875000000000000        0.0000000000000000     
  0.56250000000000000       0.46875000000000000        0.0000000000000000     
  0.59375000000000000       0.46875000000000000        0.0000000000000000     
  0.62500000000000000       0.46875000000000000        0.0000000000000000     
  0.50000000000000000       0.50000000000000000        0.0000000000000000     
  0.53125000000000000       0.50000000000000000        0.0000000000000000     
  0.56250000000000000       0.50000000000000000        0.0000000000000000     
  0.59375000000000000       0.50000000000000000        0.0000000000000000     
  0.62500000000000000       0.50000000000000000        0.0000000000000000     
  0.62500000000000000       0.37500000000000000        0.0000000000000000     
  0.65625000000000000       0.37500000000000000        0.0000000000000000     
  0.68750000000000000       0.37500000000000000        0.0000000000000000     
  0.71875000000000000       0.37500000000000000        0.0000000000000000     
  0.75000000000000000       0.37500000000000000        0.0000000000000000     
  0.62500000000000000       0.40625000000000000        0.0000000000000000     
  0.65625000000000000       0.40625000000000000        0.0000000000000000     
  0.68750000000000000       0.40625000000000000        0.0000000000000000     
  0.71875000000000000       0.40625000000000000        0.0000000000000000     
  0.75000000000000000       0.40625000000000000        0.0000000000000000     
  0.62500000000000000       0.43750000000000000        0.0000000000000000     
  0.65625000000000000       0.43750000000000000        0.0000000000000000     
  0.68750000000000000       0.43750000000000000        0.0000000000000000     
  0.71875000000000000       0.43750000000000000        0.0000000000000000     
  0.75000000000000000       0.43750000000000000        0.0000000000000000     
  0.62500000000000000       0.46875000000000000        0.0000000000000000     
  0.65625000000000000       0.46875000000000000        0.0000000000000000     
  0.68750000000000000       0.46875000000000000        0.0000000000000000     
  0.71875000000000000       0.46875000000000000        0.0000000000000000     
  0.75000000000000000       0.46875000000000000        0.0000000000000000     
  0.62500000000000000       0.50000000000000000        0.0000000000000000     
  0.65625000000000000       0.50000000000000000        0.0000000000000000     
  0.68750000000000000       0.50000000000000000        0.0000000000000000     
  0.71875000000000000       0.50000000000000000        0.0000000000000000     
  0.75000000000000000       0.50000000000000000        0.0000000000000000     
  0.75000000000000000       0.37500000000000000        0.0000000000000000     
  0.78125000000000000       0.37500000000000000        0.0000000000000000     
  0.81250000000000000       0.37500000000000000        0.0000000000000000     
  0.84375000000000000       0.37500000000000000        0.0000000000000000     
  0.87500000000000000       0.37500000000000000        0.0000000000000000     
  0.75000000000000000       0.40625000000000000        0.0000000000000000     
  0.78125000000000000       0.40625000000000000        0.0000000000000000     
  0.81250000000000000       0.40625000000000000        0.0000000000000000     
  0.84375000000000000       0.40625000000000000        0.0000000000000000     
  0.87500000000000000       0.40625000000000000        0.0000000000000000     
  0.75000000000000000       0.43750000000000000        0.0000000000000000     
  0.78125000000000000       0.43750000000000000        0.0000000000000000     
  0.81250000000000000       0.43750000000000000        0.0000000000000000     
  0.84375000000000000       0.43750000000000000        0.0000000000000000     
  0.87500000000000000       0.43750000000000000        0.0000000000000000     
  0.75000000000000000       0.46875000000000000        0.0000000000000000     
  0.78125000000000000       0.46875000000000000        0.0000000000000000     
  0.81250000000000000       0.46875000000000000        0.0000000000000000     
  0.84375000000000000       0.46875000000000000        0.0000000000000000     
  0.87500000000000000       0.46875000000000000        0.0000000000000000     
  0.75000000000000000       0.50000000000000000        0.0000000000000000     
  0.78125000000000000       0.50000000000000000        0.0000000000000000     
  0.81250000000000000       0.50000000000000000        0.0000000000000000     
  0.84375000000000000       0.50000000000000000        0.0000000000000000     
  0.87500000000000000       0.50000000000000000        0.0000000000000000     
  0.87500000000000000       0.37500000000000000        0.0000000000000000     
  0.90625000000000000       0.37500000000000000        0.0000000000000000     
  0.93750000000000000       0.37500000000000000        0.0000000000000000     
  0.96875000000000000       0.37500000000000000        0.0000000000000000     
   1.0000000000000000       0.37500000000000000        0.0000000000000000     
  0.87500000000000000       0.40625000000000000        0.0000000000000000     
  0.90625000000000000       0.40625000000000000        0.0000000000000000     
  0.93750000000000000       0.40625000000000000        0.0000000000000000     
  0.96875000000000000       0.40625000000000000        0.0000000000000000     
   1.0000000000000000       0.40625000000000000        0.0000000000000000     
  0.87500000000000000       0.43750000000000000        0.0000000000000000     
  0.90625000000000000       0.43750000000000000        0.0000000000000000     
  0.93750000000000000       0.43750000000000000        0.0000000000000000     
  0.96875000000000000       0.43750000000000000        0.0000000000000000     
   1.0000000000000000       0.43750000000000000        0.0000000000000000     
  0.87500000000000000       0.46875000000000000        0.0000000000000000     
  0.90625000000000000       0.46875000000000000        0.0000000000000000     
  0.93750000000000000       0.46875000000000000        0.0000000000000000     
  0.96875000000000000       0.46875000000000000        0.0000000000000000     
   1.0000000000000000       0.46875000000000000        0.0000000000000000     
  0.87500000000000000       0.50000000000000000        0.0000000000000000     
  0.90625000000000000       0.50000000000000000        0.0000000000000000     
  0.93750000000000000       0.50000000000000000        0.0000000000000000     
  0.96875000000000000       0.50000000000000000        0.0000000000000000     
   1.0000000000000000       0.50000000000000000        0.0000000000000000     
   1.0000000000000000       0.37500000000000000        0.0000000000000000     
   1.0312500000000000       0.37500000000000000        0.0000000000000000     
   1.0625000000000000       0.37500000000000000        0.0000000000000000     
   1.0937500000000000       0.37500000000000000        0.0000000000000000     
   1.1250000000000000       0.37500000000000000        0.0000000000000000     
   1.0000000000000000       0.40625000000000000        0.0000000000000000     
   1.0312500000000000       0.40625000000000000        0.0000000000000000     
   1.0625000000000000       0.40625000000000000        0.0000000000000000     
   1.0937500000000000       0.40625000000000000        0.0000000000000000     
   1.1250000000000000       0.40625000000000000        0.0000000000000000     
   1.0000000000000000       0.43750000000000000        0.0000000000000000     
   1.0312500000000000       0.43750000000000000        0.0000000000000000     
   1.0625000000000000       0.43750000000000000        0.0000000000000000     
   1.0937500000000000       0.43750000000000000        0.0000000000000000     
   1.1250000000000000       0.43750000000000000        0.0000000000000000     
   1.0000000000000000       0.46875000000000000        0.0000000000000000     
   1.0312500000000000       0.46875000000000000        0.0000000000000000     
   1.0625000000000000       0.46875000000000000        0.0000000000000000     
   1.0937500000000000       0.46875000000000000        0.0000000000000000     
   1.1250000000000000       0.46875000000000000        0.0000000000000000     
   1.0000000000000000       0.50000000000000000        0.0000000000000000     
   1.0312500000000000       0.50000000000000000        0.0000000000000000     
   1.0625000000000000       0.50000000000000000        0.0000000000000000     
   1.0937500000000000       0.50000000000000000        0.0000000000000000     
   1.1250000000000000       0.50000000000000000        0.0000000000000000     
   1.1250000000000000       0.37500000000000000        0.0000000000000000     
   1.1562500000000000       0.37500000000000000        0.0000000000000000     
   1.1875000000000000       0.37500000000000000        0.0000000000000000     
   1.2187500000000000       0.37500000000000000        0.0000000000000000     
   1.2500000000000000       0.37500000000000000        0.0000000000000000     
   1.1250000000000000       0.40625000000000000        0.0000000000000000     
   1.1562500000000000       0.40625000000000000        0.0000000000000000     
   1.1875000000000000       0.40625000000000000        0.0000000000000000     
   1.2187500000000000       0.40625000000000000        0.0000000000000000     
   1.2500000000000000       0.40625000000000000        0.0000000000000000     
   1.1250000000000000       0.43750000000000000        0.0000000000000000     
   1.1562500000000000       0.43750000000000000        0.0000000000000000     
   1.1875000000000000       0.43750000000000000        0.0000000000000000     
   1.2187500000000000       0.43750000000000000        0.0000000000000000     
   1.2500000000000000       0.43750000000000000        0.0000000000000000     
   1.1250000000000000       0.46875000000000000        0.0000000000000000     
   1.1562500000000000       0.46875000000000000        0.0000000000000000     
   1.1875000000000000       0.46875000000000000        0.0000000000000000     
   1.2187500000000000       0.46875000000000000        0.0000000000000000     
   1.2500000000000000       0.46875000000000000        0.0000000000000000     
   1.1250000000000000       0.50000000000000000        0.0000000000000000     
   1.1562500000000000       0.50000000000000000        0.0000000000000000     
   1.1875000000000000       0.50000000000000000        0.0000000000000000     
   1.2187500000000000       0.50000000000000000        0.0000000000000000     
   1.2500000000000000       0.50000000000000000        0.0000000000000000     
   1.2500000000000000       0.37500000000000000        0.0000000000000000     
   1.2812500000000000       0.37500000000000000        0.0000000000000000     
   1.3125000000000000       0.37500000000000000        0.0000000000000000     
   1.3437500000000000       0.37500000000000000        0.0000000000000000     
   1.3750000000000000       0.37500000000000000        0.0000000000000000     
   1.2500000000000000       0.40625000000000000        0.0000000000000000     
   1.2812500000000000       0.40625000000000000        0.0000000000000000     
   1.3125000000000000       0.40625000000000000        0.0000000000000000     
   1.3437500000000000       0.40625000000000000        0.0000000000000000     
   1.3750000000000000       0.40625000000000000        0.0000000000000000     
   1.2500000000000000       0.43750000000000000        0.0000000000000000     
   1.2812500000000000       0.43750000000000000        0.0000000000000000     
   1.3125000000000000       0.43750000000000000        0.0000000000000000     
   1.3437500000000000       0.43750000000000000        0.0000000000000000     
   1.3750000000000000       0.43750000000000000        0.0000000000000000     
   1.2500000000000000       0.46875000000000000        0.0000000000000000     
   1.2812500000000000       0.46875000000000000        0.0000000000000000     
   1.3125000000000000       0.46875000000000000        0.0000000000000000     
   1.3437500000000000       0.46875000000000000        0.0000000000000000     
   1.3750000000000000       0.46875000000000000        0.0000000000000000     
   1.2500000000000000       0.50000000000000000        0.0000000000000000     
   1.2812500000000000       0.50000000000000000        0.0000000000000000     
   1.3125000000000000       0.50000000000000000        0.0000000000000000     
   1.3437500000000000       0.50000000000000000        0.0000000000000000     
   1.3750000000000000       0.50000000000000000        0.0000000000000000     
   1.3750000000000000       0.37500000000000000        0.0000000000000000     
   1.4062500000000000       0.37500000000000000        0.0000000000000000     
   1.4375000000000000       0.37500000000000000        0.0000000000000000     
   1.4687500000000000       0.37500000000000000        0.0000000000000000     
   1.5000000000000000       0.37500000000000000        0.0000000000000000     
   1.3750000000000000       0.40625000000000000        0.0000000000000000     
   1.4062500000000000       0.40625000000000000        0.0000000000000000     
   1.4375000000000000       0.40625000000000000        0.0000000000000000     
   1.4687500000000000       0.40625000000000000        0.0000000000000000     
   1.5000000000000000       0.40625000000000000        0.0000000000000000     
   1.3750000000000000       0.43750000000000000        0.0000000000000000     
   1.4062500000000000       0.43750000000000000        0.0000000000000000     
   1.4375000000000000       0.43750000000000000        0.0000000000000000     
   1.4687500000000000       0.43750000000000000        0.0000000000000000     
   1.5000000000000000       0.43750000000000000        0.0000000000000000     
   1.3750000000000000       0.46875000000000000        0.0000000000000000     
   1.4062500000000000       0.46875000000000000        0.0000000000000000     
   1.4375000000000000       0.46875000000000000        0.0000000000000000     
   1.4687500000000000       0.46875000000000000        0.0000000000000000     
   1.5000000000000000       0.46875000000000000        0.0000000000000000     
   1.3750000000000000       0.50000000000000000        0.0000000000000000     
   1.4062500000000000       0.50000000000000000        0.0000000000000000     
   1.4375000000000000       0.50000000000000000        0.0000000000000000     
   1.4687500000000000       0.50000000000000000        0.0000000000000000     
   1.5000000000000000       0.50000000000000000        0.0000000000000000     
  0.50000000000000000       0.50000000000000000        0.0000000000000000     
  0.53125000000000000       0.50000000000000000        0.0000000000000000     
  0.56250000000000000       0.50000000000000000        0.0000000000000000     
  0.59375000000000000       0.50000000000000000        0.0000000000000000     
  0.62500000000000000       0.50000000000000000        0.0000000000000000     
  0.50000000000000000       0.53125000000000000        0.0000000000000000     
  0.53125000000000000       0.53125000000000000        0.0000000000000000     
  0.56250000000000000       0.53125000000000000        0.0000000000000000     
  0.59375000000000000       0.53125000000000000        0.0000000000000000     
  0.62500000000000000       0.53125000000000000        0.0000000000000000     
  0.50000000000000000       0.56250000000000000        0.0000000000000000     
  0.53125000000000000       0.56250000000000000        0.0000000000000000     
  0.56250000000000000       0.56250000000000000        0.0000000000000000     
  0.59375000000000000       0.56250000000000000        0.0000000000000000     
  0.62500000000000000       0.56250000000000000        0.0000000000000000     
  0.50000000000000000       0.59375000000000000        0.0000000000000000     
  0.53125000000000000       0.59375000000000000        0.0000000000000000     
  0.56250000000000000       0.59375000000000000        0.0000000000000000     
  0.59375000000000000       0.59375000000000000        0.0000000000000000     
  0.62500000000000000       0.59375000000000000        0.0000000000000000     
  0.50000000000000000       0.62500000000000000        0.0000000000000000     
  0.53125000000000000       0.62500000000000000        0.0000000000000000     
  0.56250000000000000       0.62500000000000000        0.0000000000000000     
  0.59375000000000000       0.62500000000000000        0.0000000000000000     
  0.62500000000000000       0.62500000000000000        0.0000000000000000     
  0.62500000000000000       0.50000000000000000        0.0000000000000000     
  0.65625000000000000       0.50000000000000000        0.0000000000000000     
  0.68750000000000000       0.50000000000000000        0.0000000000000000     
  0.71875000000000000       0.50000000000000000        0.0000000000000000     
  0.75000000000000000       0.50000000000000000        0.0000000000000000     
  0.62500000000000000       0.53125000000000000        0.0000000000000000     
  0.65625000000000000       0.53125000000000000        0.0000000000000000     
  0.68750000000000000       0.53125000000000000        0.0000000000000000     
  0.71875000000000000       0.53125000000000000        0.0000000000000000     
  0.75000000000000000       0.53125000000000000        0.0000000000000000     
  0.62500000000000000       0.56250000000000000        0.0000000000000000     
  0.65625000000000000       0.56250000000000000        0.0000000000000000     
  0.68750000000000000       0.56250000000000000        0.0000000000000000     
  0.71875000000000000       0.56250000000000000        0.0000000000000000     
  0.75000000000000000       0.56250000000000000        0.0000000000000000     
  0.62500000000000000       0.59375000000000000        0.0000000000000000     
  0.65625000000000000       0.59375000000000000        0.0000000000000000     
  0.68750000000000000       0.59375000000000000        0.0000000000000000     
  0.71875000000000000       0.59375000000000000        0.0000000000000000     
  0.75000000000000000       0.59375000000000000        0.0000000000000000     
  0.62500000000000000       0.62500000000000000        0.0000000000000000     
  0.65625000000000000       0.62500000000000000        0.0000000000000000     
  0.68750000000000000       0.62500000000000000        0.0000000000000000     
  0.71875000000000000       0.62500000000000000        0.0000000000000000     
  0.75000000000000000       0.62500000000000000        0.0000000000000000     
  0.75000000000000000       0.50000000000000000        0.0000000000000000     
  0.78125000000000000       0.50000000000000000        0.0000000000000000     
  0.81250000000000000       0.50000000000000000        0.0000000000000000     
  0.84375000000000000       0.50000000000000000        0.0000000000000000     
  0.87500000000000000       0.50000000000000000        0.0000000000000000     
  0.75000000000000000       0.53125000000000000        0.0000000000000000     
  0.78125000000000000       0.53125000000000000        0.0000000000000000     
  0.81250000000000000       0.53125000000000000        0.0000000000000000     
  0.84375000000000000       0.53125000000000000        0.0000000000000000     
  0.87500000000000000       0.53125000000000000        0.0000000000000000     
  0.75000000000000000       0.56250000000000000        0.0000000000000000     
  0.78125000000000000       0.56250000000000000        0.0000000000000000     
  0.81250000000000000       0.56250000000000000        0.0000000000000000     
  0.84375000000000000       0.56250000000000000        0.0000000000000000     
  0.87500000000000000       0.56250000000000000        0.0000000000000000     
  0.75000000000000000       0.59375000000000000        0.0000000000000000     
  0.78125000000000000       0.59375000000000000        0.0000000000000000     
  0.81250000000000000       0.59375000000000000        0.0000000000000000     
  0.84375000000000000       0.59375000000000000        0.0000000000000000     
  0.87500000000000000       0.59375000000000000        0.0000000000000000     
  0.75000000000000000       0.62500000000000000        0.0000000000000000     
  0.78125000000000000       0.62500000000000000        0.0000000000000000     
  0.81250000000000000       0.62500000000000000        0.0000000000000000     
  0.84375000000000000       0.62500000000000000        0.0000000000000000     
  0.87500000000000000       0.62500000000000000        0.0000000000000000     
  0.87500000000000000       0.50000000000000000        0.0000000000000000     
  0.90625000000000000       0.50000000000000000        0.0000000000000000     
  0.93750000000000000       0.50000000000000000        0.0000000000000000     
  0.96875000000000000       0.50000000000000000        0.0000000000000000     
   1.0000000000000000       0.50000000000000000        0.0000000000000000     
  0.87500000000000000       0.53125000000000000        0.0000000000000000     
  0.90625000000000000       0.53125000000000000        0.0000000000000000     
  0.93750000000000000       0.53125000000000000        0.0000000000000000     
  0.96875000000000000       0.53125000000000000        0.0000000000000000     
   1.0000000000000000       0.53125000000000000        0.0000000000000000     
  0.87500000000000000       0.56250000000000000        0.0000000000000000     
  0.90625000000000000       0.56250000000000000        0.0000000000000000     
  0.93750000000000000       0.56250000000000000        0.0000000000000000     
  0.96875000000000000       0.56250000000000000        0.0000000000000000     
   1.0000000000000000       0.56250000000000000        0.0000000000000000     
  0.87500000000000000       0.59375000000000000        0.0000000000000000     
  0.90625000000000000       0.59375000000000000        0.0000000000000000     
  0.93750000000000000       0.59375000000000000        0.0000000000000000     
  0.96875000000000000       0.59375000000000000        0.0000000000000000     
   1.0000000000000000       0.59375000000000000        0.0000000000000000     
  0.87500000000000000       0.62500000000000000        0.0000000000000000     
  0.90625000000000000       0.62500000000000000        0.0000000000000000     
  0.93750000000000000       0.62500000000000000        0.0000000000000000     
  0.96875000000000000       0.62500000000000000        0.0000000000000000     
   1.0000000000000000       0.62500000000000000        0.0000000000000000     
   1.0000000000000000       0.50000000000000000        0.0000000000000000     
   1.0312500000000000       0.50000000000000000        0.0000000000000000     
   1.0625000000000000       0.50000000000000000        0.0000000000000000     
   1.0937500000000000       0.50000000000000000        0.0000000000000000     
   1.1250000000000000       0.50000000000000000        0.0000000000000000     
   1.0000000000000000       0.53125000000000000        0.0000000000000000     
   1.0312500000000000       0.53125000000000000        0.0000000000000000     
   1.0625000000000000       0.53125000000000000        0.0000000000000000     
   1.0937500000000000       0.53125000000000000        0.0000000000000000     
   1.1250000000000000       0.53125000000000000        0.0000000000000000     
   1.0000000000000000       0.56250000000000000        0.0000000000000000     
   1.0312500000000000       0.56250000000000000        0.0000000000000000     
   1.0625000000000000       0.56250000000000000        0.0000000000000000     
   1.0937500000000000       0.56250000000000000        0.0000000000000000     
   1.1250000000000000       0.56250000000000000        0.0000000000000000     
   1.0000000000000000       0.59375000000000000        0.0000000000000000     
   1.0312500000000000       0.59375000000000000        0.0000000000000000     
   1.0625000000000000       0.59375000000000000        0.0000000000000000     
   1.0937500000000000       0.59375000000000000        0.0000000000000000     
   1.1250000000000000       0.59375000000000000        0.0000000000000000     
   1.0000000000000000       0.62500000000000000        0.0000000000000000     
   1.0312500000000000       0.62500000000000000        0.0000000000000000     
   1.0625000000000000       0.62500000000000000        0.0000000000000000     
   1.0937500000000000       0.62500000000000000        0.0000000000000000     
   1.1250000000000000       0.62500000000000000        0.0000000000000000     
   1.1250000000000000       0.50000000000000000        0.0000000000000000     
   1.1562500000000000       0.50000000000000000        0.0000000000000000     
   1.1875000000000000       0.50000000000000000        0.0000000000000000     
   1.2187500000000000       0.50000000000000000        0.0000000000000000     
   1.2500000000000000       0.50000000000000000        0.0000000000000000     
   1.1250000000000000       0.53125000000000000        0.0000000000000000     
   1.1562500000000000       0.53125000000000000        0.0000000000000000     
   1.1875000000000000       0.53125000000000000        0.0000000000000000     
   1.2187500000000000       0.53125000000000000        0.0000000000000000     
   1.2500000000000000       0.53125000000000000        0.0000000000000000     
   1.1250000000000000       0.56250000000000000        0.0000000000000000     
   1.1562500000000000       0.56250000000000000        0.0000000000000000     
   1.1875000000000000       0.56250000000000000        0.0000000000000000     
   1.2187500000000000       0.56250000000000000        0.0000000000000000     
   1.2500000000000000       0.56250000000000000        0.0000000000000000     
   1.1250000000000000       0.59375000000000000        0.0000000000000000     
   1.1562500000000000       0.59375000000000000        0.0000000000000000     
   1.1875000000000000       0.59375000000000000        0.0000000000000000     
   1.2187500000000000       0.59375000000000000        0.0000000000000000     
   1.2500000000000000       0.59375000000000000        0.0000000000000000     
   1.1250000000000000       0.62500000000000000        0.0000000000000000     
   1.1562500000000000       0.62500000000000000        0.0000000000000000     
   1.1875000000000000       0.62500000000000000        0.0000000000000000     
   1.2187500000000000       0.62500000000000000        0.0000000000000000     
   1.2500000000000000       0.62500000000000000        0.0000000000000000     
   1.2500000000000000       0.50000000000000000        0.0000000000000000     
   1.2812500000000000       0.50000000000000000        0.0000000000000000     
   1.3125000000000000       0.50000000000000000        0.0000000000000000     
   1.3437500000000000       0.50000000000000000        0.0000000000000000     
   1.3750000000000000       0.50000000000000000        0.0000000000000000     
   1.2500000000000000       0.53125000000000000        0.0000000000000000     
   1.2812500000000000       0.53125000000000000        0.0000000000000000     
   1.3125000000000000       0.53125000000000000        0.0000000000000000     
   1.3437500000000000       0.53125000000000000        0.0000000000000000     
   1.3750000000000000       0.53125000000000000        0.0000000000000000     
   1.2500000000000000       0.56250000000000000        0.0000000000000000     
   1.2812500000000000       0.56250000000000000        0.0000000000000000     
   1.3125000000000000       0.56250000000000000        0.0000000000000000     
   1.3437500000000000       0.56250000000000000        0.0000000000000000     
   1.3750000000000000       0.56250000000000000        0.0000000000000000     
   1.2500000000000000       0.59375000000000000        0.0000000000000000     
   1.2812500000000000       0.59375000000000000        0.0000000000000000     
   1.3125000000000000       0.59375000000000000        0.0000000000000000     
   1.3437500000000000       0.59375000000000000        0.0000000000000000     
   1.3750000000000000       0.59375000000000000        0.0000000000000000     
   1.2500000000000000       0.62500000000000000        0.0000000000000000     
   1.2812500000000000       0.62500000000000000        0.0000000000000000     
   1.3125000000000000       0.62500000000000000        0.0000000000000000     
   1.3437500000000000       0.62500000000000000        0.0000000000000000     
   1.3750000000000000       0.62500000000000000        0.0000000000000000     
   1.3750000000000000       0.50000000000000000        0.0000000000000000     
   1.4062500000000000       0.50000000000000000        0.0000000000000000     
   1.4375000000000000       0.50000000000000000        0.0000000000000000     
   1.4687500000000000       0.50000000000000000        0.0000000000000000     
   1.5000000000000000       0.50000000000000000        0.0000000000000000     
   1.3750000000000000       0.53125000000000000        0.0000000000000000     
   1.4062500000000000       0.53125000000000000        0.0000000000000000     
   1.4375000000000000       0.53125000000000000        0.0000000000000000     
   1.4687500000000000       0.53125000000000000        0.0000000000000000     
   1.5000000000000000       0.53125000000000000        0.0000000000000000     
   1.3750000000000000       0.56250000000000000        0.0000000000000000     
   1.4062500000000000       0.56250000000000000        0.0000000000000000     
   1.4375000000000000       0.56250000000000000        0.0000000000000000     
   1.4687500000000000       0.56250000000000000        0.0000000000000000     
   1.5000000000000000       0.56250000000000000        0.0000000000000000     
   1.3750000000000000       0.59375000000000000        0.0000000000000000     
   1.4062500000000000       0.59375000000000000        0.0000000000000000     
   1.4375000000000000       0.59375000000000000        0.0000000000000000     
   1.4687500000000000       0.59375000000000000        0.0000000000000000     
   1.5000000000000000       0.59375000000000000        0.0000000000000000     
   1.3750000000000000       0.62500000000000000        0.0000000000000000     
   1.4062500000000000       0.62500000000000000        0.0000000000000000     
   1.4375000000000000       0.62500000000000000        0.0000000000000000     
   1.4687500000000000       0.62500000000000000        0.0000000000000000     
   1.5000000000000000       0.62500000000000000        0.0000000000000000     
  0.50000000000000000       0.62500000000000000        0.0000000000000000     
  0.53125000000000000       0.62500000000000000        0.0000000000000000     
  0.56250000000000000       0.62500000000000000        0.0000000000000000     
  0.59375000000000000       0.62500000000000000        0.0000000000000000     
  0.62500000000000000       0.62500000000000000        0.0000000000000000     
  0.50000000000000000       0.65625000000000000        0.0000000000000000     
  0.53125000000000000       0.65625000000000000        0.0000000000000000     
  0.56250000000000000       0.65625000000000000        0.0000000000000000     
  0.59375000000000000       0.65625000000000000        0.0000000000000000     
  0.62500000000000000       0.65625000000000000        0.0000000000000000     
  0.50000000000000000       0.68750000000000000        0.0000000000000000     
  0.53125000000000000       0.68750000000000000        0.0000000000000000     
  0.56250000000000000       0.68750000000000000        0.0000000000000000     
  0.59375000000000000       0.68750000000000000        0.0000000000000000     
  0.62500000000000000       0.68750000000000000        0.0000000000000000     
  0.50000000000000000       0.71875000000000000        0.0000000000000000     
  0.53125000000000000       0.71875000000000000        0.0000000000000000     
  0.56250000000000000       0.71875000000000000        0.0000000000000000     
  0.59375000000000000       0.71875000000000000        0.0000000000000000     
  0.62500000000000000       0.71875000000000000        0.0000000000000000     
  0.50000000000000000       0.75000000000000000        0.0000000000000000     
  0.53125000000000000       0.75000000000000000        0.0000000000000000     
  0.56250000000000000       0.75000000000000000        0.0000000000000000     
  0.59375000000000000       0.75000000000000000        0.0000000000000000     
  0.62500000000000000       0.75000000000000000        0.0000000000000000     
  0.62500000000000000       0.62500000000000000        0.0000000000000000     
  0.65625000000000000       0.62500000000000000        0.0000000000000000     
  0.68750000000000000       0.62500000000000000        0.0000000000000000     
  0.71875000000000000       0.62500000000000000        0.0000000000000000     
  0.75000000000000000       0.62500000000000000        0.0000000000000000     
  0.62500000000000000       0.65625000000000000        0.0000000000000000     
  0.65625000000000000       0.65625000000000000        0.0000000000000000     
  0.68750000000000000       0.65625000000000000        0.0000000000000000     
  0.71875000000000000       0.65625000000000000        0.0000000000000000     
  0.75000000000000000       0.65625000000000000        0.0000000000000000     
  0.62500000000000000       0.68750000000000000        0.0000000000000000     
  0.65625000000000000       0.68750000000000000        0.0000000000000000     
  0.68750000000000000       0.68750000000000000        0.0000000000000000     
  0.71875000000000000       0.68750000000000000        0.0000000000000000     
  0.75000000000000000       0.68750000000000000        0.0000000000000000     
  0.62500000000000000       0.71875000000000000        0.0000000000000000     
  0.65625000000000000       0.71875000000000000        0.0000000000000000     
  0.68750000000000000       0.71875000000000000        0.0000000000000000     
  0.71875000000000000       0.71875000000000000        0.0000000000000000     
  0.75000000000000000       0.71875000000000000        0.0000000000000000     
  0.62500000000000000       0.75000000000000000        0.0000000000000000     
  0.65625000000000000       0.75000000000000000        0.0000000000000000     
  0.68750000000000000       0.75000000000000000        0.0000000000000000     
  0.71875000000000000       0.75000000000000000        0.0000000000000000     
  0.75000000000000000       0.75000000000000000        0.0000000000000000     
  0.75000000000000000       0.62500000000000000        0.0000000000000000     
  0.78125000000000000       0.62500000000000000        0.0000000000000000     
  0.81250000000000000       0.62500000000000000        0.0000000000000000     
  0.84375000000000000       0.62500000000000000        0.0000000000000000     
  0.87500000000000000       0.62500000000000000        0.0000000000000000     
  0.75000000000000000       0.65625000000000000        0.0000000000000000     
  0.78125000000000000       0.65625000000000000        0.0000000000000000     
  0.81250000000000000       0.65625000000000000        0.0000000000000000     
  0.84375000000000000       0.65625000000000000        0.0000000000000000     
  0.87500000000000000       0.65625000000000000        0.0000000000000000     
  0.75000000000000000       0.68750000000000000        0.0000000000000000     
  0.78125000000000000       0.68750000000000000        0.0000000000000000     
  0.81250000000000000       0.68750000000000000        0.0000000000000000     
  0.84375000000000000       0.68750000000000000        0.0000000000000000     
  0.87500000000000000       0.68750000000000000        0.0000000000000000     
  0.75000000000000000       0.71875000000000000        0.0000000000000000     
  0.78125000000000000       0.71875000000000000        0.0000000000000000     
  0.81250000000000000       0.71875000000000000        0.0000000000000000     
  0.84375000000000000       0.71875000000000000        0.0000000000000000     
  0.87500000000000000       0.71875000000000000        0.0000000000000000     
  0.75000000000000000       0.75000000000000000        0.0000000000000000     
  0.78125000000000000       0.75000000000000000        0.0000000000000000     
  0.81250000000000000       0.75000000000000000        0.0000000000000000     
  0.84375000000000000       0.75000000000000000        0.0000000000000000     
  0.87500000000000000       0.75000000000000000        0.0000000000000000     
  0.87500000000000000       0.62500000000000000        0.0000000000000000     
  0.90625000000000000       0.62500000000000000        0.0000000000000000     
  0.93750000000000000       0.62500000000000000        0.0000000000000000     
  0.96875000000000000       0.62500000000000000        0.0000000000000000     
   1.0000000000000000       0.62500000000000000        0.0000000000000000     
  0.87500000000000000       0.65625000000000000        0.0000000000000000     
  0.90625000000000000       0.65625000000000000        0.0000000000000000     
  0.93750000000000000       0.65625000000000000        0.0000000000000000     
  0.96875000000000000       0.65625000000000000        0.0000000000000000     
   1.0000000000000000       0.65625000000000000        0.0000000000000000     
  0.87500000000000000       0.68750000000000000        0.0000000000000000     
  0.90625000000000000       0.68750000000000000        0.0000000000000000     
  0.93750000000000000       0.68750000000000000        0.0000000000000000     
  0.96875000000000000       0.68750000000000000        0.0000000000000000     
   1.0000000000000000       0.68750000000000000        0.0000000000000000     
  0.87500000000000000       0.71875000000000000        0.0000000000000000     
  0.90625000000000000       0.71875000000000000        0.0000000000000000     
  0.93750000000000000       0.71875000000000000        0.0000000000000000     
  0.96875000000000000       0.71875000000000000        0.0000000000000000     
   1.0000000000000000       0.71875000000000000        0.0000000000000000     
  0.87500000000000000       0.75000000000000000        0.0000000000000000     
  0.90625000000000000       0.75000000000000000        0.0000000000000000     
  0.93750000000000000       0.75000000000000000        0.0000000000000000     
  0.96875000000000000       0.75000000000000000        0.0000000000000000     
   1.0000000000000000       0.75000000000000000        0.0000000000000000     
   1.0000000000000000       0.62500000000000000        0.0000000000000000     
   1.0312500000000000       0.62500000000000000        0.0000000000000000     
   1.0625000000000000       0.62500000000000000        0.0000000000000000     
   1.0937500000000000       0.62500000000000000        0.0000000000000000     
   1.1250000000000000       0.62500000000000000        0.0000000000000000     
   1.0000000000000000       0.65625000000000000        0.0000000000000000     
   1.0312500000000000       0.65625000000000000        0.0000000000000000     
   1.0625000000000000       0.65625000000000000        0.0000000000000000     
   1.0937500000000000       0.65625000000000000        0.0000000000000000     
   1.1250000000000000       0.65625000000000000        0.0000000000000000     
   1.0000000000000000       0.68750000000000000        0.0000000000000000     
   1.0312500000000000       0.68750000000000000        0.0000000000000000     
   1.0625000000000000       0.68750000000000000        0.0000000000000000     
   1.0937500000000000       0.68750000000000000        0.0000000000000000     
   1.1250000000000000       0.68750000000000000        0.0000000000000000     
   1.0000000000000000       0.71875000000000000        0.0000000000000000     
   1.0312500000000000       0.71875000000000000        0.0000000000000000     
   1.0625000000000000       0.71875000000000000        0.0000000000000000     
   1.0937500000000000       0.71875000000000000        0.0000000000000000     
   1.1250000000000000       0.71875000000000000        0.0000000000000000     
   1.0000000000000000       0.75000000000000000        0.0000000000000000     
   1.0312500000000000       0.75000000000000000        0.0000000000000000     
   1.0625000000000000       0.75000000000000000        0.0000000000000000     
   1.0937500000000000       0.75000000000000000        0.0000000000000000     
   1.1250000000000000       0.75000000000000000        0.0000000000000000     
   1.1250000000000000       0.62500000000000000        0.0000000000000000     
   1.1562500000000000       0.62500000000000000        0.0000000000000000     
   1.1875000000000000       0.62500000000000000        0.0000000000000000     
   1.2187500000000000       0.62500000000000000        0.0000000000000000     
   1.2500000000000000       0.62500000000000000        0.0000000000000000     
   1.1250000000000000       0.65625000000000000        0.0000000000000000     
   1.1562500000000000       0.65625000000000000        0.0000000000000000     
   1.1875000000000000       0.65625000000000000        0.0000000000000000     
   1.2187500000000000       0.65625000000000000        0.0000000000000000     
   1.2500000000000000       0.65625000000000000        0.0000000000000000     
   1.1250000000000000       0.68750000000000000        0.0000000000000000     
   1.1562500000000000       0.68750000000000000        0.0000000000000000     
   1.1875000000000000       0.68750000000000000        0.0000000000000000     
   1.2187500000000000       0.68750000000000000        0.0000000000000000     
   1.2500000000000000       0.68750000000000000        0.0000000000000000     
   1.1250000000000000       0.71875000000000000        0.0000000000000000     
   1.1562500000000000       0.71875000000000000        0.0000000000000000     
   1.1875000000000000       0.71875000000000000        0.0000000000000000     
   1.2187500000000000       0.71875000000000000        0.0000000000000000     
   1.2500000000000000       0.71875000000000000        0.0000000000000000     
   1.1250000000000000       0.75000000000000000        0.0000000000000000     
   1.1562500000000000       0.75000000000000000        0.0000000000000000     
   1.1875000000000000       0.75000000000000000        0.0000000000000000     
   1.2187500000000000       0.75000000000000000        0.0000000000000000     
   1.2500000000000000       0.75000000000000000        0.0000000000000000     
   1.2500000000000000       0.62500000000000000        0.0000000000000000     
   1.2812500000000000       0.62500000000000000        0.0000000000000000     
   1.3125000000000000       0.62500000000000000        0.0000000000000000     
   1.3437500000000000       0.62500000000000000        0.0000000000000000     
   1.3750000000000000       0.62500000000000000        0.0000000000000000     
   1.2500000000000000       0.65625000000000000        0.0000000000000000     
   1.2812500000000000       0.65625000000000000        0.0000000000000000     
   1.3125000000000000       0.65625000000000000        0.0000000000000000     
   1.3437500000000000       0.65625000000000000        0.0000000000000000     
   1.3750000000000000       0.65625000000000000        0.0000000000000000     
   1.2500000000000000       0.68750000000000000        0.0000000000000000     
   1.2812500000000000       0.68750000000000000        0.0000000000000000     
   1.3125000000000000       0.68750000000000000        0.0000000000000000     
   1.3437500000000000       0.68750000000000000        0.0000000000000000     
   1.3750000000000000       0.68750000000000000        0.0000000000000000     
   1.2500000000000000       0.71875000000000000        0.0000000000000000     
   1.2812500000000000       0.71875000000000000        0.0000000000000000     
   1.3125000000000000       0.71875000000000000        0.0000000000000000     
   1.3437500000000000       0.71875000000000000        0.0000000000000000     
   1.3750000000000000       0.71875000000000000        0.0000000000000000     
   1.2500000000000000       0.75000000000000000        0.0000000000000000     
   1.2812500000000000       0.75000000000000000        0.0000000000000000     
   1.3125000000000000       0.75000000000000000        0.0000000000000000     
   1.3437500000000000       0.75000000000000000        0.0000000000000000     
   1.3750000000000000       0.75000000000000000        0.0000000000000000     
   1.3750000000000000       0.62500000000000000        0.0000000000000000     
   1.4062500000000000       0.62500000000000000        0.0000000000000000     
   1.4375000000000000       0.62500000000000000        0.0000000000000000     
   1.4687500000000000       0.62500000000000000        0.0000000000000000     
   1.5000000000000000       0.62500000000000000        0.0000000000000000     
   1.3750000000000000       0.65625000000000000        0.0000000000000000     
   1.4062500000000000       0.65625000000000000        0.0000000000000000     
   1.4375000000000000       0.65625000000000000        0.0000000000000000     
   1.4687500000000000       0.65625000000000000        0.0000000000000000     
   1.5000000000000000       0.65625000000000000        0.0000000000000000     
   1.3750000000000000       0.68750000000000000        0.0000000000000000     
   1.4062500000000000       0.68750000000000000        0.0000000000000000     
   1.4375000000000000       0.68750000000000000        0.0000000000000000     
   1.4687500000000000       0.68750000000000000        0.0000000000000000     
   1.5000000000000000       0.68750000000000000        0.0000000000000000     
   1.3750000000000000       0.71875000000000000        0.0000000000000000     
   1.4062500000000000       0.71875000000000000        0.0000000000000000     
   1.4375000000000000       0.71875000000000000        0.0000000000000000     
   1.4687500000000000       0.71875000000000000        0.0000000000000000     
   1.5000000000000000       0.71875000000000000        0.0000000000000000     
   1.3750000000000000       0.75000000000000000        0.0000000000000000     
   1.4062500000000000       0.75000000000000000        0.0000000000000000     
   1.4375000000000000       0.75000000000000000        0.0000000000000000     
   1.4687500000000000       0.75000000000000000        0.0000000000000000     
   1.5000000000000000       0.75000000000000000        0.0000000000000000     
  0.50000000000000000       0.75000000000000000        0.0000000000000000     
  0.53125000000000000       0.75000000000000000        0.0000000000000000     
  0.56250000000000000       0.75000000000000000        0.0000000000000000     
  0.59375000000000000       0.75000000000000000        0.0000000000000000     
  0.62500000000000000       0.75000000000000000        0.0000000000000000     
  0.50000000000000000       0.78125000000000000        0.0000000000000000     
  0.53125000000000000       0.78125000000000000        0.0000000000000000     
  0.56250000000000000       0.78125000000000000        0.0000000000000000     
  0.59375000000000000       0.78125000000000000        0.0000000000000000     
  0.62500000000000000       0.78125000000000000        0.0000000000000000     
  0.50000000000000000       0.81250000000000000        0.0000000000000000     
  0.53125000000000000       0.81250000000000000        0.0000000000000000     
  0.56250000000000000       0.81250000000000000        0.0000000000000000     
  0.59375000000000000       0.81250000000000000        0.0000000000000000     
  0.62500000000000000       0.81250000000000000        0.0000000000000000     
  0.50000000000000000       0.84375000000000000        0.0000000000000000     
  0.53125000000000000       0.84375000000000000        0.0000000000000000     
  0.56250000000000000       0.84375000000000000        0.0000000000000000     
  0.59375000000000000       0.84375000000000000        0.0000000000000000     
  0.62500000000000000       0.84375000000000000        0.0000000000000000     
  0.50000000000000000       0.87500000000000000        0.0000000000000000     
  0.53125000000000000       0.87500000000000000        0.0000000000000000     
  0.56250000000000000       0.87500000000000000        0.0000000000000000     
  0.59375000000000000       0.87500000000000000        0.0000000000000000     
  0.62500000000000000       0.87500000000000000        0.0000000000000000     
  0.62500000000000000       0.75000000000000000        0.0000000000000000     
  0.65625000000000000       0.75000000000000000        0.0000000000000000     
  0.68750000000000000       0.75000000000000000        0.0000000000000000     
  0.71875000000000000       0.75000000000000000        0.0000000000000000     
  0.75000000000000000       0.75000000000000000        0.0000000000000000     
  0.62500000000000000       0.78125000000000000        0.0000000000000000     
  0.65625000000000000       0.78125000000000000        0.0000000000000000     
  0.68750000000000000       0.78125000000000000        0.0000000000000000     
  0.71875000000000000       0.78125000000000000        0.0000000000000000     
  0.75000000000000000       0.78125000000000000        0.0000000000000000     
  0.62500000000000000       0.81250000000000000        0.0000000000000000     
  0.65625000000000000       0.81250000000000000        0.0000000000000000     
  0.68750000000000000       0.81250000000000000        0.0000000000000000     
  0.71875000000000000       0.81250000000000000        0.0000000000000000     
  0.75000000000000000       0.81250000000000000        0.0000000000000000     
  0.62500000000000000       0.84375000000000000        0.0000000000000000     
  0.65625000000000000       0.84375000000000000        0.0000000000000000     
  0.68750000000000000       0.84375000000000000        0.0000000000000000     
  0.71875000000000000       0.84375000000000000        0.0000000000000000     
  0.75000000000000000       0.84375000000000000        0.0000000000000000     
  0.62500000000000000       0.87500000000000000        0.0000000000000000     
  0.65625000000000000       0.87500000000000000        0.0000000000000000     
  0.68750000000000000       0.87500000000000000        0.0000000000000000     
  0.71875000000000000       0.87500000000000000        0.0000000000000000     
  0.75000000000000000       0.87500000000000000        0.0000000000000000     
  0.75000000000000000       0.75000000000000000        0.0000000000000000     
  0.78125000000000000       0.75000000000000000        0.0000000000000000     
  0.81250000000000000       0.75000000000000000        0.0000000000000000     
  0.84375000000000000       0.75000000000000000        0.0000000000000000     
  0.87500000000000000       0.75000000000000000        0.0000000000000000     
  0.75000000000000000       0.78125000000000000        0.0000000000000000     
  0.78125000000000000       0.78125000000000000        0.0000000000000000     
  0.81250000000000000       0.78125000000000000        0.0000000000000000     
  0.84375000000000000       0.78125000000000000        0.0000000000000000     
  0.87500000000000000       0.78125000000000000        0.0000000000000000     
  0.75000000000000000       0.81250000000000000        0.0000000000000000     
  0.78125000000000000       0.81250000000000000        0.0000000000000000     
  0.81250000000000000       0.81250000000000000        0.0000000000000000     
  0.84375000000000000       0.81250000000000000        0.0000000000000000     
  0.87500000000000000       0.81250000000000000        0.0000000000000000     
  0.75000000000000000       0.84375000000000000        0.0000000000000000     
  0.78125000000000000       0.84375000000000000        0.0000000000000000     
  0.81250000000000000       0.84375000000000000        0.0000000000000000     
  0.84375000000000000       0.84375000000000000        0.0000000000000000     
  0.87500000000000000       0.84375000000000000        0.0000000000000000     
  0.75000000000000000       0.87500000000000000        0.0000000000000000     
  0.78125000000000000       0.87500000000000000        0.0000000000000000     
  0.81250000000000000       0.87500000000000000        0.0000000000000000     
  0.84375000000000000       0.87500000000000000        0.0000000000000000     
  0.87500000000000000       0.87500000000000000        0.0000000000000000     
  0.87500000000000000       0.75000000000000000        0.0000000000000000     
  0.90625000000000000       0.75000000000000000        0.0000000000000000     
  0.93750000000000000       0.75000000000000000        0.0000000000000000     
  0.96875000000000000       0.75000000000000000        0.0000000000000000     
   1.0000000000000000       0.75000000000000000        0.0000000000000000     
  0.87500000000000000       0.78125000000000000        0.0000000000000000     
  0.90625000000000000       0.78125000000000000        0.0000000000000000     
  0.93750000000000000       0.78125000000000000        0.0000000000000000     
  0.96875000000000000       0.78125000000000000        0.0000000000000000     
   1.0000000000000000       0.78125000000000000        0.0000000000000000     
  0.87500000000000000       0.81250000000000000        0.0000000000000000     
  0.90625000000000000       0.81250000000000000        0.0000000000000000     
  0.93750000000000000       0.81250000000000000        0.0000000000000000     
  0.96875000000000000       0.81250000000000000        0.0000000000000000     
   1.0000000000000000       0.81250000000000000        0.0000000000000000     
  0.87500000000000000       0.84375000000000000        0.0000000000000000     
  0.90625000000000000       0.84375000000000000        0.0000000000000000     
  0.93750000000000000       0.84375000000000000        0.0000000000000000     
  0.96875000000000000       0.84375000000000000        0.0000000000000000     
   1.0000000000000000       0.84375000000000000        0.0000000000000000     
  0.87500000000000000       0.87500000000000000        0.0000000000000000     
  0.90625000000000000       0.87500000000000000        0.0000000000000000     
  0.93750000000000000       0.87500000000000000        0.0000000000000000     
  0.96875000000000000       0.87500000000000000        0.0000000000000000     
   1.0000000000000000       0.87500000000000000        0.0000000000000000     
   1.0000000000000000       0.75000000000000000        0.0000000000000000     
   1.0312500000000000       0.75000000000000000        0.0000000000000000     
   1.0625000000000000       0.75000000000000000        0.0000000000000000     
   1.0937500000000000       0.75000000000000000        0.0000000000000000     
   1.1250000000000000       0.75000000000000000        0.0000000000000000     
   1.0000000000000000       0.78125000000000000        0.0000000000000000     
   1.0312500000000000       0.78125000000000000        0.0000000000000000     
   1.0625000000000000       0.78125000000000000        0.0000000000000000     
   1.0937500000000000       0.78125000000000000        0.0000000000000000     
   1.1250000000000000       0.78125000000000000        0.0000000000000000     
   1.0000000000000000       0.81250000000000000        0.0000000000000000     
   1.0312500000000000       0.81250000000000000        0.0000000000000000     
   1.0625000000000000       0.81250000000000000        0.0000000000000000     
   1.0937500000000000       0.81250000000000000        0.0000000000000000     
   1.1250000000000000       0.81250000000000000        0.0000000000000000     
   1.0000000000000000       0.84375000000000000        0.0000000000000000     
   1.0312500000000000       0.84375000000000000        0.0000000000000000     
   1.0625000000000000       0.84375000000000000        0.0000000000000000     
   1.0937500000000000       0.84375000000000000        0.0000000000000000     
   1.1250000000000000       0.84375000000000000        0.0000000000000000     
   1.0000000000000000       0.87500000000000000        0.0000000000000000     
   1.0312500000000000       0.87500000000000000        0.0000000000000000     
   1.0625000000000000       0.87500000000000000        0.0000000000000000     
   1.0937500000000000       0.87500000000000000        0.0000000000000000     
   1.1250000000000000       0.87500000000000000        0.0000000000000000     
   1.1250000000000000       0.75000000000000000        0.0000000000000000     
   1.1562500000000000       0.75000000000000000        0.0000000000000000     
   1.1875000000000000       0.75000000000000000        0.0000000000000000     
   1.2187500000000000       0.75000000000000000        0.0000000000000000     
   1.2500000000000000       0.75000000000000000        0.0000000000000000     
   1.1250000000000000       0.78125000000000000        0.0000000000000000     
   1.1562500000000000       0.78125000000000000        0.0000000000000000     
   1.1875000000000000       0.78125000000000000        0.0000000000000000     
   1.2187500000000000       0.78125000000000000        0.0000000000000000     
   1.2500000000000000       0.78125000000000000        0.0000000000000000     
   1.1250000000000000       0.81250000000000000        0.0000000000000000     
   1.1562500000000000       0.81250000000000000        0.0000000000000000     
   1.1875000000000000       0.81250000000000000        0.0000000000000000     
   1.2187500000000000       0.81250000000000000        0.0000000000000000     
   1.2500000000000000       0.81250000000000000        0.0000000000000000     
   1.1250000000000000       0.84375000000000000        0.0000000000000000     
   1.1562500000000000       0.84375000000000000        0.0000000000000000     
   1.1875000000000000       0.84375000000000000        0.0000000000000000     
   1.2187500000000000       0.84375000000000000        0.0000000000000000     
   1.2500000000000000       0.84375000000000000        0.0000000000000000     
   1.1250000000000000       0.87500000000000000        0.0000000000000000     
   1.1562500000000000       0.87500000000000000        0.0000000000000000     
   1.1875000000000000       0.87500000000000000        0.0000000000000000     
   1.2187500000000000       0.87500000000000000        0.0000000000000000     
   1.2500000000000000       0.87500000000000000        0.0000000000000000     
   1.2500000000000000       0.75000000000000000        0.0000000000000000     
   1.2812500000000000       0.75000000000000000        0.0000000000000000     
   1.3125000000000000       0.75000000000000000        0.0000000000000000     
   1.3437500000000000       0.75000000000000000        0.0000000000000000     
   1.3750000000000000       0.75000000000000000        0.0000000000000000     
   1.2500000000000000       0.78125000000000000        0.0000000000000000     
   1.2812500000000000       0.78125000000000000        0.0000000000000000     
   1.3125000000000000       0.78125000000000000        0.0000000000000000     
   1.3437500000000000       0.78125000000000000        0.0000000000000000     
   1.3750000000000000       0.78125000000000000        0.0000000000000000     
   1.2500000000000000       0.81250000000000000        0.0000000000000000     
   1.2812500000000000       0.81250000000000000        0.0000000000000000     
   1.3125000000000000       0.81250000000000000        0.0000000000000000     
   1.3437500000000000       0.81250000000000000        0.0000000000000000     
   1.3750000000000000       0.81250000000000000        0.0000000000000000     
   1.2500000000000000       0.84375000000000000        0.0000000000000000     
   1.2812500000000000       0.84375000000000000        0.0000000000000000     
   1.3125000000000000       0.84375000000000000        0.0000000000000000     
   1.3437500000000000       0.84375000000000000        0.0000000000000000     
   1.3750000000000000       0.84375000000000000        0.0000000000000000     
   1.2500000000000000       0.87500000000000000        0.0000000000000000     
   1.2812500000000000       0.87500000000000000        0.0000000000000000     
   1.3125000000000000       0.87500000000000000        0.0000000000000000     
   1.3437500000000000       0.87500000000000000        0.0000000000000000     
   1.3750000000000000       0.87500000000000000        0.0000000000000000     
   1.3750000000000000       0.75000000000000000        0.0000000000000000     
   1.4062500000000000       0.75000000000000000        0.0000000000000000     
   1.4375000000000000       0.75000000000000000        0.0000000000000000     
   1.4687500000000000       0.75000000000000000        0.0000000000000000     
   1.5000000000000000       0.75000000000000000        0.0000000000000000     
   1.3750000000000000       0.78125000000000000        0.0000000000000000     
   1.4062500000000000       0.78125000000000000        0.0000000000000000     
   1.4375000000000000       0.78125000000000000        0.0000000000000000     
   1.4687500000000000       0.78125000000000000        0.0000000000000000     
   1.5000000000000000       0.78125000000000000        0.0000000000000000     
   1.3750000000000000       0.81250000000000000        0.0000000000000000     
   1.4062500000000000       0.81250000000000000        0.0000000000000000     
   1.4375000000000000       0.81250000000000000        0.0000000000000000     
   1.4687500000000000       0.81250000000000000        0.0000000000000000     
   1.5000000000000000       0.81250000000000000        0.0000000000000000     
   1.3750000000000000       0.84375000000000000        0.0000000000000000     
   1.4062500000000000       0.84375000000000000        0.0000000000000000     
   1.4375000000000000       0.84375000000000000        0.0000000000000000     
   1.4687500000000000       0.84375000000000000        0.0000000000000000     
   1.5000000000000000       0.84375000000000000        0.0000000000000000     
   1.3750000000000000       0.87500000000000000        0.0000000000000000     
   1.4062500000000000       0.87500000000000000        0.0000000000000000     
   1.4375000000000000       0.87500000000000000        0.0000000000000000     
   1.4687500000000000       0.87500000000000000        0.0000000000000000     
   1.5000000000000000       0.87500000000000000        0.0000000000000000     
  0.50000000000000000       0.87500000000000000        0.0000000000000000     
  0.53125000000000000       0.87500000000000000        0.0000000000000000     
  0.56250000000000000       0.87500000000000000        0.0000000000000000     
  0.59375000000000000       0.87500000000000000        0.0000000000000000     
  0.62500000000000000       0.87500000000000000        0.0000000000000000     
  0.50000000000000000       0.90625000000000000        0.0000000000000000     
  0.53125000000000000       0.90625000000000000        0.0000000000000000     
  0.56250000000000000       0.90625000000000000        0.0000000000000000     
  0.59375000000000000       0.90625000000000000        0.0000000000000000     
  0.62500000000000000       0.90625000000000000        0.0000000000000000     
  0.50000000000000000       0.93750000000000000        0.0000000000000000     
  0.53125000000000000       0.93750000000000000        0.0000000000000000     
  0.56250000000000000       0.93750000000000000        0.0000000000000000     
  0.59375000000000000       0.93750000000000000        0.0000000000000000     
  0.62500000000000000       0.93750000000000000        0.0000000000000000     
  0.50000000000000000       0.96875000000000000        0.0000000000000000     
  0.53125000000000000       0.96875000000000000        0.0000000000000000     
  0.56250000000000000       0.96875000000000000        0.0000000000000000     
  0.59375000000000000       0.96875000000000000        0.0000000000000000     
  0.62500000000000000       0.96875000000000000        0.0000000000000000     
  0.50000000000000000        1.0000000000000000        0.0000000000000000     
  0.53125000000000000        1.0000000000000000        0.0000000000000000     
  0.56250000000000000        1.0000000000000000        0.0000000000000000     
  0.59375000000000000        1.0000000000000000        0.0000000000000000     
  0.62500000000000000        1.0000000000000000        0.0000000000000000     
  0.62500000000000000       0.87500000000000000        0.0000000000000000     
  0.65625000000000000       0.87500000000000000        0.0000000000000000     
  0.68750000000000000       0.87500000000000000        0.0000000000000000     
  0.71875000000000000       0.87500000000000000        0.0000000000000000     
  0.75000000000000000       0.87500000000000000        0.0000000000000000     
  0.62500000000000000       0.90625000000000000        0.0000000000000000     
  0.65625000000000000       0.90625000000000000        0.0000000000000000     
  0.68750000000000000       0.90625000000000000        0.0000000000000000     
  0.71875000000000000       0.90625000000000000        0.0000000000000000     
  0.75000000000000000       0.90625000000000000        0.0000000000000000     
  0.62500000000000000       0.93750000000000000        0.0000000000000000     
  0.65625000000000000       0.93750000000000000        0.0000000000000000     
  0.68750000000000000       0.93750000000000000        0.0000000000000000     
  0.71875000000000000       0.93750000000000000        0.0000000000000000     
  0.75000000000000000       0.93750000000000000        0.0000000000000000     
  0.62500000000000000       0.96875000000000000        0.0000000000000000     
  0.65625000000000000       0.96875000000000000        0.0000000000000000     
  0.68750000000000000       0.96875000000000000        0.0000000000000000     
  0.71875000000000000       0.96875000000000000        0.0000000000000000     
  0.75000000000000000       0.96875000000000000        0.0000000000000000     
  0.62500000000000000        1.0000000000000000        0.0000000000000000     
  0.65625000000000000        1.0000000000000000        0.0000000000000000     
  0.68750000000000000        1.0000000000000000        0.0000000000000000     
  0.71875000000000000        1.0000000000000000        0.0000000000000000     
  0.75000000000000000        1.0000000000000000        0.0000000000000000     
  0.75000000000000000       0.87500000000000000        0.0000000000000000     
  0.78125000000000000       0.87500000000000000        0.0000000000000000     
  0.81250000000000000       0.87500000000000000        0.0000000000000000     
  0.84375000000000000       0.87500000000000000        0.0000000000000000     
  0.87500000000000000       0.87500000000000000        0.0000000000000000     
  0.75000000000000000       0.90625000000000000        0.0000000000000000     
  0.78125000000000000       0.90625000000000000        0.0000000000000000     
  0.81250000000000000       0.90625000000000000        0.0000000000000000     
  0.84375000000000000       0.90625000000000000        0.0000000000000000     
  0.87500000000000000       0.90625000000000000        0.0000000000000000     
  0.75000000000000000       0.93750000000000000        0.0000000000000000     
  0.78125000000000000       0.93750000000000000        0.0000000000000000     
  0.81250000000000000       0.93750000000000000        0.0000000000000000     
  0.84375000000000000       0.93750000000000000        0.0000000000000000     
  0.87500000000000000       0.93750000000000000        0.0000000000000000     
  0.75000000000000000       0.96875000000000000        0.0000000000000000     
  0.78125000000000000       0.96875000000000000        0.0000000000000000     
  0.81250000000000000       0.96875000000000000        0.0000000000000000     
  0.84375000000000000       0.96875000000000000        0.0000000000000000     
  0.87500000000000000       0.96875000000000000        0.0000000000000000     
  0.75000000000000000        1.0000000000000000        0.0000000000000000     
  0.78125000000000000        1.0000000000000000        0.0000000000000000     
  0.81250000000000000        1.0000000000000000        0.0000000000000000     
  0.84375000000000000        1.0000000000000000        0.0000000000000000     
  0.87500000000000000        1.0000000000000000        0.0000000000000000     
  0.87500000000000000       0.87500000000000000        0.0000000000000000     
  0.90625000000000000       0.87500000000000000        0.0000000000000000     
  0.93750000000000000       0.87500000000000000        0.0000000000000000     
  0.96875000000000000       0.87500000000000000        0.0000000000000000     
   1.0000000000000000       0.87500000000000000        0.0000000000000000     
  0.87500000000000000       0.90625000000000000        0.0000000000000000     
  0.90625000000000000       0.90625000000000000        0.0000000000000000     
  0.93750000000000000       0.90625000000000000        0.0000000000000000     
  0.96875000000000000       0.90625000000000000        0.0000000000000000     
   1.0000000000000000       0.90625000000000000        0.0000000000000000     
  0.87500000000000000       0.93750000000000000        0.0000000000000000     
  0.90625000000000000       0.93750000000000000        0.0000000000000000     
  0.93750000000000000       0.93750000000000000        0.0000000000000000     
  0.96875000000000000       0.93750000000000000        0.0000000000000000     
   1.0000000000000000       0.93750000000000000        0.0000000000000000     
  0.87500000000000000       0.96875000000000000        0.0000000000000000     
  0.90625000000000000       0.96875000000000000        0.0000000000000000     
  0.93750000000000000       0.96875000000000000        0.0000000000000000     
  0.96875000000000000       0.96875000000000000        0.0000000000000000     
   1.0000000000000000       0.96875000000000000        0.0000000000000000     
  0.87500000000000000        1.0000000000000000        0.0000000000000000     
  0.90625000000000000        1.0000000000000000        0.0000000000000000     
  0.93750000000000000        1.0000000000000000        0.0000000000000000     
  0.96875000000000000        1.0000000000000000        0.0000000000000000     
   1.0000000000000000        1.0000000000000000        0.0000000000000000     
   1.0000000000000000       0.87500000000000000        0.0000000000000000     
   1.0312500000000000       0.87500000000000000        0.0000000000000000     
   1.0625000000000000       0.87500000000000000        0.0000000000000000     
   1.0937500000000000       0.87500000000000000        0.0000000000000000     
   1.1250000000000000       0.87500000000000000        0.0000000000000000     
   1.0000000000000000       0.90625000000000000        0.0000000000000000     
   1.0312500000000000       0.90625000000000000        0.0000000000000000     
   1.0625000000000000       0.90625000000000000        0.0000000000000000     
   1.0937500000000000       0.90625000000000000        0.0000000000000000     
   1.1250000000000000       0.90625000000000000        0.0000000000000000     
   1.0000000000000000       0.93750000000000000        0.0000000000000000     
   1.0312500000000000       0.93750000000000000        0.0000000000000000     
   1.0625000000000000       0.93750000000000000        0.0000000000000000     
   1.0937500000000000       0.93750000000000000        0.0000000000000000     
   1.1250000000000000       0.93750000000000000        0.0000000000000000     
   1.0000000000000000       0.96875000000000000        0.0000000000000000     
   1.0312500000000000       0.96875000000000000        0.0000000000000000     
   1.0625000000000000       0.96875000000000000        0.0000000000000000     
   1.0937500000000000       0.96875000000000000        0.0000000000000000     
   1.1250000000000000       0.96875000000000000        0.0000000000000000     
   1.0000000000000000        1.0000000000000000        0.0000000000000000     
   1.0312500000000000        1.0000000000000000        0.0000000000000000     
   1.0625000000000000        1.0000000000000000        0.0000000000000000     
   1.0937500000000000        1.0000000000000000        0.0000000000000000     
   1.1250000000000000        1.0000000000000000        0.0000000000000000     
   1.1250000000000000       0.87500000000000000        0.0000000000000000     
   1.1562500000000000       0.87500000000000000        0.0000000000000000     
   1.1875000000000000       0.87500000000000000        0.0000000000000000     
   1.2187500000000000       0.87500000000000000        0.0000000000000000     
   1.2500000000000000       0.87500000000000000        0.0000000000000000     
   1.1250000000000000       0.90625000000000000        0.0000000000000000     
   1.1562500000000000       0.90625000000000000        0.0000000000000000     
   1.1875000000000000       0.90625000000000000        0.0000000000000000     
   1.2187500000000000       0.90625000000000000        0.0000000000000000     
   1.2500000000000000       0.90625000000000000        0.0000000000000000     
   1.1250000000000000       0.93750000000000000        0.0000000000000000     
   1.1562500000000000       0.93750000000000000        0.0000000000000000     
   1.1875000000000000       0.93750000000000000        0.0000000000000000     
   1.2187500000000000       0.93750000000000000        0.0000000000000000     
   1.2500000000000000       0.93750000000000000        0.0000000000000000     
   1.1250000000000000       0.96875000000000000        0.0000000000000000     
   1.1562500000000000       0.96875000000000000        0.0000000000000000     
   1.1875000000000000       0.96875000000000000        0.0000000000000000     
   1.2187500000000000       0.96875000000000000        0.0000000000000000     
   1.2500000000000000       0.96875000000000000        0.0000000000000000     
   1.1250000000000000        1.0000000000000000        0.0000000000000000     
   1.1562500000000000        1.0000000000000000        0.0000000000000000     
   1.1875000000000000        1.0000000000000000        0.0000000000000000     
   1.2187500000000000        1.0000000000000000        0.0000000000000000     
   1.2500000000000000        1.0000000000000000        0.0000000000000000     
   1.2500000000000000       0.87500000000000000        0.0000000000000000     
   1.2812500000000000       0.87500000000000000        0.0000000000000000     
   1.3125000000000000       0.87500000000000000        0.0000000000000000     
   1.3437500000000000       0.87500000000000000        0.0000000000000000     
   1.3750000000000000       0.87500000000000000        0.0000000000000000     
   1.2500000000000000       0.90625000000000000        0.0000000000000000     
   1.2812500000000000       0.90625000000000000        0.0000000000000000     
   1.3125000000000000       0.90625000000000000        0.0000000000000000     
   1.3437500000000000       0.90625000000000000        0.0000000000000000     
   1.3750000000000000       0.90625000000000000        0.0000000000000000     
   1.2500000000000000       0.93750000000000000        0.0000000000000000     
   1.2812500000000000       0.93750000000000000        0.0000000000000000     
   1.3125000000000000       0.93750000000000000        0.0000000000000000     
   1.3437500000000000       0.93750000000000000        0.0000000000000000     
   1.3750000000000000       0.93750000000000000        0.0000000000000000     
   1.2500000000000000       0.96875000000000000        0.0000000000000000     
   1.2812500000000000       0.96875000000000000        0.0000000000000000     
   1.3125000000000000       0.96875000000000000        0.0000000000000000     
   1.3437500000000000       0.96875000000000000        0.0000000000000000     
   1.3750000000000000       0.96875000000000000        0.0000000000000000     
   1.2500000000000000        1.0000000000000000        0.0000000000000000     
   1.2812500000000000        1.0000000000000000        0.0000000000000000     
   1.3125000000000000        1.0000000000000000        0.0000000000000000     
   1.3437500000000000        1.0000000000000000        0.0000000000000000     
   1.3750000000000000        1.0000000000000000        0.0000000000000000     
   1.3750000000000000       0.87500000000000000        0.0000000000000000     
   1.4062500000000000       0.87500000000000000        0.0000000000000000     
   1.4375000000000000       0.87500000000000000        0.0000000000000000     
   1.4687500000000000       0.87500000000000000        0.0000000000000000     
   1.5000000000000000       0.87500000000000000        0.0000000000000000     
   1.3750000000000000       0.90625000000000000        0.0000000000000000     
   1.4062500000000000       0.90625000000000000        0.0000000000000000     
   1.4375000000000000       0.90625000000000000        0.0000000000000000     
   1.4687500000000000       0.90625000000000000        0.0000000000000000     
   1.5000000000000000       0.90625000000000000        0.0000000000000000     
   1.3750000000000000       0.93750000000000000        0.0000000000000000     
   1.4062500000000000       0.93750000000000000        0.0000000000000000     
   1.4375000000000000       0.93750000000000000        0.0000000000000000     
   1.4687500000000000       0.93750000000000000        0.0000000000000000     
   1.5000000000000000       0.93750000000000000        0.0000000000000000     
   1.3750000000000000       0.96875000000000000        0.0000000000000000     
   1.4062500000000000       0.96875000000000000        0.0000000000000000     
   1.4375000000000000       0.96875000000000000        0.0000000000000000     
   1.4687500000000000       0.96875000000000000        0.0000000000000000     
   1.5000000000000000       0.96875000000000000        0.0000000000000000     
   1.3750000000000000        1.0000000000000000        0.0000000000000000     
   1.4062500000000000        1.0000000000000000        0.0000000000000000     
   1.4375000000000000        1.0000000000000000        0.0000000000000000     
   1.4687500000000000        1.0000000000000000        0.0000000000000000     
   1.5000000000000000        1.0000000000000000        0.0000000000000000     
 </DataArray>
 </Points>
 <Cells>
 <DataArray  type="Int32"  Name="connectivity"  format="ascii">
           0           1           6           5
           1           2           7           6
           2           3           8           7
           3           4           9           8
           5           6          11          10
           6           7          12          11
           7           8          13          12
           8           9          14          13
          10          11          16          15
          11          12          17          16
          12          13          18          17
          13          14          19          18
          15          16          21          20
          16          17          22          21
          17          18          23          22
          18          19          24          23
          25          26          31          30
          26          27          32          31
          27          28          33          32
          28          29          34          33
          30          31          36          35
          31          32          37          36
          32          33          38          37
          33          34          39          38
          35          36          41          40
          36          37          42          41
          37          38          43          42
          38          39          44          43
          40          41          46          45
          41          42          47          46
          42          43          48          47
          43          44          49          48
          50          51          56          55
          51          52          57          56
          52          53          58          57
          53          54          59          58
          55          56          61          60
          56          57          62          61
          57          58          63          62
          58          59          64          63
          60          61          66          65
          61          62          67          66
          62          63          68          67
          63          64          69          68
          65          66          71          70
          66          67          72          71
          67          68          73          72
          68          69          74          73
          75          76          81          80
          76          77          82          81
          77          78          83          82
          78          79          84          83
          80          81          86          85
          81          82          87          86
          82          83          88          87
          83          84          89          88
          85          86          91          90
          86          87          92          91
          87          88          93          92
          88          89          94          93
          90          91          96          95
          91          92          97          96
          92          93          98          97
          93          94          99          98
         100         101         106         105
         101         102         107         106
         102         103         108         107
         103         104         109         108
         105         106         111         110
         106         107         112         111
         107         108         113         112
         108         109         114         113
         110         111         116         115
         111         112         117         116
         112         113         118         117
         113         114         119         118
         115         116         121         120
         116         117         122         121
         117         118         123         122
         118         119         124         123
         125         126         131         130
         126         127         132         131
         127         128         133         132
         128         129         134         133
         130         131         136         135
         131         132         137         136
         132         133         138         137
         133         134         139         138
         135         136         141         140
         136         137         142         141
         137         138         143         142
         138         139         144         143
         140         141         146         145
         141         142         147         146
         142         143         148         147
         143         144         149         148
         150         151         156         155
         151         152         157         156
         152         153         158         157
         153         154         159         158
         155         156         161         160
         156         157         162         161
         157         158         163         162
         158         159         164         163
         160         161         166         165
         161         162         167         166
         162         163         168         167
         163         164         169         168
         165         166         171         170
         166         167         172         171
         167         168         173         172
         168         169         174         173
         175         176         181         180
         176         177         182         181
         177         178         183         182
         178         179         184         183
         180         181         186         185
         181         182         187         186
         182         183         188         187
         183         184         189         188
         185         186         191         190
         186         187         192         191
         187         188         193         192
         188         189         194         193
         190         191         196         195
         191         192         197         196
         192         193         198         197
         193         194         199         198
         200         201         206         205
         201         202         207         206
         202         203         208         207
         203         204         209         208
         205         206         211         210
         206         207         212         211
         207         208         213         212
         208         209         214         213
         210         211         216         215
         211         212         217         216
         212         213         218         217
         213         214         219         218
         215         216         221         220
         216         217         222         221
         217         218         223         222
         218         219         224         223
         225         226         231         230
         226         227         232         231
         227         228         233         232
         228         229         234         233
         230         231         236         235
         231         232         237         236
         232         233         238         237
         233         234         239         238
         235         236         241         240
         236         237         242         241
         237         238         243         242
         238         239         244         243
         240         241         246         245
         241         242         247         246
         242         243         248         247
         243         244         249         248
         250         251         256         255
         251         252         257         256
         252         253         258         257
         253         254         259         258
         255         256         261         260
         256         257         262         261
         257         258         263         262
         258         259         264         263
         260         261         266         265
         261         262         267         266
         262         263         268         267
         263         264         269         268
         265         266         271         270
         266         267         272         271
         267         268         273         272
         268         269         274         273
         275         276         281         280
         276         277         282         281
         277         278         283         282
         278         279         284         283
         280         281         286         285
         281         282         287         286
         282         283         288         287
         283         284         289         288
         285         286         291         290
         286         287         292         291
         287         288         293         292
         288         289         294         293
         290         291         296         295
         291         292         297         296
         292         293         298         297
         293         294         299         298
         300         301         306         305
         301         302         307         306
         302         303         308         307
         303         304         309         308
         305         306         311         310
         306         307         312         311
         307         308         313         312
         308         309         314         313
         310         311         316         315
         311         312         317         316
         312         313         318         317
         313         314         319         318
         315         316         321         320
         316         317         322         321
         317         318         323         322
         318         319         324         323
         325         326         331         330
         326         327         332         331
         327         328         333         332
         328         329         334         333
         330         331         336         335
         331         332         337         336
         332         333         338         337
         333         334         339         338
         335         336         341         340
         336         337         342         341
         337         338         343         342
         338         339         344         343
         340         341         346         345
         341         342         347         346
         342         343         348         347
         343         344         349         348
         350         351         356         355
         351         352         357         356
         352         353         358         357
         353         354         359         358
         355         356         361         360
         356         357         362         361
         357         358         363         362
         358         359         364         363
         360         361         366         365
         361         362         367         366
         362         363         368         367
         363         364         369         368
         365         366         371         370
         366         367         372         371
         367         368         373         372
         368         369         374         373
         375         376         381         380
         376         377         382         381
         377         378         383         382
         378         379         384         383
         380         381         386         385
         381         382         387         386
         382         383         388         387
         383         384         389         388
         385         386         391         390
         386         387         392         391
         387         388         393         392
         388         389         394         393
         390         391         396         395
         391         392         397         396
         392         393         398         397
         393         394         399         398
         400         401         406         405
         401         402         407         406
         402         403         408         407
         403         404         409         408
         405         406         411         410
         406         407         412         411
         407         408         413         412
         408         409         414         413
         410         411         416         415
         411         412         417         416
         412         413         418         417
         413         414         419         418
         415         416         421         420
         416         417         422         421
         417         418         423         422
         418         419         424         423
         425         426         431         430
         426         427         432         431
         427         428         433         432
         428         429         434         433
         430         431         436         435
         431         432         437         436
         432         433         438         437
         433         434         439         438
         435         436         441         440
         436         437         442         441
         437         438         443         442
         438         439         444         443
         440         441         446         445
         441         442         447         446
         442         443         448         447
         443         444         449         448
         450         451         456         455
         451         452         457         456
         452         453         458         457
         453         454         459         458
         455         456         461         460
         456         457         462         461
         457         458         463         462
         458         459         464         463
         460         461         466         465
         461         462         467         466
         462         463         468         467
         463         464         469         468
         465         466         471         470
         466         467         472         471
         467         468         473         472
         468         469         474         473
         475         476         481         480
         476         477         482         481
         477         478         483         482
         478         479         484         483
         480         481         486         485
         481         482         487         486
         482         483         488         487
         483         484         489         488
         485         486         491         490
         486         487         492         491
         487         488         493         492
         488         489         494         493
         490         491         496         495
         491         492         497         496
         492         493         498         497
         493         494         499         498
         500         501         506         505
         501         502         507         506
         502         503         508         507
         503         504         509         508
         505         506         511         510
         506         507         512         511
         507         508         513         512
         508         509         514         513
         510         511         516         515
         511         512         517         516
         512         513         518         517
         513         514         519         518
         515         516         521         520
         516         517         522         521
         517         518         523         522
         518         519         524         523
         525         526         531         530
         526         527         532         531
         527         528         533         532
         528         529         534         533
         530         531         536         535
         531         532         537         536
         532         533         538         537
         533         534         539         538
         535         536         541         540
         536         537         542         541
         537         538         543         542
         538         539         544         543
         540         541         546         545
         541         542         547         546
         542         543         548         547
         543         544         549         548
         550         551         556         555
         551         552         557         556
         552         553         558         557
         553         554         559         558
         555         556         561         560
         556         557         562         561
         557         558         563         562
         558         559         564         563
         560         561         566         565
         561         562         567         566
         562         563         568         567
         563         564         569         568
         565         566         571         570
         566         567         572         571
         567         568         573         572
         568         569         574         573
         575         576         581         580
         576         577         582         581
         577         578         583         582
         578         579         584         583
         580         581         586         585
         581         582         587         586
         582         583         588         587
         583         584         589         588
         585         586         591         590
         586         587         592         591
         587         588         593         592
         588         589         594         593
         590         591         596         595
         591         592         597         596
         592         593         598         597
         593         594         599         598
         600         601         606         605
         601         602         607         606
         602         603         608         607
         603         604         609         608
         605         606         611         610
         606         607         612         611
         607         608         613         612
         608         609         614         613
         610         611         616         615
         611         612         617         616
         612         613         618         617
         613         614         619         618
         615         616         621         620
         616         617         622         621
         617         618         623         622
         618         619         624         623
         625         626         631         630
         626         627         632         631
         627         628         633         632
         628         629         634         633
         630         631         636         635
         631         632         637         636
         632         633         638         637
         633         634         639         638
         635         636         641         640
         636         637         642         641
         637         638         643         642
         638         639         644         643
         640         641         646         645
         641         642         647         646
         642         643         648         647
         643         644         649         648
         650         651         656         655
         651         652         657         656
         652         653         658         657
         653         654         659         658
         655         656         661         660
         656         657         662         661
         657         658         663         662
         658         659         664         663
         660         661         666         665
         661         662         667         666
         662         663         668         667
         663         664         669         668
         665         666         671         670
         666         667         672         671
         667         668         673         672
         668         669         674         673
         675         676         681         680
         676         677         682         681
         677         678         683         682
         678         679         684         683
         680         681         686         685
         681         682         687         686
         682         683         688         687
         683         684         689         688
         685         686         691         690
         686         687         692         691
         687         688         693         692
         688         689         694         693
         690         691         696         695
         691         692         697         696
         692         693         698         697
         693         694         699         698
         700         701         706         705
         701         702         707         706
         702         703         708         707
         703         704         709         708
         705         706         711         710
         706         707         712         711
         707         708         713         712
         708         709         714         713
         710         711         716         715
         711         712         717         716
         712         713         718         717
         713         714         719         718
         715         716         721         720
         716         717         722         721
         717         718         723         722
         718         719         724         723
         725         726         731         730
         726         727         732         731
         727         728         733         732
         728         729         734         733
         730         731         736         735
         731         732         737         736
         732         733         738         737
         733         734         739         738
         735         736         741         740
         736         737         742         741
         737         738         743         742
         738         739         744         743
         740         741         746         745
         741         742         747         746
         742         743         748         747
         743         744         749         748
         750         751         756         755
         751         752         757         756
         752         753         758         757
         753         754         759         758
         755         756         761         760
         756         757         762         761
         757         758         763         762
         758         759         764         763
         760         761         766         765
         761         762         767         766
         762         763         768         767
         763         764         769         768
         765         766         771         770
         766         767         772         771
         767         768         773         772
         768         769         774         773
         775         776         781         780
         776         777         782         781
         777         778         783         782
         778         779         784         783
         780         781         786         785
         781         782         787         786
         782         783         788         787
         783         784         789         788
         785         786         791         790
         786         787         792         791
         787         788         793         792
         788         789         794         793
         790         791         796         795
         791         792         797         796
         792         793         798         797
         793         794         799         798
         800         801         806         805
         801         802         807         806
         802         803         808         807
         803         804         809         808
         805         806         811         810
         806         807         812         811
         807         808         813         812
         808         809         814         813
         810         811         816         815
         811         812         817         816
         812         813         818         817
         813         814         819         818
         815         816         821         820
         816         817         822         821
         817         818         823         822
         818         819         824         823
         825         826         831         830
         826         827         832         831
         827         828         833         832
         828         829         834         833
         830         831         836         835
         831         832         837         836
         832         833         838         837
         833         834         839         838
         835         836         841         840
         836         837         842         841
         837         838         843         842
         838         839         844         843
         840         841         846         845
         841         842         847         846
         842         843         848         847
         843         844         849         848
         850         851         856         855
         851         852         857         856
         852         853         858         857
         853         854         859         858
         855         856         861         860
         856         857         862         861
         857         858         863         862
         858         859         864         863
         860         861         866         865
         861         862         867         866
         862         863         868         867
         863         864         869         868
         865         866         871         870
         866         867         872         871
         867         868         873         872
         868         869         874         873
         875         876         881         880
         876         877         882         881
         877         878         883         882
         878         879         884         883
         880         881         886         885
         881         882         887         886
         882         883         888         887
         883         884         889         888
         885         886         891         890
         886         887         892         891
         887         888         893         892
         888         889         894         893
         890         891         896         895
         891         892         897         896
         892         893         898         897
         893         894         899         898
         900         901         906         905
         901         902         907         906
         902         903         908         907
         903         904         909         908
         905         906         911         910
         906         907         912         911
         907         908         913         912
         908         909         914         913
         910         911         916         915
         911         912         917         916
         912         913         918         917
         913         914         919         918
         915         916         921         920
         916         917         922         921
         917         918         923         922
         918         919         924         923
         925         926         931         930
         926         927         932         931
         927         928         933         932
         928         929         934         933
         930         931         936         935
         931         932         937         936
         932         933         938         937
         933         934         939         938
         935         936         941         940
         936         937         942         941
         937         938         943         942
         938         939         944         943
         940         941         946         945
         941         942         947         946
         942         943         948         947
         943         944         949         948
         950         951         956         955
         951         952         957         956
         952         953         958         957
         953         954         959         958
         955         956         961         960
         956         957         962         961
         957         958         963         962
         958         959         964         963
         960         961         966         965
         961         962         967         966
         962         963         968         967
         963         964         969         968
         965         966         971         970
         966         967         972         971
         967         968         973         972
         968         969         974         973
         975         976         981         980
         976         977         982         981
         977         978         983         982
         978         979         984         983
         980         981         986         985
         981         982         987         986
         982         983         988         987
         983         984         989         988
         985         986         991         990
         986         987         992         991
         987         988         993         992
         988         989         994         993
         990         991         996         995
         991         992         997         996
         992         993         998         997
         993         994         999         998
        1000        1001        1006        1005
        1001        1002        1007        1006
        1002        1003        1008        1007
        1003        1004        1009        1008
        1005        1006        1011        1010
        1006        1007        1012        1011
        1007        1008        1013        1012
        1008        1009        1014        1013
        1010        1011        1016        1015
        1011        1012        1017        1016
        1012        1013        1018        1017
        1013        1014        1019        1018
        1015        1016        1021        1020
        1016        1017        1022        1021
        1017        1018        1023        1022
        1018        1019        1024        1023
        1025        1026        1031        1030
        1026        1027        1032        1031
        1027        1028        1033        1032
        1028        1029        1034        1033
        1030        1031        1036        1035
        1031        1032        1037        1036
        1032        1033        1038        1037
        1033        1034        1039        1038
        1035        1036        1041        1040
        1036        1037        1042        1041
        1037        1038        1043        1042
        1038        1039        1044        1043
        1040        1041        1046        1045
        1041        1042        1047        1046
        1042        1043        1048        1047
        1043        1044        1049        1048
        1050        1051        1056        1055
        1051        1052        1057        1056
        1052        1053        1058        1057
        1053        1054        1059        1058
        1055        1056        1061        1060
        1056        1057        1062        1061
        1057        1058        1063        1062
        1058        1059        1064        1063
        1060        1061        1066        1065
        1061        1062        1067        1066
        1062        1063        1068        1067
        1063        1064        1069        1068
        1065        1066        1071        1070
        1066        1067        1072        1071
        1067        1068        1073        1072
        1068        1069        1074        1073
        1075        1076        1081        1080
        1076        1077        1082        1081
        1077        1078        1083        1082
        1078        1079        1084        1083
        1080        1081        1086        1085
        1081        1082        1087        1086
        1082        1083        1088        1087
        1083        1084        1089        1088
        1085        1086        1091        1090
        1086        1087        1092        1091
        1087        1088        1093        1092
        1088        1089        1094        1093
        1090        1091        1096        1095
        1091        1092        1097        1096
        1092        1093        1098        1097
        1093        1094        1099        1098
        1100        1101        1106        1105
        1101        1102        1107        1106
        1102        1103        1108        1107
        1103        1104        1109        1108
        1105        1106        1111        1110
        1106        1107        1112        1111
        1107        1108        1113        1112
        1108        1109        1114        1113
        1110        1111        1116        1115
        1111        1112        1117        1116
        1112        1113        1118        1117
        1113        1114        1119        1118
        1115        1116        1121        1120
        1116        1117        1122        1121
        1117        1118        1123        1122
        1118        1119        1124        1123
        1125        1126        1131        1130
        1126        1127        1132        1131
        1127        1128        1133        1132
        1128        1129        1134        1133
        1130        1131        1136        1135
        1131        1132        1137        1136
        1132        1133        1138        1137
        1133        1134        1139        1138
        1135        1136        1141        1140
        1136        1137        1142        1141
        1137        1138        1143        1142
        1138        1139        1144        1143
        1140        1141        1146        1145
        1141        1142        1147        1146
        1142        1143        1148        1147
        1143        1144        1149        1148
        1150        1151        1156        1155
        1151        1152        1157        1156
        1152        1153        1158        1157
        1153        1154        1159        1158
        1155        1156        1161        1160
        1156        1157        1162        1161
        1157        1158        1163        1162
        1158        1159        1164        1163
        1160        1161        1166        1165
        1161        1162        1167        1166
        1162        1163        1168        1167
        1163        1164        1169        1168
        1165        1166        1171        1170
        1166        1167        1172        1171
        1167        1168        1173        1172
        1168        1169        1174        1173
        1175        1176        1181        1180
        1176        1177        1182        1181
        1177        1178        1183        1182
        1178        1179        1184        1183
        1180        1181        1186        1185
        1181        1182        1187        1186
        1182        1183        1188        1187
        1183        1184        1189        1188
        1185        1186        1191        1190
        1186        1187        1192        1191
        1187        1188        1193        1192
        1188        1189        1194        1193
        1190        1191        1196        1195
        1191        1192        1197        1196
        1192        1193        1198        1197
        1193        1194        1199        1198
        1200        1201        1206        1205
        1201        1202        1207        1206
        1202        1203        1208        1207
        1203        1204        1209        1208
        1205        1206        1211        1210
        1206        1207        1212        1211
        1207        1208        1213        1212
        1208        1209        1214        1213
        1210        1211        1216        1215
        1211        1212        1217        1216
        1212        1213        1218        1217
        1213        1214        1219        1218
        1215        1216        1221        1220
        1216        1217        1222        1221
        1217        1218        1223        1222
        1218        1219        1224        1223
        1225        1226        1231        1230
        1226        1227        1232        1231
        1227        1228        1233        1232
        1228        1229        1234        1233
        1230        1231        1236        1235
        1231        1232        1237        1236
        1232        1233        1238        1237
        1233        1234        1239        1238
        1235        1236        1241        1240
        1236        1237        1242        1241
        1237        1238        1243        1242
        1238        1239        1244        1243
        1240        1241        1246        1245
        1241        1242        1247        1246
        1242        1243        1248        1247
        1243        1244        1249        1248
        1250        1251        1256        1255
        1251        1252        1257        1256
        1252        1253        1258        1257
        1253        1254        1259        1258
        1255        1256        1261        1260
        1256        1257        1262        1261
        1257        1258        1263        1262
        1258        1259        1264        1263
        1260        1261        1266        1265
        1261        1262        1267        1266
        1262        1263        1268        1267
        1263        1264        1269        1268
        1265        1266        1271        1270
        1266        1267        1272        1271
        1267        1268        1273        1272
        1268        1269        1274        1273
        1275        1276        1281        1280
        1276        1277        1282        1281
        1277        1278        1283        1282
        1278        1279        1284        1283
        1280        1281        1286        1285
        1281        1282        1287        1286
        1282        1283        1288        1287
        1283        1284        1289        1288
        1285        1286        1291        1290
        1286        1287        1292        1291
        1287        1288        1293        1292
        1288        1289        1294        1293
        1290        1291        1296        1295
        1291        1292        1297        1296
        1292        1293        1298        1297
        1293        1294        1299        1298
        1300        1301        1306        1305
        1301        1302        1307        1306
        1302        1303        1308        1307
        1303        1304        1309        1308
        1305        1306        1311        1310
        1306        1307        1312        1311
        1307        1308        1313        1312
        1308        1309        1314        1313
        1310        1311        1316        1315
        1311        1312        1317        1316
        1312        1313        1318        1317
        1313        1314        1319        1318
        1315        1316        1321        1320
        1316        1317        1322        1321
        1317        1318        1323        1322
        1318        1319        1324        1323
        1325        1326        1331        1330
        1326        1327        1332        1331
        1327        1328        1333        1332
        1328        1329        1334        1333
        1330        1331        1336        1335
        1331        1332        1337        1336
        1332        1333        1338        1337
        1333        1334        1339        1338
        1335        1336        1341        1340
        1336        1337        1342        1341
        1337        1338        1343        1342
        1338        1339        1344        1343
        1340        1341        1346        1345
        1341        1342        1347        1346
        1342        1343        1348        1347
        1343        1344        1349        1348
        1350        1351        1356        1355
        1351        1352        1357        1356
        1352        1353        1358        1357
        1353        1354        1359        1358
        1355        1356        1361        1360
        1356        1357        1362        1361
        1357        1358        1363        1362
        1358        1359        1364        1363
        1360        1361        1366        1365
        1361        1362        1367        1366
        1362        1363        1368        1367
        1363        1364        1369        1368
        1365        1366        1371        1370
        1366        1367        1372        1371
        1367        1368        1373        1372
        1368        1369        1374        1373
        1375        1376        1381        1380
        1376        1377        1382        1381
        1377        1378        1383        1382
        1378        1379        1384        1383
        1380        1381        1386        1385
        1381        1382        1387        1386
        1382        1383        1388        1387
        1383        1384        1389        1388
        1385        1386        1391        1390
        1386        1387        1392        1391
        1387        1388        1393        1392
        1388        1389        1394        1393
        1390        1391        1396        1395
        1391        1392        1397        1396
        1392        1393        1398        1397
        1393        1394        1399        1398
        1400        1401        1406        1405
        1401        1402        1407        1406
        1402        1403        1408        1407
        1403        1404        1409        1408
        1405        1406        1411        1410
        1406        1407        1412        1411
        1407        1408        1413        1412
        1408        1409        1414        1413
        1410        1411        1416        1415
        1411        1412        1417        1416
        1412        1413        1418        1417
        1413        1414        1419        1418
        1415        1416        1421        1420
        1416        1417        1422        1421
        1417        1418        1423        1422
        1418        1419        1424        1423
        1425        1426        1431        1430
        1426        1427        1432        1431
        1427        1428        1433        1432
        1428        1429        1434        1433
        1430        1431        1436        1435
        1431        1432        1437        1436
        1432        1433        1438        1437
        1433        1434        1439        1438
        1435        1436        1441        1440
        1436        1437        1442        1441
        1437        1438        1443        1442
        1438        1439        1444        1443
        1440        1441        1446        1445
        1441        1442        1447        1446
        1442        1443        1448        1447
        1443        1444        1449        1448
        1450        1451        1456        1455
        1451        1452        1457        1456
        1452        1453        1458        1457
        1453        1454        1459        1458
        1455        1456        1461        1460
        1456        1457        1462        1461
        1457        1458        1463        1462
        1458        1459        1464        1463
        1460        1461        1466        1465
        1461        1462        1467        1466
        1462        1463        1468        1467
        1463        1464        1469        1468
        1465        1466        1471        1470
        1466        1467        1472        1471
        1467        1468        1473        1472
        1468        1469        1474        1473
        1475        1476        1481        1480
        1476        1477        1482        1481
        1477        1478        1483        1482
        1478        1479        1484        1483
        1480        1481        1486        1485
        1481        1482        1487        1486
        1482        1483        1488        1487
        1483        1484        1489        1488
        1485        1486        1491        1490
        1486        1487        1492        1491
        1487        1488        1493        1492
        1488        1489        1494        1493
        1490        1491        1496        1495
        1491        1492        1497        1496
        1492        1493        1498        1497
        1493        1494        1499        1498
        1500        1501        1506        1505
        1501        1502        1507        1506
        1502        1503        1508        1507
        1503        1504        1509        1508
        1505        1506        1511        1510
        1506        1507        1512        1511
        1507        1508        1513        1512
        1508        1509        1514        1513
        1510        1511        1516        1515
        1511        1512        1517        1516
        1512        1513        1518        1517
        1513        1514        1519        1518
        1515        1516        1521        1520
        1516        1517        1522        1521
        1517        1518        1523        1522
        1518        1519        1524        1523
        1525        1526        1531        1530
        1526        1527        1532        1531
        1527        1528        1533        1532
        1528        1529        1534        1533
        1530        1531        1536        1535
        1531        1532        1537        1536
        1532        1533        1538        1537
        1533        1534        1539        1538
        1535        1536        1541        1540
        1536        1537        1542        1541
        1537        1538        1543        1542
        1538        1539        1544        1543
        1540        1541        1546        1545
        1541        1542        1547        1546
        1542        1543        1548        1547
        1543        1544        1549        1548
        1550        1551        1556        1555
        1551        1552        1557        1556
        1552        1553        1558        1557
        1553        1554        1559        1558
        1555        1556        1561        1560
        1556        1557        1562        1561
        1557        1558        1563        1562
        1558        1559        1564        1563
        1560        1561        1566        1565
        1561        1562        1567        1566
        1562        1563        1568        1567
        1563        1564        1569        1568
        1565        1566        1571        1570
        1566        1567        1572        1571
        1567        1568        1573        1572
        1568        1569        1574        1573
        1575        1576        1581        1580
        1576        1577        1582        1581
        1577        1578        1583        1582
        1578        1579        1584        1583
        1580        1581        1586        1585
        1581        1582        1587        1586
        1582        1583        1588        1587
        1583        1584        1589        1588
        1585        1586        1591        1590
        1586        1587        1592        1591
        1587        1588        1593        1592
        1588        1589        1594        1593
        1590        1591        1596        1595
        1591        1592        1597        1596
        1592        1593        1598        1597
        1593        1594        1599        1598
 </DataArray>
 <DataArray  type="Int32"  Name="offsets"  format="ascii"> 
           4
           8
          12
          16
          20
          24
          28
          32
          36
          40
          44
          48
          52
          56
          60
          64
          68
          72
          76
          80
          84
          88
          92
          96
         100
         104
         108
         112
         116
         120
         124
         128
         132
         136
         140
         144
         148
         152
         156
         160
         164
         168
         172
         176
         180
         184
         188
         192
         196
         200
         204
         208
         212
         216
         220
         224
         228
         232
         236
         240
         244
         248
         252
         256
         260
         264
         268
         272
         276
         280
         284
         288
         292
         296
         300
         304
         308
         312
         316
         320
         324
         328
         332
         336
         340
         344
         348
         352
         356
         360
         364
         368
         372
         376
         380
         384
         388
         392
         396
         400
         404
         408
         412
         416
         420
         424
         428
         432
         436
         440
         444
         448
         452
         456
         460
         464
         468
         472
         476
         480
         484
         488
         492
         496
         500
         504
         508
         512
         516
         520
         524
         528
         532
         536
         540
         544
         548
         552
         556
         560
         564
         568
         572
         576
         580
         584
         588
         592
         596
         600
         604
         608
         612
         616
         620
         624
         628
         632
         636
         640
         644
         648
         652
         656
         660
         664
         668
         672
         676
         680
         684
         688
         692
         696
         700
         704
         708
         712
         716
         720
         724
         728
         732
         736
         740
         744
         748
         752
         756
         760
         764
         768
         772
         776
         780
         784
         788
         792
         796
         800
         804
         808
         812
         816
         820
         824
         828
         832
         836
         840
         844
         848
         852
         856
         860
         864
         868
         872
         876
         880
         884
         888
         892
         896
         900
         904
         908
         912
         916
         920
         924
         928
         932
         936
         940
         944
         948
         952
         956
         960
         964
         968
         972
         976
         980
         984
         988
         992
         996
        1000
        1004
        1008
        1012
        1016
        1020
        1024
        1028
        1032
        1036
        1040
        1044
        1048
        1052
        1056
        1060
        1064
        1068
        1072
        1076
        1080
        1084
        1088
        1092
        1096
        1100
        1104
        1108
        1112
        1116
        1120
        1124
        1128
        1132
        1136
        1140
        1144
        1148
        1152
        1156
        1160
        1164
        1168
        1172
        1176
        1180
        1184
        1188
        1192
        1196
        1200
        1204
        1208
        1212
        1216
        1220
        1224
        1228
        1232
        1236
        1240
        1244
        1248
        1252
        1256
        1260
        1264
        1268
        1272
        1276
        1280
        1284
        1288
        1292
        1296
        1300
        1304
        1308
        1312
        1316
        1320
        1324
        1328
        1332
        1336
        1340
        1344
        1348
        1352
        1356
        1360
        1364
        1368
        1372
        1376
        1380
        1384
        1388
        1392
        1396
        1400
        1404
        1408
        1412
        1416
        1420
        1424
        1428
        1432
        1436
        1440
        1444
        1448
        1452
        1456
        1460
        1464
        1468
        1472
        1476
        1480
        1484
        1488
        1492
        1496
        1500
        1504
        1508
        1512
        1516
        1520
        1524
        1528
        1532
        1536
        1540
        1544
        1548
        1552
        1556
        1560
        1564
        1568
        1572
        1576
        1580
        1584
        1588
        1592
        1596
        1600
        1604
        1608
        1612
        1616
        1620
        1624
        1628
        1632
        1636
        1640
        1644
        1648
        1652
        1656
        1660
        1664
        1668
        1672
        1676
        1680
        1684
        1688
        1692
        1696
        1700
        1704
        1708
        1712
        1716
        1720
        1724
        1728
        1732
        1736
        1740
        1744
        1748
        1752
        1756
        1760
        1764
        1768
        1772
        1776
        1780
        1784
        1788
        1792
        1796
        1800
        1804
        1808
        1812
        1816
        1820
        1824
        1828
        1832
        1836
        1840
        1844
        1848
        1852
        1856
        1860
        1864
        1868
        1872
        1876
        1880
        1884
        1888
        1892
        1896
        1900
        1904
        1908
        1912
        1916
        1920
        1924
        1928
        1932
        1936
        1940
        1944
        1948
        1952
        1956
        1960
        1964
        1968
        1972
        1976
        1980
        1984
        1988
        1992
        1996
        2000
        2004
        2008
        2012
        2016
        2020
        2024
        2028
        2032
        2036
        2040
        2044
        2048
        2052
        2056
        2060
        2064
        2068
        2072
        2076
        2080
        2084
        2088
        2092
        2096
        2100
        2104
        2108
        2112
        2116
        2120
        2124
        2128
        2132
        2136
        2140
        2144
        2148
        2152
        2156
        2160
        2164
        2168
        2172
        2176
        2180
        2184
        2188
        2192
        2196
        2200
        2204
        2208
        2212
        2216
        2220
        2224
        2228
        2232
        2236
        2240
        2244
        2248
        2252
        2256
        2260
        2264
        2268
        2272
        2276
        2280
        2284
        2288
        2292
        2296
        2300
        2304
        2308
        2312
        2316
        2320
        2324
        2328
        2332
        2336
        2340
        2344
        2348
        2352
        2356
        2360
        2364
        2368
        2372
        2376
        2380
        2384
        2388
        2392
        2396
        2400
        2404
        2408
        2412
        2416
        2420
        2424
        2428
        2432
        2436
        2440
        2444
        2448
        2452
        2456
        2460
        2464
        2468
        2472
        2476
        2480
        2484
        2488
        2492
        2496
        2500
        2504
        2508
        2512
        2516
        2520
        2524
        2528
        2532
        2536
        2540
        2544
        2548
        2552
        2556
        2560
        2564
        2568
        2572
        2576
        2580
        2584
        2588
        2592
        2596
        2600
        2604
        2608
        2612
        2616
        2620
        2624
        2628
        2632
        2636
        2640
        2644
        2648
        2652
        2656
        2660
        2664
        2668
        2672
        2676
        2680
        2684
        2688
        2692
        2696
        2700
        2704
        2708
        2712
        2716
        2720
        2724
        2728
        2732
        2736
        2740
        2744
        2748
        2752
        2756
        2760
        2764
        2768
        2772
        2776
        2780
        2784
        2788
        2792
        2796
        2800
        2804
        2808
        2812
        2816
        2820
        2824
        2828
        2832
        2836
        2840
        2844
        2848
        2852
        2856
        2860
        2864
        2868
        2872
        2876
        2880
        2884
        2888
        2892
        2896
        2900
        2904
        2908
        2912
        2916
        2920
        2924
        2928
        2932
        2936
        2940
        2944
        2948
        2952
        2956
        2960
        2964
        2968
        2972
        2976
        2980
        2984
        2988
        2992
        2996
        3000
        3004
        3008
        3012
        3016
        3020
        3024
        3028
        3032
        3036
        3040
        3044
        3048
        3052
        3056
        3060
        3064
        3068
        3072
        3076
        3080
        3084
        3088
        3092
        3096
        3100
        3104
        3108
        3112
        3116
        3120
        3124
        3128
        3132
        3136
        3140
        3144
        3148
        3152
        3156
        3160
        3164
        3168
        3172
        3176
        3180
        3184
        3188
        3192
        3196
        3200
        3204
        3208
        3212
        3216
        3220
        3224
        3228
        3232
        3236
        3240
        3244
        3248
        3252
        3256
        3260
        3264
        3268
        3272
        3276
        3280
        3284
        3288
        3292
        3296
        3300
        3304
        3308
        3312
        3316
        3320
        3324
        3328
        3332
        3336
        3340
        3344
        3348
        3352
        3356
        3360
        3364
        3368
        3372
        3376
        3380
        3384
        3388
        3392
        3396
        3400
        3404
        3408
        3412
        3416
        3420
        3424
        3428
        3432
        3436
        3440
        3444
        3448
        3452
        3456
        3460
        3464
        3468
        3472
        3476
        3480
        3484
        3488
        3492
        3496
        3500
        3504
        3508
        3512
        3516
        3520
        3524
        3528
        3532
        3536
        3540
        3544
        3548
        3552
        3556
        3560
        3564
        3568
        3572
        3576
        3580
        3584
        3588
        3592
        3596
        3600
        3604
        3608
        3612
        3616
        3620
        3624
        3628
        3632
        3636
        3640
        3644
        3648
        3652
        3656
        3660
        3664
        3668
        3672
        3676
        3680
        3684
        3688
        3692
        3696
        3700
        3704
        3708
        3712
        3716
        3720
        3724
        3728
        3732
        3736
        3740
        3744
        3748
        3752
        3756
        3760
        3764
        3768
        3772
        3776
        3780
        3784
        3788
        3792
        3796
        3800
        3804
        3808
        3812
        3816
        3820
        3824
        3828
        3832
        3836
        3840
        3844
        3848
        3852
        3856
        3860
        3864
        3868
        3872
        3876
        3880
        3884
        3888
        3892
        3896
        3900
        3904
        3908
        3912
        3916
        3920
        3924
        3928
        3932
        3936
        3940
        3944
        3948
        3952
        3956
        3960
        3964
        3968
        3972
        3976
        3980
        3984
        3988
        3992
        3996
        4000
        4004
        4008
        4012
        4016
        4020
        4024
        4028
        4032
        4036
        4040
        4044
        4048
        4052
        4056
        4060
        4064
        4068
        4072
        4076
        4080
        4084
        4088
        4092
        4096
 </DataArray>
 <DataArray  type="UInt8"  Name="types"  format="ascii">
 9
 9
 9
 9
 9
 9
 9
 9
 9
 9
 9
 9
 9
 9
 9
 9
 9
 9
 9
 9
 9
 9
 9
 9
 9
 9
 9
 9
 9
 9
 9
 9
 9
 9
 9
 9
 9
 9
 9
 9
 9
 9
 9
 9
 9
 9
 9
 9
 9
 9
 9
 9
 9
 9
 9
 9
 9
 9
 9
 9
 9
 9
 9
 9
 9
 9
 9
 9
 9
 9
 9
 9
 9
 9
 9
 9
 9
 9
 9
 9
 9
 9
 9
 9
 9
 9
 9
 9
 9
 9
 9
 9
 9
 9
 9
 9
 9
 9
 9
 9
 9
 9
 9
 9
 9
 9
 9
 9
 9
 9
 9
 9
 9
 9
 9
 9
 9
 9
 9
 9
 9
 9
 9
 9
 9
 9
 9
 9
 9
 9
 9
 9
 9
 9
 9
 9
 9
 9
 9
 9
 9
 9
 9
 9
 9
 9
 9
 9
 9
 9
 9
 9
 9
 9
 9
 9
 9
 9
 9
 9
 9
 9
 9
 9
 9
 9
 9
 9
 9
 9
 9
 9
 9
 9
 9
 9
 9
 9
 9
 9
 9
 9
 9
 9
 9
 9
 9
 9
 9
 9
 9
 9
 9
 9
 9
 9
 9
 9
 9
 9
 9
 9
 9
 9
 9
 9
 9
 9
 9
 9
 9
 9
 9
 9
 9
 9
 9
 9
 9
 9
 9
 9
 9
 9
 9
 9
 9
 9
 9
 9
 9
 9
 9
 9
 9
 9
 9
 9
 9
 9
 9
 9
 9
 9
 9
 9
 9
 9
 9
 9
 9
 9
 9
 9
 9
 9
 9
 9
 9
 9
 9
 9
 9
 9
 9
 9
 9
 9
 9
 9
 9
 9
 9
 9
 9
 9
 9
 9
 9
 9
 9
 9
 9
 9
 9
 9
 9
 9
 9
 9
 9
 9
 9
 9
 9
 9
 9
 9
 9
 9
 9
 9
 9
 9
 9
 9
 9
 9
 9
 9
 9
 9
 9
 9
 9
 9
 9
 9
 9
 9
 9
 9
 9
 9
 9
 9
 9
 9
 9
 9
 9
 9
 9
 9
 9
 9
 9
 9
 9
 9
 9
 9
 9
 9
 9
 9
 9
 9
 9
 9
 9
 9
 9
 9
 9
 9
 9
 9
 9
 9
 9
 9
 9
 9
 9
 9
 9
 9
 9
 9
 9
 9
 9
 9
 9
 9
 9
 9
 9
 9
 9
 9
 9
 9
 9
 9
 9
 9
 9
 9
 9
 9
 9
 9
 9
 9
 9
 9
 9
 9
 9
 9
 9
 9
 9
 9
 9
 9
 9
 9
 9
 9
 9
 9
 9
 9
 9
 9
 9
 9
 9
 9
 9
 9
 9
 9
 9
 9
 9
 9
 9
 9
 9
 9
 9
 9
 9
 9
 9
 9
 9
 9
 9
 9
 9
 9
 9
 9
 9
 9
 9
 9
 9
 9
 9
 9
 9
 9
 9
 9
 9
 9
 9
 9
 9
 9
 9
 9
 9
 9
 9
 9
 9
 9
 9
 9
 9
 9
 9
 9
 9
 9
 9
 9
 9
 9
 9
 9
 9
 9
 9
 9
 9
 9
 9
 9
 9
 9
 9
 9
 9
 9
 9
 9
 9
 9
 9
 9
 9
 9
 9
 9
 9
 9
 9
 9
 9
 9
 9
 9
 9
 9
 9
 9
 9
 9
 9
 9
 9
 9
 9
 9
 9
 9
 9
 9
 9
 9
 9
 9
 9
 9
 9
 9
 9
 9
 9
 9
 9
 9
 9
 9
 9
 9
 9
 9
 9
 9
 9
 9
 9
 9
 9
 9
 9
 9
 9
 9
 9
 9
 9
 9
 9
 9
 9
 9
 9
 9
 9
 9
 9
 9
 9
 9
 9
 9
 9
 9
 9
 9
 9
 9
 9
 9
 9
 9
 9
 9
 9
 9
 9
 9
 9
 9
 9
 9
 9
 9
 9
 9
 9
 9
 9
 9
 9
 9
 9
 9
 9
 9
 9
 9
 9
 9
 9
 9
 9
 9
 9
 9
 9
 9
 9
 9
 9
 9
 9
 9
 9
 9
 9
 9
 9
 9
 9
 9
 9
 9
 9
 9
 9
 9
 9
 9
 9
 9
 9
 9
 9
 9
 9
 9
 9
 9
 9
 9
 9
 9
 9
 9
 9
 9
 9
 9
 9
 9
 9
 9
 9
 9
 9
 9
 9
 9
 9
 9
 9
 9
 9
 9
 9
 9
 9
 9
 9
 9
 9
 9
 9
 9
 9
 9
 9
 9
 9
 9
 9
 9
 9
 9
 9
 9
 9
 9
 9
 9
 9
 9
 9
 9
 9
 9
 9
 9
 9
 9
 9
 9
 9
 9
 9
 9
 9
 9
 9
 9
 9
 9
 9
 9
 9
 9
 9
 9
 9
 9
 9
 9
 9
 9
 9
 9
 9
 9
 9
 9
 9
 9
 9
 9
 9
 9
 9
 9
 9
 9
 9
 9
 9
 9
 9
 9
 9
 9
 9
 9
 9
 9
 9
 9
 9
 9
 9
 9
 9
 9
 9
 9
 9
 9
 9
 9
 9
 9
 9
 9
 9
 9
 9
 9
 9
 9
 9
 9
 9
 9
 9
 9
 9
 9
 9
 9
 9
 9
 9
 9
 9
 9
 9
 9
 9
 9
 9
 9
 9
 9
 9
 9
 9
 9
 9
 9
 9
 9
 9
 9
 9
 9
 9
 9
 9
 9
 9
 9
 9
 9
 9
 9
 9
 9
 9
 9
 9
 9
 9
 9
 9
 9
 9
 9
 9
 9
 9
 9
 9
 9
 9
 9
 9
 9
 9
 9
 9
 9
 9
 9
 9
 9
 9
 9
 9
 9
 9
 9
 9
 9
 9
 9
 9
 9
 9
 9
 9
 9
 9
 9
 9
 9
 9
 9
 9
 9
 9
 9
 9
 9
 9
 9
 9
 9
 9
 9
 9
 9
 9
 9
 9
 9
 9
 9
 9
 9
 9
 9
 9
 9
 9
 9
 9
 9
 9
 9
 9
 9
 9
 9
 9
 9
 9
 9
 9
 9
 9
 9
 9
 9
 9
 9
 9
 9
 9
 9
 9
 9
 9
 9
 9
 9
 9
 9
 9
 9
 9
 9
 9
 9
 9
 9
 9
 9
 9
 9
 9
 9
 9
 9
 9
 9
 9
 9
 9
 9
 9
 9
 9
 9
 9
 9
 9
 9
 9
 9
 9
 9
 9
 9
 9
 9
 9
 9
 9
 9
 9
 9
 9
 9
 9
 9
 9
 9
 9
 9
 9
 9
 9
 9
 9
 9
 9
 9
 9
 9
 9
 9
 </DataArray>
 </Cells> 
 <PointData>
 <DataArray  type="Float64" Name="disp" NumberOfComponents="3" format="ascii">
   6.5327949556284501E-002   6.2782537980026962E-002   0.0000000000000000     
   6.8407539103258419E-002   6.8179044436826847E-002   0.0000000000000000     
   7.1380958736878622E-002   7.3751899212736352E-002   0.0000000000000000     
   7.4248208457145123E-002   7.9501102307755436E-002   0.0000000000000000     
   7.7009288264057951E-002   8.5426653721884155E-002   0.0000000000000000     
   6.0145392669307317E-002   6.1892536823282281E-002   0.0000000000000000     
   6.3025459984189944E-002   6.7310356765518567E-002   0.0000000000000000     
   6.5810523454845823E-002   7.2906374367484650E-002   0.0000000000000000     
   6.8500583081274977E-002   7.8680589629180522E-002   0.0000000000000000     
   7.1095638863477389E-002   8.4633002550606184E-002   0.0000000000000000     
   5.5160955015568183E-002   6.1047331816802802E-002   0.0000000000000000     
   5.7851484613539880E-002   6.6489785681232649E-002   0.0000000000000000     
   6.0453148769356792E-002   7.2111027548481491E-002   0.0000000000000000     
   6.2965947483018911E-002   7.7911057418549340E-002   0.0000000000000000     
   6.5389880754526258E-002   8.3889875291436156E-002   0.0000000000000000     
   5.0374636595067093E-002   6.0246922960588513E-002   0.0000000000000000     
   5.2885612991308194E-002   6.5717331183969122E-002   0.0000000000000000     
   5.5308834680411478E-002   7.1365858755726916E-002   0.0000000000000000     
   5.7644301662376947E-002   7.7192505675861889E-002   0.0000000000000000     
   5.9892013937204565E-002   8.3197271944374054E-002   0.0000000000000000     
   4.5786437407804047E-002   5.9491310254639419E-002   0.0000000000000000     
   4.8127845117494919E-002   6.4992993273727956E-002   0.0000000000000000     
   5.0377581188009932E-002   7.0670867989220870E-002   0.0000000000000000     
   5.2535645619349064E-002   7.6524934401118197E-002   0.0000000000000000     
   5.4602038411512337E-002   8.2555192509419922E-002   0.0000000000000000     
   7.7009288264057951E-002   8.5426653721884155E-002   0.0000000000000000     
   7.9674778701973592E-002   9.1521771155577775E-002   0.0000000000000000     
   8.2255260315248602E-002   9.7779672309291590E-002   0.0000000000000000     
   8.4750733103882966E-002  0.10420035718302559        0.0000000000000000     
   8.7161197067876700E-002  0.11078382577677981        0.0000000000000000     
   7.1095638863477389E-002   8.4633002550606184E-002   0.0000000000000000     
   7.3602098415098835E-002   9.0755874056705585E-002   0.0000000000000000     
   7.6026369349785156E-002   9.7041465072422603E-002   0.0000000000000000     
   7.8368451667536282E-002  0.10348977559775728        0.0000000000000000     
   8.0628345368352256E-002  0.11010080563270960        0.0000000000000000     
   6.5389880754526258E-002   8.3889875291436156E-002   0.0000000000000000     
   6.7730824394279715E-002   9.0039359501081037E-002   0.0000000000000000     
   6.9994654212680182E-002   9.6351388381423084E-002   0.0000000000000000     
   7.2181370209727660E-002  0.10282596193246227        0.0000000000000000     
   7.4290972385422149E-002  0.10946308015419862        0.0000000000000000     
   5.9892013937204565E-002   8.3197271944374054E-002   0.0000000000000000     
   6.2060956639516239E-002   8.9372227488704173E-002   0.0000000000000000     
   6.4160114903933724E-002   9.5709442236293019E-002   0.0000000000000000     
   6.6189488730457088E-002  0.10220891618714056        0.0000000000000000     
   6.8149078119086312E-002  0.10887064934124684        0.0000000000000000     
   5.4602038411512337E-002   8.2555192509419922E-002   0.0000000000000000     
   5.6592495150808358E-002   8.8754478019575006E-002   0.0000000000000000     
   5.8522751423545780E-002   9.5115626637032435E-002   0.0000000000000000     
   6.0392807229724593E-002  0.10163863836179220        0.0000000000000000     
   6.2202662569344785E-002  0.10832351319385428        0.0000000000000000     
   8.7161197067876700E-002  0.11078382577677981        0.0000000000000000     
   8.9476519698620471E-002  0.11751361064533448        0.0000000000000000     
   9.1686568487504991E-002  0.12437324434346994        0.0000000000000000     
   9.3791343434530244E-002  0.13136272687118614        0.0000000000000000     
   9.5790844539696246E-002  0.13848205822848314        0.0000000000000000     
   8.0628345368352256E-002  0.11010080563270960        0.0000000000000000     
   8.2798145351640956E-002  0.11685824312052145        0.0000000000000000     
   8.4869946516810221E-002  0.12374577600443476        0.0000000000000000     
   8.6843748863860079E-002  0.13076340428444949        0.0000000000000000     
   8.8719552392790488E-002  0.13791112796056565        0.0000000000000000     
   7.4290972385422149E-002  0.10946308015419862        0.0000000000000000     
   7.6316194405156301E-002  0.11624660606268247        0.0000000000000000     
   7.8249769934322810E-002  0.12316040267396422        0.0000000000000000     
   8.0091698972921690E-002  0.13020446998804386        0.0000000000000000     
   8.1841981520952900E-002  0.13737880800492142        0.0000000000000000     
   6.8149078119086312E-002  0.10887064934124684        0.0000000000000000     
   7.0030666859166479E-002  0.11567869947181753        0.0000000000000000     
   7.1826038740042744E-002  0.12261712435205836        0.0000000000000000     
   7.3535193761715065E-002  0.12968592398196932        0.0000000000000000     
   7.5158131924183427E-002  0.13688509836155044        0.0000000000000000     
   6.2202662569344785E-002  0.10832351319385428        0.0000000000000000     
   6.3941562713671546E-002  0.11515452334792663        0.0000000000000000     
   6.5598752933970023E-002  0.12211594103871715        0.0000000000000000     
   6.7174233230240216E-002  0.12920776626622585        0.0000000000000000     
   6.8668003602482125E-002  0.13642999903045272        0.0000000000000000     
   9.5790844539696246E-002  0.13848205822848314        0.0000000000000000     
   9.7693336367328909E-002  0.14572215789691917        0.0000000000000000     
   9.9507083481754161E-002  0.15307394535805258        0.0000000000000000     
  0.10123208588297199       0.16053742061188331        0.0000000000000000     
  0.10286834357098239       0.16811258365841147        0.0000000000000000     
   8.8719552392790488E-002  0.13791112796056565        0.0000000000000000     
   9.0504382673378417E-002  0.14517931232955320        0.0000000000000000     
   9.2205265275400752E-002  0.15255832268818215        0.0000000000000000     
   9.3822200198857481E-002  0.16004815903645245        0.0000000000000000     
   9.5355187443748615E-002  0.16764882137436415        0.0000000000000000     
   8.1841981520952900E-002  0.13737880800492142        0.0000000000000000     
   8.3506890814043958E-002  0.14467346873697348        0.0000000000000000     
   8.5092700087822326E-002  0.15207850419657681        0.0000000000000000     
   8.6599409342288006E-002  0.15959391438373130        0.0000000000000000     
   8.8027018577441024E-002  0.16721969929843705        0.0000000000000000     
   7.5158131924183427E-002  0.13688509836155044        0.0000000000000000     
   7.6700860789325517E-002  0.14420462711918006        0.0000000000000000     
   7.8169387919018909E-002  0.15163448988323655        0.0000000000000000     
   7.9563713313263590E-002  0.15917468665371998        0.0000000000000000     
   8.0883836972059600E-002  0.16682521743063020        0.0000000000000000     
   6.8668003602482125E-002  0.13642999903045272        0.0000000000000000     
   7.0086292599223110E-002  0.14377278747617284        0.0000000000000000     
   7.1435328768990475E-002  0.15122627974816139        0.0000000000000000     
   7.2715112111784233E-002  0.15879047584641828        0.0000000000000000     
   7.3925642627604357E-002  0.16646537577094361        0.0000000000000000     
  0.10286834357098239       0.16811258365841147        0.0000000000000000     
  0.10441688040998461       0.17578831239068651        0.0000000000000000     
  0.10587872026417790       0.18355348470175809        0.0000000000000000     
  0.10725386313356222       0.19140810059162613        0.0000000000000000     
  0.10854230901813763       0.19935216006029066        0.0000000000000000     
   9.5355187443748615E-002  0.16764882137436415        0.0000000000000000     
   9.6803975936363529E-002  0.17534993689809292        0.0000000000000000     
   9.8168314602991552E-002  0.18314113280381444        0.0000000000000000     
   9.9448203443632713E-002  0.19102240909152876        0.0000000000000000     
  0.10064364245828700       0.19899376576123587        0.0000000000000000     
   8.8027018577441024E-002  0.16721969929843705        0.0000000000000000     
   8.9374203831280571E-002  0.17494583006326803        0.0000000000000000     
   9.0639641141805866E-002  0.18276227780079821        0.0000000000000000     
   9.1823330509016934E-002  0.19066904251102754        0.0000000000000000     
   9.2925271932913778E-002  0.19866612419395613        0.0000000000000000     
   8.0883836972059600E-002  0.16682521743063020        0.0000000000000000     
   8.2127564094735747E-002  0.17457599188621184        0.0000000000000000     
   8.3292699880620852E-002  0.18241691969270923        0.0000000000000000     
   8.4379244329714914E-002  0.19034800085012241        0.0000000000000000     
   8.5387197442017976E-002  0.19836923535845136        0.0000000000000000     
   7.3925642627604357E-002  0.16646537577094361        0.0000000000000000     
   7.5064056726729056E-002  0.17424042236692439        0.0000000000000000     
   7.6127490819436511E-002  0.18210505847954761        0.0000000000000000     
   7.7115944905726680E-002  0.19005928410881337        0.0000000000000000     
   7.8029418985599619E-002  0.19810309925472167        0.0000000000000000     
  0.10854230901813763       0.19935216006029066        0.0000000000000000     
  0.10974978129030361       0.20738174906342807        0.0000000000000000     
  0.11088200332245959       0.21549295355671477        0.0000000000000000     
  0.11193897511460564       0.22368577354015062        0.0000000000000000     
  0.11292069666674173       0.23196020901373576        0.0000000000000000     
  0.10064364245828700       0.19899376576123587        0.0000000000000000     
  0.10176030687819060       0.20704888028368351        0.0000000000000000     
  0.10280387193457978       0.21518143012961954        0.0000000000000000     
  0.10377433762745454       0.22339141529904388        0.0000000000000000     
  0.10467170395681483       0.23167883579195658        0.0000000000000000     
   9.2925271932913778E-002  0.19866612419395613        0.0000000000000000     
   9.3950318235923119E-002  0.20674585643233764        0.0000000000000000     
   9.4903322240471766E-002  0.21490057280892591        0.0000000000000000     
   9.5784283946559703E-002  0.22313027332372098        0.0000000000000000     
   9.6593203354186918E-002  0.23143495797672281        0.0000000000000000     
   8.5387197442017976E-002  0.19836923535845136        0.0000000000000000     
   8.6319815363501126E-002  0.20647267750939041        0.0000000000000000     
   8.7180354240135496E-002  0.21465038159463398        0.0000000000000000     
   8.7968814071921114E-002  0.22290234761418196        0.0000000000000000     
   8.8685194858857980E-002  0.23122857556803439        0.0000000000000000     
   7.8029418985599619E-002  0.19810309925472167        0.0000000000000000     
   7.8868798260924605E-002  0.20622934351484193        0.0000000000000000     
   7.9634967933571013E-002  0.21443085648674365        0.0000000000000000     
   8.0327928003538801E-002  0.22270763817042682        0.0000000000000000     
   8.0947678470827997E-002  0.23105968856589143        0.0000000000000000     
  0.11292069666674173       0.23196020901373576        0.0000000000000000     
  0.11385528612656012       0.24033291066101231        0.0000000000000000     
  0.11477086164175308       0.24882052916552239        0.0000000000000000     
  0.11566742321232060       0.25742306452726604        0.0000000000000000     
  0.11654497083826268       0.26614051674624317        0.0000000000000000     
  0.10467170395681483       0.23167883579195658        0.0000000000000000     
  0.10550095362164028       0.24006724723204600        0.0000000000000000     
  0.10626706932091042       0.24858020524300053        0.0000000000000000     
  0.10697005105462530       0.25721770982482012        0.0000000000000000     
  0.10760989882278491       0.26597976097750475        0.0000000000000000     
   9.6593203354186918E-002  0.23143495797672281        0.0000000000000000     
   9.7320902923056993E-002  0.23984114230707790        0.0000000000000000     
   9.7958205112873509E-002  0.24837534185393276        0.0000000000000000     
   9.8505109923636425E-002  0.25703755661728744        0.0000000000000000     
   9.8961617355345824E-002  0.26582778659714196        0.0000000000000000     
   8.8685194858857980E-002  0.23122857556803439        0.0000000000000000     
   8.9315134030810289E-002  0.23965459588610796        0.0000000000000000     
   8.9844269017642295E-002  0.24820593899831916        0.0000000000000000     
   9.0272599819354010E-002  0.25688260490466808        0.0000000000000000     
   9.0600126435945422E-002  0.26568459360515462        0.0000000000000000     
   8.0947678470827997E-002  0.23105968856589143        0.0000000000000000     
   8.1483646944900165E-002  0.23950760796913612        0.0000000000000000     
   8.1925261035216843E-002  0.24807199667615965        0.0000000000000000     
   8.2272520741778030E-002  0.25675285468696191        0.0000000000000000     
   8.2525426064583740E-002  0.26555018200154290        0.0000000000000000     
  0.11654497083826268       0.26614051674624317        0.0000000000000000     
  0.11734385418713057       0.27513745968488268        0.0000000000000000     
  0.11800442292647551       0.28457846720561342        0.0000000000000000     
  0.11852667705629746       0.29446353930843533        0.0000000000000000     
  0.11891061657659648       0.30479267599334842        0.0000000000000000     
  0.10760989882278491       0.26597976097750475        0.0000000000000000     
  0.10816766259251674       0.27499847662422866        0.0000000000000000     
  0.10862439233094841       0.28440597468816586        0.0000000000000000     
  0.10898008803807983       0.29420225516931647        0.0000000000000000     
  0.10923474971391109       0.30438731806768043        0.0000000000000000     
   9.8961617355345824E-002  0.26582778659714196        0.0000000000000000     
   9.9338774737246296E-002  0.27484432053640179        0.0000000000000000     
   9.9647629398582654E-002  0.28418544717797245        0.0000000000000000     
   9.9888181339354828E-002  0.29385116652185406        0.0000000000000000     
  0.10006043055956282       0.30384147856804650        0.0000000000000000     
   9.0600126435945422E-002  0.26568459360515462        0.0000000000000000     
   9.0857190621319264E-002  0.27467499142140200        0.0000000000000000     
   9.1074134129378218E-002  0.28391688467503307        0.0000000000000000     
   9.1250956960122379E-002  0.29341027336604791        0.0000000000000000     
   9.1387659113551692E-002  0.30315515749444660        0.0000000000000000     
   8.2525426064583740E-002  0.26555018200154290        0.0000000000000000     
   8.2722910244735590E-002  0.27449048927922937        0.0000000000000000     
   8.2903906523335180E-002  0.28360028717934777        0.0000000000000000     
   8.3068414900382553E-002  0.29287957570189821        0.0000000000000000     
   8.3216435375877668E-002  0.30232835484688075        0.0000000000000000     
   4.5786437407804047E-002   5.9491310254639419E-002   0.0000000000000000     
   4.8127845117494919E-002   6.4992993273727956E-002   0.0000000000000000     
   5.0377581188009932E-002   7.0670867989220870E-002   0.0000000000000000     
   5.2535645619349064E-002   7.6524934401118197E-002   0.0000000000000000     
   5.4602038411512337E-002   8.2555192509419922E-002   0.0000000000000000     
   4.1367428556355459E-002   5.8795831416142155E-002   0.0000000000000000     
   4.3536987039087559E-002   6.4326268472041967E-002   0.0000000000000000     
   4.5611917300636830E-002   7.0031081625024152E-002   0.0000000000000000     
   4.7592219341003286E-002   7.5910270875088739E-002   0.0000000000000000     
   4.9477893160186928E-002   8.1963836222235700E-002   0.0000000000000000     
   3.7088681143297712E-002   5.8175824162283382E-002   0.0000000000000000     
   3.9071844803073616E-002   6.3726653300444025E-002   0.0000000000000000     
   4.0964372026776941E-002   6.9451526039197561E-002   0.0000000000000000     
   4.2766262814407645E-002   7.5350442378544019E-002   0.0000000000000000     
   4.4477517165965742E-002   8.1423402318483357E-002   0.0000000000000000     
   3.2950195168630826E-002   5.7631288493063051E-002   0.0000000000000000     
   3.4732418409453132E-002   6.3194147758934102E-002   0.0000000000000000     
   3.6434945366430223E-002   6.8932201231741083E-002   0.0000000000000000     
   3.8057776039562112E-002   7.4845448911484036E-002   0.0000000000000000     
   3.9600910428848807E-002   8.0933890798162919E-002   0.0000000000000000     
   2.8951970632354787E-002   5.7162224408481219E-002   0.0000000000000000     
   3.0518707858226059E-002   6.2728751847512185E-002   0.0000000000000000     
   3.2023637319596704E-002   6.8473107202654704E-002   0.0000000000000000     
   3.3466759016466716E-002   7.4395290473908762E-002   0.0000000000000000     
   3.4848072948836094E-002   8.0495301661274374E-002   0.0000000000000000     
   5.4602038411512337E-002   8.2555192509419922E-002   0.0000000000000000     
   5.6592495150808358E-002   8.8754478019575006E-002   0.0000000000000000     
   5.8522751423545780E-002   9.5115626637032435E-002   0.0000000000000000     
   6.0392807229724593E-002  0.10163863836179220        0.0000000000000000     
   6.2202662569344785E-002  0.10832351319385428        0.0000000000000000     
   4.9477893160186928E-002   8.1963836222235700E-002   0.0000000000000000     
   5.1290761851011002E-002   8.8185444071226887E-002   0.0000000000000000     
   5.3052648506298795E-002   9.4568760826824180E-002   0.0000000000000000     
   5.4763553126050302E-002  0.10111378648902759        0.0000000000000000     
   5.6423475710265514E-002  0.10782052105783708        0.0000000000000000     
   4.4477517165965742E-002   8.1423402318483357E-002   0.0000000000000000     
   4.6121078662979015E-002   8.7664458621193209E-002   0.0000000000000000     
   4.7719890886975223E-002   9.4067664048851155E-002   0.0000000000000000     
   4.9273953837954375E-002  0.10063301860145722        0.0000000000000000     
   5.0783267515916455E-002  0.10736052227901140        0.0000000000000000     
   3.9600910428848807E-002   8.0933890798162919E-002   0.0000000000000000     
   4.1083445586712425E-002   8.7191521669473970E-002   0.0000000000000000     
   4.2524478565575091E-002   9.3612336303113372E-002   0.0000000000000000     
   4.3924009365436827E-002  0.10019633469908111        0.0000000000000000     
   4.5282037986297610E-002  0.10694351685737721        0.0000000000000000     
   3.4848072948836094E-002   8.0495301661274374E-002   0.0000000000000000     
   3.6177862622211190E-002   8.6766633216069172E-002   0.0000000000000000     
   3.7466411542098378E-002   9.3202777589610791E-002   0.0000000000000000     
   3.8713719708497636E-002   9.9803734781899245E-002   0.0000000000000000     
   3.9919787121408978E-002  0.10656950479293452        0.0000000000000000     
   6.2202662569344785E-002  0.10832351319385428        0.0000000000000000     
   6.3941562713671546E-002  0.11515452334792663        0.0000000000000000     
   6.5598752933970023E-002  0.12211594103871715        0.0000000000000000     
   6.7174233230240216E-002  0.12920776626622585        0.0000000000000000     
   6.8668003602482125E-002  0.13642999903045272        0.0000000000000000     
   5.6423475710265514E-002  0.10782052105783708        0.0000000000000000     
   5.8019340508745500E-002  0.11467328133368714        0.0000000000000000     
   5.9538071771291341E-002  0.12165638411701214        0.0000000000000000     
   6.0979669497902983E-002  0.12876982940781215        0.0000000000000000     
   6.2344133688580473E-002  0.13601361720608710        0.0000000000000000     
   5.0783267515916455E-002  0.10736052227901140        0.0000000000000000     
   5.2234458784462472E-002  0.11423417707177638        0.0000000000000000     
   5.3614154507193382E-002  0.12123798497001488        0.0000000000000000     
   5.4922354684109213E-002  0.12837194597372692        0.0000000000000000     
   5.6159059315209953E-002  0.13563606008291246        0.0000000000000000     
   4.5282037986297610E-002  0.10694351685737721        0.0000000000000000     
   4.6586917540822406E-002  0.11383721056219438        0.0000000000000000     
   4.7827001141676172E-002  0.12086074359772536        0.0000000000000000     
   4.9002288788858872E-002  0.12801411596397017        0.0000000000000000     
   5.0112780482370563E-002  0.13529732766092872        0.0000000000000000     
   3.9919787121408978E-002  0.10656950479293452        0.0000000000000000     
   4.1076716777825345E-002  0.11348238180494111        0.0000000000000000     
   4.2176611674739684E-002  0.12052466000014357        0.0000000000000000     
   4.3219471812152015E-002  0.12769633937854183        0.0000000000000000     
   4.4205297190062311E-002  0.13499741994013598        0.0000000000000000     
   6.8668003602482125E-002  0.13642999903045272        0.0000000000000000     
   7.0086292599223110E-002  0.14377278747617284        0.0000000000000000     
   7.1435328768990475E-002  0.15122627974816139        0.0000000000000000     
   7.2715112111784233E-002  0.15879047584641828        0.0000000000000000     
   7.3925642627604357E-002  0.16646537577094361        0.0000000000000000     
   6.2344133688580473E-002  0.13601361720608710        0.0000000000000000     
   6.3637866026021658E-002  0.14337820553022135        0.0000000000000000     
   6.4867268192924404E-002  0.15085405239859914        0.0000000000000000     
   6.6032340189288691E-002  0.15844115781122051        0.0000000000000000     
   6.7133082015114559E-002  0.16613952176808544        0.0000000000000000     
   5.6159059315209953E-002  0.13563606008291246        0.0000000000000000     
   5.7330260852006064E-002  0.14302113700359489        0.0000000000000000     
   5.8441951746008018E-002  0.15051798644179762        0.0000000000000000     
   5.9494131997215823E-002  0.15812660839752060        0.0000000000000000     
   6.0486801605629449E-002  0.16584700287076382        0.0000000000000000     
   5.0112780482370563E-002  0.13529732766092872        0.0000000000000000     
   5.1163477077176334E-002  0.14270158189629348        0.0000000000000000     
   5.2159379428241337E-002  0.15021808187775679        0.0000000000000000     
   5.3100487535565573E-002  0.15784682760531857        0.0000000000000000     
   5.3986801399149048E-002  0.16558781907897888        0.0000000000000000     
   4.4205297190062311E-002  0.13499741994013598        0.0000000000000000     
   4.5137514701532468E-002  0.14241954020831718        0.0000000000000000     
   4.6019551239624354E-002  0.14995433870647668        0.0000000000000000     
   4.6851406804337983E-002  0.15760181543461446        0.0000000000000000     
   4.7633081395673349E-002  0.16536197039273051        0.0000000000000000     
   7.3925642627604357E-002  0.16646537577094361        0.0000000000000000     
   7.5064056726729056E-002  0.17424042236692439        0.0000000000000000     
   7.6127490819436511E-002  0.18210505847954761        0.0000000000000000     
   7.7115944905726680E-002  0.19005928410881337        0.0000000000000000     
   7.8029418985599619E-002  0.19810309925472167        0.0000000000000000     
   6.7133082015114559E-002  0.16613952176808544        0.0000000000000000     
   6.8166185356147380E-002  0.17393799536714466        0.0000000000000000     
   6.9128341898132564E-002  0.18182542970634902        0.0000000000000000     
   7.0019551641070113E-002  0.18980182478569843        0.0000000000000000     
   7.0839814584960026E-002  0.19786718060519295        0.0000000000000000     
   6.0486801605629449E-002  0.16584700287076382        0.0000000000000000     
   6.1416453611877572E-002  0.17366758474861185        0.0000000000000000     
   6.2279581056588804E-002  0.18157676891814906        0.0000000000000000     
   6.3076183939763136E-002  0.18957455537937559        0.0000000000000000     
   6.3806262261400598E-002  0.19766094413229129        0.0000000000000000     
   5.3986801399149048E-002  0.16558781907897888        0.0000000000000000     
   5.4814861493919627E-002  0.17342919051132588        0.0000000000000000     
   5.5581208294805215E-002  0.18135907611494786        0.0000000000000000     
   5.6285841801805764E-002  0.18937747588984477        0.0000000000000000     
   5.6928762014921308E-002  0.19748438983601657        0.0000000000000000     
   4.7633081395673349E-002  0.16536197039273051        0.0000000000000000     
   4.8361409002273564E-002  0.17322281265528683        0.0000000000000000     
   4.9033223612781784E-002  0.18117235129674530        0.0000000000000000     
   4.9648525227197982E-002  0.18921058631710599        0.0000000000000000     
   5.0207313845522170E-002  0.19733751771636887        0.0000000000000000     
   7.8029418985599619E-002  0.19810309925472167        0.0000000000000000     
   7.8868798260924605E-002  0.20622934351484193        0.0000000000000000     
   7.9634967933571013E-002  0.21443085648674365        0.0000000000000000     
   8.0327928003538801E-002  0.22270763817042682        0.0000000000000000     
   8.0947678470827997E-002  0.23105968856589143        0.0000000000000000     
   7.0839814584960026E-002  0.19786718060519295        0.0000000000000000     
   7.1587781288542540E-002  0.20601522288046223        0.0000000000000000     
   7.2262102310557838E-002  0.21423967732713564        0.0000000000000000     
   7.2862777651005933E-002  0.22254054394521344        0.0000000000000000     
   7.3389807309886868E-002  0.23091782273469541        0.0000000000000000     
   6.3806262261400598E-002  0.19766094413229129        0.0000000000000000     
   6.4467278806703859E-002  0.20582968403802132        0.0000000000000000     
   6.5056696360875563E-002  0.21407452395769075        0.0000000000000000     
   6.5574514923915736E-002  0.22239546389129969        0.0000000000000000     
   6.6020734495824379E-002  0.23079250383884797        0.0000000000000000     
   5.6928762014921308E-002  0.19748438983601657        0.0000000000000000     
   5.7507290815408549E-002  0.20567272698751929        0.0000000000000000     
   5.8018750084524152E-002  0.21393539637840897        0.0000000000000000     
   5.8463139822268168E-002  0.22227239800868556        0.0000000000000000     
   5.8840460028640545E-002  0.23068373187834898        0.0000000000000000     
   5.0207313845522170E-002  0.19733751771636887        0.0000000000000000     
   5.0707817314656622E-002  0.20554435172895619        0.0000000000000000     
   5.1148263481503649E-002  0.21382229458929031        0.0000000000000000     
   5.1528652346063235E-002  0.22217134629737112        0.0000000000000000     
   5.1848983908335387E-002  0.23059150685319868        0.0000000000000000     
   8.0947678470827997E-002  0.23105968856589143        0.0000000000000000     
   8.1483646944900165E-002  0.23950760796913612        0.0000000000000000     
   8.1925261035216843E-002  0.24807199667615965        0.0000000000000000     
   8.2272520741778030E-002  0.25675285468696191        0.0000000000000000     
   8.2525426064583740E-002  0.26555018200154290        0.0000000000000000     
   7.3389807309886868E-002  0.23091782273469541        0.0000000000000000     
   7.3839976260047666E-002  0.23938515032138727        0.0000000000000000     
   7.4210069474335477E-002  0.24795616333109449        0.0000000000000000     
   7.4500086952750302E-002  0.25663086176381711        0.0000000000000000     
   7.4710028695292127E-002  0.26540924561955515        0.0000000000000000     
   6.6020734495824379E-002  0.23079250383884797        0.0000000000000000     
   6.6397656570973879E-002  0.23927219470808592        0.0000000000000000     
   6.6707582643736621E-002  0.24784108740676392        0.0000000000000000     
   6.6950512714112648E-002  0.25649918193488186        0.0000000000000000     
   6.7126446782101931E-002  0.26524647829243980        0.0000000000000000     
   5.8840460028640545E-002  0.23068373187834898        0.0000000000000000     
   5.9156687877678762E-002  0.23916874112923223        0.0000000000000000     
   5.9417800543420281E-002  0.24772676890316789        0.0000000000000000     
   5.9623798025865087E-002  0.25635781520015610        0.0000000000000000     
   5.9774680325013173E-002  0.26506188002019676        0.0000000000000000     
   5.1848983908335387E-002  0.23059150685319868        0.0000000000000000     
   5.2117070180162359E-002  0.23907478958482609        0.0000000000000000     
   5.2340723173386436E-002  0.24761320782030652        0.0000000000000000     
   5.2519942888007605E-002  0.25620676155963990        0.0000000000000000     
   5.2654729324025859E-002  0.26485545080282624        0.0000000000000000     
   8.2525426064583740E-002  0.26555018200154290        0.0000000000000000     
   8.2722910244735590E-002  0.27449048927922937        0.0000000000000000     
   8.2903906523335180E-002  0.28360028717934777        0.0000000000000000     
   8.3068414900382553E-002  0.29287957570189821        0.0000000000000000     
   8.3216435375877668E-002  0.30232835484688075        0.0000000000000000     
   7.4710028695292127E-002  0.26540924561955515        0.0000000000000000     
   7.4880753451414692E-002  0.27428514054936376        0.0000000000000000     
   7.5053119970571819E-002  0.28325237220429822        0.0000000000000000     
   7.5227128252763439E-002  0.29231094058435853        0.0000000000000000     
   7.5402778297989581E-002  0.30146084568954462        0.0000000000000000     
   6.7126446782101931E-002  0.26524647829243980        0.0000000000000000     
   6.7275540085276017E-002  0.27405327167128535        0.0000000000000000     
   6.7437947861206424E-002  0.28288985726326621        0.0000000000000000     
   6.7613670109893165E-002  0.29175623506838244        0.0000000000000000     
   6.7802706831336240E-002  0.30065240508663388        0.0000000000000000     
   5.9774680325013173E-002  0.26506188002019676        0.0000000000000000     
   5.9907270146319511E-002  0.27379488264499402        0.0000000000000000     
   6.0058390195239036E-002  0.28251274235625168        0.0000000000000000     
   6.0228040471771757E-002  0.29121545915396985        0.0000000000000000     
   6.0416220975917652E-002  0.29990303303814853        0.0000000000000000     
   5.2654729324025859E-002  0.26485545080282624        0.0000000000000000     
   5.2775943634545207E-002  0.27350997347048983        0.0000000000000000     
   5.2914446972669650E-002  0.28212102748325468        0.0000000000000000     
   5.3070239338399182E-002  0.29068861284112091        0.0000000000000000     
   5.3243320731733795E-002  0.29921272954408851        0.0000000000000000     
   2.8951970632354787E-002   5.7162224408481219E-002   0.0000000000000000     
   3.0518707858226059E-002   6.2728751847512185E-002   0.0000000000000000     
   3.2023637319596704E-002   6.8473107202654704E-002   0.0000000000000000     
   3.3466759016466716E-002   7.4395290473908762E-002   0.0000000000000000     
   3.4848072948836094E-002   8.0495301661274374E-002   0.0000000000000000     
   2.5085062487570857E-002   5.6735189278895787E-002   0.0000000000000000     
   2.6438580411005910E-002   6.2311495478297257E-002   0.0000000000000000     
   2.7746185647926292E-002   6.8066102833558184E-002   0.0000000000000000     
   2.9007878198332004E-002   7.3999011344678581E-002   0.0000000000000000     
   3.0223658062223040E-002   8.0110221011658406E-002   0.0000000000000000     
   2.1340525687380298E-002   5.6316740474664735E-002   0.0000000000000000     
   2.2499903329406167E-002   6.1923408563408257E-002   0.0000000000000000     
   2.3618328113068923E-002   6.7703047006071271E-002   0.0000000000000000     
   2.4695800038368562E-002   7.3655655802653749E-002   0.0000000000000000     
   2.5732319105305084E-002   7.9781234953155741E-002   0.0000000000000000     
   1.7718360231783109E-002   5.5906877995788050E-002   0.0000000000000000     
   1.8702676613426832E-002   6.1564491102845204E-002   0.0000000000000000     
   1.9640064715024594E-002   6.7383939720193950E-002   0.0000000000000000     
   2.0530524536576385E-002   7.3365223847834338E-002   0.0000000000000000     
   2.1374056078082210E-002   7.9508343485766311E-002   0.0000000000000000     
   1.4218566120779283E-002   5.5505601842265738E-002   0.0000000000000000     
   1.5046900263067901E-002   6.1234743096608077E-002   0.0000000000000000     
   1.5811395453793300E-002   6.7108780975926249E-002   0.0000000000000000     
   1.6512051692955478E-002   7.3127715480220290E-002   0.0000000000000000     
   1.7148868980554434E-002   7.9291546609490171E-002   0.0000000000000000     
   3.4848072948836094E-002   8.0495301661274374E-002   0.0000000000000000     
   3.6177862622211190E-002   8.6766633216069172E-002   0.0000000000000000     
   3.7466411542098378E-002   9.3202777589610791E-002   0.0000000000000000     
   3.8713719708497636E-002   9.9803734781899245E-002   0.0000000000000000     
   3.9919787121408978E-002  0.10656950479293452        0.0000000000000000     
   3.0223658062223040E-002   8.0110221011658406E-002   0.0000000000000000     
   3.1396435527328230E-002   8.6393669953257257E-002   0.0000000000000000     
   3.2529120881376418E-002   9.2843296288234650E-002   0.0000000000000000     
   3.3621714124367583E-002   9.9459100016590571E-002   0.0000000000000000     
   3.4674215256301738E-002  0.10624108113832503        0.0000000000000000     
   2.5732319105305084E-002   7.9781234953155741E-002   0.0000000000000000     
   2.6731270059916424E-002   8.6076508573316682E-002   0.0000000000000000     
   2.7696037648240544E-002   9.2538200778876104E-002   0.0000000000000000     
   2.8626621870277424E-002   9.9166311569834048E-002   0.0000000000000000     
   2.9523022726027082E-002  0.10596084094619045        0.0000000000000000     
   2.1374056078082210E-002   7.9508343485766311E-002   0.0000000000000000     
   2.2182366219975765E-002   8.5815149076247432E-002   0.0000000000000000     
   2.2967161842690754E-002   9.2287491061535221E-002   0.0000000000000000     
   2.3728442946227168E-002   9.8925369441629663E-002   0.0000000000000000     
   2.4466209530585009E-002  0.10572878421653079        0.0000000000000000     
   1.7148868980554434E-002   7.9291546609490171E-002   0.0000000000000000     
   1.7749724007506261E-002   8.5609591462049522E-002   0.0000000000000000     
   1.8342493464727050E-002   9.2091167136211932E-002   0.0000000000000000     
   1.8927177352216804E-002   9.8736273631977442E-002   0.0000000000000000     
   1.9503775669975520E-002  0.10554491094934600        0.0000000000000000     
   3.9919787121408978E-002  0.10656950479293452        0.0000000000000000     
   4.1076716777825345E-002  0.11348238180494111        0.0000000000000000     
   4.2176611674739684E-002  0.12052466000014357        0.0000000000000000     
   4.3219471812152015E-002  0.12769633937854183        0.0000000000000000     
   4.4205297190062311E-002  0.13499741994013598        0.0000000000000000     
   3.4674215256301738E-002  0.10624108113832503        0.0000000000000000     
   3.5682267704818471E-002  0.11317075502273211        0.0000000000000000     
   3.6641514897557369E-002  0.12022963703910586        0.0000000000000000     
   3.7551956834518452E-002  0.12741772718744626        0.0000000000000000     
   3.8413593515701693E-002  0.13473502546775337        0.0000000000000000     
   2.9523022726027082E-002  0.10596084094619045        0.0000000000000000     
   3.0381981531148992E-002  0.11290339443828282        0.0000000000000000     
   3.1200239601302651E-002  0.11997557757644854        0.0000000000000000     
   3.1977796936488050E-002  0.12717739036068765        0.0000000000000000     
   3.2714653536705197E-002  0.13450883279100015        0.0000000000000000     
   2.4466209530585009E-002  0.10572878421653079        0.0000000000000000     
   2.5175858256816917E-002  0.11268030005159320        0.0000000000000000     
   2.5852785785975520E-002  0.11976248161217160        0.0000000000000000     
   2.6496992118060832E-002  0.12697532889826596        0.0000000000000000     
   2.7108477253072839E-002  0.13431884190987631        0.0000000000000000     
   1.9503775669975520E-002  0.10554491094934600        0.0000000000000000     
   2.0063897881822234E-002  0.11250147186266332        0.0000000000000000     
   2.0599153451575987E-002  0.11959034914627506        0.0000000000000000     
   2.1109542379236776E-002  0.12681154280018123        0.0000000000000000     
   2.1595064664804601E-002  0.13416505282438179        0.0000000000000000     
   4.4205297190062311E-002  0.13499741994013598        0.0000000000000000     
   4.5137514701532468E-002  0.14241954020831718        0.0000000000000000     
   4.6019551239624354E-002  0.14995433870647668        0.0000000000000000     
   4.6851406804337983E-002  0.15760181543461446        0.0000000000000000     
   4.7633081395673349E-002  0.16536197039273051        0.0000000000000000     
   3.8413593515701693E-002  0.13473502546775337        0.0000000000000000     
   3.9228102882858336E-002  0.14217347112497999        0.0000000000000000     
   3.9997162877739620E-002  0.14972500340407899        0.0000000000000000     
   4.0720773500345531E-002  0.15738962230505035        0.0000000000000000     
   4.1398934750676089E-002  0.16516732782789409        0.0000000000000000     
   3.2714653536705197E-002  0.13450883279100015        0.0000000000000000     
   3.3410970778937822E-002  0.14196183383159608        0.0000000000000000     
   3.4066910040169665E-002  0.14952832244668554        0.0000000000000000     
   3.4682471320400726E-002  0.15720829863626851        0.0000000000000000     
   3.5257654619630992E-002  0.16500176240034492        0.0000000000000000     
   2.7108477253072839E-002  0.13431884190987631        0.0000000000000000     
   2.7686118389770930E-002  0.14178462832816544        0.0000000000000000     
   2.8228792726914503E-002  0.14936429583429628        0.0000000000000000     
   2.8736500264503546E-002  0.15705784442826878        0.0000000000000000     
   2.9209241002538074E-002  0.16486527411008303        0.0000000000000000     
   2.1595064664804601E-002  0.13416505282438179        0.0000000000000000     
   2.2053545715357656E-002  0.14164185461468806        0.0000000000000000     
   2.2482810937974124E-002  0.14923292356691126        0.0000000000000000     
   2.2882860332654017E-002  0.15693825968105135        0.0000000000000000     
   2.3253693899397323E-002  0.16475786295710840        0.0000000000000000     
   4.7633081395673349E-002  0.16536197039273051        0.0000000000000000     
   4.8361409002273564E-002  0.17322281265528683        0.0000000000000000     
   4.9033223612781784E-002  0.18117235129674530        0.0000000000000000     
   4.9648525227197982E-002  0.18921058631710599        0.0000000000000000     
   5.0207313845522170E-002  0.19733751771636887        0.0000000000000000     
   4.1398934750676089E-002  0.16516732782789409        0.0000000000000000     
   4.2029072119260234E-002  0.17304598143723735        0.0000000000000000     
   4.2608611096626961E-002  0.18101344459770732        0.0000000000000000     
   4.3137551682776248E-002  0.18906971730930400        0.0000000000000000     
   4.3615893877708110E-002  0.19721479957202734        0.0000000000000000     
   3.5257654619630992E-002  0.16500176240034492        0.0000000000000000     
   3.5790826827200466E-002  0.17289622711392022        0.0000000000000000     
   3.6280354832449145E-002  0.18087920615199973        0.0000000000000000     
   3.6726238635377023E-002  0.18895069951458338        0.0000000000000000     
   3.7128478235984107E-002  0.19711070720167123        0.0000000000000000     
   2.9209241002538074E-002  0.16486527411008303        0.0000000000000000     
   2.9646673126094276E-002  0.17277354968533543        0.0000000000000000     
   3.0048454820248351E-002  0.18076963595962250        0.0000000000000000     
   3.0414586085000313E-002  0.18885353293294418        0.0000000000000000     
   3.0745066920350152E-002  0.19702524060530052        0.0000000000000000     
   2.3253693899397323E-002  0.16475786295710840        0.0000000000000000     
   2.3596611015941647E-002  0.17267794915148293        0.0000000000000000     
   2.3912911060024571E-002  0.18068473402057558        0.0000000000000000     
   2.4202594031646103E-002  0.18877821756438637        0.0000000000000000     
   2.4465659930806238E-002  0.19695839978291524        0.0000000000000000     
   5.0207313845522170E-002  0.19733751771636887        0.0000000000000000     
   5.0707817314656622E-002  0.20554435172895619        0.0000000000000000     
   5.1148263481503649E-002  0.21382229458929031        0.0000000000000000     
   5.1528652346063235E-002  0.22217134629737112        0.0000000000000000     
   5.1848983908335387E-002  0.23059150685319868        0.0000000000000000     
   4.3615893877708110E-002  0.19721479957202734        0.0000000000000000     
   4.4042944863927846E-002  0.20543794259463605        0.0000000000000000     
   4.4418011823940749E-002  0.21372839758588877        0.0000000000000000     
   4.4741094757746833E-002  0.22208616454578545        0.0000000000000000     
   4.5012193665346076E-002  0.23051124347432611        0.0000000000000000     
   3.7128478235984107E-002  0.19711070720167123        0.0000000000000000     
   3.7486760022701973E-002  0.20534688391686304        0.0000000000000000     
   3.7800770383962214E-002  0.21364688436375853        0.0000000000000000     
   3.8070509319764828E-002  0.22201070854235769        0.0000000000000000     
   3.8295976830109810E-002  0.23043835645266064        0.0000000000000000     
   3.0745066920350152E-002  0.19702524060530052        0.0000000000000000     
   3.1039262790979013E-002  0.20527117569563716        0.0000000000000000     
   3.1296539161568042E-002  0.21357775492289960        0.0000000000000000     
   3.1516896032117235E-002  0.22194497828708798        0.0000000000000000     
   3.1700333402626596E-002  0.23037284578820216        0.0000000000000000     
   2.4465659930806238E-002  0.19695839978291524        0.0000000000000000     
   2.4700453168758955E-002  0.20521081793095838        0.0000000000000000     
   2.4905318156758224E-002  0.21352100926331199        0.0000000000000000     
   2.5080254894804047E-002  0.22188897377997613        0.0000000000000000     
   2.5225263382896421E-002  0.23031471148095081        0.0000000000000000     
   5.1848983908335387E-002  0.23059150685319868        0.0000000000000000     
   5.2117070180162359E-002  0.23907478958482609        0.0000000000000000     
   5.2340723173386436E-002  0.24761320782030652        0.0000000000000000     
   5.2519942888007605E-002  0.25620676155963990        0.0000000000000000     
   5.2654729324025859E-002  0.26485545080282624        0.0000000000000000     
   4.5012193665346076E-002  0.23051124347432611        0.0000000000000000     
   4.5239738183557393E-002  0.23898887527367027        0.0000000000000000     
   4.5432157949199699E-002  0.24750430084597747        0.0000000000000000     
   4.5589452962272972E-002  0.25605752019124761        0.0000000000000000     
   4.5711623222777234E-002  0.26464853330948085        0.0000000000000000     
   3.8295976830109810E-002  0.23043835645266064        0.0000000000000000     
   3.8485626592996612E-002  0.23890953339456744        0.0000000000000000     
   3.8647912286424661E-002  0.24740394466797852        0.0000000000000000     
   3.8782833910393978E-002  0.25592159027289374        0.0000000000000000     
   3.8890391464904542E-002  0.26446247020931329        0.0000000000000000     
   3.1700333402626596E-002  0.23037284578820216        0.0000000000000000     
   3.1854735408480002E-002  0.23883676394751760        0.0000000000000000     
   3.1987986185061337E-002  0.24731213928630968        0.0000000000000000     
   3.2100085732370595E-002  0.25579897180457833        0.0000000000000000     
   3.2191034050407789E-002  0.26429726150232352        0.0000000000000000     
   2.5225263382896421E-002  0.23031471148095081        0.0000000000000000     
   2.5347064630007569E-002  0.23877056693252077        0.0000000000000000     
   2.5452379645109716E-002  0.24722888470097096        0.0000000000000000     
   2.5541208428202851E-002  0.25568966478630123        0.0000000000000000     
   2.5613550979286977E-002  0.26415290718851175        0.0000000000000000     
   5.2654729324025859E-002  0.26485545080282624        0.0000000000000000     
   5.2775943634545207E-002  0.27350997347048983        0.0000000000000000     
   5.2914446972669650E-002  0.28212102748325468        0.0000000000000000     
   5.3070239338399182E-002  0.29068861284112091        0.0000000000000000     
   5.3243320731733795E-002  0.29921272954408851        0.0000000000000000     
   4.5711623222777234E-002  0.26464853330948085        0.0000000000000000     
   4.5822901583325831E-002  0.27322719387842820        0.0000000000000000     
   4.5947520896532160E-002  0.28174335557584096        0.0000000000000000     
   4.6085481162396226E-002  0.29019701840171908        0.0000000000000000     
   4.6236782380918003E-002  0.29858818235606260        0.0000000000000000     
   3.8890391464904542E-002  0.26446247020931329        0.0000000000000000     
   3.8989485026034124E-002  0.27297519359946487        0.0000000000000000     
   3.9099014669860495E-002  0.28140836956557641        0.0000000000000000     
   3.9218980396383642E-002  0.28976199810764802        0.0000000000000000     
   3.9349382205603571E-002  0.29803607922567954        0.0000000000000000     
   3.2191034050407789E-002  0.26429726150232352        0.0000000000000000     
   3.2275693962670077E-002  0.27275397263359968        0.0000000000000000     
   3.2368928292654628E-002  0.28111606945246104        0.0000000000000000     
   3.2470737040361436E-002  0.28938355195890758        0.0000000000000000     
   3.2581120205790515E-002  0.29755642015293926        0.0000000000000000     
   2.5613550979286977E-002  0.26415290718851175        0.0000000000000000     
   2.5681528393233684E-002  0.27256353098083280        0.0000000000000000     
   2.5757261764914566E-002  0.28086645523649484        0.0000000000000000     
   2.5840751094329609E-002  0.28906167995549786        0.0000000000000000     
   2.5931996381478827E-002  0.29714920513784177        0.0000000000000000     
   1.4218566120779283E-002   5.5505601842265738E-002   0.0000000000000000     
   1.5046900263067901E-002   6.1234743096608077E-002   0.0000000000000000     
   1.5811395453793300E-002   6.7108780975926249E-002   0.0000000000000000     
   1.6512051692955478E-002   7.3127715480220290E-002   0.0000000000000000     
   1.7148868980554434E-002   7.9291546609490171E-002   0.0000000000000000     
   1.0688858179743178E-002   5.5223699313766042E-002   0.0000000000000000     
   1.1358648075594235E-002   6.1000928276290403E-002   0.0000000000000000     
   1.1952811436097640E-002   6.6911708863065716E-002   0.0000000000000000     
   1.2471348261253391E-002   7.2956041074091982E-002   0.0000000000000000     
   1.2914258551061489E-002   7.9133924909369241E-002   0.0000000000000000     
   6.9769512340491398E-003   5.5171957709957246E-002   0.0000000000000000     
   7.4639938482706936E-003   6.0929810373485667E-002   0.0000000000000000     
   7.8848037686602077E-003   6.6826861471409843E-002   0.0000000000000000     
   8.2393809952176853E-003   7.2863111003729747E-002   0.0000000000000000     
   8.5277255279431231E-003   7.9038558970445413E-002   0.0000000000000000     
   3.0828452836971659E-003   5.5350377030839309E-002   0.0000000000000000     
   3.3629375810972748E-003   6.1021389388193889E-002   0.0000000000000000     
   3.6073724514810068E-003   6.6854238800958657E-002   0.0000000000000000     
   3.8161498948483604E-003   7.2848925269133585E-002   0.0000000000000000     
   3.9892699111993366E-003   7.9005448792718688E-002   0.0000000000000000     
  -9.9345967131274143E-004   5.5758957276412266E-002   0.0000000000000000     
  -9.4452072592602103E-004   6.1275665320415076E-002   0.0000000000000000     
  -8.7948251543996752E-004   6.6993840851712144E-002   0.0000000000000000     
  -7.9834503985458513E-004   7.2913483870303497E-002   0.0000000000000000     
  -7.0110829916987180E-004   7.9034594376189093E-002   0.0000000000000000     
   1.7148868980554434E-002   7.9291546609490171E-002   0.0000000000000000     
   1.7749724007506261E-002   8.5609591462049522E-002   0.0000000000000000     
   1.8342493464727050E-002   9.2091167136211932E-002   0.0000000000000000     
   1.8927177352216804E-002   9.8736273631977442E-002   0.0000000000000000     
   1.9503775669975520E-002  0.10554491094934600        0.0000000000000000     
   1.2914258551061489E-002   7.9133924909369241E-002   0.0000000000000000     
   1.3321791310102707E-002   8.5459531269849773E-002   0.0000000000000000     
   1.3734195542957817E-002   9.1947031056485995E-002   0.0000000000000000     
   1.4151471249626823E-002   9.8596424269277824E-002   0.0000000000000000     
   1.4573618430109719E-002  0.10540771090822534        0.0000000000000000     
   8.5277255279431231E-003   7.9038558970445413E-002   0.0000000000000000     
   8.7870160153599112E-003   8.5364664038775087E-002   0.0000000000000000     
   9.0544311059914413E-003   9.1852884875937055E-002   0.0000000000000000     
   9.3299707998377047E-003   9.8503221481931386E-002   0.0000000000000000     
   9.6136350968987101E-003  0.10531567385675800        0.0000000000000000     
   3.9892699111993366E-003   7.9005448792718688E-002   0.0000000000000000     
   4.1453981232778764E-003   8.5324989768825424E-002   0.0000000000000000     
   4.3032001538279132E-003   9.1808728594565223E-002   0.0000000000000000     
   4.4626760028494547E-003   9.8456665269938043E-002   0.0000000000000000     
   4.6238256703424949E-003  0.10526879979494397        0.0000000000000000     
  -7.0110829916987180E-004   7.9034594376189093E-002   0.0000000000000000     
  -6.0306236614340305E-004   8.5340508460000783E-002   0.0000000000000000     
  -5.1949731353275602E-004   9.1814562212370388E-002   0.0000000000000000     
  -4.5041314133793158E-004   9.8456755633297879E-002   0.0000000000000000     
  -3.9580984955892799E-004  0.10526708872278327        0.0000000000000000     
   1.9503775669975520E-002  0.10554491094934600        0.0000000000000000     
   2.0063897881822234E-002  0.11250147186266332        0.0000000000000000     
   2.0599153451575987E-002  0.11959034914627506        0.0000000000000000     
   2.1109542379236776E-002  0.12681154280018123        0.0000000000000000     
   2.1595064664804601E-002  0.13416505282438179        0.0000000000000000     
   1.4573618430109719E-002  0.10540771090822534        0.0000000000000000     
   1.4989289444580636E-002  0.11236693970367508        0.0000000000000000     
   1.5387136653213698E-002  0.11946015938597374        0.0000000000000000     
   1.5767160056008898E-002  0.12668736995512125        0.0000000000000000     
   1.6129359652966246E-002  0.13404857141111765        0.0000000000000000     
   9.6136350968987101E-003  0.10531567385675800        0.0000000000000000     
   9.8952219835077918E-003  0.11227673340681046        0.0000000000000000     
   1.0164529445998291E-002  0.11937289153848246        0.0000000000000000     
   1.0421557484370202E-002  0.12660414825177388        0.0000000000000000     
   1.0666306098623528E-002  0.13397050354668480        0.0000000000000000     
   4.6238256703424949E-003  0.10526879979494397        0.0000000000000000     
   4.7816954986037103E-003  0.11223085297206949        0.0000000000000000     
   4.9313318299297739E-003  0.11932854560380124        0.0000000000000000     
   5.0727346643206850E-003  0.12656187769013913        0.0000000000000000     
   5.2059040017764452E-003  0.13393084923108328        0.0000000000000000     
  -3.9580984955892799E-004  0.10526708872278327        0.0000000000000000     
  -3.5129001013161319E-004  0.11222929839945216        0.0000000000000000     
  -3.1245619499185341E-004  0.11932712158193007        0.0000000000000000     
  -2.7930840413964962E-004  0.12656055827021703        0.0000000000000000     
  -2.5184663757500279E-004  0.13392960846431301        0.0000000000000000     
   2.1595064664804601E-002  0.13416505282438179        0.0000000000000000     
   2.2053545715357656E-002  0.14164185461468806        0.0000000000000000     
   2.2482810937974124E-002  0.14923292356691126        0.0000000000000000     
   2.2882860332654017E-002  0.15693825968105135        0.0000000000000000     
   2.3253693899397323E-002  0.16475786295710840        0.0000000000000000     
   1.6129359652966246E-002  0.13404857141111765        0.0000000000000000     
   1.6471117764767645E-002  0.14153398721109375        0.0000000000000000     
   1.6789816712094993E-002  0.14913384081218031        0.0000000000000000     
   1.7085456494948296E-002  0.15684813221437741        0.0000000000000000     
   1.7358037113327555E-002  0.16467686141768495        0.0000000000000000     
   1.0666306098623528E-002  0.13397050354668480        0.0000000000000000     
   1.0896699547070557E-002  0.14146150063731228        0.0000000000000000     
   1.1110662088023570E-002  0.14906668273775342        0.0000000000000000     
   1.1308193721482574E-002  0.15678604984800823        0.0000000000000000     
   1.1489294447447562E-002  0.16461960196807668        0.0000000000000000     
   5.2059040017764452E-003  0.13393084923108328        0.0000000000000000     
   5.3302910622663900E-003  0.14142439489334369        0.0000000000000000     
   5.4453470657598564E-003  0.14903144934363055        0.0000000000000000     
   5.5510720122568429E-003  0.15675201258194385        0.0000000000000000     
   5.6474659017573528E-003  0.16458608460828361        0.0000000000000000     
  -2.5184663757500279E-004  0.13392960846431301        0.0000000000000000     
  -2.2810768964485421E-004  0.14142266997918795        0.0000000000000000     
  -2.0612835469615231E-004  0.14902814062981171        0.0000000000000000     
  -1.8590863272889162E-004  0.15674602041618427        0.0000000000000000     
  -1.6744852374307815E-004  0.16457630933830567        0.0000000000000000     
   2.3253693899397323E-002  0.16475786295710840        0.0000000000000000     
   2.3596611015941647E-002  0.17267794915148293        0.0000000000000000     
   2.3912911060024571E-002  0.18068473402057558        0.0000000000000000     
   2.4202594031646103E-002  0.18877821756438637        0.0000000000000000     
   2.4465659930806238E-002  0.19695839978291524        0.0000000000000000     
   1.7358037113327555E-002  0.16467686141768495        0.0000000000000000     
   1.7610081787732580E-002  0.17260573016014150        0.0000000000000000     
   1.7844113738663198E-002  0.18062044017978551        0.0000000000000000     
   1.8060132966119410E-002  0.18872099147661694        0.0000000000000000     
   1.8258139470101211E-002  0.19690738405063585        0.0000000000000000     
   1.1489294447447562E-002  0.16461960196807668        0.0000000000000000     
   1.1656526732457071E-002  0.17255319735908983        0.0000000000000000     
   1.1812453043049629E-002  0.18057269428217859        0.0000000000000000     
   1.1957073379225240E-002  0.18867809273734296        0.0000000000000000     
   1.2090387740983900E-002  0.19686939272458295        0.0000000000000000     
   5.6474659017573528E-003  0.16458608460828361        0.0000000000000000     
   5.7359458501151130E-003  0.17252035074832789        0.0000000000000000     
   5.8179289731838616E-003  0.18054149632775482        0.0000000000000000     
   5.8934152709635909E-003  0.18864952134656435        0.0000000000000000     
   5.9624047434543069E-003  0.19684442580475658        0.0000000000000000     
  -1.6744852374307815E-004  0.16457630933830567        0.0000000000000000     
  -1.5166085929328938E-004  0.17250719032785569        0.0000000000000000     
  -1.3945847093410895E-004  0.18052684631651419        0.0000000000000000     
  -1.3084135866553548E-004  0.18863527730428120        0.0000000000000000     
  -1.2580952248757030E-004  0.19683248329115668        0.0000000000000000     
   2.4465659930806238E-002  0.19695839978291524        0.0000000000000000     
   2.4700453168758955E-002  0.20521081793095838        0.0000000000000000     
   2.4905318156758224E-002  0.21352100926331199        0.0000000000000000     
   2.5080254894804047E-002  0.22188897377997613        0.0000000000000000     
   2.5225263382896421E-002  0.23031471148095081        0.0000000000000000     
   1.8258139470101211E-002  0.19690738405063585        0.0000000000000000     
   1.8435651940906565E-002  0.20516434294807442        0.0000000000000000     
   1.8590189068833439E-002  0.21347659321516491        0.0000000000000000     
   1.8721750853881832E-002  0.22184413485190724        0.0000000000000000     
   1.8830337296051741E-002  0.23026696785830150        0.0000000000000000     
   1.2090387740983900E-002  0.19686939272458295        0.0000000000000000     
   1.2210179892286609E-002  0.20513028307223299        0.0000000000000000     
   1.2314233597094361E-002  0.21344445260862738        0.0000000000000000     
   1.2402548855407161E-002  0.22181190133376616        0.0000000000000000     
   1.2475125667225003E-002  0.23023262924764934        0.0000000000000000     
   5.9624047434543069E-003  0.19684442580475658        0.0000000000000000     
   6.0240370228990814E-003  0.20510863830343412        0.0000000000000000     
   6.0774517415409868E-003  0.21342458744369952        0.0000000000000000     
   6.1226488993800293E-003  0.22179227322555292        0.0000000000000000     
   6.1596284964162027E-003  0.23021169564899421        0.0000000000000000     
  -1.2580952248757030E-004  0.19683248329115668        0.0000000000000000     
  -1.2277666725601780E-004  0.20509940864167772        0.0000000000000000     
  -1.2015649782667946E-004  0.21341699772038131        0.0000000000000000     
  -1.1794901419955985E-004  0.22178525052726747        0.0000000000000000     
  -1.1615421637465716E-004  0.23020416706233623        0.0000000000000000     
   2.5225263382896421E-002  0.23031471148095081        0.0000000000000000     
   2.5347064630007569E-002  0.23877056693252077        0.0000000000000000     
   2.5452379645109716E-002  0.24722888470097096        0.0000000000000000     
   2.5541208428202851E-002  0.25568966478630123        0.0000000000000000     
   2.5613550979286977E-002  0.26415290718851175        0.0000000000000000     
   1.8830337296051741E-002  0.23026696785830150        0.0000000000000000     
   1.8921157759138489E-002  0.23871536616717864        0.0000000000000000     
   1.8999421606937406E-002  0.24715960371136955        0.0000000000000000     
   1.9065128839448477E-002  0.25559968049087428        0.0000000000000000     
   1.9118279456671716E-002  0.26403559650569269        0.0000000000000000     
   1.2475125667225003E-002  0.23023262924764934        0.0000000000000000     
   1.2535558297431941E-002  0.23867558546909290        0.0000000000000000     
   1.2587441010912024E-002  0.24710971911691271        0.0000000000000000     
   1.2630773807665254E-002  0.25553503019110896        0.0000000000000000     
   1.2665556687691631E-002  0.26395151869168149        0.0000000000000000     
   6.1596284964162027E-003  0.23021169564899421        0.0000000000000000     
   6.1902662448879136E-003  0.23865122483826343        0.0000000000000000     
   6.2164378570335700E-003  0.24707923091760051        0.0000000000000000     
   6.2381433328531676E-003  0.25549571388700537        0.0000000000000000     
   6.2553826723467099E-003  0.26390067374647808        0.0000000000000000     
  -1.1615421637465716E-004  0.23020416706233623        0.0000000000000000     
  -1.1471839849358425E-004  0.23864228427469042        0.0000000000000000     
  -1.1358785469795700E-004  0.24706813911343287        0.0000000000000000     
  -1.1276258498777575E-004  0.25548173157856346        0.0000000000000000     
  -1.1224258936303822E-004  0.26388306167008241        0.0000000000000000     
   2.5613550979286977E-002  0.26415290718851175        0.0000000000000000     
   2.5681528393233684E-002  0.27256353098083280        0.0000000000000000     
   2.5757261764914566E-002  0.28086645523649484        0.0000000000000000     
   2.5840751094329609E-002  0.28906167995549786        0.0000000000000000     
   2.5931996381478827E-002  0.29714920513784177        0.0000000000000000     
   1.9118279456671716E-002  0.26403559650569269        0.0000000000000000     
   1.9168675250622085E-002  0.27241027458711964        0.0000000000000000     
   1.9226118013314537E-002  0.28066663756644977        0.0000000000000000     
   1.9290607744749087E-002  0.28880468544368310        0.0000000000000000     
   1.9362144444925719E-002  0.29682441821881950        0.0000000000000000     
   1.2665556687691631E-002  0.26395151869168149        0.0000000000000000     
   1.2698821467732390E-002  0.27230060939841605        0.0000000000000000     
   1.2737599964528775E-002  0.28052372709109807        0.0000000000000000     
   1.2781892178080784E-002  0.28862087176972767        0.0000000000000000     
   1.2831698108388419E-002  0.29659204343430484        0.0000000000000000     
   6.2553826723467099E-003  0.26390067374647808        0.0000000000000000     
   6.2719670445646079E-003  0.27223453541472170        0.0000000000000000     
   6.2917076185572754E-003  0.28043772381043963        0.0000000000000000     
   6.3146043943247097E-003  0.28851023893363154        0.0000000000000000     
   6.3406573718669144E-003  0.29645208078429774        0.0000000000000000     
  -1.1224258936303822E-004  0.26388306167008241        0.0000000000000000     
  -1.1188801888126123E-004  0.27221205263603693        0.0000000000000000     
  -1.1155902459996118E-004  0.28040862772447445        0.0000000000000000     
  -1.1125560651913688E-004  0.28847278693539485        0.0000000000000000     
  -1.1097776463878887E-004  0.29640453026879832        0.0000000000000000     
  -9.9345967131274143E-004   5.5758957276412266E-002   0.0000000000000000     
  -9.4452072592602103E-004   6.1275665320415076E-002   0.0000000000000000     
  -8.7948251543996752E-004   6.6993840851712144E-002   0.0000000000000000     
  -7.9834503985458513E-004   7.2913483870303497E-002   0.0000000000000000     
  -7.0110829916987180E-004   7.9034594376189093E-002   0.0000000000000000     
  -4.9345958815311215E-003   5.6153985134393153E-002   0.0000000000000000     
  -5.1204995989825213E-003   6.1535016449182731E-002   0.0000000000000000     
  -5.2425852682146720E-003   6.7152156513329217E-002   0.0000000000000000     
  -5.3008528892275735E-003   7.3005405326832570E-002   0.0000000000000000     
  -5.2953024620212268E-003   7.9094762889692846E-002   0.0000000000000000     
  -8.4231955975085163E-003   5.6291747292499035E-002   0.0000000000000000     
  -8.8271175642555596E-003   6.1641821053530388E-002   0.0000000000000000     
  -9.1487599429550658E-003   6.7235674675468704E-002   0.0000000000000000     
  -9.3881227336070298E-003   7.3073308158313963E-002   0.0000000000000000     
  -9.5452059362114532E-003   7.9154721502066178E-002   0.0000000000000000     
  -1.1459258819244924E-002   5.6172243750729905E-002   0.0000000000000000     
  -1.2064374621745139E-002   6.1596079133458048E-002   0.0000000000000000     
  -1.2598006539661149E-002   6.7244395338130619E-002   0.0000000000000000     
  -1.3060154572992954E-002   7.3117192364747632E-002   0.0000000000000000     
  -1.3450818721740553E-002   7.9214470213309074E-002   0.0000000000000000     
  -1.4042785546740344E-002   5.5795474509085771E-002   0.0000000000000000     
  -1.4832270771451253E-002   6.1397790688965712E-002   0.0000000000000000     
  -1.5590325058332917E-002   6.7178318501314990E-002   0.0000000000000000     
  -1.6316948407385342E-002   7.3137057946133607E-002   0.0000000000000000     
  -1.7012140818608520E-002   7.9274009023421563E-002   0.0000000000000000     
  -7.0110829916987180E-004   7.9034594376189093E-002   0.0000000000000000     
  -6.0306236614340305E-004   8.5340508460000783E-002   0.0000000000000000     
  -5.1949731353275602E-004   9.1814562212370388E-002   0.0000000000000000     
  -4.5041314133793158E-004   9.8456755633297879E-002   0.0000000000000000     
  -3.9580984955892799E-004  0.10526708872278327        0.0000000000000000     
  -5.2953024620212268E-003   7.9094762889692846E-002   0.0000000000000000     
  -5.2719049859044909E-003   8.5388021892586097E-002   0.0000000000000000     
  -5.2766314601862254E-003   9.1852975026188360E-002   0.0000000000000000     
  -5.3094818848664332E-003   9.8489622290499651E-002   0.0000000000000000     
  -5.3704562599451115E-003  0.10529796368551995        0.0000000000000000     
  -9.5452059362114532E-003   7.9154721502066178E-002   0.0000000000000000     
  -9.6746692690059515E-003   8.5444331846866187E-002   0.0000000000000000     
  -9.8311724502281473E-003   9.1906556332854841E-002   0.0000000000000000     
  -1.0014715479878030E-002   9.8541394960032128E-002   0.0000000000000000     
  -1.0225298357955609E-002  0.10534884772839805        0.0000000000000000     
  -1.3450818721740553E-002   7.9214470213309074E-002   0.0000000000000000     
  -1.3811355215447792E-002   8.5509438322841108E-002   0.0000000000000000     
  -1.4183120283658516E-002   9.1975306132369858E-002   0.0000000000000000     
  -1.4566113926372727E-002   9.8612073641895323E-002   0.0000000000000000     
  -1.4960336143590422E-002  0.10541974085141750        0.0000000000000000     
  -1.7012140818608520E-002   7.9274009023421563E-002   0.0000000000000000     
  -1.7681962825230005E-002   8.5583341320510820E-002   0.0000000000000000     
  -1.8332474960477338E-002   9.2059224424733396E-002   0.0000000000000000     
  -1.8963677224350519E-002   9.8701658336089265E-002   0.0000000000000000     
  -1.9575569616849548E-002  0.10551064305457841        0.0000000000000000     
  -3.9580984955892799E-004  0.10526708872278327        0.0000000000000000     
  -3.5129001013161319E-004  0.11222929839945216        0.0000000000000000     
  -3.1245619499185341E-004  0.11932712158193007        0.0000000000000000     
  -2.7930840413964962E-004  0.12656055827021703        0.0000000000000000     
  -2.5184663757500279E-004  0.13392960846431301        0.0000000000000000     
  -5.3704562599451115E-003  0.10529796368551995        0.0000000000000000     
  -5.4465295922671228E-003  0.11225975111279482        0.0000000000000000     
  -5.5246768886773202E-003  0.11935673647386980        0.0000000000000000     
  -5.6048981491757122E-003  0.12658891976874490        0.0000000000000000     
  -5.6871933737622947E-003  0.13395630099742006        0.0000000000000000     
  -1.0225298357955609E-002  0.10534884772839805        0.0000000000000000     
  -1.0446818297371759E-002  0.11230989253593397        0.0000000000000000     
  -1.0663172511037359E-002  0.11940550728062134        0.0000000000000000     
  -1.0874360998952405E-002  0.12663569196246016        0.0000000000000000     
  -1.1080383761116910E-002  0.13400044658145036        0.0000000000000000     
  -1.4960336143590422E-002  0.10541974085141750        0.0000000000000000     
  -1.5352156125445528E-002  0.11237972266886961        0.0000000000000000     
  -1.5727943062071963E-002  0.11947343400218466        0.0000000000000000     
  -1.6087696953469739E-002  0.12670087485136280        0.0000000000000000     
  -1.6431417799638845E-002  0.13406204521640394        0.0000000000000000     
  -1.9575569616849548E-002  0.10551064305457841        0.0000000000000000     
  -2.0162543076488421E-002  0.11246924151160168        0.0000000000000000     
  -2.0718988541781138E-002  0.11956051663855981        0.0000000000000000     
  -2.1244906012727702E-002  0.12678446843545285        0.0000000000000000     
  -2.1740295489328106E-002  0.13414109690228079        0.0000000000000000     
  -2.5184663757500279E-004  0.13392960846431301        0.0000000000000000     
  -2.2810768964485421E-004  0.14142266997918795        0.0000000000000000     
  -2.0612835469615231E-004  0.14902814062981171        0.0000000000000000     
  -1.8590863272889162E-004  0.15674602041618427        0.0000000000000000     
  -1.6744852374307815E-004  0.16457630933830567        0.0000000000000000     
  -5.6871933737622947E-003  0.13395630099742006        0.0000000000000000     
  -5.7675797602029155E-003  0.14144703276343176        0.0000000000000000     
  -5.8420745062634201E-003  0.14904926767031645        0.0000000000000000     
  -5.9106776119438112E-003  0.15676300571807406        0.0000000000000000     
  -5.9733890772440870E-003  0.16458824690670459        0.0000000000000000     
  -1.1080383761116910E-002  0.13400044658145036        0.0000000000000000     
  -1.1277208200947521E-002  0.14148819011466182        0.0000000000000000     
  -1.1460801721860916E-002  0.14908734153916425        0.0000000000000000     
  -1.1631164323857090E-002  0.15679790085495768        0.0000000000000000     
  -1.1788296006936042E-002  0.16461986806204210        0.0000000000000000     
  -1.6431417799638845E-002  0.13406204521640394        0.0000000000000000     
  -1.6756993011878683E-002  0.14154614203287810        0.0000000000000000     
  -1.7062310001488636E-002  0.14914236223635519        0.0000000000000000     
  -1.7347368768468728E-002  0.15685070582683522        0.0000000000000000     
  -1.7612169312818931E-002  0.16467117280431823        0.0000000000000000     
  -2.1740295489328106E-002  0.13414109690228079        0.0000000000000000     
  -2.2206934192996387E-002  0.14162088851808058        0.0000000000000000     
  -2.2646599345146592E-002  0.14921432976188920        0.0000000000000000     
  -2.3059290945778722E-002  0.15692142063370665        0.0000000000000000     
  -2.3445008994892769E-002  0.16474216113353293        0.0000000000000000     
  -1.6744852374307815E-004  0.16457630933830567        0.0000000000000000     
  -1.5166085929328938E-004  0.17250719032785569        0.0000000000000000     
  -1.3945847093410895E-004  0.18052684631651419        0.0000000000000000     
  -1.3084135866553548E-004  0.18863527730428120        0.0000000000000000     
  -1.2580952248757030E-004  0.19683248329115668        0.0000000000000000     
  -5.9733890772440870E-003  0.16458824690670459        0.0000000000000000     
  -6.0331372590452913E-003  0.17251445279066221        0.0000000000000000     
  -6.0928505142284614E-003  0.18053108492440095        0.0000000000000000     
  -6.1525288427935979E-003  0.18863814330792086        0.0000000000000000     
  -6.2121722447407010E-003  0.19683562794122189        0.0000000000000000     
  -1.1788296006936042E-002  0.16461986806204210        0.0000000000000000     
  -1.1935327212418046E-002  0.17254287482973635        0.0000000000000000     
  -1.2075388381623387E-002  0.18055655282735922        0.0000000000000000     
  -1.2208479514552053E-002  0.18866090205491073        0.0000000000000000     
  -1.2334600611204054E-002  0.19685592251239084        0.0000000000000000     
  -1.7612169312818931E-002  0.16467117280431823        0.0000000000000000     
  -1.7858230719411561E-002  0.17259245644507817        0.0000000000000000     
  -1.8087072073118878E-002  0.18060325002538904        0.0000000000000000     
  -1.8298693373940907E-002  0.18870355354525084        0.0000000000000000     
  -1.8493094621877627E-002  0.19689336700466353        0.0000000000000000     
  -2.3445008994892769E-002  0.16474216113353293        0.0000000000000000     
  -2.3801847780025816E-002  0.17266319763668761        0.0000000000000000     
  -2.4127901588714945E-002  0.18067117651849038        0.0000000000000000     
  -2.4423170420960146E-002  0.18876609777894113        0.0000000000000000     
  -2.4687654276761423E-002  0.19694796141803994        0.0000000000000000     
  -1.2580952248757030E-004  0.19683248329115668        0.0000000000000000     
  -1.2277666725601780E-004  0.20509940864167772        0.0000000000000000     
  -1.2015649782667946E-004  0.21341699772038131        0.0000000000000000     
  -1.1794901419955985E-004  0.22178525052726747        0.0000000000000000     
  -1.1615421637465716E-004  0.23020416706233623        0.0000000000000000     
  -6.2121722447407010E-003  0.19683562794122189        0.0000000000000000     
  -6.2680808054599102E-003  0.20510355570089395        0.0000000000000000     
  -6.3165546103413654E-003  0.21342194346352678        0.0000000000000000     
  -6.3575936593850664E-003  0.22179079122912046        0.0000000000000000     
  -6.3911979525910169E-003  0.23021009899767492        0.0000000000000000     
  -1.2334600611204054E-002  0.19685592251239084        0.0000000000000000     
  -1.2449695018993817E-002  0.20512204109501289        0.0000000000000000     
  -1.2549706085335781E-002  0.21343968469799007        0.0000000000000000     
  -1.2634633810229945E-002  0.22180885332132236        0.0000000000000000     
  -1.2704478193676309E-002  0.23022954696500977        0.0000000000000000     
  -1.8493094621877627E-002  0.19689336700466353        0.0000000000000000     
  -1.8667619307857743E-002  0.20515486482403453        0.0000000000000000     
  -1.8819610922809926E-002  0.21347022142377106        0.0000000000000000     
  -1.8949069466734192E-002  0.22183943680387319        0.0000000000000000     
  -1.9055994939630540E-002  0.23026251096434092        0.0000000000000000     
  -2.4687654276761423E-002  0.19694796141803994        0.0000000000000000     
  -2.4921853672051682E-002  0.20520202688795885        0.0000000000000000     
  -2.5126269122763816E-002  0.21351355364086982        0.0000000000000000     
  -2.5300900628897820E-002  0.22188254167677299        0.0000000000000000     
  -2.5445748190453702E-002  0.23030899099566821        0.0000000000000000     
  -1.1615421637465716E-004  0.23020416706233623        0.0000000000000000     
  -1.1471839849358425E-004  0.23864228427469042        0.0000000000000000     
  -1.1358785469795700E-004  0.24706813911343287        0.0000000000000000     
  -1.1276258498777575E-004  0.25548173157856346        0.0000000000000000     
  -1.1224258936303822E-004  0.26388306167008241        0.0000000000000000     
  -6.3911979525910169E-003  0.23021009899767492        0.0000000000000000     
  -6.4191360638923859E-003  0.23864905179979340        0.0000000000000000     
  -6.4431765672223551E-003  0.24707683466607919        0.0000000000000000     
  -6.4633194625809210E-003  0.25549344759653220        0.0000000000000000     
  -6.4795647499680852E-003  0.26389889059115257        0.0000000000000000     
  -1.2704478193676309E-002  0.23022954696500977        0.0000000000000000     
  -1.2762727182488316E-002  0.23867181543499211        0.0000000000000000     
  -1.2812868723479420E-002  0.24710570853720901        0.0000000000000000     
  -1.2854902816649610E-002  0.25553122627166047        0.0000000000000000     
  -1.2888829461998893E-002  0.26394836863834659        0.0000000000000000     
  -1.9055994939630540E-002  0.23026251096434092        0.0000000000000000     
  -1.9145491754281381E-002  0.23871057518028646        0.0000000000000000     
  -1.9222664323469155E-002  0.24715476072682224        0.0000000000000000     
  -1.9287512647193847E-002  0.25559506760394823        0.0000000000000000     
  -1.9340036725455475E-002  0.26403149581166441        0.0000000000000000     
  -2.5445748190453702E-002  0.23030899099566821        0.0000000000000000     
  -2.5567429779271577E-002  0.23876533103567651        0.0000000000000000     
  -2.5672563367191550E-002  0.24722399123491892        0.0000000000000000     
  -2.5761148954213629E-002  0.25568497159339543        0.0000000000000000     
  -2.5833186540337810E-002  0.26414827211110603        0.0000000000000000     
  -1.1224258936303822E-004  0.26388306167008241        0.0000000000000000     
  -1.1188801888126123E-004  0.27221205263603693        0.0000000000000000     
  -1.1155902459996118E-004  0.28040862772447445        0.0000000000000000     
  -1.1125560651913688E-004  0.28847278693539485        0.0000000000000000     
  -1.1097776463878887E-004  0.29640453026879832        0.0000000000000000     
  -6.4795647499680852E-003  0.26389889059115257        0.0000000000000000     
  -6.4954621376019372E-003  0.27223320117298688        0.0000000000000000     
  -6.5145613337005727E-003  0.28043641686508175        0.0000000000000000     
  -6.5368623382639898E-003  0.28850853766743723        0.0000000000000000     
  -6.5623651512921894E-003  0.29644956358005337        0.0000000000000000     
  -1.2888829461998893E-002  0.26394836863834659        0.0000000000000000     
  -1.2921473726594135E-002  0.27229802113619678        0.0000000000000000     
  -1.2959660677502198E-002  0.28052106926414072        0.0000000000000000     
  -1.3003390314723084E-002  0.28861751302217847        0.0000000000000000     
  -1.3052662638256793E-002  0.29658735241030987        0.0000000000000000     
  -1.9340036725455475E-002  0.26403149581166441        0.0000000000000000     
  -1.9389922785857855E-002  0.27240651252566689        0.0000000000000000     
  -1.9446857056004838E-002  0.28066258492165158        0.0000000000000000     
  -1.9510839535896416E-002  0.28879971299961849        0.0000000000000000     
  -1.9581870225532590E-002  0.29681789675956771        0.0000000000000000     
  -2.5833186540337810E-002  0.26414827211110603        0.0000000000000000     
  -2.5900809315393097E-002  0.27255867534139688        0.0000000000000000     
  -2.5976150469208491E-002  0.28086096383761394        0.0000000000000000     
  -2.6059210001783989E-002  0.28905513759975743        0.0000000000000000     
  -2.6149987913119593E-002  0.29714119662782712        0.0000000000000000     
  -1.4042785546740344E-002   5.5795474509085771E-002   0.0000000000000000     
  -1.4832270771451253E-002   6.1397790688965712E-002   0.0000000000000000     
  -1.5590325058332917E-002   6.7178318501314990E-002   0.0000000000000000     
  -1.6316948407385342E-002   7.3137057946133607E-002   0.0000000000000000     
  -1.7012140818608520E-002   7.9274009023421563E-002   0.0000000000000000     
  -1.6723075122147300E-002   5.5506275289651227E-002   0.0000000000000000     
  -1.7699150259258306E-002   6.1273034548468747E-002   0.0000000000000000     
  -1.8681238527493243E-002   6.7175856005587425E-002   0.0000000000000000     
  -1.9669339926852117E-002   7.3214739661007250E-002   0.0000000000000000     
  -2.0663454457334914E-002   7.9389685514728220E-002   0.0000000000000000     
  -2.0049426887618311E-002   5.5649481814510848E-002   0.0000000000000000     
  -2.1233357331050699E-002   6.1447889540382522E-002   0.0000000000000000     
  -2.2426269975664988E-002   6.7375419691513561E-002   0.0000000000000000     
  -2.3628164821461184E-002   7.3432072267903964E-002   0.0000000000000000     
  -2.4839041868439275E-002   7.9617847269553718E-002   0.0000000000000000     
  -2.4021840843153380E-002   5.6225094083664648E-002   0.0000000000000000     
  -2.5434891986828440E-002   6.1922355664707024E-002   0.0000000000000000     
  -2.6825419402848154E-002   6.7777009559093382E-002   0.0000000000000000     
  -2.8193423091212543E-002   7.3789055766823722E-002   0.0000000000000000     
  -2.9538903051921601E-002   7.9958494287898044E-002   0.0000000000000000     
  -2.8640316988752506E-002   5.7233112097112633E-002   0.0000000000000000     
  -3.0303754226591512E-002   6.2696432921442280E-002   0.0000000000000000     
  -3.1878686809042746E-002   6.8380625608326917E-002   0.0000000000000000     
  -3.3365114736106212E-002   7.4285690157766551E-002   0.0000000000000000     
  -3.4763038007781896E-002   8.0411626569761169E-002   0.0000000000000000     
  -1.7012140818608520E-002   7.9274009023421563E-002   0.0000000000000000     
  -1.7681962825230005E-002   8.5583341320510820E-002   0.0000000000000000     
  -1.8332474960477338E-002   9.2059224424733396E-002   0.0000000000000000     
  -1.8963677224350519E-002   9.8701658336089265E-002   0.0000000000000000     
  -1.9575569616849548E-002  0.10551064305457841        0.0000000000000000     
  -2.0663454457334914E-002   7.9389685514728220E-002   0.0000000000000000     
  -2.1636301643476290E-002   8.5713263111705518E-002   0.0000000000000000     
  -2.2560601009810891E-002   9.2198041996894270E-002   0.0000000000000000     
  -2.3436352556338715E-002   9.8844022170294504E-002   0.0000000000000000     
  -2.4263556283059769E-002  0.10565120363190619        0.0000000000000000     
  -2.4839041868439275E-002   7.9617847269553718E-002   0.0000000000000000     
  -2.6024181215310339E-002   8.5946425968255358E-002   0.0000000000000000     
  -2.7148862960785468E-002   9.2431489635801320E-002   0.0000000000000000     
  -2.8213087104864636E-002   9.9073038272191633E-002   0.0000000000000000     
  -2.9216853647547864E-002  0.10587107187742630        0.0000000000000000     
  -2.9538903051921601E-002   7.9958494287898044E-002   0.0000000000000000     
  -3.0845601540732154E-002   8.6282829890160312E-002   0.0000000000000000     
  -3.2097260813401050E-002   9.2759567341454532E-002   0.0000000000000000     
  -3.3293880869928280E-002   9.9388706641780691E-002   0.0000000000000000     
  -3.4435461710313836E-002  0.10617024779113879        0.0000000000000000     
  -3.4763038007781896E-002   8.0411626569761169E-002   0.0000000000000000     
  -3.6100562619741740E-002   8.6722474877420408E-002   0.0000000000000000     
  -3.7405794567657649E-002   9.3182275113853894E-002   0.0000000000000000     
  -3.8678733851529624E-002   9.9791027279061639E-002   0.0000000000000000     
  -3.9919380471357679E-002  0.10654873137304363        0.0000000000000000     
  -1.9575569616849548E-002  0.10551064305457841        0.0000000000000000     
  -2.0162543076488421E-002  0.11246924151160168        0.0000000000000000     
  -2.0718988541781138E-002  0.11956051663855981        0.0000000000000000     
  -2.1244906012727702E-002  0.12678446843545285        0.0000000000000000     
  -2.1740295489328106E-002  0.13414109690228079        0.0000000000000000     
  -2.4263556283059769E-002  0.10565120363190619        0.0000000000000000     
  -2.5044130102222385E-002  0.11260498049657036        0.0000000000000000     
  -2.5779991926074899E-002  0.11969074687912810        0.0000000000000000     
  -2.6471141754617313E-002  0.12690850277957935        0.0000000000000000     
  -2.7117579587849629E-002  0.13425824819792415        0.0000000000000000     
  -2.9216853647547864E-002  0.10587107187742630        0.0000000000000000     
  -3.0163068154369335E-002  0.11281347105621588        0.0000000000000000     
  -3.1054636190863242E-002  0.11988811641327089        0.0000000000000000     
  -3.1891557757029586E-002  0.12709500794859141        0.0000000000000000     
  -3.2673832852868359E-002  0.13443414566217735        0.0000000000000000     
  -3.4435461710313836E-002  0.10617024779113879        0.0000000000000000     
  -3.5519357232929288E-002  0.11309471319053818        0.0000000000000000     
  -3.6542921336146193E-002  0.12015262524098826        0.0000000000000000     
  -3.7506154019964530E-002  0.12734398394248894        0.0000000000000000     
  -3.8409055284384305E-002  0.13466878929504034        0.0000000000000000     
  -3.9919380471357679E-002  0.10654873137304363        0.0000000000000000     
  -4.1112997337902232E-002  0.11344870689953729        0.0000000000000000     
  -4.2244847361923715E-002  0.12048427336228010        0.0000000000000000     
  -4.3314930543422121E-002  0.12765543076127206        0.0000000000000000     
  -4.4323246882397457E-002  0.13496217909651309        0.0000000000000000     
  -2.1740295489328106E-002  0.13414109690228079        0.0000000000000000     
  -2.2206934192996387E-002  0.14162088851808058        0.0000000000000000     
  -2.2646599345146592E-002  0.14921432976188920        0.0000000000000000     
  -2.3059290945778722E-002  0.15692142063370665        0.0000000000000000     
  -2.3445008994892769E-002  0.16474216113353293        0.0000000000000000     
  -2.7117579587849629E-002  0.13425824819792415        0.0000000000000000     
  -2.7724887608290189E-002  0.14173151090508473        0.0000000000000000     
  -2.8298647998457348E-002  0.14931981867198327        0.0000000000000000     
  -2.8838860758351088E-002  0.15702317149861977        0.0000000000000000     
  -2.9345525887971426E-002  0.16484156938499428        0.0000000000000000     
  -3.2673832852868359E-002  0.13443414566217735        0.0000000000000000     
  -3.3408709121749633E-002  0.14189709052870592        0.0000000000000000     
  -3.4103434207043461E-002  0.14947540352285429        0.0000000000000000     
  -3.4758008108749835E-002  0.15716908464462243        0.0000000000000000     
  -3.5372430826868785E-002  0.16497813389401036        0.0000000000000000     
  -3.8409055284384305E-002  0.13466878929504034        0.0000000000000000     
  -3.9258398733374715E-002  0.14211762738894415        0.0000000000000000     
  -4.0060957970904941E-002  0.14968108431450225        0.0000000000000000     
  -4.0816732996974990E-002  0.15735916007171460        0.0000000000000000     
  -4.1525723811584841E-002  0.16515185466058122        0.0000000000000000     
  -4.4323246882397457E-002  0.13496217909651309        0.0000000000000000     
  -4.5273956443165439E-002  0.14239312148579944        0.0000000000000000     
  -4.6171219290041796E-002  0.14993686104692716        0.0000000000000000     
  -4.7015035423026506E-002  0.15759339777989625        0.0000000000000000     
  -4.7805404842119592E-002  0.16536273168470675        0.0000000000000000     
  -2.3445008994892769E-002  0.16474216113353293        0.0000000000000000     
  -2.3801847780025816E-002  0.17266319763668761        0.0000000000000000     
  -2.4127901588714945E-002  0.18067117651849038        0.0000000000000000     
  -2.4423170420960146E-002  0.18876609777894113        0.0000000000000000     
  -2.4687654276761423E-002  0.19694796141803994        0.0000000000000000     
  -2.9345525887971426E-002  0.16484156938499428        0.0000000000000000     
  -2.9813496122219528E-002  0.17275966580521063        0.0000000000000000     
  -3.0237624195996564E-002  0.18076211423337266        0.0000000000000000     
  -3.0617910109302537E-002  0.18884891466948042        0.0000000000000000     
  -3.0954353862137445E-002  0.19702006711353387        0.0000000000000000     
  -3.5372430826868785E-002  0.16497813389401036        0.0000000000000000     
  -3.5940493473951375E-002  0.17288642835129303        0.0000000000000000     
  -3.6455987162548727E-002  0.18087784509674540        0.0000000000000000     
  -3.6918911892660826E-002  0.18895238413036738        0.0000000000000000     
  -3.7329267664287680E-002  0.19711004545215902        0.0000000000000000     
  -4.1525723811584841E-002  0.16515185466058122        0.0000000000000000     
  -4.2182839835221364E-002  0.17304348527493491        0.0000000000000000     
  -4.2782990488371420E-002  0.18101836910860852        0.0000000000000000     
  -4.3326175771035008E-002  0.18907650616160199        0.0000000000000000     
  -4.3812395683212137E-002  0.19721789643391544        0.0000000000000000     
  -4.7805404842119592E-002  0.16536273168470675        0.0000000000000000     
  -4.8540535206029488E-002  0.17323083657613614        0.0000000000000000     
  -4.9218634173464663E-002  0.18118368626896200        0.0000000000000000     
  -4.9839701744425098E-002  0.18922128076318434        0.0000000000000000     
  -5.0403737918910799E-002  0.19734362005880313        0.0000000000000000     
  -2.4687654276761423E-002  0.19694796141803994        0.0000000000000000     
  -2.4921853672051682E-002  0.20520202688795885        0.0000000000000000     
  -2.5126269122763816E-002  0.21351355364086982        0.0000000000000000     
  -2.5300900628897820E-002  0.22188254167677299        0.0000000000000000     
  -2.5445748190453702E-002  0.23030899099566821        0.0000000000000000     
  -3.0954353862137445E-002  0.19702006711353387        0.0000000000000000     
  -3.1250324008504263E-002  0.20526420125917957        0.0000000000000000     
  -3.1509189102405959E-002  0.21356994680006411        0.0000000000000000     
  -3.1730949143842543E-002  0.22193730373618747        0.0000000000000000     
  -3.1915604132814003E-002  0.23036627206754970        0.0000000000000000     
  -3.7329267664287680E-002  0.19711004545215902        0.0000000000000000     
  -3.7690956214144110E-002  0.20534206191009038        0.0000000000000000     
  -3.8007879278944896E-002  0.21363966635213164        0.0000000000000000     
  -3.8280036858690067E-002  0.22200285877828260        0.0000000000000000     
  -3.8507428953379608E-002  0.23043163918854342        0.0000000000000000     
  -4.3812395683212137E-002  0.19721789643391544        0.0000000000000000     
  -4.4243750288971199E-002  0.20543560884069137        0.0000000000000000     
  -4.4622339652380626E-002  0.21372271229707232        0.0000000000000000     
  -4.4948163773440401E-002  0.22207920680305832        0.0000000000000000     
  -4.5221222652150540E-002  0.23050509235864935        0.0000000000000000     
  -5.0403737918910799E-002  0.19734362005880313        0.0000000000000000     
  -5.0908706232985552E-002  0.20554484205098242        0.0000000000000000     
  -5.1352570222713154E-002  0.21381908463488625        0.0000000000000000     
  -5.1735329888093547E-002  0.22216634781051461        0.0000000000000000     
  -5.2056985229126780E-002  0.23058663157786757        0.0000000000000000     
  -2.5445748190453702E-002  0.23030899099566821        0.0000000000000000     
  -2.5567429779271577E-002  0.23876533103567651        0.0000000000000000     
  -2.5672563367191550E-002  0.24722399123491892        0.0000000000000000     
  -2.5761148954213629E-002  0.25568497159339543        0.0000000000000000     
  -2.5833186540337810E-002  0.26414827211110603        0.0000000000000000     
  -3.1915604132814003E-002  0.23036627206754970        0.0000000000000000     
  -3.2070971496573050E-002  0.23883147997170176        0.0000000000000000     
  -3.2204868662372405E-002  0.24730755562619477        0.0000000000000000     
  -3.2317295630212066E-002  0.25579449903102874        0.0000000000000000     
  -3.2408252400092027E-002  0.26429231018620364        0.0000000000000000     
  -3.8507428953379608E-002  0.23043163918854342        0.0000000000000000     
  -3.8698547145299945E-002  0.23890441895890183        0.0000000000000000     
  -3.8861883016737500E-002  0.24739960946534553        0.0000000000000000     
  -3.8997436567692251E-002  0.25591721070787471        0.0000000000000000     
  -3.9105207798164232E-002  0.26445722268648919        0.0000000000000000     
  -4.5221222652150540E-002  0.23050509235864935        0.0000000000000000     
  -4.5450156725452259E-002  0.23898414799727660        0.0000000000000000     
  -4.5643606430286816E-002  0.24750015275237128        0.0000000000000000     
  -4.5801571766654205E-002  0.25605310662393327        0.0000000000000000     
  -4.5924052734554424E-002  0.26464300961196269        0.0000000000000000     
  -5.2056985229126780E-002  0.23058663157786757        0.0000000000000000     
  -5.2325800237030012E-002  0.23907066708682626        0.0000000000000000     
  -5.2550038903020381E-002  0.24760918548727193        0.0000000000000000     
  -5.2729701227097914E-002  0.25620218677920459        0.0000000000000000     
  -5.2864787209262590E-002  0.26484967096262418        0.0000000000000000     
  -2.5833186540337810E-002  0.26414827211110603        0.0000000000000000     
  -2.5900809315393097E-002  0.27255867534139688        0.0000000000000000     
  -2.5976150469208491E-002  0.28086096383761394        0.0000000000000000     
  -2.6059210001783989E-002  0.28905513759975743        0.0000000000000000     
  -2.6149987913119593E-002  0.29714119662782712        0.0000000000000000     
  -3.2408252400092027E-002  0.26429231018620364        0.0000000000000000     
  -3.2492723306691527E-002  0.27274817363844495        0.0000000000000000     
  -3.2585692684689804E-002  0.28110927393447838        0.0000000000000000     
  -3.2687160534086844E-002  0.28937561107430371        0.0000000000000000     
  -3.2797126854882654E-002  0.29754718505792116        0.0000000000000000     
  -3.9105207798164232E-002  0.26445722268648919        0.0000000000000000     
  -3.9204254751244817E-002  0.27296867147186921        0.0000000000000000     
  -3.9313635470025407E-002  0.28140058313469479        0.0000000000000000     
  -3.9433349954506029E-002  0.28975295767496601        0.0000000000000000     
  -3.9563398204686642E-002  0.29802579509268295        0.0000000000000000     
  -4.5924052734554424E-002  0.26464300961196269        0.0000000000000000     
  -4.6035403649052960E-002  0.27322016884166933        0.0000000000000000     
  -4.6159978825215324E-002  0.28173489143826325        0.0000000000000000     
  -4.6297778263041531E-002  0.29018717740174438        0.0000000000000000     
  -4.6448801962531545E-002  0.29857702673211273        0.0000000000000000     
  -5.2864787209262590E-002  0.26484967096262418        0.0000000000000000     
  -5.2986170000115962E-002  0.27350266574784565        0.0000000000000000     
  -5.3124722750259541E-002  0.28211219884518379        0.0000000000000000     
  -5.3280445459693342E-002  0.29067827025463872        0.0000000000000000     
  -5.3453338128417377E-002  0.29920087997621031        0.0000000000000000     
  -2.8640316988752506E-002   5.7233112097112633E-002   0.0000000000000000     
  -3.0303754226591512E-002   6.2696432921442280E-002   0.0000000000000000     
  -3.1878686809042746E-002   6.8380625608326917E-002   0.0000000000000000     
  -3.3365114736106212E-002   7.4285690157766551E-002   0.0000000000000000     
  -3.4763038007781896E-002   8.0411626569761169E-002   0.0000000000000000     
  -3.3458603800088714E-002   5.8330806522225130E-002   0.0000000000000000     
  -3.5364462927903073E-002   6.3555577143370456E-002   0.0000000000000000     
  -3.7115884843865334E-002   6.9063787535618607E-002   0.0000000000000000     
  -3.8712869547975516E-002   7.4855437698969574E-002   0.0000000000000000     
  -4.0155417040233593E-002   8.0930527633423371E-002   0.0000000000000000     
  -3.8030449752835031E-002   5.9175448026372500E-002   0.0000000000000000     
  -4.0141536968326265E-002   6.4285244163273747E-002   0.0000000000000000     
  -4.2066826156932524E-002   6.9704015037372904E-002   0.0000000000000000     
  -4.3806317318653802E-002   7.5431760648669938E-002   0.0000000000000000     
  -4.5360010453490120E-002   8.1468480997164888E-002   0.0000000000000000     
  -4.2355854846991461E-002   5.9767036609554722E-002   0.0000000000000000     
  -4.4634976347861080E-002   6.4885433981152152E-002   0.0000000000000000     
  -4.6731510748244283E-002   7.0301308113589797E-002   0.0000000000000000     
  -4.8645458048141084E-002   7.6014659006867658E-002   0.0000000000000000     
  -5.0376818247551448E-002   8.2025486660985747E-002   0.0000000000000000     
  -4.6434819082557990E-002   6.0105572271771809E-002   0.0000000000000000     
  -4.8844781066507525E-002   6.5356146597005671E-002   0.0000000000000000     
  -5.1109938617800645E-002   7.0855666764269298E-002   0.0000000000000000     
  -5.3230291736437348E-002   7.6604132773562705E-002   0.0000000000000000     
  -5.5205840422417621E-002   8.2601544624885906E-002   0.0000000000000000     
  -3.4763038007781896E-002   8.0411626569761169E-002   0.0000000000000000     
  -3.6100562619741740E-002   8.6722474877420408E-002   0.0000000000000000     
  -3.7405794567657649E-002   9.3182275113853894E-002   0.0000000000000000     
  -3.8678733851529624E-002   9.9791027279061639E-002   0.0000000000000000     
  -3.9919380471357679E-002  0.10654873137304363        0.0000000000000000     
  -4.0155417040233593E-002   8.0930527633423371E-002   0.0000000000000000     
  -4.1516239721094375E-002   8.7220947788488559E-002   0.0000000000000000     
  -4.2868049991012618E-002   9.3658588613673668E-002   0.0000000000000000     
  -4.4210847849988362E-002  0.10024345010897873        0.0000000000000000     
  -4.5544633298021581E-002  0.10697553227440373        0.0000000000000000     
  -4.5360010453490120E-002   8.1468480997164888E-002   0.0000000000000000     
  -4.6819808113545323E-002   8.7733835481817637E-002   0.0000000000000000     
  -4.8277612850923329E-002   9.4147483501588095E-002   0.0000000000000000     
  -4.9733424665624131E-002  0.10070942505647622        0.0000000000000000     
  -5.1187243557647720E-002  0.10741966014648206        0.0000000000000000     
  -5.0376818247551448E-002   8.2025486660985747E-002   0.0000000000000000     
  -5.2011267797094612E-002   8.8261137957407698E-002   0.0000000000000000     
  -5.3634483147389764E-002   9.4648959777597158E-002   0.0000000000000000     
  -5.5246464298436944E-002  0.10118895212155413        0.0000000000000000     
  -5.6847211250236090E-002  0.10788111498927862        0.0000000000000000     
  -5.5205840422417621E-002   8.2601544624885906E-002   0.0000000000000000     
  -5.7090618771742235E-002   8.8802855215258686E-002   0.0000000000000000     
  -5.8938660880411949E-002   9.5163017441700859E-002   0.0000000000000000     
  -6.0749966748426767E-002  0.10168203130421243        0.0000000000000000     
  -6.2524536375786685E-002  0.10835989680279337        0.0000000000000000     
  -3.9919380471357679E-002  0.10654873137304363        0.0000000000000000     
  -4.1112997337902232E-002  0.11344870689953729        0.0000000000000000     
  -4.2244847361923715E-002  0.12048427336228010        0.0000000000000000     
  -4.3314930543422121E-002  0.12765543076127206        0.0000000000000000     
  -4.4323246882397457E-002  0.13496217909651309        0.0000000000000000     
  -4.5544633298021581E-002  0.10697553227440373        0.0000000000000000     
  -4.6842819937788348E-002  0.11384990143635561        0.0000000000000000     
  -4.8078821371964682E-002  0.12086162392124129        0.0000000000000000     
  -4.9252637600550632E-002  0.12801069972906076        0.0000000000000000     
  -5.0364268623546156E-002  0.13529712885981401        0.0000000000000000     
  -5.1187243557647720E-002  0.10741966014648206        0.0000000000000000     
  -5.2607656501087771E-002  0.11427274605413554        0.0000000000000000     
  -5.3963250470037957E-002  0.12126324006196657        0.0000000000000000     
  -5.5254025464498292E-002  0.12839114216997519        0.0000000000000000     
  -5.6479981484468762E-002  0.13565645237816135        0.0000000000000000     
  -5.6847211250236090E-002  0.10788111498927862        0.0000000000000000     
  -5.8407507027800523E-002  0.11471724075287709        0.0000000000000000     
  -5.9898134656143527E-002  0.12168912178445598        0.0000000000000000     
  -6.1319094135265109E-002  0.12879675808401528        0.0000000000000000     
  -6.2670385465165263E-002  0.13604014965155511        0.0000000000000000     
  -6.2524536375786685E-002  0.10835989680279337        0.0000000000000000     
  -6.4242371517926597E-002  0.11518338553258023        0.0000000000000000     
  -6.5883473930281392E-002  0.12213926908870949        0.0000000000000000     
  -6.7447843612851097E-002  0.12922754747118120        0.0000000000000000     
  -6.8935480565635671E-002  0.13644822067999529        0.0000000000000000     
  -4.4323246882397457E-002  0.13496217909651309        0.0000000000000000     
  -4.5273956443165439E-002  0.14239312148579944        0.0000000000000000     
  -4.6171219290041796E-002  0.14993686104692716        0.0000000000000000     
  -4.7015035423026506E-002  0.15759339777989625        0.0000000000000000     
  -4.7805404842119592E-002  0.16536273168470675        0.0000000000000000     
  -5.0364268623546156E-002  0.13529712885981401        0.0000000000000000     
  -5.1414991771537348E-002  0.14270767446381633        0.0000000000000000     
  -5.2406084375110275E-002  0.15022909969138309        0.0000000000000000     
  -5.3337546434264929E-002  0.15786140454251413        0.0000000000000000     
  -5.4209377949001311E-002  0.16560458901720962        0.0000000000000000     
  -5.6479981484468762E-002  0.13565645237816135        0.0000000000000000     
  -5.7641114238906013E-002  0.14304538796753952        0.0000000000000000     
  -5.8737419436766677E-002  0.15054416621912406        0.0000000000000000     
  -5.9768897078050769E-002  0.15815278713291500        0.0000000000000000     
  -6.0735547162758287E-002  0.16587125070891240        0.0000000000000000     
  -6.2670385465165263E-002  0.13604014965155511        0.0000000000000000     
  -6.3952323845271442E-002  0.14340626199696885        0.0000000000000000     
  -6.5165224475011024E-002  0.15088206063015011        0.0000000000000000     
  -6.6309087354384039E-002  0.15846754555109885        0.0000000000000000     
  -6.7383912483390471E-002  0.16616271675981509        0.0000000000000000     
  -6.8935480565635671E-002  0.13644822067999529        0.0000000000000000     
  -7.0348620590633570E-002  0.14379029655210446        0.0000000000000000     
  -7.1689499489843253E-002  0.15124278292446122        0.0000000000000000     
  -7.2958117263264705E-002  0.15880567979706567        0.0000000000000000     
  -7.4154473910897911E-002  0.16647898716991771        0.0000000000000000     
  -4.7805404842119592E-002  0.16536273168470675        0.0000000000000000     
  -4.8540535206029488E-002  0.17323083657613614        0.0000000000000000     
  -4.9218634173464663E-002  0.18118368626896200        0.0000000000000000     
  -4.9839701744425098E-002  0.18922128076318434        0.0000000000000000     
  -5.0403737918910799E-002  0.19734362005880313        0.0000000000000000     
  -5.4209377949001311E-002  0.16560458901720962        0.0000000000000000     
  -5.5023234601866242E-002  0.17344654879888000        0.0000000000000000     
  -5.5780772075406514E-002  0.18137517957093582        0.0000000000000000     
  -5.6481990369622148E-002  0.18939048133337713        0.0000000000000000     
  -5.7126889484513152E-002  0.19749245408620389        0.0000000000000000     
  -6.0735547162758287E-002  0.16587125070891240        0.0000000000000000     
  -6.1640593038222079E-002  0.17368868848714958        0.0000000000000000     
  -6.2487258051775081E-002  0.18159423200765976        0.0000000000000000     
  -6.3275542203417245E-002  0.18958788127044307        0.0000000000000000     
  -6.4005445493148627E-002  0.19766963627549952        0.0000000000000000     
  -6.7383912483390471E-002  0.16616271675981509        0.0000000000000000     
  -6.8392610515097013E-002  0.17395725564094475        0.0000000000000000     
  -6.9338092102570317E-002  0.18184084357913380        0.0000000000000000     
  -7.0220357245810397E-002  0.18981348057438222        0.0000000000000000     
  -7.1039405944817224E-002  0.19787516662669000        0.0000000000000000     
  -7.4154473910897911E-002  0.16647898716991771        0.0000000000000000     
  -7.5279287032491066E-002  0.17425225026026575        0.0000000000000000     
  -7.6333274227792292E-002  0.18211501428535801        0.0000000000000000     
  -7.7316435496801589E-002  0.19006727924519456        0.0000000000000000     
  -7.8228770839518971E-002  0.19810904513977537        0.0000000000000000     
  -5.0403737918910799E-002  0.19734362005880313        0.0000000000000000     
  -5.0908706232985552E-002  0.20554484205098242        0.0000000000000000     
  -5.1352570222713154E-002  0.21381908463488625        0.0000000000000000     
  -5.1735329888093547E-002  0.22216634781051461        0.0000000000000000     
  -5.2056985229126780E-002  0.23058663157786757        0.0000000000000000     
  -5.7126889484513152E-002  0.19749245408620389        0.0000000000000000     
  -5.7709501725157299E-002  0.20567567605185388        0.0000000000000000     
  -5.8223859396632417E-002  0.21393472545276487        0.0000000000000000     
  -5.8669962498938508E-002  0.22226960228893688        0.0000000000000000     
  -5.9047811032075570E-002  0.23068030656036992        0.0000000000000000     
  -6.4005445493148627E-002  0.19766963627549952        0.0000000000000000     
  -6.4669814444456561E-002  0.20583402535419604        0.0000000000000000     
  -6.5261495580828457E-002  0.21407557683789971        0.0000000000000000     
  -6.5780488902264303E-002  0.22239429072661046        0.0000000000000000     
  -6.6226794408764098E-002  0.23079016702032840        0.0000000000000000     
  -7.1039405944817224E-002  0.19787516662669000        0.0000000000000000     
  -7.1789644390883339E-002  0.20601988995800893        0.0000000000000000     
  -7.2465478775301226E-002  0.21424163879029068        0.0000000000000000     
  -7.3066909098070926E-002  0.22254041312353545        0.0000000000000000     
  -7.3593935359192383E-002  0.23091621295774306        0.0000000000000000     
  -7.8228770839518971E-002  0.19810904513977537        0.0000000000000000     
  -7.9068991564437627E-002  0.20623326986329246        0.0000000000000000     
  -7.9835808980050757E-002  0.21443291130993788        0.0000000000000000     
  -8.0529223086358362E-002  0.22270796947971166        0.0000000000000000     
  -8.1149233883360414E-002  0.23105844437261380        0.0000000000000000     
  -5.2056985229126780E-002  0.23058663157786757        0.0000000000000000     
  -5.2325800237030012E-002  0.23907066708682626        0.0000000000000000     
  -5.2550038903020381E-002  0.24760918548727193        0.0000000000000000     
  -5.2729701227097914E-002  0.25620218677920459        0.0000000000000000     
  -5.2864787209262590E-002  0.26484967096262418        0.0000000000000000     
  -5.9047811032075570E-002  0.23068030656036992        0.0000000000000000     
  -5.9364017569272558E-002  0.23916524235184122        0.0000000000000000     
  -5.9625194683758459E-002  0.24772281374812827        0.0000000000000000     
  -5.9831342375533267E-002  0.25635302074923094        0.0000000000000000     
  -5.9982460644596981E-002  0.26505586335514930        0.0000000000000000     
  -6.6226794408764098E-002  0.23079016702032840        0.0000000000000000     
  -6.6603348611419283E-002  0.23926913991661236        0.0000000000000000     
  -6.6913088021321315E-002  0.24783714361302120        0.0000000000000000     
  -6.7156012638470153E-002  0.25649417810955488        0.0000000000000000     
  -6.7332122462865809E-002  0.26524024340621355        0.0000000000000000     
  -7.3593935359192383E-002  0.23091621295774306        0.0000000000000000     
  -7.4043793363470209E-002  0.23938235978113945        0.0000000000000000     
  -7.4413718915708929E-002  0.24795217508195058        0.0000000000000000     
  -7.4703712015908558E-002  0.25662565886017646        0.0000000000000000     
  -7.4913772664069095E-002  0.26540281111581698        0.0000000000000000     
  -8.1149233883360414E-002  0.23105844437261380        0.0000000000000000     
  -8.1685351825425287E-002  0.23950490194542262        0.0000000000000000     
  -8.2127087366921314E-002  0.24806790815491656        0.0000000000000000     
  -8.2474440507848495E-002  0.25674746300109558        0.0000000000000000     
  -8.2727411248206817E-002  0.26554356648395971        0.0000000000000000     
  -5.2864787209262590E-002  0.26484967096262418        0.0000000000000000     
  -5.2986170000115962E-002  0.27350266574784565        0.0000000000000000     
  -5.3124722750259541E-002  0.28211219884518379        0.0000000000000000     
  -5.3280445459693342E-002  0.29067827025463872        0.0000000000000000     
  -5.3453338128417377E-002  0.29920087997621031        0.0000000000000000     
  -5.9982460644596981E-002  0.26505586335514930        0.0000000000000000     
  -6.0115274568459463E-002  0.27378740834755455        0.0000000000000000     
  -6.0266509224630588E-002  0.28250372250811817        0.0000000000000000     
  -6.0436164613110327E-002  0.29120480583684016        0.0000000000000000     
  -6.0624240733898709E-002  0.29989065833372042        0.0000000000000000     
  -6.7332122462865809E-002  0.26524024340621355        0.0000000000000000     
  -6.7481438118109138E-002  0.27404564279795274        0.0000000000000000     
  -6.7643980227800965E-002  0.28288067957972812        0.0000000000000000     
  -6.7819748791941303E-002  0.29174535375153970        0.0000000000000000     
  -6.8008743810530098E-002  0.30063966531338754        0.0000000000000000     
  -7.4913772664069095E-002  0.26540281111581698        0.0000000000000000     
  -7.5084660649064980E-002  0.27427736909904010        0.0000000000000000     
  -7.5257135759770707E-002  0.28324307006001359        0.0000000000000000     
  -7.5431197996186222E-002  0.29229991399873756        0.0000000000000000     
  -7.5606847358311580E-002  0.30144790091521184        0.0000000000000000     
  -8.2727411248206817E-002  0.26554356648395971        0.0000000000000000     
  -8.2924942161327023E-002  0.27448258725081676        0.0000000000000000     
  -8.3105975820539801E-002  0.28359089394897474        0.0000000000000000     
  -8.3270512225845153E-002  0.29286848657843356        0.0000000000000000     
  -8.3418551377243105E-002  0.30231536513919322        0.0000000000000000     
  -4.6434819082557990E-002   6.0105572271771809E-002   0.0000000000000000     
  -4.8844781066507525E-002   6.5356146597005671E-002   0.0000000000000000     
  -5.1109938617800645E-002   7.0855666764269298E-002   0.0000000000000000     
  -5.3230291736437348E-002   7.6604132773562705E-002   0.0000000000000000     
  -5.5205840422417621E-002   8.2601544624885906E-002   0.0000000000000000     
  -5.0601180817115690E-002   6.0450394921397387E-002   0.0000000000000000     
  -5.3140265132113271E-002   6.5847607314148474E-002   0.0000000000000000     
  -5.5576182744596227E-002   7.1441378006570619E-002   0.0000000000000000     
  -5.7908933654564537E-002   7.7231706998663843E-002   0.0000000000000000     
  -6.0138517862018188E-002   8.3218594290428133E-002   0.0000000000000000     
  -5.5188778408245598E-002   6.1060844466805084E-002   0.0000000000000000     
  -5.7890742552526013E-002   6.6510041435894771E-002   0.0000000000000000     
  -6.0504316107625682E-002   7.2132728857652997E-002   0.0000000000000000     
  -6.3029499073544604E-002   7.7928906732079806E-002   0.0000000000000000     
  -6.5466291450282779E-002   8.3898575059175140E-002   0.0000000000000000     
  -6.0197611855947734E-002   6.1936920907994901E-002   0.0000000000000000     
  -6.3096213327745718E-002   6.7343448962244548E-002   0.0000000000000000     
  -6.5894338706888989E-002   7.2929719317516434E-002   0.0000000000000000     
  -6.8591987993377540E-002   7.8695731973810565E-002   0.0000000000000000     
  -7.1189161187211386E-002   8.4641486931126941E-002   0.0000000000000000     
  -6.5627681160222079E-002   6.3078624244966824E-002   0.0000000000000000     
  -6.8756677457772392E-002   6.8347829893197806E-002   0.0000000000000000     
  -7.1746250542386147E-002   7.3832349386160928E-002   0.0000000000000000     
  -7.4596400414063346E-002   7.9532182723856162E-002   0.0000000000000000     
  -7.7307127072803988E-002   8.5447329906283537E-002   0.0000000000000000     
  -5.5205840422417621E-002   8.2601544624885906E-002   0.0000000000000000     
  -5.7090618771742235E-002   8.8802855215258686E-002   0.0000000000000000     
  -5.8938660880411949E-002   9.5163017441700859E-002   0.0000000000000000     
  -6.0749966748426767E-002  0.10168203130421243        0.0000000000000000     
  -6.2524536375786685E-002  0.10835989680279337        0.0000000000000000     
  -6.0138517862018188E-002   8.3218594290428133E-002   0.0000000000000000     
  -6.2284653453493335E-002   8.9386191889468267E-002   0.0000000000000000     
  -6.4367058515526057E-002   9.5718651803389065E-002   0.0000000000000000     
  -6.6385733048116360E-002  0.10221597403219050        0.0000000000000000     
  -6.8340677051264273E-002  0.10887815857587257        0.0000000000000000     
  -6.5466291450282779E-002   8.3898575059175140E-002   0.0000000000000000     
  -6.7820164258353077E-002   9.0038352614134065E-002   0.0000000000000000     
  -7.0096588518268291E-002   9.6344858172151576E-002   0.0000000000000000     
  -7.2295564230028461E-002  0.10281809173322773        0.0000000000000000     
  -7.4417091393633561E-002  0.10945805329736248        0.0000000000000000     
  -7.1189161187211386E-002   8.4641486931126941E-002   0.0000000000000000     
  -7.3697151186321447E-002   9.0759337389256067E-002   0.0000000000000000     
  -7.6127250888638670E-002   9.7041636547988488E-002   0.0000000000000000     
  -7.8479460294163070E-002  0.10348838440732415        0.0000000000000000     
  -8.0753779402894632E-002  0.11009958096726309        0.0000000000000000     
  -7.7307127072803988E-002   8.5447329906283537E-002   0.0000000000000000     
  -7.9915614237398458E-002   9.1549146214834287E-002   0.0000000000000000     
  -8.2459045626637195E-002   9.7808986930899677E-002   0.0000000000000000     
  -8.4937421240520158E-002  0.10422685205447971        0.0000000000000000     
  -8.7350741079047389E-002  0.11080274158557439        0.0000000000000000     
  -6.2524536375786685E-002  0.10835989680279337        0.0000000000000000     
  -6.4242371517926597E-002  0.11518338553258023        0.0000000000000000     
  -6.5883473930281392E-002  0.12213926908870949        0.0000000000000000     
  -6.7447843612851097E-002  0.12922754747118120        0.0000000000000000     
  -6.8935480565635671E-002  0.13644822067999529        0.0000000000000000     
  -6.8340677051264273E-002  0.10887815857587257        0.0000000000000000     
  -7.0221287536645111E-002  0.11568741993491448        0.0000000000000000     
  -7.2016961515934272E-002  0.12262597260979541        0.0000000000000000     
  -7.3727698989131743E-002  0.12969381660051532        0.0000000000000000     
  -7.5353499956237510E-002  0.13689095190707420        0.0000000000000000     
  -7.4417091393633561E-002  0.10945805329736248        0.0000000000000000     
  -7.6453292649135168E-002  0.11624558350154938        0.0000000000000000     
  -7.8396290636584848E-002  0.12316152298278195        0.0000000000000000     
  -8.0246085355982530E-002  0.13020587174106019        0.0000000000000000     
  -8.2002676807328298E-002  0.13737862977638407        0.0000000000000000     
  -8.0753779402894632E-002  0.11009958096726309        0.0000000000000000     
  -8.2938386855396812E-002  0.11685787623248491        0.0000000000000000     
  -8.5021461292233119E-002  0.12374592020766913        0.0000000000000000     
  -8.7003002713403554E-002  0.13076371289281580        0.0000000000000000     
  -8.8883011118908090E-002  0.13791125428792494        0.0000000000000000     
  -8.7350741079047389E-002  0.11080274158557439        0.0000000000000000     
  -8.9676570155429985E-002  0.11752429812772103        0.0000000000000000     
  -9.1892473482879114E-002  0.12437916428445697        0.0000000000000000     
  -9.3998451061394706E-002  0.13136734005578221        0.0000000000000000     
  -9.5994502890976829E-002  0.13848882544169674        0.0000000000000000     
  -6.8935480565635671E-002  0.13644822067999529        0.0000000000000000     
  -7.0348620590633570E-002  0.14379029655210446        0.0000000000000000     
  -7.1689499489843253E-002  0.15124278292446122        0.0000000000000000     
  -7.2958117263264705E-002  0.15880567979706567        0.0000000000000000     
  -7.4154473910897911E-002  0.16647898716991771        0.0000000000000000     
  -7.5353499956237510E-002  0.13689095190707420        0.0000000000000000     
  -7.6899200645615826E-002  0.14420836432222950        0.0000000000000000     
  -7.8369637285630886E-002  0.15163703963873856        0.0000000000000000     
  -7.9764809876282705E-002  0.15917697785660143        0.0000000000000000     
  -8.1084718417571311E-002  0.16682817897581800        0.0000000000000000     
  -8.2002676807328298E-002  0.13737862977638407        0.0000000000000000     
  -8.3673260180841466E-002  0.14467133799662721        0.0000000000000000     
  -8.5265030666741362E-002  0.15207553730966325        0.0000000000000000     
  -8.6777988265027972E-002  0.15959122771549208        0.0000000000000000     
  -8.8212132975701352E-002  0.16721840921411377        0.0000000000000000     
  -8.8883011118908090E-002  0.13791125428792494        0.0000000000000000     
  -9.0670799196310548E-002  0.14517921757529767        0.0000000000000000     
  -9.2375679633174668E-002  0.15255827593723525        0.0000000000000000     
  -9.3997652429500533E-002  0.16004842937373770        0.0000000000000000     
  -9.5536717585288061E-002  0.16764967788480500        0.0000000000000000     
  -9.5994502890976829E-002  0.13848882544169674        0.0000000000000000     
  -9.7891817692023014E-002  0.14573200305824083        0.0000000000000000     
  -9.9701584184930830E-002  0.15308525552145469        0.0000000000000000     
 -0.10142380236970029       0.16054858283133830        0.0000000000000000     
 -0.10305847224633140       0.16812198498789166        0.0000000000000000     
  -7.4154473910897911E-002  0.16647898716991771        0.0000000000000000     
  -7.5279287032491066E-002  0.17425225026026575        0.0000000000000000     
  -7.6333274227792292E-002  0.18211501428535801        0.0000000000000000     
  -7.7316435496801589E-002  0.19006727924519456        0.0000000000000000     
  -7.8228770839518971E-002  0.19810904513977537        0.0000000000000000     
  -8.1084718417571311E-002  0.16682817897581800        0.0000000000000000     
  -8.2327736014140493E-002  0.17457985156935080        0.0000000000000000     
  -8.3492235770634124E-002  0.18242120421016209        0.0000000000000000     
  -8.4578217687052204E-002  0.19035223689825195        0.0000000000000000     
  -8.5585681763394719E-002  0.19837294963362026        0.0000000000000000     
  -8.8212132975701352E-002  0.16721840921411377        0.0000000000000000     
  -8.9565070883781628E-002  0.17494623879243834        0.0000000000000000     
  -9.0834408074289066E-002  0.18276387343737582        0.0000000000000000     
  -9.2020144547223612E-002  0.19067131314892610        0.0000000000000000     
  -9.3122280302585306E-002  0.19866855792708937        0.0000000000000000     
  -9.5536717585288061E-002  0.16764967788480500        0.0000000000000000     
  -9.6991291641414498E-002  0.17535141192952838        0.0000000000000000     
  -9.8359791138757105E-002  0.18314302196699911        0.0000000000000000     
  -9.9642216077315854E-002  0.19102450799721718        0.0000000000000000     
 -0.10083856645709076       0.19899587002018268        0.0000000000000000     
 -0.10305847224633140       0.16812198498789166        0.0000000000000000     
 -0.10460639828703906       0.17579537098062092        0.0000000000000000     
 -0.10606838496403823       0.18355864979903208        0.0000000000000000     
 -0.10744443227732889       0.19141182144312516        0.0000000000000000     
 -0.10873454022691106       0.19935488591290015        0.0000000000000000     
  -7.8228770839518971E-002  0.19810904513977537        0.0000000000000000     
  -7.9068991564437627E-002  0.20623326986329246        0.0000000000000000     
  -7.9835808980050757E-002  0.21443291130993788        0.0000000000000000     
  -8.0529223086358362E-002  0.22270796947971166        0.0000000000000000     
  -8.1149233883360414E-002  0.23105844437261380        0.0000000000000000     
  -8.5585681763394719E-002  0.19837294963362026        0.0000000000000000     
  -8.6517992391041063E-002  0.20647552285900744        0.0000000000000000     
  -8.7378513961370696E-002  0.21465213701715380        0.0000000000000000     
  -8.8167246474383648E-002  0.22290279210805919        0.0000000000000000     
  -8.8884189930079849E-002  0.23122748813172384        0.0000000000000000     
  -9.3122280302585306E-002  0.19866855792708937        0.0000000000000000     
  -9.4146783296615286E-002  0.20674800673411459        0.0000000000000000     
  -9.5099621485554800E-002  0.21490205853225078        0.0000000000000000     
  -9.5980794869403779E-002  0.22313071332149803        0.0000000000000000     
  -9.6790303448162279E-002  0.23143397110185629        0.0000000000000000     
 -0.10083856645709076       0.19899587002018268        0.0000000000000000     
 -0.10195536428116028       0.20705072148861375        0.0000000000000000     
 -0.10299913155260296       0.21518267585522888        0.0000000000000000     
 -0.10396986827141878       0.22339173312002802        0.0000000000000000     
 -0.10486757443760775       0.23167789328301117        0.0000000000000000     
 -0.10873454022691106       0.19935488591290015        0.0000000000000000     
 -0.10994373534467608       0.20738366712250514        0.0000000000000000     
 -0.11107704416251526       0.21549398898608818        0.0000000000000000     
 -0.11213446668042865       0.22368585150364928        0.0000000000000000     
 -0.11311600289841624       0.23195925467518844        0.0000000000000000     
  -8.1149233883360414E-002  0.23105844437261380        0.0000000000000000     
  -8.1685351825425287E-002  0.23950490194542262        0.0000000000000000     
  -8.2127087366921314E-002  0.24806790815491656        0.0000000000000000     
  -8.2474440507848495E-002  0.25674746300109558        0.0000000000000000     
  -8.2727411248206817E-002  0.26554356648395971        0.0000000000000000     
  -8.8884189930079849E-002  0.23122748813172384        0.0000000000000000     
  -8.9514741444897961E-002  0.23965192305975214        0.0000000000000000     
  -9.0044298135276674E-002  0.24820179486374866        0.0000000000000000     
  -9.0472860001215960E-002  0.25687710354371351        0.0000000000000000     
  -9.0800427042715834E-002  0.26567784909964648        0.0000000000000000     
  -9.6790303448162279E-002  0.23143397110185629        0.0000000000000000     
  -9.7518679669501632E-002  0.23983857977441825        0.0000000000000000     
  -9.8156455981093210E-002  0.24837128724027663        0.0000000000000000     
  -9.8703632382936987E-002  0.25703209349943135        0.0000000000000000     
  -9.9160208875032990E-002  0.26582099855188246        0.0000000000000000     
 -0.10486757443760775       0.23167789328301117        0.0000000000000000     
 -0.10569716649923631       0.24006487208942104        0.0000000000000000     
 -0.10646356090437091       0.24857638528450038        0.0000000000000000     
 -0.10716675765301158       0.25721243286824924        0.0000000000000000     
 -0.10780675674515830       0.26597301484066754        0.0000000000000000     
 -0.11311600289841624       0.23195925467518844        0.0000000000000000     
 -0.11405020193410195       0.24033080000476040        0.0000000000000000     
 -0.11496561290510977       0.24881708899641994        0.0000000000000000     
 -0.11586223581143970       0.25741812165016703        0.0000000000000000     
 -0.11674007065309172       0.26613389796600173        0.0000000000000000     
  -8.2727411248206817E-002  0.26554356648395971        0.0000000000000000     
  -8.2924942161327023E-002  0.27448258725081676        0.0000000000000000     
  -8.3105975820539801E-002  0.28359089394897474        0.0000000000000000     
  -8.3270512225845153E-002  0.29286848657843356        0.0000000000000000     
  -8.3418551377243105E-002  0.30231536513919322        0.0000000000000000     
  -9.0800427042715834E-002  0.26567784909964648        0.0000000000000000     
  -9.1057446504193201E-002  0.27466697064570356        0.0000000000000000     
  -9.1274365630064982E-002  0.28390740729604053        0.0000000000000000     
  -9.1451184420331164E-002  0.29339915905065722        0.0000000000000000     
  -9.1587902874991772E-002  0.30314222590955381        0.0000000000000000     
  -9.9160208875032990E-002  0.26582099855188246        0.0000000000000000     
  -9.9537337526961561E-002  0.27483619267612153        0.0000000000000000     
  -9.9846170408303000E-002  0.28417586615064006        0.0000000000000000     
 -0.10008670751905735       0.29384001897543816        0.0000000000000000     
 -0.10025894885922458       0.30382865115051588        0.0000000000000000     
 -0.10780675674515830       0.26597301484066754        0.0000000000000000     
 -0.10836461522963206       0.27499025334207056        0.0000000000000000     
 -0.10882139015525387       0.28439627051277344        0.0000000000000000     
 -0.10917708152202371       0.29419106635277642        0.0000000000000000     
 -0.10943168932994160       0.30437464086207922        0.0000000000000000     
 -0.11674007065309172       0.26613389796600173        0.0000000000000000     
 -0.11753927961220473       0.27512915264355065        0.0000000000000000     
 -0.11820002487091755       0.28456862038244080        0.0000000000000000     
 -0.11872230642923023       0.29445230118267185        0.0000000000000000     
 -0.11910612428714276       0.30478019504424403        0.0000000000000000     
 </DataArray>
 <DataArray  type="Float64" Name="stress" NumberOfComponents="3" format="ascii">
   6032080318.0748901        57817570.218091488        19728586.079162177     
   5820513338.0597248        32081748.964539528       -1071047.5738921862     
   5610515381.6557064        11576006.414832354       -11768599.266731998     
   5402086448.8628550       -3699657.4309930801       -12364068.999359822     
   5195226539.6811523       -13745242.572987556       -2857456.7717705336     
   5627685230.7953367        22507652.543407917        181088375.64054108     
   5441779156.5998259        10845341.609521627        169027589.34786817     
   5256645202.0837803        1756762.9404835701        163356146.26711932     
   5072283367.2471771       -4758083.4637200832        164074046.39827278     
   4888693652.0900278       -8699197.6030807495        171181289.74132982     
   5249660285.8444386       -4891222.4326887131        345365040.66480273     
   5078807292.4734297       -5662370.5454387665        341113380.47887588     
   4907929514.8501673       -6516132.8323795795        339538324.75655448     
   4737026952.9746485       -7452509.2934832573        340639873.49782658     
   4566099606.8468819       -8471499.9287703037        344418026.70270348     
   4898005483.2221851       -24379054.710185528        512558581.15196288     
   4731597745.6805077       -17441387.500370979        515186325.81911790     
   4564368319.9548702       -13242680.903743744        516777936.20156878     
   4396317206.0452785       -11782934.920304775        517333412.29931355     
   4227444403.9517226       -13062149.550068855        516852754.11234820     
   4572720822.9285870       -35955844.289088964        682668997.10201418     
   4400150516.2210741       -24491709.255241632        691246425.36860156     
   4225961617.3978920       -18422881.273612976        695074980.60217035     
   4050154126.4590521       -17749360.344187975        694154662.80272758     
   3872728043.4045553       -22471146.466966391        688485471.97026694     
   5195226539.6811523       -13745242.572987556       -2857456.7717705336     
   5033795898.6124201       -7790901.7686810493        2308337.5762268119     
   4872359626.5780849       -1855330.8497028351        8724283.6291911975     
   4710917723.5781345        4061470.1838934422        16390381.387119422     
   4549470189.6125832        9959501.3321335316        25306630.850008283     
   4888693652.0900278       -8699197.6030807495        171181289.74132982     
   4732490890.5059166       -3367921.1650896072        171510725.21447814     
   4576212473.7514429        1711171.3716690540        174755238.82459679     
   4419858401.8265963        6538080.0071902275        180914830.57170048     
   4263428674.7313781        11112804.741474867        189989500.45577961     
   4566099606.8468819       -8471499.9287703037        344418026.70270348     
   4419881657.4102983       -2336208.0582392216        339829408.39543772     
   4273518028.5985756        3313485.8951802254        339820794.65716374     
   4127008720.4117208        8477581.9314854145        344392185.48788005     
   3980353732.8497305        13156080.050666571        353543580.88758242     
   4227444403.9517226       -13062149.550068855        516852754.11234820     
   4095968199.3255529       -4695762.4481205940        507264387.11911565     
   3964276291.1194811        2951612.7208230495        503920951.12688631     
   3832368679.3335114        9879975.9567806721        506822446.13565999     
   3700245363.9676452        16089327.259735346        515968872.14543867     
   3872728043.4045553       -22471146.466966391        688485471.97026694     
   3760750516.2516880       -10446584.334745884        673815661.38550901     
   3648487261.3141556        625551.84859061241        667055708.23376703     
   3535938278.5919652        10745262.083065033        668205612.51504147     
   3423103568.0851154        19912546.368667364        677265374.22933376     
   4549470189.6125832        9959501.3321335316        25306630.850008283     
   4345352191.2772894        3318761.4470787048        13383312.825693699     
   4141412813.9807696       -2726574.9753968716        7173007.8479181034     
   3937652057.7230167       -8176507.9353101254        6675715.9167007115     
   3734069922.5040193       -13031037.432717085        11891437.032022309     
   4263428674.7313781        11112804.741474867        189989500.45577961     
   4073670090.8965549        5776627.9230384827        178945875.05020538     
   3884045022.9809957        885504.16881489754        172933887.04461822     
   3694553470.9847074       -3560566.5211725235        171953536.43900114     
   3505195434.9076815       -7561584.1469511986        176004823.23337689     
   3980353732.8497305        13156080.050666571        353543580.88758242     
   3803007775.9537554        8540430.0303533077        343327025.46134871     
   3625750229.8575392        4219482.6759212017        337460731.78852135     
   3448581094.5610952        193237.98738741875        335944699.86910522     
   3271500370.0644159       -3538304.0352704525        338778929.70310533     
   3700245363.9676452        16089327.259735346        515968872.14543867     
   3533365246.4488893        11610167.769053698        506526764.05911171     
   3366528434.6104007        7275360.5459265709        500753542.07962871     
   3199734928.4521790        3084905.5903627872        498649206.20699441     
   3032984727.9742212       -961197.09766483307        500213756.44119620     
   3423103568.0851154        19912546.368667364        677265374.22933376     
   3264742502.3819628        14985841.139139771        668545090.84350479     
   3106379637.2395759        10053137.778825998        662812317.91794813     
   2948014972.6579552        5114436.2877426147        660067055.45267642     
   2789648508.6371002        169736.66586625576        660309303.44767499     
   3734069922.5040193       -13031037.432717085        11891437.032022309     
   3565114031.6860871       -8251175.6316802502        8314304.1424367409     
   3395482718.4962864       -5722721.7368605137        8260904.6703989543     
   3225175982.9346161       -5445675.7482715845        11731238.615934571     
   3054193825.0010762       -7420037.6659271717        18725305.979030780     
   3505195434.9076815       -7561584.1469511986        176004823.23337689     
   3345342735.4301863       -3138772.9188134670        170122772.06087580     
   3185074472.4778814       -101173.27338123322        167801838.63412359     
   3024390646.0507450        1551214.7892858982        169042022.95312530     
   2863291256.1487908        1818391.2692190409        173843325.01787588     
   3271500370.0644159       -3538304.0352704525        338778929.70310533     
   3120857674.2936010        559500.32984077930        330895128.96092194     
   2970059273.9450259        4138289.4357491732        326609830.29267621     
   2819105169.0186639        7198063.2823739052        325923033.69836819     
   2667995359.5145431        9738821.8697963953        328834739.17798895     
   3032984727.9742212       -961197.09766483307        500213756.44119620     
   2891658848.2763352        2843644.1143076420        490631374.84256256     
   2750437122.8977242        6995666.3905526400        484684879.64605135     
   2609319551.8383870        11494869.731033087        482374270.85165364     
   2468306135.0983276        16341254.135780215        483699548.45936847     
   2789648508.6371002        169736.66586625576        660309303.44767499     
   2657746257.3783684        3713658.4345476627        649331509.70581341     
   2526208019.3359709        8470957.5910097361        642026986.69425201     
   2395033794.5098953        14441634.135205030        638395734.41299415     
   2264223582.9001460        21625688.067167521        638437752.86203194     
   3054193825.0010762       -7420037.6659271717        18725305.979030780     
   2887459305.8202171       -8341065.4915748835        11800514.793714765     
   2721254522.7252011       -7496306.3644022942        6367265.9321646085     
   2555579475.7160459       -4885760.2843532562        2425559.3943867115     
   2390434164.7927575       -509427.25143849850       -24604.819617643705     
   2863291256.1487908        1818391.2692190409        173843325.01787588     
   2701062816.0183544        1535810.4837723970        166019021.81400716     
   2539110790.6615191        2174612.2770019770        160022057.00819075     
   2377435180.0782747        3734796.6488656998        155852430.60040739     
   2216035984.2686334        6216363.5993981361        153510142.59067887     
   2667995359.5145431        9738821.8697963953        328834739.17798895     
   2511232415.7895761        10382513.331048250        319815382.42462528     
   2354492565.5259447        11103182.996757030        312959160.14356637     
   2197775808.7236633        11900830.866965652        308266072.33482414     
   2041082145.3827403        12775456.941697001        305736118.99838853     
   2468306135.0983276        16341254.135780215        483699548.45936847     
   2317968105.1338768        18199043.050233006        473189596.62554228     
   2167399847.3185201        19289405.795004487        465178575.33828998     
   2016601361.6522551        19612342.370086670        459666484.59761298     
   1865572648.1350794        19167852.775462389        456653324.40351713     
   2264223582.9001460        21625688.067167521        638437752.86203194     
   2121269884.0512648        24985399.641357303        626141664.41677094     
   1977832636.0392244        26733280.671679020        616680302.59235609     
   1833911838.8640199        26869331.158116698        610053667.38879204     
   1689507492.5256567        25393551.100692511        606261758.80606782     
   2390434164.7927575       -509427.25143849850       -24604.819617643705     
   2248108544.6564665        6673375.0246388912       -6513636.0544205429     
   2102589822.7246568        3212504.6489881277       -11010458.883257220     
   1953877998.9973650       -10892038.378276587       -13515073.306145610     
   1801973073.4745533       -35640254.057263136       -14027479.323052406     
   2216035984.2686334        6216363.5993981361        153510142.59067887     
   2077673867.5681717        12845234.423613191        143335869.78578782     
   1937213037.2859113        12478393.308482528        134346067.70677495     
   1794653493.4218688        5115840.2540985346        126540736.35365048     
   1649995235.9760151       -9242424.7396566868        119919875.72638111     
   2041082145.3827403        12775456.941697001        305736118.99838853     
   1904375710.1750169        18158049.731155992        293153390.87274128     
   1766664949.5991998        20192891.293627143        280947395.79288286     
   1627949863.6552997        18879981.629165113        269118133.75881642     
   1488230452.3433018        14219320.737703979        257665604.77054015     
   1865572648.1350794        19167852.775462389        456653324.40351713     
   1728214072.4769819        22611820.947208166        442938927.20643467     
   1590945559.6644979        26355998.604327917        428793525.37505430     
   1453767109.6976416        30400385.746885002        414217118.90937871     
   1316678722.5763884        34744982.374788046        399209707.80940002     
   1689507492.5256567        25393551.100692511        606261758.80606782     
   1549188954.4740818        26206548.071810722        592692478.78687835     
   1410054867.4818275        30967715.240664840        577884456.45329511     
   1272105231.5489042        39677052.607277870        561837691.80533171     
   1135340046.6752982        52334560.171625733        544552184.84298348     
   1801973073.4745533       -35640254.057263136       -14027479.323052406     
   1771146584.3679504       -16705972.143154263       -8354460.6977279903     
   1748365262.9919658        29045535.539681435       -41486358.733773433     
   1733629109.3465700        101614268.99114782       -113423173.43121821     
   1726938123.4317908        201000228.21133542       -224164904.79004052     
   1649995235.9760151       -9242424.7396566868        119919875.72638111     
   1527386223.7347932       -13881752.656605303        135502614.47660822     
   1408922626.2943187       -4703031.2377080917        124728392.82259755     
   1294604443.6545894        18293739.516991138        87597210.764346510     
   1184431675.8155975        55108559.607513070        24109068.301860258     
   1488230452.3433018        14219320.737703979        257665604.77054015     
   1309404506.2735815       -3323940.2185059190        278608351.89415598     
   1130824222.0747690       -20048328.271679938        285642094.87068272     
   952489599.74683547       -35953843.421923816        278766833.70013422     
   774400639.28979826       -51040485.669190884        257982568.38250110     
   1316678722.5763884        34744982.374788046        399209707.80940002     
   1117201431.9843345        14967465.171226144        420962751.55491972     
   914070050.33331203       -16990355.562218249        441254747.41050339     
   707284577.62331378       -61128479.825582534        460085695.37615561     
   496845013.85436898       -117446907.61875734        477455595.45185822     
   1135340046.6752982        52334560.171625733        544552184.84298348     
   950777000.86703253        40992463.512501806        562565813.45890141     
   758660111.06994700        4470886.8906560242        591566350.44204056     
   558989377.28404653       -57230169.693908721        631553795.79238546     
   351764799.50932312       -144110706.24122196        682528149.50994647     
   1726938123.4317908        201000228.21133542       -224164904.79004052     
   1456472080.8498623        184660253.88520962       -96641157.858747318     
   1153833343.1442680        61077962.480163574        60092591.755233325     
   819021910.31500125       -169746646.00378478        246036344.05187833     
   452037782.36207205       -507813571.56658566        461190099.03118002     
   1184431675.8155975        55108559.607513070        24109068.301860258     
   977461201.18070793        11824777.812496066        155495727.05606443     
   732679845.91206574       -157495272.76167506        312732929.42582709     
   450087610.00963312       -452851592.11513644        495820675.41115201     
   129684493.47345084       -874244180.24780750        704758965.01201749     
   774400639.28979826       -51040485.669190884        257982568.38250110     
   621327278.12447941       -124147611.27625987        386654255.86449534     
   424804850.81528318       -342084957.36292773        537817027.89493573     
   184833357.36222616       -704852523.92915308        711470884.47381842     
  -98587202.234698772       -1212450310.9748878        907615825.60113704     
   496845013.85436898       -117446907.61875734        477455595.45185822     
   388070311.68114084       -223256913.38120201        596834428.56653130     
   230208357.85394195       -492691091.32352805        735344887.16252160     
   23259152.372797787       -925749441.44569600        892986971.23984694     
  -232777304.76234362       -1522431963.7478302        1069760680.7984875     
   351764799.50932312       -144110706.24122196        682528149.50994647     
   277690301.85072488       -285503128.50221413        786036245.16216850     
   148890367.02804866       -609313674.64346075        905316507.22860825     
  -34635004.958697498       -1115542344.6649375        1040368935.7092606     
  -272885814.10949528       -1804189138.5665977        1191193530.6041203     
   4572720822.9285870       -35955844.289088964        682668997.10201418     
   4400150516.2210741       -24491709.255241632        691246425.36860156     
   4225961617.3978920       -18422881.273612976        695074980.60217035     
   4050154126.4590521       -17749360.344187975        694154662.80272758     
   3872728043.4045553       -22471146.466966391        688485471.97026694     
   4261027895.1457233        15441719.881914616        808150800.07787514     
   4076926683.7410498        7391630.7697479725        804646114.87779987     
   3892145635.4202142       -2924581.3963022232        801523658.51585901     
   3706684750.1832108       -15506916.616251707        798783430.99204016     
   3520544028.0300317       -30355374.890090227        796425432.30635631     
   3911315212.6952391        55433357.652633905        926910014.03215933     
   3730343387.6538291        32267131.712583542        912418429.76483488     
   3549630480.8957486        9963966.7169644833        903440176.20678484     
   3369176492.4209909       -11476137.334230185        899975253.35801172     
   3188981422.2295680       -32053180.440991163        902023661.21851087     
   3523582775.5771403        84019069.023066044        1038946638.9648681     
   3360400627.9594007        50134793.573256969        1014563370.0297053     
   3198416153.8244901        20242763.066195250        1000824533.6749663     
   3037629353.1724024       -5657022.4981151819        997730129.90064359     
   2878040226.0031366       -27564563.119683385        1005280158.7067404     
   3097830583.7914176        101198853.99321437        1144260674.8760021     
   2967098404.6577702        60994616.351766229        1111080935.6724124     
   2838502654.2064447        27911807.651392817        1093676730.9203887     
   2712043332.4374380        1950427.8920791149        1092048060.6199334     
   2587720439.3507538       -16889522.926164269        1106194924.7710409     
   3872728043.4045553       -22471146.466966391        688485471.97026694     
   3760750516.2516880       -10446584.334745884        673815661.38550901     
   3648487261.3141556        625551.84859061241        667055708.23376703     
   3535938278.5919652        10745262.083065033        668205612.51504147     
   3423103568.0851154        19912546.368667364        677265374.22933376     
   3520544028.0300317       -30355374.890090227        796425432.30635631     
   3426197302.7839937       -18559431.611331701        787756843.11107183     
   3331941097.4082623       -6461755.4315400124        784793309.99267101     
   3237775411.9028416        5937653.6492810249        787534832.95114613     
   3143700246.2677326        18638795.631142735        795981411.98649943     
   3188981422.2295680       -32053180.440991163        902023661.21851087     
   3105966066.4442439       -22375685.749527931        899795249.01017153     
   3023417478.1842012       -11142299.307131767        901067091.52257740     
   2941335657.4494472        1646978.8862190247        905839188.75572252     
   2859720604.2399697        15992148.830502629        914111540.70961571     
   2878040226.0031366       -27564563.119683385        1005280158.7067404     
   2800056807.2324328       -21895346.749345422        1009930879.0828125     
   2722916403.6419773       -13416079.778166890        1015877052.8234892     
   2646619015.2317829       -2126762.2061265707        1023118679.9287719     
   2571164642.0018382        11972605.966749191        1031655760.3986622     
   2587720439.3507538       -16889522.926164269        1106194924.7710409     
   2508469525.1485596       -17118414.610783458        1118163733.3289917     
   2430437873.7815900       -13283096.844648719        1129223193.8954082     
   2353625485.2498474       -5383569.6277575493        1139373306.4702995     
   2278032359.5533338        6580167.0398875475        1148614071.0536547     
   3423103568.0851154        19912546.368667364        677265374.22933376     
   3264742502.3819628        14985841.139139771        668545090.84350479     
   3106379637.2395759        10053137.778825998        662812317.91794813     
   2948014972.6579552        5114436.2877426147        660067055.45267642     
   2789648508.6371002        169736.66586625576        660309303.44767499     
   3143700246.2677326        18638795.631142735        795981411.98649943     
   2994453286.8719893        14803560.957349181        786003371.06436563     
   2845125804.1812391        10699915.300200462        779796792.86709416     
   2695717798.1954741        6327858.6596630812        777361677.39469707     
   2546229268.9146967        1687391.0357570648        778698024.64716756     
   2859720604.2399697        15992148.830502629        914111540.70961571     
   2721827614.7647624        13920343.796384096        902783897.75276077     
   2583775378.1387682        11317714.926307797        896011669.78536642     
   2445563894.3619857        8184262.2202779055        893794856.80743563     
   2307193163.4344187        4519985.6782904863        896133458.81897032     
   2571164642.0018382        11972605.966749191        1031655760.3986622     
   2446865486.0602894        12336189.656251431        1018886670.9086889     
   2322328359.1121721        11906536.657192826        1011456948.6727659     
   2197553261.1574984        10683646.969606400        1009366593.6908993     
   2072540192.1962521        8667520.5934547186        1012615605.9630879     
   2278032359.5533338        6580167.0398875475        1148614071.0536547     
   2169566900.7585626        10051098.536928773        1134311690.5321515     
   2060784747.1014497        12466380.492833972        1126132629.5292935     
   1951685898.5820022        13826012.907619834        1124076888.0450852     
   1842270355.2002096        14129995.781256437        1128144466.0795255     
   2789648508.6371002        169736.66586625576        660309303.44767499     
   2657746257.3783684        3713658.4345476627        649331509.70581341     
   2526208019.3359709        8470957.5910097361        642026986.69425201     
   2395033794.5098953        14441634.135205030        638395734.41299415     
   2264223582.9001460        21625688.067167521        638437752.86203194     
   2546229268.9146967        1687391.0357570648        778698024.64716756     
   2423883283.5908895        5580531.4024196863        769625887.49353623     
   2301875521.4325156        10601082.320523977        764150864.49847662     
   2180205982.4395700        16749043.790056467        762272955.66198301     
   2058874666.6120629        24024415.811046481        763992160.98405612     
   2307193163.4344187        4519985.6782904863        896133458.81897032     
   2194185853.8405771        8697067.5814431906        888936889.86086214     
   2081490977.3612745        13915593.199709535        885261278.48958683     
   1969108533.9965067        20175562.533093095        885106624.70514667     
   1857038523.7462702        27476975.581595659        888472928.50754178     
   2072540192.1962521        8667520.5934547186        1012615605.9630879     
   1968653968.1274288        13063266.971608520        1007264516.8077936     
   1865054387.1222398        18414490.228550196        1005358228.6675929     
   1761741449.1806922        24721190.364294410        1006896741.5424966     
   1658715154.3027854        31983367.378835678        1011880055.4325004     
   1842270355.2002096        14129995.781256437        1128144466.0795255     
   1747287626.4514444        18679129.572926283        1124608768.3343275     
   1652565750.7154169        24097773.407059371        1124441715.0324922     
   1558104727.9921353        30385927.283679247        1127643306.1740236     
   1463904558.2816010        37543591.202779174        1134213541.7589207     
   2264223582.9001460        21625688.067167521        638437752.86203194     
   2121269884.0512648        24985399.641357303        626141664.41677094     
   1977832636.0392244        26733280.671679020        616680302.59235609     
   1833911838.8640199        26869331.158116698        610053667.38879204     
   1689507492.5256567        25393551.100692511        606261758.80606782     
   2058874666.6120629        24024415.811046481        763992160.98405612     
   1923595883.1025109        27154651.350741744        752604857.87523186     
   1788004659.1681905        29243418.807863712        744339565.18377864     
   1652100994.8090990        30290718.182420969        739196282.90969598     
   1515884890.0252318        30296549.474393427        737175011.05297792     
   1857038523.7462702        27476975.581595659        888472928.50754178     
   1730255466.4232609        30623978.340957522        878194037.59661281     
   1603331077.4138706        33299875.479061782        871324440.89957643     
   1476265356.7180974        35504666.995887458        867864138.41642833     
   1349058304.3359447        37238352.891438842        867813130.14717996     
   1658715154.3027854        31983367.378835678        1011880055.4325004     
   1541248634.0135212        35393380.612036407        1002909203.5809164     
   1423811890.7762733        38902650.685287118        997634929.73975146     
   1306404924.5910211        42511177.598531604        996057233.90899909     
   1189027735.4577889        46218961.351828694        998176116.08867073     
   1463904558.2816010        37543591.202779174        1134213541.7589207     
   1356575385.8732893        41462858.163970828        1126750355.8281429     
   1249447099.2553840        46051744.426503181        1123271031.7043092     
   1142519698.4278777        51310249.990375161        1123775569.3874137     
   1035793183.3907640        57238374.855544567        1128263968.8774419     
   1689507492.5256567        25393551.100692511        606261758.80606782     
   1549188954.4740818        26206548.071810722        592692478.78687835     
   1410054867.4818275        30967715.240664840        577884456.45329511     
   1272105231.5489042        39677052.607277870        561837691.80533171     
   1135340046.6752982        52334560.171625733        544552184.84298348     
   1515884890.0252318        30296549.474393427        737175011.05297792     
   1373949766.2083094        28511832.114709675        727745452.69732809     
   1232277735.8215976        27604092.855738878        718910581.68212998     
   1090868798.8650892        27573331.697456598        710670398.00738978     
   949722955.33880293        28419548.639895678        703024901.67310190     
   1349058304.3359447        37238352.891438842        867813130.14717996     
   1210744965.1960595        34427432.333666980        861448376.22111213     
   1071773361.8572773        29422297.779565990        857511739.29033244     
   932143494.31960166        22222949.229140282        856003219.35485458     
   791855362.58301711        12829386.682381749        856922816.41465414     
   1189027735.4577889        46218961.351828694        998176116.08867073     
   1059574551.4373494        43953348.728698790        993801249.35821271     
   928541745.58888268        36422330.012167513        993687929.27789497     
   795929317.91241968        23625905.202305615        997836155.84770882     
   661737268.40794694        5564074.2990742028        1006245929.0676486     
   1035793183.3907640        57238374.855544567        1128263968.8774419     
   920438524.93215168        57089581.299760967        1124804072.1086574     
   802582887.01641774        48604189.553574413        1127439151.6448314     
   682226269.64356339        31782199.616985291        1136169207.4859688     
   559368672.81358814        6623611.4899934232        1150994239.6320894     
   1135340046.6752982        52334560.171625733        544552184.84298348     
   950777000.86703253        40992463.512501806        562565813.45890141     
   758660111.06994700        4470886.8906560242        591566350.44204056     
   558989377.28404653       -57230169.693908721        631553795.79238546     
   351764799.50932312       -144110706.24122196        682528149.50994647     
   949722955.33880293        28419548.639895678        703024901.67310190     
   790827097.45958054        11251398.629673004        720867774.45148349     
   623301533.41598523       -34682438.595122874        748812203.42756534     
   447146263.20803475       -109381963.03443637        786858188.60133910     
   262361286.83572292       -212847174.68829060        835005729.97279906     
   791855362.58301711        12829386.682381749        856922816.41465414     
   656097115.00562632       -10923689.967133015        873339760.81737614     
   510633299.08832592       -67028661.083003581        898972909.24826360     
   355463914.83111954       -155485526.66522825        933822261.70732152     
   190588962.23401618       -276294286.71378446        977887818.19454920     
   661737268.40794694        5564074.2990742028        1006245929.0676486     
   546587053.50517929       -25532802.277883589        1019981772.5565745     
   420655408.08695978       -92567780.573003411        1042048467.9041412     
   283942332.15328836       -195540860.58629826        1072446015.1103506     
   136447825.70418072       -334452042.31772023        1111174414.1752088     
   559368672.81358814        6623611.4899934232        1150994239.6320894     
   462296912.95824111       -32575938.302568197        1160793809.6690695     
   353367860.41189086       -111299797.06512409        1178038879.3951833     
   232581515.17455864       -229547964.79762539        1202729448.8104165     
   99937877.246239752       -387320441.50008768        1234865517.9147677     
   351764799.50932312       -144110706.24122196        682528149.50994647     
   277690301.85072488       -285503128.50221413        786036245.16216850     
   148890367.02804866       -609313674.64346075        905316507.22860825     
  -34635004.958697498       -1115542344.6649375        1040368935.7092606     
  -272885814.10949528       -1804189138.5665977        1191193530.6041203     
   262361286.83572292       -212847174.68829060        835005729.97279906     
   223570278.22048029       -352657820.16007340        884586987.79699552     
   140567025.78384992       -639842611.70312083        945172199.21204698     
   13351529.525825500       -1074401549.3174918        1016761364.2179726     
  -158076210.55355805       -1656334633.0030677        1099354482.8147380     
   190588962.23401618       -276294286.71378446        977887818.19454920     
   173457977.45255181       -418610194.95919788        985807630.42384672     
   122627942.19237843       -673256271.46697617        999963183.42064941     
   38098856.453513205       -1040232516.2370764        1020354477.1849676     
  -80129279.764050364       -1519538929.2694933        1046981511.7167884     
   136447825.70418072       -334452042.31772023        1111174414.1752088     
   127353399.54692367       -483360252.89967215        1089698173.0427451     
   95073116.253654897       -709554653.93498027        1069689459.8544260     
   39606975.824355483       -1013035245.4237181        1051148274.6102636     
  -39045021.740948260       -1393802027.3658209        1034074617.3102670     
   99937877.246239752       -387320441.50008768        1234865517.9147677     
   85256544.503617018       -546907993.98139679        1196258615.6536567     
   57902547.967650801       -748737759.10719550        1154351028.5133638     
   17875887.638351083       -992809736.87743068        1109142756.4938691     
  -34823436.484270513       -1279123927.2920887        1060633799.5951616     
   3097830583.7914176        101198853.99321437        1144260674.8760021     
   2967098404.6577702        60994616.351766229        1111080935.6724124     
   2838502654.2064447        27911807.651392817        1093676730.9203887     
   2712043332.4374380        1950427.8920791149        1092048060.6199334     
   2587720439.3507538       -16889522.926164269        1106194924.7710409     
   2636627713.3079615       -20676262.471432447        1241673710.0193150     
   2552460844.0871310       -7391299.5136282444        1222932563.3880007     
   2466756636.5022192        769202.23057007790        1211891689.7920735     
   2379515090.5532260        3805242.7611596584        1208551089.2315352     
   2290736206.2401481        1716822.0781372786        1212910761.7063894     
   2227215568.3332262       -127014161.28346121        1356429625.0263975     
   2166541833.5504293       -67161650.368843913        1347841009.4132125     
   2100656993.3571448       -24679490.822508335        1338877405.4192476     
   2029561047.7533777        432317.35554945469        1329538813.0444915     
   1953253996.7391245        8173774.1653200388        1319825232.2889535     
   1869594148.8672190       -217814842.44287241        1488528419.8972349     
   1809341373.0476635       -118316436.21387815        1485806273.7480528     
   1740203724.7712190       -48434271.507835150        1474633877.8019109     
   1662181204.0378897       -8168348.3247493505        1455011232.0588078     
   1575273810.8476701        2481333.3353718519        1426938336.5187404     
   1563763454.9099395       -293078305.94966543        1637970094.6318371     
   1480859462.5788362       -160855657.04873109        1636828356.3925185     
   1385396830.7444441       -70495139.825428069        1619161106.9400651     
   1277375559.4067645       -21996754.279747367        1584968346.2744718     
   1156795648.5657935       -15360500.411706209        1534250074.3957398     
   2587720439.3507538       -16889522.926164269        1106194924.7710409     
   2508469525.1485596       -17118414.610783458        1118163733.3289917     
   2430437873.7815900       -13283096.844648719        1129223193.8954082     
   2353625485.2498474       -5383569.6277575493        1139373306.4702995     
   2278032359.5533338        6580167.0398875475        1148614071.0536547     
   2290736206.2401481        1716822.0781372786        1212910761.7063894     
   2213723526.6753001        1597400.9602018595        1213470540.6577711     
   2137219045.7870202        3171975.4308208227        1216636124.1140242     
   2061222763.5753071        6440545.4899985790        1222407512.0751436     
   1985734680.0401657        11403111.137746334        1230784704.5411346     
   1953253996.7391245        8173774.1653200388        1319825232.2889535     
   1888522844.6584780        11176811.468110561        1308146406.7820005     
   1823588827.0957410        13503630.497267842        1302588538.2763200     
   1758451944.0509179        15154231.252806902        1303151626.7719088     
   1693112195.5240057        16128613.734709144        1309835672.2687693     
   1575273810.8476701        2481333.3353718519        1426938336.5187404     
   1532867479.0980837        11619816.912945032        1402191331.7016850     
   1489547217.7077541        17711868.354705751        1387080436.3823032     
   1445313026.6766796        20757487.660650492        1381605650.5605941     
   1400164906.0048597        20756674.830777109        1385766974.2365522     
   1156795648.5657935       -15360500.411706209        1534250074.3957398     
   1146757429.9941313        2926417.2947252989        1495605315.4168220     
   1135094217.6230624        15796689.003134608        1470111818.4319708     
   1121806011.4525948        23250314.713548362        1457769583.4411926     
   1106892811.4827220        25287294.425944149        1458578610.4444895     
   2278032359.5533338        6580167.0398875475        1148614071.0536547     
   2169566900.7585626        10051098.536928773        1134311690.5321515     
   2060784747.1014497        12466380.492833972        1126132629.5292935     
   1951685898.5820022        13826012.907619834        1124076888.0450852     
   1842270355.2002096        14129995.781256437        1128144466.0795255     
   1985734680.0401657        11403111.137746334        1230784704.5411346     
   1892153070.3382549        11818049.109484673        1216179933.8231881     
   1798643765.3712168        12474002.864129782        1207606187.5484788     
   1705206765.1390471        13370972.401666880        1205063465.7170062     
   1611842069.6417487        14508957.722117007        1208551768.3287716     
   1693112195.5240057        16128613.734709144        1309835672.2687693     
   1614150734.6994963        13408448.116501868        1295382344.2177911     
   1535650578.2070642        12225963.605229318        1286867745.5346456     
   1457611726.0467205        12581160.200912416        1284291876.2193215     
   1380034178.2184553        14474037.903528094        1287654736.2718263     
   1400164906.0048597        20756674.830777109        1385766974.2365522     
   1335559893.8422837        14822295.557976067        1371918921.7159607     
   1271805185.6090052        11722262.716162026        1363917303.4877884     
   1208900781.3050222        11456576.305334747        1361762119.5520291     
   1146846680.9303350        14025236.325494289        1365453369.9086831     
   1106892811.4827220        25287294.425944149        1458578610.4444895     
   1056380547.7666268        16059591.433930397        1445789666.3176980     
   1007107587.5770376        10962900.196929693        1438754861.4079113     
   959073930.91395390        9997220.7149537802        1437474195.7151299     
   912279577.77737749        13162552.987999380        1441947669.2393489     
   1842270355.2002096        14129995.781256437        1128144466.0795255     
   1747287626.4514444        18679129.572926283        1124608768.3343275     
   1652565750.7154169        24097773.407059371        1124441715.0324922     
   1558104727.9921353        30385927.283679247        1127643306.1740236     
   1463904558.2816010        37543591.202779174        1134213541.7589207     
   1611842069.6417487        14508957.722117007        1208551768.3287716     
   1525722144.0227878        18318521.554586112        1204960251.2237468     
   1439858362.6020486        22981899.381130636        1204988300.5350146     
   1354250725.3795280        28499091.201737523        1208635916.2625868     
   1268899232.3552277        34870097.016407013        1215903098.4064555     
   1380034178.2184553        14474037.903528094        1287654736.2718263     
   1303493975.6519754        17759107.753617525        1284001906.1900225     
   1227205208.4691870        21882295.549354792        1284219564.4974546     
   1151167876.6700947        26843601.290744960        1288307711.1941223     
   1075381980.2547016        32643024.977792263        1296266346.2800174     
   1146846680.9303350        14025236.325494289        1365453369.9086831     
   1080603121.3389952        17000888.169982731        1361733733.2331643     
   1014606288.3168324        20798961.911730587        1362135506.9198139     
   948856181.86384046        25419457.550714314        1366658690.9686341     
   883352801.98001969        30862375.086932480        1375303285.3796151     
   912279577.77737749        13162552.987999380        1441947669.2393489     
   857049581.08385670        16043862.803713828        1438155732.3531694     
   802061602.14498365        19731898.468255550        1438736127.8020906     
   747315640.96076012        24226659.981628567        1443688855.5861104     
   692811697.53118420        29528147.343826622        1453013915.7052376     
   1463904558.2816010        37543591.202779174        1134213541.7589207     
   1356575385.8732893        41462858.163970828        1126750355.8281429     
   1249447099.2553840        46051744.426503181        1123271031.7043092     
   1142519698.4278777        51310249.990375161        1123775569.3874137     
   1035793183.3907640        57238374.855544567        1128263968.8774419     
   1268899232.3552277        34870097.016407013        1215903098.4064555     
   1172783138.6805003        38312821.892202556        1209428158.0578949     
   1076609427.7897091        41563489.381116033        1207704772.3325529     
   980378099.68284941        44622099.483133852        1210732941.2304244     
   884089154.35992432        47488652.198269933        1218512664.7515161     
   1075381980.2547016        32643024.977792263        1296266346.2800174     
   992672373.36007452        36267230.182154894        1290478064.6727905     
   909646646.24292040        38837701.311415523        1290209030.5050645     
   826304798.90322661        40354438.365544379        1295459243.7768369     
   742646831.34099245        40817441.344547689        1306228704.4881041     
   883352801.98001969        30862375.086932480        1375303285.3796151     
   816243089.91201198        35326083.033810347        1369900075.6728444     
   748558754.61500609        37874380.217360288        1370783806.2218473     
   680299796.08899403        38507266.637556881        1377954477.0266371     
   611466214.33397710        37224742.294403672        1391412088.0872078     
   692811697.53118420        29528147.343826622        1453013915.7052376     
   643495288.33631003        35489380.447174042        1447694191.0580423     
   593345752.90597606        38673526.098988682        1449429099.4829063     
   542363091.24015892        39080584.299193203        1458218640.9798317     
   490547303.33887470        36710555.047840238        1474062815.5488138     
   1035793183.3907640        57238374.855544567        1128263968.8774419     
   920438524.93215168        57089581.299760967        1124804072.1086574     
   802582887.01641774        48604189.553574413        1127439151.6448314     
   682226269.64356339        31782199.616985291        1136169207.4859688     
   559368672.81358814        6623611.4899934232        1150994239.6320894     
   884089154.35992432        47488652.198269933        1218512664.7515161     
   783695053.29726160        45539416.379758358        1215707343.4732602     
   680995333.09130383        35904783.416937411        1218730653.6398556     
   575989993.74204588        18584753.309781551        1227582595.2513061     
   468679035.24949771       -6420673.9416804612        1242263168.3076069     
   742646831.34099245        40817441.344547689        1306228704.4881041     
   656452302.35966921        36839467.668950021        1304305879.0665112     
   568147514.54886806        25827297.895097226        1307945340.2296538     
   477732467.90859711        7780932.0230118036        1317147087.9775329     
   385207162.43885374       -17299629.947313741        1331911122.3101485     
   611466214.33397710        37224742.294403672        1391412088.0872078     
   538710272.11937404        30989735.167331636        1390599678.8883970     
   464039431.38911539        18371732.988071948        1395083211.4142172     
   387453692.14321101       -629264.24333582819        1404862685.6646528     
   308953054.38165778       -26013256.526912630        1419938101.6397140     
   490547303.33887470        36710555.047840238        1474062815.5488138     
   430468962.57637340        27990218.874891669        1474588742.9389315     
   368671083.61203945        13538088.695839673        1480144267.1935463     
   305153666.44588566       -6645835.4892810732        1490729388.3126698     
   239916711.07790703       -32561553.680484608        1506344106.2962978     
   559368672.81358814        6623611.4899934232        1150994239.6320894     
   462296912.95824111       -32575938.302568197        1160793809.6690695     
   353367860.41189086       -111299797.06512409        1178038879.3951833     
   232581515.17455864       -229547964.79762539        1202729448.8104165     
   99937877.246239752       -387320441.50008768        1234865517.9147677     
   468679035.24949771       -6420673.9416804612        1242263168.3076069     
   390738384.29119277       -41424427.360951066        1241211243.5023732     
   302701538.12801152       -110082164.79647855        1246461795.9196029     
   204568496.75994340       -212393886.24829030        1258014825.5592904     
   96339260.186994761       -348359591.71637851        1275870332.4214404     
   385207162.43885374       -17299629.947313741        1331911122.3101485     
   323131841.90142047       -49087320.536127806        1322062316.3964870     
   252721423.64521849       -108658670.18750547        1317372965.2386363     
   173975907.67023730       -196013678.90148199        1317843068.8365743     
   86895293.976484090       -311152346.67802238        1323472627.1903150     
   308953054.38165778       -26013256.526912630        1419938101.6397140     
   259477285.78891757       -55564617.828115359        1403347028.3514237     
   203427516.96350080       -107029313.23824392        1390772387.3522768     
   140803747.90543169       -180407342.75721046        1382214178.6422563     
   71605978.614702091       -275698706.38504761        1377672402.2213795     
   239916711.07790703       -32561553.680484608        1506344106.2962978     
   199774715.95367083       -60856319.236962751        1485065379.3671770     
   154819818.08288720       -105194093.94859621        1466660062.2605224     
   105052017.46553296       -165574877.81546646        1451128154.9763436     
   50471314.101636305       -241998670.83747801        1438469657.5146379     
   99937877.246239752       -387320441.50008768        1234865517.9147677     
   85256544.503617018       -546907993.98139679        1196258615.6536567     
   57902547.967650801       -748737759.10719550        1154351028.5133638     
   17875887.638351083       -992809736.87743068        1109142756.4938691     
  -34823436.484270513       -1279123927.2920887        1060633799.5951616     
   96339260.186994761       -348359591.71637851        1275870332.4214404     
   79610070.274244219       -489505655.10164797        1221549658.2827253     
   51462544.633228064       -668712837.58113623        1164698666.0240192     
   11896683.263947487       -885981139.15483356        1105317355.6453230     
  -39087513.833578408       -1141310559.8226819        1043405727.1466461     
   86895293.976484090       -311152346.67802238        1323472627.1903150     
   70319294.777042568       -433196606.60224110        1254901563.9165835     
   43579287.914411545       -589120892.07040834        1184570549.2820606     
   6675273.3886049092       -778925203.08249497        1112479583.2867608     
  -40392748.800386608       -1002609539.6385521        1038628665.9306777     
   71605978.614702091       -275698706.38504761        1377672402.2213795     
   57384218.012001678       -377980848.48320270        1296314332.5552127     
   34252777.811212063       -509961922.57498217        1213966678.2874718     
   2211658.0123066306       -671641928.66048801        1130629439.4181540     
  -38739141.384697139       -863020866.73965275        1046302615.9472524     
   50471314.101636305       -241998670.83747801        1438469657.5146379     
   40804839.979141995       -323858380.74446994        1345787964.1986313     
   23483014.323622733       -431235929.09488118        1252887053.0402622     
  -1494162.8649266064       -564131315.88872039        1159766924.0395114     
  -34126691.586512744       -722544541.12601829        1066427577.1963818     
   1563763454.9099395       -293078305.94966543        1637970094.6318371     
   1480859462.5788362       -160855657.04873109        1636828356.3925185     
   1385396830.7444441       -70495139.825428069        1619161106.9400651     
   1277375559.4067645       -21996754.279747367        1584968346.2744718     
   1156795648.5657935       -15360500.411706209        1534250074.3957398     
   1387372048.2010226        95913247.444151580        1543122983.6557283     
   1236895056.9681656        78333102.892941177        1515730388.1239834     
   1084614682.3429217        54741680.367109776        1487453949.2929857     
   930530924.32529545        25138979.866666436        1458293667.1627290     
   774643782.91528356       -10474998.608392358        1428249541.7332191     
   1137569657.0343316        462881505.50063288        1392182398.7501924     
   964210146.65366447        308905711.42345744        1351086744.7220824     
   799802508.99151623        184769493.07467857        1324748915.3085966     
   644346744.04788828        90472850.454298630        1313168910.5097353     
   497842851.82277989        26015783.562320024        1316346730.3254976     
   814356281.40986693        807826468.21978390        1185148339.9152408     
   662804731.63533449        530862168.54282594        1142897426.1868153     
   530960310.69022733        319588298.29728442        1131046004.9868994     
   418823018.57454157        174004857.48314735        1149594076.3154845     
   326392855.28828382        94111846.100438029        1198541640.1725791     
   417731921.32762754        1130748135.6016023        922020807.15086782     
   332678811.91317576        744202474.25104582        891162432.51818407     
   278088087.43905389        459198096.03492159        906345218.32788718     
   253959747.90525869        275735000.95321858        967569164.57997906     
   260293793.31179377        193813189.00595117        1074834271.2744565     
   1156795648.5657935       -15360500.411706209        1534250074.3957398     
   1146757429.9941313        2926417.2947252989        1495605315.4168220     
   1135094217.6230624        15796689.003134608        1470111818.4319708     
   1121806011.4525948        23250314.713548362        1457769583.4411926     
   1106892811.4827220        25287294.425944149        1458578610.4444895     
   774643782.91528356       -10474998.608392358        1428249541.7332191     
   787472982.76641893        1111568.4864761233        1421685472.6044562     
   799854341.74065161        11205332.658337295        1421106698.1018231     
   811787859.83798134        19806293.907186270        1426513218.2253222     
   823273537.05841053        26914452.233036518        1437905032.9749548     
   497842851.82277989        26015783.562320024        1316346730.3254976     
   513065277.61688620        24759742.301677555        1343236696.1231391     
   529017015.45659590        25934741.193046927        1368945989.1789744     
   545698065.34189749        29540780.236389935        1393474609.4930034     
   563108427.27280068        35577859.431736052        1416822557.0652246     
   326392855.28828382        94111846.100438029        1198541640.1725791     
   323534314.54553777        73870938.740344301        1260258985.9728732     
   322582238.77089345        59984914.607258946        1313629691.6634257     
   323536627.96434450        52453773.701156050        1358653757.2442307     
   326397482.12589520        51277516.022053532        1395331182.7152908     
   260293793.31179377        193813189.00595117        1074834271.2744565     
   218880093.55236593        148445157.80245069        1172752342.1536582     
   180550011.68354774        113355852.90098299        1255157805.5551753     
   145303547.70531717        88545274.301472828        1322050661.4790103     
   113140701.61768730        74013422.003966957        1373430909.9251580     
   1106892811.4827220        25287294.425944149        1458578610.4444895     
   1056380547.7666268        16059591.433930397        1445789666.3176980     
   1007107587.5770376        10962900.196929693        1438754861.4079113     
   959073930.91395390        9997220.7149537802        1437474195.7151299     
   912279577.77737749        13162552.987999380        1441947669.2393489     
   823273537.05841053        26914452.233036518        1437905032.9749548     
   787091009.77385163        20378385.313450515        1434008337.0217705     
   751789006.51303959        16777398.473020852        1434759229.2437415     
   717367527.27597809        16111491.711759508        1440157709.6408672     
   683826572.06267166        18380665.029681951        1450203778.2131450     
   563108427.27280068        35577859.431736052        1416822557.0652246     
   538094062.01449323        30784956.262990743        1421399533.1990960     
   513601441.27717936        27731201.497556299        1429517546.4662733     
   489630565.06086171        26416595.135442913        1441176596.8667562     
   466181433.36554039        26841137.176651910        1456376684.4005456     
   326397482.12589520        51277516.022053532        1395331182.7152908     
   309389704.48855591        47279304.282559723        1407963254.8496714     
   292544891.86945516        43824309.270529449        1423029813.0755072     
   275863044.26859742        40912530.985975370        1440530857.3928001     
   259344161.68598029        38543969.428889066        1460466387.8015528     
   113140701.61768730        74013422.003966957        1373430909.9251580     
   100977937.19603768        69861429.372157767        1393699501.9734981     
   88619358.289867401        65056721.791944332        1415296029.0714474     
   76064964.899184495        59599299.263357565        1438220491.2190044     
   63314757.023987941        53489161.786389887        1462472888.4161699     
   912279577.77737749        13162552.987999380        1441947669.2393489     
   857049581.08385670        16043862.803713828        1438155732.3531694     
   802061602.14498365        19731898.468255550        1438736127.8020906     
   747315640.96076012        24226659.981628567        1443688855.5861104     
   692811697.53118420        29528147.343826622        1453013915.7052376     
   683826572.06267166        18380665.029681951        1450203778.2131450     
   639666847.55974841        18760235.987172008        1450494732.1017482     
   595481123.27030432        19053140.989592135        1455506271.9999149     
   551269399.19432735        19259380.036901683        1465238397.9076443     
   507031675.33182335        19378953.129123598        1479691109.8249397     
   466181433.36554039        26841137.176651910        1456376684.4005456     
   434086991.55167615        25017472.425450951        1460437841.9325626     
   401698532.41011262        22213749.915254563        1469567839.1486063     
   369016055.94084853        18429969.646057531        1483766676.0486741     
   336039562.14388400        13666131.617857054        1503034352.6327703     
   259344161.68598029        38543969.428889066        1460466387.8015528     
   240310013.05963683        34815572.118541442        1467985061.8456171     
   220713829.56442145        29213725.245287366        1480920829.2481649     
   200555611.20032659        21738428.809102193        1499273690.0092008     
   179835357.96735707        12389682.809999242        1523043644.1287215     
   63314757.023987941        53489161.786389887        1462472888.4161699     
   58335912.083626486        48154535.066430628        1473136391.8409059     
   52527014.733219638        40053066.979651995        1489565242.2985885     
   45888064.972758874        29184757.526027698        1511759439.7892203     
   38419062.802253634        15549606.705588458        1539718984.3128023     
   692811697.53118420        29528147.343826622        1453013915.7052376     
   643495288.33631003        35489380.447174042        1447694191.0580423     
   593345752.90597606        38673526.098988682        1449429099.4829063     
   542363091.24015892        39080584.299193203        1458218640.9798317     
   490547303.33887470        36710555.047840238        1474062815.5488138     
   507031675.33182335        19378953.129123598        1479691109.8249397     
   473302246.27802569        22228953.186013281        1478213345.9505105     
   439320534.71759236        24238011.554120049        1482388910.5848012     
   405086540.65053695        25406128.233487979        1492217803.7278066     
   370600264.07685864        25733303.224110141        1507700025.3795309     
   336039562.14388400        13666131.617857054        1503034352.6327703     
   313893385.90732044        12203780.431119591        1506076200.5480890     
   292075770.89296854        11836633.318420172        1513370072.4087844     
   270586717.10083103        12564690.279771119        1524915968.2148569     
   249426224.53091127        14387951.315177329        1540713887.9663064     
   179835357.96735707        12389682.809999242        1523043644.1287215     
   165268707.22419325        5413862.1824859828        1531282754.8507757     
   151611461.43208826        1469391.3918329552        1542372584.9548612     
   138863620.59103566        556270.43802396953        1556313134.4409809     
   127025184.70104674        2674499.3210910410        1573104403.3091385     
   38419062.802253634        15549606.705588458        1539718984.3128023     
   27428210.228657931        1859198.4401565939        1553833008.8585687     
   17927606.334949523       -6863714.2256467799        1569396448.2230320     
   9917251.1211491190       -10619131.291759249        1586409302.4061856     
   3397144.5872517028       -9407052.7581943907        1604871571.4080286     
   490547303.33887470        36710555.047840238        1474062815.5488138     
   430468962.57637340        27990218.874891669        1474588742.9389315     
   368671083.61203945        13538088.695839673        1480144267.1935463     
   305153666.44588566       -6645835.4892810732        1490729388.3126698     
   239916711.07790703       -32561553.680484608        1506344106.2962978     
   370600264.07685864        25733303.224110141        1507700025.3795309     
   324806126.89013988        20128373.690664649        1506068635.5901611     
   277589714.18359852        9782525.7578134686        1509676557.8470016     
   228951025.95723826       -5304240.5744389445        1518523792.1500576     
   178890062.21104753       -25131925.306119397        1532610338.4993248     
   249426224.53091127        14387951.315177329        1540713887.9663064     
   218515477.15343916        12078184.291319102        1537271987.4597888     
   186479716.93813699        6018374.4746927395        1539279114.1811919     
   153318943.88501826       -3791478.1346556842        1546735268.1305075     
   119033157.99406940       -17351373.536769792        1559640449.3077528     
   127025184.70104674        2674499.3210910410        1573104403.3091385     
   111597013.36625752        3839650.6768084802        1568198798.5478089     
   95341091.875647411        2245634.8464577533        1568951936.1961026     
   78257420.229214475       -2107548.1699706800        1575363816.2540283     
   60345998.426959872       -9219898.3724695928        1587434438.7215722     
   3397144.5872517028       -9407052.7581943907        1604871571.4080286     
   4050735.5286087859       -4587227.1528189648        1598849068.8542202     
   4173838.9961312436       -1535693.1268902065        1598695023.8917446     
   3766454.9898457257       -252450.68032309925        1604409436.5206046     
   2828583.5097266361       -737499.81319984607        1615992306.7407937     
   239916711.07790703       -32561553.680484608        1506344106.2962978     
   199774715.95367083       -60856319.236962751        1485065379.3671770     
   154819818.08288720       -105194093.94859621        1466660062.2605224     
   105052017.46553296       -165574877.81546646        1451128154.9763436     
   50471314.101636305       -241998670.83747801        1438469657.5146379     
   178890062.21104753       -25131925.306119397        1532610338.4993248     
   148314590.09119603       -46687827.863469586        1506878592.1818035     
   114167636.14157003       -80148669.853394628        1484077177.6607695     
   76449200.362154245       -125514451.27595362        1464206094.9362230     
   35159282.752945349       -182785172.13116050        1447265344.0081656     
   119033157.99406940       -17351373.536769792        1559640449.3077528     
   98186843.090077743       -32119622.831544489        1530904008.0047321     
   75010467.273074821       -54654741.836353943        1505154820.4722147     
   49504030.543060154       -84956730.551202238        1482392886.7102051     
   21667532.900044940       -123025588.97605583        1462618206.7186964     
   60345998.426959872       -9219898.3724695928        1587434438.7215722     
   49391474.950301804       -17151704.141235843        1557141626.8359613     
   37348311.477406390       -28712309.897458151        1529892990.6948686     
   24216508.008274455       -43901715.641134918        1505688530.2982960     
   9996064.5429123342       -62719921.372245818        1484528245.6462440     
   2828583.5097266361       -737499.81319984607        1615992306.7407937     
   1928485.6718804934       -1784071.7925041495        1585591448.6754889     
   1181168.7545620562       -2321374.0367167932        1558291688.3287222     
   586632.75778742949       -2349406.5457834029        1534093025.7004957     
   144877.68156118842       -1868169.3196880331        1512995460.7907987     
   50471314.101636305       -241998670.83747801        1438469657.5146379     
   40804839.979141995       -323858380.74446994        1345787964.1986313     
   23483014.323622733       -431235929.09488118        1252887053.0402622     
  -1494162.8649266064       -564131315.88872039        1159766924.0395114     
  -34126691.586512744       -722544541.12601829        1066427577.1963818     
   35159282.752945349       -182785172.13116050        1447265344.0081656     
   30553405.100085422       -243238697.59007058        1347077219.1713631     
   20164273.063355759       -322969737.66188389        1246061189.9732678     
   3991886.6427881420       -421978292.34648353        1144217256.4138572     
  -17963754.161640435       -540264361.64396548        1041545418.4931386     
   21667532.900044940       -123025588.97605583        1462618206.7186964     
   20383147.376983710       -162594661.28891808        1357107763.7018220     
   15187604.619255736       -215200924.38400909        1250160729.8047025     
   6080904.6268467009       -280844378.26136327        1141777105.0273435     
  -6936952.6002266705       -359525022.92093688        1031956889.3697442     
   9996064.5429123342       -62719921.372245818        1484528245.6462440     
   10294066.809858851       -81926271.840942547        1375879597.7899950     
   8553008.9913068116       -107929489.26130265        1265185672.5345619     
   4772891.0872560665       -140729573.63332132        1152446469.8799512     
  -1046286.9022771120       -180326524.95695418        1037661989.8261776     
   144877.68156118842       -1868169.3196880331        1512995460.7907987     
   286163.39869382564       -1233529.2461990439        1403392721.4358802     
   260486.17951385246       -1155432.2937527839        1291136018.1628511     
   67846.024012621725       -1633878.4623759941        1176225350.9717166     
  -291757.06779142877       -2668867.7520106854        1058660719.8624663     
   417731921.32762754        1130748135.6016023        922020807.15086782     
   332678811.91317576        744202474.25104582        891162432.51818407     
   278088087.43905389        459198096.03492159        906345218.32788718     
   253959747.90525869        275735000.95321858        967569164.57997906     
   260293793.31179377        193813189.00595117        1074834271.2744565     
  -290941691.38920665        424195908.02653635        1143218936.8713162     
  -209029626.46043754        288800615.85257113        1150365984.2239411     
  -113726392.73996034        198042552.98429930        1181948843.1266775     
  -5031990.2277774215        151921719.42171371        1237967513.5795224     
   117053581.07611652        150438115.16483077        1318421995.5824740     
  -933252856.23624361       -262447585.18759051        1451706359.4247186     
  -746105185.22790825       -165211378.66406676        1476942409.9226027     
  -562637561.57648456       -80241996.663580939        1505008923.0783145     
  -382849985.28197324       -7539439.1861390620        1535905898.8918550     
  -206742456.34437326        52896293.768264964        1569633337.3632288     
  -1509201573.2134826       -929182344.04077804        1847483074.8110828     
  -1278547864.3892331       -617833509.29886043        1870891709.6141644     
  -1068645419.0705165       -375655552.90871429        1875525458.1827960     
  -879494237.25732982       -202648474.87034002        1861384320.5169785     
  -711094318.94967592       -98812275.183740556        1828468296.6167090     
  -2018787842.3209248       -1576008368.5330265        2330549083.0304070     
  -1806357663.9444132       -1069065776.0518074        2332213883.2986283     
  -1631749965.2220526       -688198115.75109231        2293498448.4401221     
  -1494964746.1538475       -433405387.63089186        2214402778.4548898     
  -1396002006.7397926       -304687591.69119692        2094926873.3429277     
   260293793.31179377        193813189.00595117        1074834271.2744565     
   218880093.55236593        148445157.80245069        1172752342.1536582     
   180550011.68354774        113355852.90098299        1255157805.5551753     
   145303547.70531717        88545274.301472828        1322050661.4790103     
   113140701.61768730        74013422.003966957        1373430909.9251580     
   117053581.07611652        150438115.16483077        1318421995.5824740     
   52555271.625093356        115437032.87830640        1361208086.2644732     
  -10526940.993342556        85156273.367074937        1399357019.5267057     
  -72193056.779198453        59595836.631108463        1432868795.3691697     
  -132443075.73246886        38755722.670428313        1461743413.7918665     
  -206742456.34437326        52896293.768264964        1569633337.3632288     
  -263252661.03580290        37583974.734071702        1555342006.6136723     
  -320014289.95266253        21433574.948441297        1547288968.5022650     
  -377027343.09495574        4445094.4113682806        1545474223.0290067     
  -434291820.46267802       -13381466.877137884        1549897770.1938963     
  -711094318.94967592       -98812275.183740556        1828468296.6167090     
  -728543704.43032014       -85114016.630249292        1755154103.2012498     
  -747912035.19441402       -77812242.354921818        1698953652.4818552     
  -769199311.24195230       -76906952.357742041        1659866944.4585261     
  -792405532.57293880       -82398146.638723731        1637893979.1312625     
  -1396002006.7397926       -304687591.69119692        2094926873.3429277     
  -1343317858.5584612       -252656941.21465737        1960644376.0272117     
  -1294220176.7185967       -212581178.54301432        1854351071.4654760     
  -1248708961.2201867       -184460303.67621449        1776046959.6577232     
  -1206784212.0632434       -168294316.61430612        1725732040.6039534     
   113140701.61768730        74013422.003966957        1373430909.9251580     
   100977937.19603768        69861429.372157767        1393699501.9734981     
   88619358.289867401        65056721.791944332        1415296029.0714474     
   76064964.899184495        59599299.263357565        1438220491.2190044     
   63314757.023987941        53489161.786389887        1462472888.4161699     
  -132443075.73246886        38755722.670428313        1461743413.7918665     
  -137187573.92983940        36214098.843609124        1463351815.7943521     
  -142262344.40566862        32571567.421930291        1468967017.8109105     
  -147667387.15994763        27828128.405418657        1478589019.8415396     
  -153402702.19268161        21983781.794053473        1492217821.8862371     
  -434291820.46267802       -13381466.877137884        1549897770.1938963     
  -423964152.53730667       -12016551.929421559        1532689114.7242744     
  -414101214.68432891       -12200737.223018095        1522166124.2331793     
  -404703006.90374380       -13934022.757922918        1518328798.7206173     
  -395769529.19555122       -17216408.534136266        1521177138.1865880     
  -792405532.57293880       -82398146.638723731        1637893979.1312625     
  -759351798.62635934       -74830522.946922094        1601711398.7632582     
  -726897252.54611754       -69260192.142916471        1574893348.3382535     
  -695041894.33220279       -65687154.226661593        1557439827.8562362     
  -663785723.98461866       -64111409.198182076        1549350837.3172152     
  -1206784212.0632434       -168294316.61430612        1725732040.6039534     
  -1143350512.1970007       -152227814.20890585        1670418667.9113154     
  -1080650457.9910266       -138606797.33773261        1627148690.1261315     
  -1018684049.4453255       -127431266.00080311        1595922107.2484038     
  -957451286.55989170       -118701220.19809952        1576738919.2781298     
   63314757.023987941        53489161.786389887        1462472888.4161699     
   58335912.083626486        48154535.066430628        1473136391.8409059     
   52527014.733219638        40053066.979651995        1489565242.2985885     
   45888064.972758874        29184757.526027698        1511759439.7892203     
   38419062.802253634        15549606.705588458        1539718984.3128023     
  -153402702.19268161        21983781.794053473        1492217821.8862371     
  -142655041.96110770        20102817.466572352        1493119813.5115168     
  -132224259.09640275        17165595.249527588        1499556770.7609224     
  -122110353.59857266        13172115.142899916        1511528693.6344473     
  -112313325.46760906        8122377.1467176750        1529035582.1320975     
  -395769529.19555122       -17216408.534136266        1521177138.1865880     
  -369953596.38868827       -15841180.248138174        1512916322.2294567     
  -343941365.90551859       -13811626.374450698        1509960090.4876239     
  -317732837.74604160       -11127746.913072214        1512308442.9610875     
  -291328011.91025275       -7789541.8639873713        1519961379.6498439     
  -663785723.98461866       -64111409.198182076        1549350837.3172152     
  -623559751.19911325       -59677458.077699512        1532525917.9947202     
  -582624305.69412708       -52878597.892280504        1520775201.4786928     
  -540979387.46964610       -43714828.641880065        1514098687.7691357     
  -498624996.52567989       -32186150.326527521        1512496376.8660533     
  -957451286.55989170       -118701220.19809952        1576738919.2781298     
  -903473506.39238715       -111406016.02212220        1551948600.8073068     
  -848273078.46222436       -100035319.30394951        1532002103.7341282     
  -791850002.76939023       -84589130.043538004        1516899428.0585928     
  -734204279.31388605       -65067448.240894675        1506640573.7807033     
   38419062.802253634        15549606.705588458        1539718984.3128023     
   27428210.228657931        1859198.4401565939        1553833008.8585687     
   17927606.334949523       -6863714.2256467799        1569396448.2230320     
   9917251.1211491190       -10619131.291759249        1586409302.4061856     
   3397144.5872517028       -9407052.7581943907        1604871571.4080286     
  -112313325.46760906        8122377.1467176750        1529035582.1320975     
  -114731695.56414048       -162386.86380553991        1535694153.0725915     
  -116549939.86264545       -6446731.5475711673        1546250070.1179268     
  -117768058.36312975       -10730656.904602598        1560703333.2681029     
  -118386051.06558560       -13014162.934872504        1579053942.5231175     
  -291328011.91025275       -7789541.8639873713        1519961379.6498439     
  -278179810.14071900       -8570434.8028917015        1518126020.2895396     
  -265321605.45503348       -10317984.687959284        1522635938.3202291     
  -252753397.85319871       -13032191.519196078        1533491133.7419086     
  -240475187.33521453       -16713055.296601437        1550691606.5545735     
  -498624996.52567989       -32186150.326527521        1512496376.8660533     
  -462916133.50107628       -23364945.377096504        1501128610.5094278     
  -428387390.44220299       -18477473.646765605        1498554052.8299451     
  -395038767.34905678       -17523735.135526434        1504772703.8276010     
  -362870264.22163647       -20503729.843371585        1519784563.5023973     
  -734204279.31388605       -65067448.240894675        1506640573.7807033     
  -668940665.64522791       -44545918.586472929        1484701923.7322421     
  -605747294.82416177       -30925198.424022049        1474004413.6470709     
  -544624166.85069895       -24205287.753583640        1474548043.5251801     
  -485571281.72484124       -24386186.575163275        1486332813.3665934     
   3397144.5872517028       -9407052.7581943907        1604871571.4080286     
   4050735.5286087859       -4587227.1528189648        1598849068.8542202     
   4173838.9961312436       -1535693.1268902065        1598695023.8917446     
   3766454.9898457257       -252450.68032309925        1604409436.5206046     
   2828583.5097266361       -737499.81319984607        1615992306.7407937     
  -118386051.06558560       -13014162.934872504        1579053942.5231175     
  -102954861.99572086       -9159303.3969434388        1572700493.7478459     
  -87251088.150371417       -4395827.9407329895        1572068655.0341177     
  -71274729.529520005        1276263.4338164851        1577158426.3819299     
  -55025786.133185834        7856970.7266417518        1587969807.7912927     
  -240475187.33521453       -16713055.296601437        1550691606.5545735     
  -210685964.50766733       -13949031.137361288        1544944129.1820352     
  -179821084.65531090       -7599483.5620943308        1544771414.3412554     
  -147880547.77815256        2335587.4291824698        1550173462.0322280     
  -114864353.87618934        15856181.836472698        1561150272.2549593     
  -362870264.22163647       -20503729.843371585        1519784563.5023973     
  -319142572.00722671       -18956410.374052182        1515579975.1567965     
  -273536150.51869637       -11146659.990995705        1516803301.8131583     
  -226050999.75605440        2925521.3057644367        1523454543.4714837     
  -176687119.71929157        23260133.516262360        1535533700.1317813     
  -485571281.72484124       -24386186.575163275        1486332813.3665934     
  -428324684.49440151       -24181441.107027709        1484608031.6721206     
  -368396285.74052197       -15037357.227427453        1488164317.4498258     
  -305786085.46322596        3046065.0635625720        1497001670.6997116     
  -240494083.66248590        30068825.766031086        1511120091.4217727     
   2828583.5097266361       -737499.81319984607        1615992306.7407937     
   1928485.6718804934       -1784071.7925041495        1585591448.6754889     
   1181168.7545620562       -2321374.0367167932        1558291688.3287222     
   586632.75778742949       -2349406.5457834029        1534093025.7004957     
   144877.68156118842       -1868169.3196880331        1512995460.7907987     
  -55025786.133185834        7856970.7266417518        1587969807.7912927     
  -45488457.010111958        14703376.786580132        1557683772.7050653     
  -34720954.608195037        25650360.442659549        1530503973.3996484     
  -22723278.927439675        40697921.694867812        1506430409.8750272     
  -9495429.9678352773        59846060.543240555        1485463082.1312313     
  -114864353.87618934        15856181.836472698        1561150272.2549593     
  -94874917.614272535        30599969.989045620        1532236017.8991554     
  -72577915.715213776        53035643.598758228        1506433137.3864396     
  -47973348.179009825        83163202.665622979        1483741630.7167950     
  -21061215.005656898        120982647.18964827        1464161497.8902287     
  -176687119.71929157        23260133.516262360        1535533700.1317813     
  -146230896.14061376        45905707.814851090        1509248184.2577636     
  -112389714.56649846        79834475.431563407        1486079180.2890913     
  -75163574.996926367        125046436.36646414        1466026688.2257786     
  -34552477.431903020        181541590.61953861        1449090708.0677993     
  -240494083.66248590        30068825.766031086        1511120091.4217727     
  -199556392.58913696        60620590.263988629        1488720271.7808900     
  -154156351.16203502        106046855.94112298        1469442102.1076221     
  -104293959.38118954        166347622.79740211        1453285582.4019811     
  -49969217.246587411        241522890.83287084        1440250712.6639578     
   144877.68156118842       -1868169.3196880331        1512995460.7907987     
   286163.39869382564       -1233529.2461990439        1403392721.4358802     
   260486.17951385246       -1155432.2937527839        1291136018.1628511     
   67846.024012621725       -1633878.4623759941        1176225350.9717166     
  -291757.06779142877       -2668867.7520106854        1058660719.8624663     
  -9495429.9678352773        59846060.543240555        1485463082.1312313     
  -9711859.7111486867        79616202.240134522        1376470362.9106257     
  -8089043.0897411183        105517165.15276475        1265440556.8793137     
  -4626980.1036103517        137548949.28114107        1152373664.0372837     
   674329.24723999202        175711554.62524822        1037269684.3845512     
  -21061215.005656898        120982647.18964827        1464161497.8902287     
  -19872854.188285604        160417042.31628311        1358119376.3218229     
  -14839037.705159575        212669622.99543488        1250657045.0501060     
  -5959765.5562683046        277740389.22713470        1141774504.0750604     
   6764962.2583760172        355629341.01135188        1031471753.3967066     
  -34552477.431903020        181541590.61953861        1449090708.0677993     
  -30196820.032718435        241168990.98224121        1348339761.6694734     
  -19989497.666738138        320301941.23426288        1246785482.6752183     
  -3930510.3339555860        418940441.37562603        1144427871.0850480     
   17980141.965613574        537084491.40627933        1041266926.8989543     
  -49969217.246587411        241522890.83287084        1440250712.6639578     
  -40683757.244450092        321872048.23800308        1347131518.9535697     
  -23540422.974490643        428414119.86921191        1253825869.7546604     
   1460785.5633212924        561149105.72659326        1160333765.0672255     
   34319868.368951201        720077005.81003678        1066655204.8912801     
  -2018787842.3209248       -1576008368.5330265        2330549083.0304070     
  -1806357663.9444132       -1069065776.0518074        2332213883.2986283     
  -1631749965.2220526       -688198115.75109231        2293498448.4401221     
  -1494964746.1538475       -433405387.63089186        2214402778.4548898     
  -1396002006.7397926       -304687591.69119692        2094926873.3429277     
  -2099272036.7161934       -769934597.80678737        1990454761.2760363     
  -2049899340.5758972       -566874904.81263435        1945290150.0320318     
  -2016062569.3547993       -415601628.21581644        1885203764.3839138     
  -1997761723.0529013       -316114768.01632833        1810195604.3316808     
  -1994996801.6702075       -268414324.21418643        1720265669.8753331     
  -2260993105.0326271        11768110.743105531        1539296235.8687615     
  -2301939431.9210825       -67233557.987571955        1473303193.6366441     
  -2336135128.9937840       -123733127.33240700        1417846837.7230246     
  -2363580196.2507329       -157730597.29140484        1372927168.1279027     
  -2384274633.6919332       -169225967.86456573        1338544184.8512774     
  -2503951047.2702289        769099757.11664796        977073506.80858564     
  -2562477937.9799733        429858264.42337799        916253014.11246407     
  -2591967644.1390071        187407386.89913011        891427668.45745420     
  -2592420165.7473412        41747124.543885827        902597469.84355319     
  -2563835502.8049717       -7122522.6423472166        949762418.27075982     
  -2828145863.4289985        1502060341.3138368        303786574.09550649     
  -2831514858.7525635        924400562.42022002        274139611.45949221     
  -2783560114.7904701        517819914.47879505        305946256.58720285     
  -2684281631.5427241        282318397.48954725        399206509.47863156     
  -2533679409.0093207        217896011.45248806        553920370.13378525     
  -1396002006.7397926       -304687591.69119692        2094926873.3429277     
  -1343317858.5584612       -252656941.21465737        1960644376.0272117     
  -1294220176.7185967       -212581178.54301432        1854351071.4654760     
  -1248708961.2201867       -184460303.67621449        1776046959.6577232     
  -1206784212.0632434       -168294316.61430612        1725732040.6039534     
  -1994996801.6702075       -268414324.21418643        1720265669.8753331     
  -1886475067.9412303       -217381258.54763246        1649035603.2316456     
  -1781139006.1102943       -176967099.20787740        1592998544.5960062     
  -1678988616.1774023       -147171846.19493282        1552154493.9684148     
  -1580023898.1425445       -127995499.50877899        1526503451.3488715     
  -2384274633.6919332       -169225967.86456573        1338544184.8512774     
  -2256475842.2608404       -130158645.36165130        1330834142.3969462     
  -2131461928.2843659       -100374247.70746946        1325520923.2047274     
  -2009232891.7625077       -79872774.902008176        1322604527.2746215     
  -1889788732.6952701       -68654226.945277572        1322084954.6066298     
  -2563835502.8049717       -7122522.6423472166        949762418.27075982     
  -2453320181.5172873        9010898.3432760239        1006039993.5231115     
  -2345188943.2408004        17197375.958241224        1051918207.2916392     
  -2239441787.9755125        17436910.202546835        1087397059.5763462     
  -2136078715.7214184        9729501.0761978626        1112476550.3772297     
  -2533679409.0093207        217896011.45248806        553920370.13378525     
  -2477008085.7105780        200127372.56714392        674653156.61014283     
  -2422320050.9796066        175747771.78923213        772190396.85674167     
  -2369615304.8164120        144757209.11872947        846532090.87358665     
  -2318893847.2209921        107155684.55564582        897678238.66067028     
  -1206784212.0632434       -168294316.61430612        1725732040.6039534     
  -1143350512.1970007       -152227814.20890585        1670418667.9113154     
  -1080650457.9910266       -138606797.33773261        1627148690.1261315     
  -1018684049.4453255       -127431266.00080311        1595922107.2484038     
  -957451286.55989170       -118701220.19809952        1576738919.2781298     
  -1580023898.1425445       -127995499.50877899        1526503451.3488715     
  -1490813305.9842052       -116783628.96561229        1491329785.6028333     
  -1401738957.3432255       -106025903.48031121        1465061403.2960830     
  -1312800852.2196023       -95722323.052868009        1447698304.4286242     
  -1223998990.6133463       -85872887.683310151        1439240489.0004511     
  -1889788732.6952701       -68654226.945277572        1322084954.6066298     
  -1783767281.0110235       -64986798.094202757        1307747964.9739201     
  -1677284670.7012258       -59782173.824626148        1299178147.3123324     
  -1570340901.7658782       -53040354.136552215        1296375501.6218684     
  -1462935974.2049825       -44761339.029983521        1299340027.9025259     
  -2136078715.7214184        9729501.0761978626        1112476550.3772297     
  -2022212437.2774549        3162678.4053159952        1119673206.0245762     
  -1907287598.0650296        124391.62931251526        1129498922.1748812     
  -1791304198.0841444        614640.74817299843        1141953698.8281415     
  -1674262237.3348064        4633425.7618808746        1157037535.9843566     
  -2318893847.2209921        107155684.55564582        897678238.66067028     
  -2206148774.7834959        87664800.532966971        927105508.75480437     
  -2091747739.4346359        73693792.881514668        956023727.88372707     
  -1975690741.1744003        65242661.601307034        984432896.04743814     
  -1857977780.0028026        62311406.692306876        1012333013.2459397     
  -957451286.55989170       -118701220.19809952        1576738919.2781298     
  -903473506.39238715       -111406016.02212220        1551948600.8073068     
  -848273078.46222436       -100035319.30394951        1532002103.7341282     
  -791850002.76939023       -84589130.043538004        1516899428.0585928     
  -734204279.31388605       -65067448.240894675        1506640573.7807033     
  -1223998990.6133463       -85872887.683310151        1439240489.0004511     
  -1158548895.7399042       -82410738.521657586        1425155278.2667773     
  -1092554924.0665107       -77135666.693490922        1415935654.7587147     
  -1026017075.5931591       -70047672.198803008        1411581618.4762659     
  -958935350.31985021       -61146755.037593722        1412093169.4194295     
  -1462935974.2049825       -44761339.029983521        1299340027.9025259     
  -1385951376.5456944       -45113588.458661675        1295168025.4495039     
  -1309101673.0491636       -45915485.096542597        1295883376.0500629     
  -1232386863.7153919       -47167028.943613946        1301486079.7041981     
  -1155806948.5443776       -48868219.999878347        1311976136.4119132     
  -1674262237.3348064        4633425.7618808746        1157037535.9843566     
  -1585680948.8097577        485434.16684907675        1161986842.3554864     
  -1497913325.4101872       -6374774.5131054521        1171845267.6081624     
  -1410959367.1360853       -15947200.277956307        1186612811.7423840     
  -1324819073.9874594       -28231843.127724469        1206289474.7581518     
  -1857977780.0028026        62311406.692306876        1012333013.2459397     
  -1757737612.5320976        54386329.354873419        1025611728.9847224     
  -1658989881.1495793        41486465.056817889        1043821329.4330175     
  -1561734585.8552442        23611813.798150778        1066961814.5908290     
  -1465971726.6490934        762375.57887065411        1095033184.4581530     
  -734204279.31388605       -65067448.240894675        1506640573.7807033     
  -668940665.64522791       -44545918.586472929        1484701923.7322421     
  -605747294.82416177       -30925198.424022049        1474004413.6470709     
  -544624166.85069895       -24205287.753583640        1474548043.5251801     
  -485571281.72484124       -24386186.575163275        1486332813.3665934     
  -958935350.31985021       -61146755.037593722        1412093169.4194295     
  -870465857.03051507       -46838271.087946713        1396393533.9518094     
  -783205359.40906227       -36559772.697914064        1388737214.9302166     
  -697153857.45548677       -30311259.867466450        1389124212.3546491     
  -612311351.16979361       -28092732.596632302        1397554526.2251132     
  -1155806948.5443776       -48868219.999878347        1311976136.4119132     
  -1053268214.2551160       -43513773.341244578        1303520303.9014769     
  -951077228.45401478       -39318488.309808493        1299909964.3198030     
  -849233991.14107561       -36282364.905582875        1301145117.6668932     
  -747738502.31629825       -34405403.128563643        1307225763.9427476     
  -1324819073.9874594       -28231843.127724469        1206289474.7581518     
  -1217347737.3190148       -34572425.346306860        1206082233.5812364     
  -1109362901.9590209       -39201345.259725511        1207522661.8158207     
  -1000864567.9074619       -42118602.867928624        1210610759.4619126     
  -891852735.16435122       -43324198.170957893        1215346526.5195038     
  -1465971726.6490934        762375.57887065411        1095033184.4581530     
  -1362704426.2222233       -20014227.103185356        1104079322.9910960     
  -1258062379.9240828       -36208343.547664285        1111575307.4182799     
  -1152045587.7546563       -47819973.754524648        1117521137.7397046     
  -1044654049.7139598       -54849117.723825395        1121916813.9553678     
  -485571281.72484124       -24386186.575163275        1486332813.3665934     
  -428324684.49440151       -24181441.107027709        1484608031.6721206     
  -368396285.74052197       -15037357.227427453        1488164317.4498258     
  -305786085.46322596        3046065.0635625720        1497001670.6997116     
  -240494083.66248590        30068825.766031086        1511120091.4217727     
  -612311351.16979361       -28092732.596632302        1397554526.2251132     
  -541001916.79547000       -27866953.792322785        1395979253.3308971     
  -467120515.47401559       -19067951.830901101        1399935626.1514478     
  -390667147.20542043       -1695726.7123478949        1409423644.6867704     
  -311641811.98968309        24249721.563345060        1424443308.9368651     
  -747738502.31629825       -34405403.128563643        1307225763.9427476     
  -661650292.96212482       -33943809.637327135        1305671859.5097768     
  -573099951.23710251       -25275108.243253529        1309900179.0341685     
  -482087477.14123344       -8399298.9463641346        1319910722.5159225     
  -388612870.67451787        16683618.253347814        1335703489.9550397     
  -891852735.16435122       -43324198.170957893        1215346526.5195038     
  -790269812.99434161       -42412008.641976744        1213685850.2087698     
  -686334593.02977490       -33658826.464471191        1218057976.0979912     
  -580047075.27065277       -17064651.638452202        1228462904.1871729     
  -471407259.71698278        7370515.8360681534        1244900634.4763036     
  -1044654049.7139598       -54849117.723825395        1121916813.9553678     
  -926860476.89213121       -53271550.806301445        1120021225.4278662     
  -806824440.85204530       -44219106.494583249        1124409017.3429143     
  -684545941.59369028       -27691784.788637757        1135080189.7005093     
  -560024979.11707640       -3689585.6884934306        1152034742.5006549     
  -240494083.66248590        30068825.766031086        1511120091.4217727     
  -199556392.58913696        60620590.263988629        1488720271.7808900     
  -154156351.16203502        106046855.94112298        1469442102.1076221     
  -104293959.38118954        166347622.79740211        1453285582.4019811     
  -49969217.246587411        241522890.83287084        1440250712.6639578     
  -311641811.98968309        24249721.563345060        1424443308.9368651     
  -261139149.98591325        55182661.300525278        1406830594.1969483     
  -204278151.57206947        107310055.73795545        1393365935.9191458     
  -141058816.74815339        180631904.87561923        1384049334.1034651     
  -71481145.514168620        275148208.71352315        1378880788.7498853     
  -388612870.67451787        16683618.253347814        1335703489.9550397     
  -325612647.75605237        48877510.225063041        1325089863.8484683     
  -254358102.37119725        108585810.41807155        1319650700.6985080     
  -174849234.51994902        195808518.83239305        1319386000.5051470     
  -87086044.202313468        310545635.46800631        1324295763.2684007     
  -471407259.71698278        7370515.8360681534        1244900634.4763036     
  -392976885.89955741        41705137.037586078        1243498080.7354505     
  -304396203.55942434        109874119.98146537        1248296396.4456956     
  -205665212.69658294        211877464.66769898        1259295581.6070440     
  -96783913.311029285        347715171.09631824        1276495636.2194855     
  -560024979.11707640       -3689585.6884934306        1152034742.5006549     
  -463231864.41642892        33665541.738095790        1162055244.8578916     
  -354392455.13675267        111174984.42811714        1179303023.1607206     
  -233506751.27804974        228838742.38156211        1203778077.4091394     
  -100574752.84031111        386656815.59845364        1235480407.6031570     
  -49969217.246587411        241522890.83287084        1440250712.6639578     
  -40683757.244450092        321872048.23800308        1347131518.9535697     
  -23540422.974490643        428414119.86921191        1253825869.7546604     
   1460785.5633212924        561149105.72659326        1160333765.0672255     
   34319868.368951201        720077005.81003678        1066655204.8912801     
  -71481145.514168620        275148208.71352315        1378880788.7498853     
  -57432733.667971969        376366465.15296537        1297299069.2023413     
  -34339978.835424602        507732531.54691637        1214751668.3231363     
  -2202881.0165319443        669246407.89535618        1131238586.1122646     
   38978559.788701653        860908094.19825184        1046759822.5697615     
  -87086044.202313468        310545635.46800631        1324295763.2684007     
  -70501040.063860267        431965083.07624781        1255635731.3886197     
  -43685224.220546484        587487236.36735785        1185230792.3340497     
  -6638596.6723798215        777112095.34131074        1113080946.1046896     
   40638842.580643356        1000839659.9981241        1039186192.7005337     
  -96783913.311029285        347715171.09631824        1276495636.2194855     
  -79888676.432131290        488667902.00780702        1222141505.5124099     
  -51576159.129865289        667678234.33051682        1165263241.7874081     
  -11846361.404232204        884746168.06447542        1105860845.0444884     
   39300716.744780600        1139871703.2096553        1043934315.2836392     
  -100574752.84031111        386656815.59845364        1235480407.6031570     
  -85595642.772778124        546474921.94765353        1196816391.5737057     
  -58012783.563359171        748305525.43646491        1154849016.6832020     
  -17826175.212069333        992148626.06484210        1109578282.9316428     
   34964182.281102419        1278004223.8328416        1061004190.3190072     
  -2828145863.4289985        1502060341.3138368        303786574.09550649     
  -2831514858.7525635        924400562.42022002        274139611.45949221     
  -2783560114.7904701        517819914.47879505        305946256.58720285     
  -2684281631.5427241        282318397.48954725        399206509.47863156     
  -2533679409.0093207        217896011.45248806        553920370.13378525     
  -3569358792.4777279        793834854.34615374        286511522.62349147     
  -3355397982.8330717        518639397.30828524        330534746.45860291     
  -3113554065.6091213        336387632.20139802        410481676.69268149     
  -2843827040.8058739        247079559.02550220        526352313.32572603     
  -2546216908.4233351        250715177.78057837        678146656.35773909     
  -4195625598.2437615        120093204.36327791        374166088.50529790     
  -3837277558.9587498        125479296.58279610        464512095.15411252     
  -3474487043.8008089        145673641.71209860        565251906.83713615     
  -3107254052.7699361        180676239.75117493        676385523.55437517     
  -2735578585.8661265        230487090.70003414        797912945.30582488     
  -4706946280.7270699       -519164608.63478065        566750271.74092317     
  -4277153587.1295919       -255079739.75624061        676071657.54601991     
  -3866359049.3655348       -54322056.989117384        770256947.02057207     
  -3474562667.4348993        83108439.666588068        849306140.16458225     
  -3101764441.3377004        157211750.21085596        913219236.97804940     
  -5103320839.9276848       -1123938584.6480293        864264072.33036733     
  -4675026067.3455906       -623037711.70882785        965213433.63432395     
  -4289170082.3032928       -263599463.90223980        1025496797.2429820     
  -3945752884.8007774       -45623841.228283644        1045114163.1563420     
  -3644774474.8380508        30889156.313048124        1024065531.3744074     
  -2533679409.0093207        217896011.45248806        553920370.13378525     
  -2477008085.7105780        200127372.56714392        674653156.61014283     
  -2422320050.9796066        175747771.78923213        772190396.85674167     
  -2369615304.8164120        144757209.11872947        846532090.87358665     
  -2318893847.2209921        107155684.55564582        897678238.66067028     
  -2546216908.4233351        250715177.78057837        678146656.35773909     
  -2541599756.7928219        208426253.18349957        741716487.30340278     
  -2537190975.9019628        165442759.45423961        794098721.43673956     
  -2532990565.7507629        121764696.59278119        835293358.75774992     
  -2528998526.3392158        77392064.599146008        865300399.26643324     
  -2735578585.8661265        230487090.70003414        797912945.30582488     
  -2748707178.9969053        173970408.46329999        806390558.18693447     
  -2760269225.0392189        122675549.85477018        815688523.67314684     
  -2770264723.9930682        76602514.874459743        825806841.76445901     
  -2778693675.8584580        35751303.522339106        836745512.46087623     
  -3101764441.3377004        157211750.21085596        913219236.97804940     
  -3098330352.3228259        96759838.406551242        868675369.26074278     
  -3091554798.3913674        47446142.990853071        836959803.56596506     
  -3081437779.5433331        9270663.9637407064        818072539.89372087     
  -3067979295.7787185       -17766598.674770713        812013578.24400783     
  -3644774474.8380508        30889156.313048124        1024065531.3744074     
  -3590469276.7705827       -23205456.986748457        928570920.52482128     
  -3531047695.9584203       -60245461.137558222        857912561.11519527     
  -3466509732.4015522       -80230856.139357209        812090453.14552891     
  -3396855386.0999956       -83161641.992185593        791104596.61582267     
  -2318893847.2209921        107155684.55564582        897678238.66067028     
  -2206148774.7834959        87664800.532966971        927105508.75480437     
  -2091747739.4346359        73693792.881514668        956023727.88372707     
  -1975690741.1744003        65242661.601307034        984432896.04743814     
  -1857977780.0028026        62311406.692306876        1012333013.2459397     
  -2528998526.3392158        77392064.599146008        865300399.26643324     
  -2412634367.5396562        67287278.152414322        882990455.50227916     
  -2295695106.3099918        59099499.806016207        901807452.77202034     
  -2178180742.6502304        52828729.559942365        921751391.07565081     
  -2060091276.5603759        48474967.414189100        942822270.41316962     
  -2778693675.8584580        35751303.522339106        836745512.46087623     
  -2654036167.8422527        36434893.507926464        841437350.94362557     
  -2529884417.8772192        35432623.322939396        848892122.45936871     
  -2406238425.9633532        32744492.967389464        859109827.00810325     
  -2283098192.1006665        28370502.441252947        872090464.58983004     
  -3067979295.7787185       -17766598.674770713        812013578.24400783     
  -2930354175.6912975       -4892353.4004967213        802446195.07884407     
  -2794315674.1363134        2693163.4323126078        797277736.94577503     
  -2659863791.1137767        4989951.8236362934        796508203.84479427     
  -2526998526.6236792        1998011.7734949589        800137595.77591252     
  -3396855386.0999956       -83161641.992185593        791104596.61582267     
  -3241588391.0867791       -56694462.572847843        766016987.90793204     
  -3088988875.0872774       -39118879.865884185        746964296.23123431     
  -2939056838.1014819       -30434893.871279359        733946521.58573055     
  -2791792280.1294031       -30642504.589062929        726963663.97142410     
  -1857977780.0028026        62311406.692306876        1012333013.2459397     
  -1757737612.5320976        54386329.354873419        1025611728.9847224     
  -1658989881.1495793        41486465.056817889        1043821329.4330175     
  -1561734585.8552442        23611813.798150778        1066961814.5908290     
  -1465971726.6490934        762375.57887065411        1095033184.4581530     
  -2060091276.5603759        48474967.414189100        942822270.41316962     
  -1947571840.3960652        41904270.351629257        947007890.15205407     
  -1835987457.8305142        32216727.959862113        955395667.18999505     
  -1725338128.8637228        19412340.238900065        967985601.52699554     
  -1615623853.4956989        3491107.1887212992        984777693.16305125     
  -2283098192.1006665        28370502.441252947        872090464.58983004     
  -2160381565.5583286        22529562.158904791        867833267.89980853     
  -2038042610.1253414        15429718.178751826        867049501.09838748     
  -1916081325.8016894        7070970.5008029938        869739164.18556762     
  -1794497712.5873756       -2546680.8749494553        875902257.16135335     
  -2526998526.6236792        1998011.7734949589        800137595.77591252     
  -2396166788.0189109       -3737795.2233227491        788087862.22797596     
  -2265155338.0340595       -8874564.2865324020        778782831.15818465     
  -2133964176.6691265       -13412295.416131973        772222502.56654811     
  -2002593303.9241130       -17350988.612125039        768406876.45304656     
  -2791792280.1294031       -30642504.589062929        726963663.97142410     
  -2654927507.7777944       -36897801.795040846        707771673.13656425     
  -2517325641.5566754       -40696119.435986042        690595657.36940014     
  -2378986681.4660559       -42037457.511929393        675435616.66993010     
  -2239910627.5059280       -40921816.022843838        662291551.03814709     
  -1465971726.6490934        762375.57887065411        1095033184.4581530     
  -1362704426.2222233       -20014227.103185356        1104079322.9910960     
  -1258062379.9240828       -36208343.547664285        1111575307.4182799     
  -1152045587.7546563       -47819973.754524648        1117521137.7397046     
  -1044654049.7139598       -54849117.723825395        1121916813.9553678     
  -1615623853.4956989        3491107.1887212992        984777693.16305125     
  -1512831880.1946673       -14311729.485563934        986042851.02779710     
  -1408976224.5063021       -28568958.202070117        987806273.05355775     
  -1304056886.4306018       -39280578.960792601        990067959.24033344     
  -1198073865.9675763       -46446591.761753321        992827909.58812058     
  -1794497712.5873756       -2546680.8749494553        875902257.16135335     
  -1686328442.7928233       -15619964.455641150        869023526.95996499     
  -1577406554.0948896       -26184518.358400464        864691479.18636405     
  -1467732046.4935586       -34240342.583164036        862906113.84055126     
  -1357304919.9888415       -39787437.129975855        863667430.92253077     
  -2002593303.9241130       -17350988.612125039        768406876.45304656     
  -1883194114.0166945       -23938932.013460398        753021350.78759480     
  -1763353368.6898277       -29055024.016615510        742230925.81670356     
  -1643071067.9435198       -32699264.621643364        736035601.54037559     
  -1522347211.7777600       -34871653.828497648        734435377.95860720     
  -2239910627.5059280       -40921816.022843838        662291551.03814709     
  -2103428893.8662782       -39268632.158960104        638036322.51069379     
  -1966816668.2911370       -37180475.176772118        620424612.94457519     
  -1830073950.7804799       -34657345.076196671        609456422.33979011     
  -1693200741.3343287       -31699241.857307851        605131750.69634759     
  -1044654049.7139598       -54849117.723825395        1121916813.9553678     
  -926860476.89213121       -53271550.806301445        1120021225.4278662     
  -806824440.85204530       -44219106.494583249        1124409017.3429143     
  -684545941.59369028       -27691784.788637757        1135080189.7005093     
  -560024979.11707640       -3689585.6884934306        1152034742.5006549     
  -1198073865.9675763       -46446591.761753321        992827909.58812058     
  -1065721235.5043740       -42100399.566234410        989967934.18707573     
  -932057789.40888786       -33384821.929757357        991384939.92653751     
  -797083527.68111122       -20299858.852312922        997078926.80650640     
  -660798450.32104337       -2845510.3338966072        1007049894.8269891     
  -1357304919.9888415       -39787437.129975855        863667430.92253077     
  -1216125801.3186646       -34392390.486766577        858756146.46430504     
  -1074567514.6021829       -27733450.355859697        856115443.84454584     
  -932630059.83938456       -19810616.737223625        855745323.06325281     
  -790313437.03026640       -10623889.630883276        857645784.12042785     
  -1522347211.7777600       -34871653.828497648        734435377.95860720     
  -1378074174.3350158       -30147523.567911208        726385862.25956094     
  -1234353616.4319408       -27264991.772894681        718600529.09694481     
  -1091185538.0685248       -26224058.443407774        711079378.47075021     
  -948569939.24476814       -27024723.579446912        703822410.38098049     
  -1693200741.3343287       -31699241.857307851        605131750.69634759     
  -1551566354.5534229       -29365798.809695959        592857081.57284379     
  -1411416094.8981593       -31979446.180889487        578840195.68372786     
  -1272749962.3685215       -39540183.970835865        563081093.02899277     
  -1135567956.9645269       -52048012.179594219        545579773.60864151     
  -560024979.11707640       -3689585.6884934306        1152034742.5006549     
  -463231864.41642892        33665541.738095790        1162055244.8578916     
  -354392455.13675267        111174984.42811714        1179303023.1607206     
  -233506751.27804974        228838742.38156211        1203778077.4091394     
  -100574752.84031111        386656815.59845364        1235480407.6031570     
  -660798450.32104337       -2845510.3338966072        1007049894.8269891     
  -546294649.05185151        26645521.879089683        1020907869.5516610     
  -420857004.16977328        92582699.468351245        1042976964.5866199     
  -284485515.67481482        194966022.43388665        1073257179.9318502     
  -137180183.56697914        333795490.77569038        1111748515.5873451     
  -790313437.03026640       -10623889.630883276        857645784.12042785     
  -655287965.29344952        11846342.538219273        874043371.75205088     
  -510441100.90988481        67054550.196463853        899635924.05862617     
  -355772843.87959260        155000733.34380049        934423441.04015446     
  -191283194.20256245        275684891.98026913        978405922.69663906     
  -948569939.24476814       -27024723.579446912        703822410.38098049     
  -790211813.14121938       -10731996.284476876        721461751.45903683     
  -623144745.35708892        34590536.612442464        749279901.57672930     
  -447368735.89236420        108942875.11132631        787276860.73406172     
  -262883784.74705744        212325019.21217269        835452628.93101764     
  -1135567956.9645269       -52048012.179594219        545579773.60864151     
  -951066192.59518337       -41089494.589074582        563163008.67263341     
  -758967937.51138306       -4809341.2837042809        591908897.14093757     
  -559273191.71315169        56792447.736439437        631817439.01356113     
  -351981955.20047742        143715872.47139212        682888634.29049301     
  -100574752.84031111        386656815.59845364        1235480407.6031570     
  -85595642.772778124        546474921.94765353        1196816391.5737057     
  -58012783.563359171        748305525.43646491        1154849016.6832020     
  -17826175.212069333        992148626.06484210        1109578282.9316428     
   34964182.281102419        1278004223.8328416        1061004190.3190072     
  -137180183.56697914        333795490.77569038        1111748515.5873451     
  -127812358.68287349        482914260.49794304        1090187459.0679624     
  -95309880.567103386        709148540.99241745        1070082465.8747545     
  -39672749.219683588        1012498332.2590722        1051433536.0077260     
   39099035.359422803        1392963634.2979796        1034240669.4668733     
  -191283194.20256245        275684891.98026913        978405922.69663906     
  -173928305.39550373        418183829.80748540        986233880.45873249     
  -122907859.26699829        672901292.03953743        1000277323.7342291     
  -38221855.817053437        1039837278.6764023        1020536252.5231478     
   80129704.954354405        1518991789.7181008        1047010666.8254619     
  -262883784.74705744        212325019.21217269        835452628.93101764     
  -223943482.91066447        352283629.87628198        884955655.74600530     
  -140806719.66304696        639563778.57781160        945433590.26163328     
  -13473495.004200280        1074165465.3167861        1016886432.4778990     
   158056191.06588918        1656088690.0932028        1099314182.3948207     
  -351981955.20047742        143715872.47139212        682888634.29049301     
  -277857891.22837210        285213660.70428777        786352784.92978394     
  -149006461.75525188        609136000.60724390        905551265.45695102     
   34572333.218880534        1115482892.1802328        1040484075.8719974     
   272878493.69403464        1804254335.4232881        1191151216.1749187     
  -5103320839.9276848       -1123938584.6480293        864264072.33036733     
  -4675026067.3455906       -623037711.70882785        965213433.63432395     
  -4289170082.3032928       -263599463.90223980        1025496797.2429820     
  -3945752884.8007774       -45623841.228283644        1045114163.1563420     
  -3644774474.8380508        30889156.313048124        1024065531.3744074     
  -5163696183.5602722       -632047547.83614159        680827259.12990820     
  -4883164985.4739094       -357210450.30862880        718161821.22637308     
  -4626514174.3502140       -161974642.65669441        734666656.50104785     
  -4393743750.1891956       -46340124.880351782        730341764.95393467     
  -4184853712.9908566       -10306896.979592323        705187146.58503199     
  -5323633668.6723137       -170025153.46809030        416666749.54293323     
  -5134190985.4430790       -104249313.46069741        412037979.77187234     
  -4950070288.5993996       -56213428.071833372        406415754.05253422     
  -4771271578.1412849       -25917497.301531315        399800072.38490981     
  -4597794854.0687351       -13361521.149755955        392190934.76900464     
  -5583133295.2638121        262128598.45612574        71782543.569447994     
  -5428104067.2531042        135845698.83498192        46841909.270827062     
  -5259838425.0508509        53684179.852342367        40744089.897432826     
  -5078336368.6570435        15644041.508193493        53489085.449262962     
  -4883597898.0716906        21725283.802544594        85076895.926319063     
  -5942195063.3347559        664413707.93650818       -353825358.79055017     
  -5764904230.9039927        363074586.57839894       -377426390.27676982     
  -5555818583.7045631        167718181.11584425       -362348335.96425295     
  -5314938121.7364655        78344491.548827887       -308591195.85300308     
  -5042262844.9997149        94953517.877344370       -216154969.94301867     
  -3644774474.8380508        30889156.313048124        1024065531.3744074     
  -3590469276.7705827       -23205456.986748457        928570920.52482128     
  -3531047695.9584203       -60245461.137558222        857912561.11519527     
  -3466509732.4015522       -80230856.139357209        812090453.14552891     
  -3396855386.0999956       -83161641.992185593        791104596.61582267     
  -4184853712.9908566       -10306896.979592323        705187146.58503199     
  -4069863490.6499314       -34881544.274624348        653727517.42157102     
  -3952380527.9871469       -51147057.163439751        617300124.87355363     
  -3832404825.0024977       -59103435.646052122        595904968.94098115     
  -3709936381.6959829       -58750679.722438335        589542049.62385118     
  -4597794854.0687351       -13361521.149755955        392190934.76900464     
  -4450131078.3815451       -16819643.718174934        381705371.13169461     
  -4302598204.7953281       -20714106.623160839        376448029.28531319     
  -4155196233.3100882       -25044909.864727497        376418909.22985613     
  -4007925163.9258118       -29812053.442855358        381618010.96532965     
  -4883597898.0716906        21725283.802544594        85076895.926319063     
  -4731272039.9654312        30980244.682586908        112504481.65519392     
  -4581700726.3829746        31053390.483267307        135356274.35046580     
  -4434883957.3243275        21944721.204589605        153632274.01215914     
  -4290821732.7894831        3654236.8465754986        167332480.64025605     
  -5042262844.9997149        94953517.877344370       -216154969.94301867     
  -4913286375.4015770        108518120.92767119       -153875151.00794321     
  -4789688092.7500715        104155434.15588164       -105975139.93097399     
  -4671467997.0452175        81865457.561933041       -72454936.712115213     
  -4558626088.2869949        41648191.145864725       -53314541.351363771     
  -3396855386.0999956       -83161641.992185593        791104596.61582267     
  -3241588391.0867791       -56694462.572847843        766016987.90793204     
  -3088988875.0872774       -39118879.865884185        746964296.23123431     
  -2939056838.1014819       -30434893.871279359        733946521.58573055     
  -2791792280.1294031       -30642504.589062929        726963663.97142410     
  -3709936381.6959829       -58750679.722438335        589542049.62385118     
  -3542109968.1539397       -42922940.235785723        567468148.69448411     
  -3375544915.2684474       -31299736.270977497        551475677.27902663     
  -3210241223.0395169       -23881067.828030109        541564635.37748098     
  -3046198891.4671340       -20666934.906915784        537735022.98984361     
  -4007925163.9258118       -29812053.442855358        381618010.96532965     
  -3827406439.0471878       -24583886.046578169        364198289.23117286     
  -3646742956.4679494       -18873192.981590986        352906509.49364054     
  -3465934716.1881142       -12679974.247949600        347742671.75273579     
  -3284981718.2076726       -6004229.8456108570        348706776.00845057     
  -4290821732.7894831        3654236.8465754986        167332480.64025605     
  -4097477803.7665138       -1677300.0051751137        156207409.51799786     
  -3902582998.6857738       -1839249.9977009296        151256792.87507129     
  -3706137317.5472722        3168386.8689794540        152480630.71149564     
  -3508140760.3510118        13345610.594867229        159878923.02725014     
  -4558626088.2869949        41648191.145864725       -53314541.351363771     
  -4352324062.3119173        25796817.888405323       -56504490.445042655     
  -4143065041.9219203        19802092.680702686       -53473472.576677397     
  -3930849027.1170006        23664015.522721529       -44221487.746237896     
  -3715676017.8971648        37382586.414480925       -28748535.953758106     
  -2791792280.1294031       -30642504.589062929        726963663.97142410     
  -2654927507.7777944       -36897801.795040846        707771673.13656425     
  -2517325641.5566754       -40696119.435986042        690595657.36940014     
  -2378986681.4660559       -42037457.511929393        675435616.66993010     
  -2239910627.5059280       -40921816.022843838        662291551.03814709     
  -3046198891.4671340       -20666934.906915784        537735022.98984361     
  -2903024066.1484375       -25107433.102652192        524842390.69161725     
  -2759507251.1011438       -28407965.536394596        514368870.45186621     
  -2615648446.3252668       -30568532.208198905        506314462.27058744     
  -2471447651.8207970       -31589133.118018150        500679166.14778399     
  -3284981718.2076726       -6004229.8456108570        348706776.00845057     
  -3134345019.9482255       -8284383.0390065908        341652547.41578960     
  -2983761436.1011009       -10741584.273473144        337420567.87239444     
  -2833230966.6662965       -13375833.549017310        336010837.37824166     
  -2682753611.6438265       -16187130.865657330        337423355.93335092     
  -3508140760.3510118        13345610.594867229        159878923.02725014     
  -3348890369.1771593        13571348.395891666        158202143.30909482     
  -3190088196.5565443        12303024.352790713        159750749.63097617     
  -3031734242.4891582        9540638.4655997753        164524741.99288782     
  -2873828506.9750104        5284190.7342687845        172524120.39484498     
  -3715676017.8971648        37382586.414480925       -28748535.953758106     
  -3546660113.8352289        40459761.202062607       -25508821.628479511     
  -3378487532.4674473        40725860.342484951       -18640584.272379305     
  -3211158273.7938247        38180883.835700750       -8143823.8854687009     
  -3044672337.8143549        32824831.681740284        5981459.5322628710     
  -2239910627.5059280       -40921816.022843838        662291551.03814709     
  -2103428893.8662782       -39268632.158960104        638036322.51069379     
  -1966816668.2911370       -37180475.176772118        620424612.94457519     
  -1830073950.7804799       -34657345.076196671        609456422.33979011     
  -1693200741.3343287       -31699241.857307851        605131750.69634759     
  -2471447651.8207970       -31589133.118018150        500679166.14778399     
  -2320162595.2468143       -29819787.688337684        482673741.43513179     
  -2168781285.9495735       -27729599.847810507        469385162.73390877     
  -2017303723.9290755       -25318569.596421957        460813430.04411495     
  -1865729909.1853197       -22586696.934158921        456958543.36575156     
  -2682753611.6438265       -16187130.865657330        337423355.93335092     
  -2522170011.9923844       -15953057.827228665        325627789.28787953     
  -2361524398.8299184       -15512273.085414886        316622395.70393270     
  -2200816772.1564503       -14864776.640244246        310407175.18150985     
  -2040047131.9719710       -14010568.491694689        306982127.72060704     
  -2873828506.9750104        5284190.7342687845        172524120.39484498     
  -2709451144.1029801        2331557.4243806601        166898466.06893858     
  -2545046006.9321713       -528494.88959169388        162136311.85464606     
  -2380613095.4626169       -3295966.2077293396        158237657.75197831     
  -2216152409.6942663       -5970856.5298970938        155202503.76091781     
  -3044672337.8143549        32824831.681740284        5981459.5322628710     
  -2882005991.5786228        25034058.066462874        6485771.7783007603     
  -2719346110.2563434        17221734.739642382        5926911.1860510856     
  -2556692693.8475699        9387861.7011481524        4304877.7555208914     
  -2394045742.3522539        1532438.9511394501        1619671.4866813554     
  -1693200741.3343287       -31699241.857307851        605131750.69634759     
  -1551566354.5534229       -29365798.809695959        592857081.57284379     
  -1411416094.8981593       -31979446.180889487        578840195.68372786     
  -1272749962.3685215       -39540183.970835865        563081093.02899277     
  -1135567956.9645269       -52048012.179594219        545579773.60864151     
  -1865729909.1853197       -22586696.934158921        456958543.36575156     
  -1728433726.6595631       -24382722.008656025        443592240.50062233     
  -1591395076.9041300       -27037189.650889635        429584028.38686651     
  -1454613959.9190006       -30550099.860814214        414933907.02448320     
  -1318090375.7041953       -34921452.638471246        399641876.41346759     
  -2040047131.9719710       -14010568.491694689        306982127.72060704     
  -1903945417.9385509       -18992940.959485531        293955217.86173445     
  -1766874642.3201249       -20745108.143909454        281386706.27121836     
  -1628834805.1166866       -19267070.044967532        269276592.94905877     
  -1489825906.3282351       -14558826.662646294        257624877.89526534     
  -2216152409.6942663       -5970856.5298970938        155202503.76091781     
  -2078101428.3903651       -13196455.662135482        143946013.65617296     
  -1937854791.1461420       -13103201.659946442        134248229.33677563     
  -1795412497.9615717       -5691094.5232740641        126109150.80272646     
  -1650774548.8366601        9039865.7478631735        119528778.05401848     
  -2394045742.3522539        1532438.9511394501        1619671.4866813554     
  -2250901758.0150452       -6993266.1166850328       -6435372.1160609759     
  -2104335523.3821805       -4111470.1989799738       -11831402.416456321     
  -1954347038.4536505        10177826.704265356       -14568419.414527740     
  -1800936303.2294636        35874624.593045592       -14646423.110270107     
  -1135567956.9645269       -52048012.179594219        545579773.60864151     
  -951066192.59518337       -41089494.589074582        563163008.67263341     
  -758967937.51138306       -4809341.2837042809        591908897.14093757     
  -559273191.71315169        56792447.736439437        631817439.01356113     
  -351981955.20047742        143715872.47139212        682888634.29049301     
  -1318090375.7041953       -34921452.638471246        399641876.41346759     
  -1118246881.5804703       -15143348.638336182        421284512.47328597     
  -914747953.27646148        16819535.962721288        441530536.53763610     
  -707593590.79218328        60967201.164681226        460379948.60651833     
  -496783794.12762976        117299646.96757281        477832748.67993027     
  -1489825906.3282351       -14558826.662646294        257624877.89526534     
  -1310524297.8780780        3273779.1187074780        278729015.66104317     
  -1131508311.7818186        20154310.387075722        285877276.03157246     
  -952777948.03944755        36082767.142479658        279069659.00684953     
  -774333206.65097344        51059149.384892732        258306164.58687001     
  -1650774548.8366601        9039865.7478631735        119528778.05401848     
  -1527898441.4880273        14161888.682034671        135496518.23589534     
  -1409249013.0274539        5194981.9893603921        124949115.62274505     
  -1294826263.4549429       -17860854.330211163        87886570.214560702     
  -1184630192.7705081       -55005620.276676238        24308882.011325270     
  -1800936303.2294636        35874624.593045592       -14646423.110270107     
  -1770369312.4103050        17520980.051676631       -8412979.8021479119     
  -1747970057.0133755       -28058449.230467439       -41253944.688841537     
  -1733738537.0386813       -100863663.25337815       -113169317.77035499     
  -1727674752.4862015       -200894662.01702625       -224159099.04669034     
  -351981955.20047742        143715872.47139212        682888634.29049301     
  -277857891.22837210        285213660.70428777        786352784.92978394     
  -149006461.75525188        609136000.60724390        905551265.45695102     
   34572333.218880534        1115482892.1802328        1040484075.8719974     
   272878493.69403464        1804254335.4232881        1191151216.1749187     
  -496783794.12762976        117299646.96757281        477832748.67993027     
  -388068880.62353820        223040544.10546491        597106275.97272348     
  -230237808.14595360        492501971.15498388        735505409.42417192     
  -23290576.694928467        925683928.11599493        893030149.03428173     
   232772813.72959447        1522586414.9886124        1069680494.8030287     
  -774333206.65097344        51059149.384892732        258306164.58687001     
  -621338082.84123397        123949963.65990308        386842660.91770649     
  -424838006.58555305        341857286.08804858        537896039.67796516     
  -184832977.88397452        704781116.66920948        711466300.86765897     
   98677003.263534486        1212721455.4034510        907553444.48677325     
  -1184630192.7705081       -55005620.276676238        24308882.011325270     
  -977665497.88147342       -12058080.632431805        155561939.76472971     
  -732807057.07407105        157201945.40638083        312723156.21833175     
  -450054870.34828889        452774457.83981848        495792531.37212819     
  -129408937.70412236        874659456.66781020        704770065.22614098     
  -1727674752.4862015       -200894662.01702625       -224159099.04669034     
  -1457051125.7442589       -184983588.77153051       -96735887.486203685     
  -1154144959.6114390       -61464050.889808655        59986759.045269065     
  -818956254.08785069        169663951.62785655        246008840.54770374     
  -451485009.17339337        508400418.78168535        461330357.02114081     
 </DataArray>
 <DataArray  type="Float64" Name="VM" NumberOfComponents="1" format="ascii">
   6003477597.1187716     
   5804539253.9649620     
   5604773411.0717926     
   5403979660.2441854     
   5202115134.6820402     
   5625216499.5591908     
   5444242007.3509130     
   5263377516.2811480     
   5082615116.5249681     
   4902023879.3785210     
   5286063311.2859631     
   5115872230.6529045     
   4946276794.2474337     
   4777330761.0781374     
   4609109505.0785904     
   4989850668.4035101     
   4823598025.2958574     
   4657816688.9678841     
   4492487831.0015163     
   4327595940.8860226     
   4740632390.7135792     
   4571996990.1674290     
   4402991377.3928881     
   4233379645.2217984     
   4062953214.7230110     
   5202115134.6820402     
   5037697454.3609076     
   4873310984.4808035     
   4708973877.1621580     
   4544710003.9629955     
   4902023879.3785210     
   4743486883.5529604     
   4585358331.6617613     
   4427695131.6230106     
   4270580398.4247613     
   4609109505.0785904     
   4460060220.1041832     
   4312220030.9909458     
   4165705669.5673909     
   4020696738.0634646     
   4327595940.8860226     
   4191439216.9096603     
   4057783038.9233274     
   3926816850.0164170     
   3798843480.9139786     
   4062953214.7230110     
   3942679699.2181268     
   3826756762.9779744     
   3715437606.6549597     
   3609146297.9776373     
   4544710003.9629955     
   4343755613.7835455     
   4142795403.9128408     
   3941763630.8913536     
   3740659168.8960834     
   4270580398.4247613     
   4082567106.7468610     
   3895136143.2517915     
   3708314548.0231590     
   3522199616.4455614     
   4020696738.0634646     
   3845007425.2634182     
   3670479938.5859175     
   3497230580.0941257     
   3325449780.6342211     
   3798843480.9139786     
   3635036435.2551427     
   3472943456.7060561     
   3312762493.9593101     
   3154766867.2251439     
   3609146297.9776373     
   3456978577.4959388     
   3307026936.7062402     
   3159557968.2612176     
   3014911350.8648310     
   3740659168.8960834     
   3569275823.7220697     
   3398377814.7153096     
   3227966218.0380993     
   3058082589.1571741     
   3522199616.4455614     
   3359859135.9302707     
   3198358019.5193295     
   3037758272.6840014     
   2878176166.4678082     
   3325449780.6342211     
   3172771907.0947919     
   3021423537.8378892     
   2871548561.3832035     
   2723363326.5793900     
   3154766867.2251439     
   3012579222.2615314     
   2872363219.2838526     
   2734363121.2478323     
   2598915688.2922573     
   3014911350.8648310     
   2884207556.0806270     
   2756264731.1194763     
   2631435839.4210029     
   2510183061.7837400     
   3058082589.1571741     
   2891711095.4871683     
   2725032725.6540766     
   2558029305.1635952     
   2390688919.5056472     
   2878176166.4678082     
   2715562800.0495434     
   2553113379.9503846     
   2390858148.7843523     
   2228850495.8738079     
   2723363326.5793900     
   2566548027.0525527     
   2410694187.9308052     
   2255945187.9558964     
   2102505054.1718242     
   2598915688.2922573     
   2450070962.9142194     
   2303336633.0214510     
   2159026458.9970284     
   2017564488.7474413     
   2510183061.7837400     
   2371406664.2256279     
   2236190161.0356607     
   2105035638.7607343     
   1978594896.7545788     
   2390688919.5056472     
   2244807647.3143516     
   2101071963.0335050     
   1959486554.4925134     
   1820217095.2685976     
   2228850495.8738079     
   2086106662.3833258     
   1944973869.6582310     
   1805453917.0413046     
   1667621656.0510981     
   2102505054.1718242     
   1962196102.1169710     
   1822809107.2106342     
   1684373847.6110632     
   1546947036.5452099     
   2017564488.7474413     
   1880622712.6388459     
   1743979104.1578555     
   1607760982.4112570     
   1472143765.2974789     
   1978594896.7545788     
   1847681636.0645571     
   1716799023.2166057     
   1586296749.7422924     
   1456684472.2989402     
   1820217095.2685976     
   1779617214.2806578     
   1735513147.3060458     
   1696534214.9812322     
   1681175520.4633045     
   1667621656.0510981     
   1552220040.0943909     
   1427719443.1813989     
   1294477494.5772707     
   1158614157.4885061     
   1546947036.5452099     
   1397058135.2128360     
   1243628043.6712391     
   1084392743.0256064     
   917328884.75691950     
   1472143765.2974789     
   1327881886.9572313     
   1198106990.4642627     
   1087317771.9015956     
   1001445550.8059422     
   1456684472.2989402     
   1347636256.3184443     
   1273595504.9933052     
   1242705139.6441429     
   1262035446.4656229     
   1681175520.4633045     
   1383646041.3019152     
   1129345593.8563991     
   1010068652.8490996     
   1153192361.7625654     
   1158614157.4885061     
   1008240411.3393453     
   985100901.00896966     
   1161460605.6363122     
   1544199619.3907723     
   917328884.75691950     
   962860869.52450716     
   1144789105.0713787     
   1476425808.2572339     
   1957427538.8031261     
   1001445550.8059422     
   1164352009.2775319     
   1425257280.5589938     
   1808690785.1360559     
   2334686379.6226602     
   1262035446.4656229     
   1446189588.6036265     
   1715501782.8425472     
   2110473894.3745282     
   2663466458.4781156     
   4740632390.7135792     
   4571996990.1674290     
   4402991377.3928881     
   4233379645.2217984     
   4062953214.7230110     
   4477736338.5707035     
   4305068732.8598480     
   4133704104.3954701     
   3963760394.1118569     
   3795378708.8436460     
   4202633547.8439732     
   4036540306.8844233     
   3874689650.4780087     
   3717527866.8640885     
   3565639770.2019105     
   3919805733.9264774     
   3770192220.7665324     
   3629115611.7889357     
   3497256676.7517405     
   3375643918.0652871     
   3636110023.8003311     
   3511398410.0526953     
   3401034404.7232671     
   3305692075.2451348     
   3226652960.3713002     
   4062953214.7230110     
   3942679699.2181268     
   3826756762.9779744     
   3715437606.6549597     
   3609146297.9776373     
   3795378708.8436460     
   3696544767.2439957     
   3601542036.0719018     
   3510645727.4976645     
   3424231750.5324740     
   3565639770.2019105     
   3485099491.8784132     
   3407437590.1798668     
   3332903801.8302894     
   3261797714.7882266     
   3375643918.0652871     
   3310889138.3169456     
   3247614994.9585662     
   3185991362.8032832     
   3126209884.5616517     
   3226652960.3713002     
   3175928812.7545490     
   3124887758.8675313     
   3073559403.8196516     
   3021990693.0680022     
   3609146297.9776373     
   3456978577.4959388     
   3307026936.7062402     
   3159557968.2612176     
   3014911350.8648310     
   3424231750.5324740     
   3282688678.3371606     
   3144624276.3134098     
   3010440150.6317053     
   2880642583.4336395     
   3261797714.7882266     
   3133002850.6913981     
   3009201156.3467441     
   2890924133.4793658     
   2778830288.3871536     
   3126209884.5616517     
   3011894426.4723306     
   2904278802.4687409     
   2803986332.7189956     
   2711771613.8542099     
   3021990693.0680022     
   2923235205.1418395     
   2832988308.4172916     
   2751895986.7049327     
   2680719727.0734859     
   3014911350.8648310     
   2884207556.0806270     
   2756264731.1194763     
   2631435839.4210029     
   2510183061.7837400     
   2880642583.4336395     
   2763817428.5076876     
   2650683036.1934233     
   2541700703.7932129     
   2437443511.2251816     
   2778830288.3871536     
   2676951736.5817466     
   2579708461.1365914     
   2487631164.5640149     
   2401348307.6734376     
   2711771613.8542099     
   2625604209.1807351     
   2544927982.9566560     
   2470286394.2594066     
   2402292934.3633208     
   2680719727.0734859     
   2610547795.5593200     
   2546534629.5771079     
   2489178070.9464030     
   2439013513.2118449     
   2510183061.7837400     
   2371406664.2256279     
   2236190161.0356607     
   2105035638.7607343     
   1978594896.7545788     
   2437443511.2251816     
   2312567001.6943793     
   2192636001.3842225     
   2078351590.3275595     
   1970578541.9291470     
   2401348307.6734376     
   2292467841.4799318     
   2189978891.2693496     
   2094700494.8642485     
   2007587403.0246832     
   2402292934.3633208     
   2310764084.7997003     
   2226923891.6111021     
   2151593422.3544512     
   2085673559.6239729     
   2439013513.2118449     
   2365262680.2170901     
   2300198476.3300891     
   2244543522.1355271     
   2199044197.4213181     
   1978594896.7545788     
   1847681636.0645571     
   1716799023.2166057     
   1586296749.7422924     
   1456684472.2989402     
   1970578541.9291470     
   1854243077.7358041     
   1742340887.5601604     
   1635797475.7104540     
   1535748254.7722828     
   2007587403.0246832     
   1910938432.5938013     
   1823186475.6110115     
   1745535708.7621801     
   1679282772.3903742     
   2085673559.6239729     
   2010219153.9313767     
   1947291402.9273133     
   1897969465.9417527     
   1863286833.8746386     
   2199044197.4213181     
   2143238542.5725164     
   2102581719.9304330     
   2077835783.6548071     
   2069684846.1987562     
   1456684472.2989402     
   1347636256.3184443     
   1273595504.9933052     
   1242705139.6441429     
   1262035446.4656229     
   1535748254.7722828     
   1474987195.1494048     
   1446887845.7816644     
   1455421367.6727180     
   1503889600.5078540     
   1679282772.3903742     
   1651035059.0667393     
   1650431200.7998261     
   1679842816.1997662     
   1741871143.8255053     
   1863286833.8746386     
   1853227908.0726657     
   1866026241.0399709     
   1903891585.7032995     
   1969831761.3134689     
   2069684846.1987562     
   2066921911.6597278     
   2083245800.3922567     
   2121284852.1377130     
   2184809197.2652040     
   1262035446.4656229     
   1446189588.6036265     
   1715501782.8425472     
   2110473894.3745282     
   2663466458.4781156     
   1503889600.5078540     
   1612661598.5174134     
   1788616752.6543183     
   2066463856.8878937     
   2476357453.8602495     
   1741871143.8255053     
   1787004055.8515773     
   1884317052.6756737     
   2060712657.6377902     
   2341403544.1793237     
   1969831761.3134689     
   1968181881.5521388     
   2003165719.0626576     
   2093482856.1819568     
   2257812772.8505020     
   2184809197.2652040     
   2155483366.8034930     
   2145901594.2198956     
   2166640496.0557318     
   2228824661.7428551     
   3636110023.8003311     
   3511398410.0526953     
   3401034404.7232671     
   3305692075.2451348     
   3226652960.3713002     
   3410573209.8156981     
   3319739320.8332167     
   3238678104.4206920     
   3167781419.1193485     
   3107571411.1107750     
   3283171284.8021665     
   3208418440.4324183     
   3137354003.9694057     
   3069407301.9340820     
   3004183493.1748734     
   3255334316.5579572     
   3181925620.7178855     
   3104605547.0432854     
   3021202311.7091160     
   2930195216.2644520     
   3322407902.9110632     
   3239543967.4490771     
   3144360945.7813396     
   3032596951.3517480     
   2901370529.5773077     
   3226652960.3713002     
   3175928812.7545490     
   3124887758.8675313     
   3073559403.8196516     
   3021990693.0680022     
   3107571411.1107750     
   3051978122.3480639     
   3000257735.6448865     
   2952667563.3173871     
   2909488213.4163194     
   3004183493.1748734     
   2946061244.5863295     
   2896764434.4667554     
   2856632176.1698751     
   2826055546.3835678     
   2930195216.2644520     
   2868872196.7457371     
   2822172633.0642729     
   2790315765.6511126     
   2773604181.6647897     
   2901370529.5773077     
   2832350800.1125307     
   2784680226.5250845     
   2758293573.3657069     
   2753219117.2313399     
   3021990693.0680022     
   2923235205.1418395     
   2832988308.4172916     
   2751895986.7049327     
   2680719727.0734859     
   2909488213.4163194     
   2827596549.0624442     
   2754591951.7401357     
   2691030005.6671195     
   2637546463.8693700     
   2826055546.3835678     
   2760084306.2426419     
   2703272673.6210909     
   2656062622.1596532     
   2618948896.6664510     
   2773604181.6647897     
   2722246948.8072834     
   2680210558.7688174     
   2647812436.4981818     
   2625406242.3310208     
   2753219117.2313399     
   2714803125.4354305     
   2685775811.9099379     
   2666332849.7492657     
   2656700697.2978420     
   2680719727.0734859     
   2610547795.5593200     
   2546534629.5771079     
   2489178070.9464030     
   2439013513.2118449     
   2637546463.8693700     
   2579922920.5732937     
   2529154009.8065610     
   2485681927.4994540     
   2449966444.7384996     
   2618948896.6664510     
   2573372442.1074839     
   2535215387.4957204     
   2504838686.1979871     
   2482604997.0119171     
   2625406242.3310208     
   2590864180.9055758     
   2564175340.5720239     
   2545608517.8296914     
   2535424949.3489347     
   2656700697.2978420     
   2631713649.9960690     
   2614909348.2724385     
   2606467949.4627490     
   2606559193.9441113     
   2439013513.2118449     
   2365262680.2170901     
   2300198476.3300891     
   2244543522.1355271     
   2199044197.4213181     
   2449966444.7384996     
   2391674087.2648435     
   2343441953.7253623     
   2305863956.5131173     
   2279518358.1318917     
   2482604997.0119171     
   2438588358.3668208     
   2405733740.5683298     
   2384472057.3259754     
   2375200564.4632978     
   2535424949.3489347     
   2503706191.7858911     
   2484062843.2268901     
   2476765987.8911467     
   2482055143.8447342     
   2606559193.9441113     
   2584562602.3761587     
   2575488729.3357043     
   2579475520.9158254     
   2596643912.9062848     
   2199044197.4213181     
   2143238542.5725164     
   2102581719.9304330     
   2077835783.6548071     
   2069684846.1987562     
   2279518358.1318917     
   2239284661.3560281     
   2212805013.0063548     
   2200518647.6137266     
   2202808170.5872316     
   2375200564.4632978     
   2347710564.9514909     
   2332583968.8172860     
   2330064592.2468085     
   2340365247.0830688     
   2482055143.8447342     
   2464909132.8244352     
   2458844526.6500521     
   2463997172.6854744     
   2480491522.2289872     
   2596643912.9062848     
   2587909183.4953437     
   2589129525.7335892     
   2600387135.7699928     
   2621764681.2061357     
   2069684846.1987562     
   2066921911.6597278     
   2083245800.3922567     
   2121284852.1377130     
   2184809197.2652040     
   2202808170.5872316     
   2189153862.7853465     
   2190449581.9025517     
   2208667570.0055013     
   2246715753.9392405     
   2340365247.0830688     
   2316512839.1385617     
   2304246034.3943911     
   2304977591.8022814     
   2320806677.5069103     
   2480491522.2289872     
   2448056839.7737460     
   2424325521.9234080     
   2410253646.7504559     
   2407243779.1126485     
   2621764681.2061357     
   2583027008.2985821     
   2550411009.7495108     
   2524512568.3958182     
   2506174289.2171540     
   2184809197.2652040     
   2155483366.8034930     
   2145901594.2198956     
   2166640496.0557318     
   2228824661.7428551     
   2246715753.9392405     
   2182080161.7309513     
   2133965291.3792117     
   2112066219.8599370     
   2127344158.7416551     
   2320806677.5069103     
   2224275160.2323341     
   2141088089.6077352     
   2079615599.0089669     
   2050026298.5945344     
   2407243779.1126485     
   2282355176.5829201     
   2167913124.5663996     
   2070642895.7828279     
   1999280006.0378997     
   2506174289.2171540     
   2356522864.0715594     
   2214908689.0956888     
   2086284118.7896900     
   1977468210.2354915     
   3322407902.9110632     
   3239543967.4490771     
   3144360945.7813396     
   3032596951.3517480     
   2901370529.5773077     
   2990755560.1667366     
   2886428841.6039820     
   2785241422.9762673     
   2687561800.2798114     
   2593836419.0782418     
   2606967501.0343661     
   2490698717.1147952     
   2406433830.5151649     
   2353361412.7896843     
   2331068145.1944332     
   2207177147.3888950     
   2070727016.6453955     
   2012998267.7514665     
   2024231407.8575237     
   2096229493.8954623     
   1879124482.1718156     
   1673153777.4561663     
   1620149165.9267297     
   1696782254.0662177     
   1876345963.0428927     
   2901370529.5773077     
   2832350800.1125307     
   2784680226.5250845     
   2758293573.3657069     
   2753219117.2313399     
   2593836419.0782418     
   2585112831.7858033     
   2586418882.4847250     
   2597716919.7260752     
   2618980412.2665572     
   2331068145.1944332     
   2379915991.2300739     
   2426695501.6912136     
   2471407119.7389174     
   2514056715.1724281     
   2096229493.8954623     
   2202496247.4258070     
   2294597202.8143921     
   2372398939.2942219     
   2435831516.3904920     
   1876345963.0428927     
   2040464882.8837910     
   2179735031.1628289     
   2293368984.4069133     
   2380933066.5766664     
   2753219117.2313399     
   2714803125.4354305     
   2685775811.9099379     
   2666332849.7492657     
   2656700697.2978420     
   2618980412.2665572     
   2602504106.4952641     
   2593926996.9264293     
   2593353152.6383605     
   2600896083.5407248     
   2514056715.1724281     
   2516954038.0942011     
   2526039176.6411428     
   2541352298.3652921     
   2562934231.7457333     
   2435831516.3904920     
   2455689551.4085641     
   2479863716.5639343     
   2508361108.8399534     
   2541187731.7574749     
   2380933066.5766664     
   2415619507.5984650     
   2452653467.6738577     
   2492035128.3314643     
   2533764796.4364610     
   2656700697.2978420     
   2631713649.9960690     
   2614909348.2724385     
   2606467949.4627490     
   2606559193.9441113     
   2600896083.5407248     
   2590237484.2613750     
   2588263998.9088812     
   2595076579.8824825     
   2610763923.0745907     
   2562934231.7457333     
   2564533817.5320430     
   2575232190.0102844     
   2595072678.2637496     
   2624091039.8034625     
   2541187731.7574749     
   2552554587.3210664     
   2573421782.4974174     
   2603804935.3313885     
   2643719346.4766316     
   2533764796.4364610     
   2552117804.1109619     
   2580440524.5236845     
   2618753146.8056855     
   2667081563.3006935     
   2606559193.9441113     
   2584562602.3761587     
   2575488729.3357043     
   2579475520.9158254     
   2596643912.9062848     
   2610763923.0745907     
   2601794038.2848973     
   2602954552.7931490     
   2614305035.2736812     
   2635896069.5077777     
   2624091039.8034625     
   2626717318.1720338     
   2636827278.4195571     
   2654445579.5832400     
   2679595039.5476308     
   2643719346.4766316     
   2657240850.8446202     
   2675725133.5354543     
   2699173556.1341610     
   2727595133.6033196     
   2667081563.3006935     
   2691448648.4242892     
   2718364801.6213183     
   2747799092.8547783     
   2779742842.8709602     
   2596643912.9062848     
   2587909183.4953437     
   2589129525.7335892     
   2600387135.7699928     
   2621764681.2061357     
   2635896069.5077777     
   2627564377.4642267     
   2629031408.4544411     
   2640341765.8617148     
   2661543249.4577289     
   2679595039.5476308     
   2671117952.5385084     
   2672420097.0198307     
   2683518650.6376457     
   2704435309.8205061     
   2727595133.6033196     
   2718415449.8645091     
   2719137988.3481803     
   2729763187.0824213     
   2750295860.7652822     
   2779742842.8709602     
   2769297937.6880522     
   2769025736.1154809     
   2778921395.2085352     
   2798982678.9758363     
   2621764681.2061357     
   2583027008.2985821     
   2550411009.7495108     
   2524512568.3958182     
   2506174289.2171540     
   2661543249.4577289     
   2615941652.9586029     
   2576055832.1509924     
   2542221922.3533983     
   2514916324.2076159     
   2704435309.8205061     
   2654209354.1898251     
   2609441796.5346136     
   2570280141.8127651     
   2536932497.0122108     
   2750295860.7652822     
   2697712176.0473623     
   2650473417.7755895     
   2608614727.5824919     
   2572184479.8905840     
   2798982678.9758363     
   2746326832.1276956     
   2699042141.8745322     
   2657128426.8165617     
   2620585731.2484307     
   2506174289.2171540     
   2356522864.0715594     
   2214908689.0956888     
   2086284118.7896900     
   1977468210.2354915     
   2514916324.2076159     
   2347633158.7927804     
   2183857588.4905505     
   2026688306.9443984     
   1880679046.8082039     
   2536932497.0122108     
   2356987724.7070451     
   2176813276.0483899     
   1997894692.6139901     
   1822530499.0392110     
   2572184479.8905840     
   2384700240.9504910     
   2194249167.3616476     
   2001224094.9299853     
   1806255046.3398583     
   2620585731.2484307     
   2430747898.9423051     
   2236313563.8910851     
   2037282752.5455775     
   1833655907.9214892     
   1879124482.1718156     
   1673153777.4561663     
   1620149165.9267297     
   1696782254.0662177     
   1876345963.0428927     
   2075777956.3334897     
   2038993074.6049068     
   2065353822.8748055     
   2149781545.2738481     
   2287669889.3270688     
   2649011840.6941466     
   2646654364.9422936     
   2659512778.3153267     
   2687148166.9131293     
   2729051632.3699284     
   3460971958.3924499     
   3424497122.2346916     
   3381488544.0058217     
   3321235179.5526371     
   3236517122.4390378     
   4435319298.7021818     
   4335017794.4429150     
   4218253518.1132183     
   4060242978.2779260     
   3844797453.1678009     
   1876345963.0428927     
   2040464882.8837910     
   2179735031.1628289     
   2293368984.4069133     
   2380933066.5766664     
   2287669889.3270688     
   2359805776.5104713     
   2425460584.4542990     
   2484432502.8136077     
   2536583829.6326003     
   2729051632.3699284     
   2708851209.0315008     
   2700377205.1925745     
   2703574859.4375243     
   2718368312.3377657     
   3236517122.4390378     
   3117323984.1360397     
   3027632901.2531471     
   2967136718.2640924     
   2935556726.7512884     
   3844797453.1678009     
   3614044676.7555370     
   3429420280.6845856     
   3290287350.3696237     
   3196249272.9949765     
   2380933066.5766664     
   2415619507.5984650     
   2452653467.6738577     
   2492035128.3314643     
   2533764796.4364610     
   2536583829.6326003     
   2539546342.5824900     
   2549416695.5269136     
   2566196765.2072725     
   2589889984.3619466     
   2718368312.3377657     
   2687415706.6007876     
   2667872834.8961654     
   2659756861.6232443     
   2663091408.9244294     
   2935556726.7512884     
   2867373411.9981928     
   2814906521.0971913     
   2778236700.7112427     
   2757467964.1423831     
   3196249272.9949765     
   3086627533.4308519     
   2996676548.6015177     
   2926609956.8076730     
   2876711519.8635931     
   2533764796.4364610     
   2552117804.1109619     
   2580440524.5236845     
   2618753146.8056855     
   2667081563.3006935     
   2589889984.3619466     
   2590722425.3165855     
   2601164959.5272613     
   2621230602.1698709     
   2650932277.8136535     
   2663091408.9244294     
   2645373980.9474301     
   2636982074.1066170     
   2637948599.2496648     
   2648303449.8754625     
   2757467964.1423831     
   2720493111.4383783     
   2692528646.3871140     
   2673650196.1926236     
   2663935037.9536572     
   2876711519.8635931     
   2820222805.3601427     
   2772329047.9357772     
   2733157783.4954257     
   2702853002.5378084     
   2667081563.3006935     
   2691448648.4242892     
   2718364801.6213183     
   2747799092.8547783     
   2779742842.8709602     
   2650932277.8136535     
   2662370063.0754409     
   2680586115.1387272     
   2705569333.3126969     
   2737312183.5770612     
   2648303449.8754625     
   2643708224.7549205     
   2650099060.9522057     
   2667497958.6213956     
   2695926917.1760335     
   2663935037.9536572     
   2638973772.7049370     
   2629245976.3901715     
   2634855370.7610517     
   2655916112.4004827     
   2702853002.5378084     
   2651921338.1222758     
   2620538176.0528197     
   2609002566.5738015     
   2617649445.6154089     
   2779742842.8709602     
   2769297937.6880522     
   2769025736.1154809     
   2778921395.2085352     
   2798982678.9758363     
   2737312183.5770612     
   2725784498.2195897     
   2724233489.1374302     
   2732665143.5862913     
   2751084556.4049058     
   2695926917.1760335     
   2683691743.2732816     
   2681414364.6511846     
   2689113754.8447380     
   2706813082.9557877     
   2655916112.4004827     
   2643314115.3649683     
   2640828284.5308895     
   2648492055.5390229     
   2666357134.8944173     
   2617649445.6154089     
   2604970689.3599701     
   2602748805.8017774     
   2611031952.9106364     
   2629909638.2489371     
   2798982678.9758363     
   2746326832.1276956     
   2699042141.8745322     
   2657128426.8165617     
   2620585731.2484307     
   2751084556.4049058     
   2698534867.3268991     
   2651430053.4724069     
   2609807502.0680475     
   2573721368.6322012     
   2706813082.9557877     
   2656328748.7488699     
   2611503770.2558208     
   2572484180.2927904     
   2539475357.8161416     
   2666357134.8944173     
   2619865242.1153030     
   2579393641.0676413     
   2545267739.0056496     
   2517938755.2439585     
   2629909638.2489371     
   2589297004.7738729     
   2555217835.5205021     
   2528243415.0693121     
   2509156289.5239644     
   2620585731.2484307     
   2430747898.9423051     
   2236313563.8910851     
   2037282752.5455775     
   1833655907.9214892     
   2573721368.6322012     
   2385627435.5353584     
   2194555136.3865738     
   2000867997.4813342     
   1805143127.8815739     
   2539475357.8161416     
   2358554901.4836802     
   2177391446.4651957     
   1997442756.2977560     
   1820965158.3702643     
   2517938755.2439585     
   2349556810.4360280     
   2184677941.4621711     
   2026405351.4572039     
   1879318126.3884006     
   2509156289.5239644     
   2358525330.7711573     
   2215945801.2788095     
   2086430941.4176524     
   1976925840.2811363     
   4435319298.7021818     
   4335017794.4429150     
   4218253518.1132183     
   4060242978.2779260     
   3844797453.1678009     
   3907578619.5317512     
   3835864866.5027709     
   3749844504.8111172     
   3645529158.1392903     
   3520584425.1548390     
   3499590637.7695346     
   3414753991.4923134     
   3348827987.2308021     
   3300510323.6137443     
   3268795401.8143382     
   3413369499.3263993     
   3220424255.7124314     
   3102112432.5719628     
   3045432285.1468296     
   3043220036.8738694     
   3844411383.0972781     
   3422704238.2865820     
   3120662841.9022961     
   2919073681.0256848     
   2817724611.5109620     
   3844797453.1678009     
   3614044676.7555370     
   3429420280.6845856     
   3290287350.3696237     
   3196249272.9949765     
   3520584425.1548390     
   3369556904.2858586     
   3240602351.3148384     
   3133865534.8661127     
   3049796842.3253293     
   3268795401.8143382     
   3182496379.3313942     
   3100044871.8237019     
   3021715021.9243693     
   2947880383.2852516     
   3043220036.8738694     
   3012858631.5643940     
   2976597683.5447111     
   2932873950.3181829     
   2880368405.0014114     
   2817724611.5109620     
   2834926416.5263848     
   2848345675.5071154     
   2851122582.9940548     
   2838082509.9911337     
   3196249272.9949765     
   3086627533.4308519     
   2996676548.6015177     
   2926609956.8076730     
   2876711519.8635931     
   3049796842.3253293     
   2955377087.5455899     
   2875188290.1177597     
   2809703834.1034179     
   2759470766.2069750     
   2947880383.2852516     
   2863693749.7355013     
   2789296977.1074915     
   2725300114.2988052     
   2672368947.8257861     
   2880368405.0014114     
   2802990013.6262918     
   2732267683.3356748     
   2668716333.2230468     
   2612879763.1755862     
   2838082509.9911337     
   2765276297.0649362     
   2697578971.9746003     
   2635115597.5727878     
   2578020896.0724025     
   2876711519.8635931     
   2820222805.3601427     
   2772329047.9357772     
   2733157783.4954257     
   2702853002.5378084     
   2759470766.2069750     
   2710489421.6815209     
   2670200845.6223049     
   2638832242.6535392     
   2616616422.8149323     
   2672368947.8257861     
   2625405084.2541661     
   2587216372.2351770     
   2558216591.8073554     
   2538826446.3199449     
   2612879763.1755862     
   2562380595.5003324     
   2520694369.0476975     
   2488515559.9809880     
   2466565106.0198755     
   2578020896.0724025     
   2518696992.4821148     
   2468093005.0570354     
   2427276325.8507466     
   2397391150.9781733     
   2702853002.5378084     
   2651921338.1222758     
   2620538176.0528197     
   2609002566.5738015     
   2617649445.6154089     
   2616616422.8149323     
   2562982290.4376941     
   2524259613.9199748     
   2500961593.8171964     
   2493589552.1634531     
   2538826446.3199449     
   2482525176.7782974     
   2436800497.6057806     
   2402215314.2133031     
   2379304089.1720457     
   2466565106.0198755     
   2409345796.0330238     
   2358615528.6462817     
   2314753566.9083023     
   2278122257.7594008     
   2397391150.9781733     
   2342448270.7288713     
   2290257329.0467076     
   2240751096.4561734     
   2193878795.3423309     
   2617649445.6154089     
   2604970689.3599701     
   2602748805.8017774     
   2611031952.9106364     
   2629909638.2489371     
   2493589552.1634531     
   2474804596.9053812     
   2467613706.2716260     
   2472121813.6014190     
   2488449741.5598683     
   2379304089.1720457     
   2351767712.7951918     
   2337116312.6819763     
   2335577580.2224798     
   2347358774.1094890     
   2278122257.7594008     
   2238729160.6310716     
   2213613013.2958565     
   2203227367.1784611     
   2207959785.1521335     
   2193878795.3423309     
   2139129622.7652316     
   2100031158.5091066     
   2077410598.1621103     
   2071986359.4906063     
   2629909638.2489371     
   2589297004.7738729     
   2555217835.5205021     
   2528243415.0693121     
   2509156289.5239644     
   2488449741.5598683     
   2454213946.9359980     
   2428903457.3739119     
   2413458695.5874839     
   2409236536.5023441     
   2347358774.1094890     
   2322050211.4998441     
   2308363601.9289927     
   2307701985.8458285     
   2322142236.7228384     
   2207959785.1521335     
   2193495324.0351186     
   2193833702.9302859     
   2210936939.2067943     
   2247720963.3148022     
   2071986359.4906063     
   2069403116.0898473     
   2085574339.6987228     
   2123104553.0448587     
   2185804703.1549392     
   2509156289.5239644     
   2358525330.7711573     
   2215945801.2788095     
   2086430941.4176524     
   1976925840.2811363     
   2409236536.5023441     
   2283751434.5485992     
   2168702821.7822661     
   2070862644.7692692     
   1999060653.3059020     
   2322142236.7228384     
   2225282338.7369981     
   2141735337.6754024     
   2079892735.5048079     
   2049971317.9599903     
   2247720963.3148022     
   2182912533.6278315     
   2134573932.1076190     
   2112387693.3102796     
   2127310704.8716843     
   2185804703.1549392     
   2156350099.5898623     
   2146570912.6288841     
   2166992104.6995740     
   2228681806.1721001     
   3844411383.0972781     
   3422704238.2865820     
   3120662841.9022961     
   2919073681.0256848     
   2817724611.5109620     
   4055890030.6019959     
   3687232524.6769953     
   3370492880.7418871     
   3111622141.4117870     
   2926448792.0620189     
   4305991575.2514324     
   3983623660.2977214     
   3682112350.6392865     
   3409042498.9568067     
   3174433060.0795679     
   4576550324.0285606     
   4317326941.0641375     
   4064669962.1453424     
   3812115027.6000609     
   3554602667.6516390     
   4879770434.7265072     
   4703853536.7078037     
   4526673478.5581064     
   4320627014.8845100     
   4067437738.7410917     
   2817724611.5109620     
   2834926416.5263848     
   2848345675.5071154     
   2851122582.9940548     
   2838082509.9911337     
   2926448792.0620189     
   2946750241.1570210     
   2962473218.3316350     
   2971942405.3612027     
   2973849666.3621683     
   3174433060.0795679     
   3164592827.9267173     
   3157340072.4527440     
   3152509262.5916777     
   3149950440.6943927     
   3554602667.6516390     
   3488925059.9798045     
   3436298837.0229774     
   3395826813.9248633     
   3366957559.6111479     
   4067437738.7410917     
   3923699976.2515016     
   3803582474.1336842     
   3704521343.4040136     
   3624995689.5998321     
   2838082509.9911337     
   2765276297.0649362     
   2697578971.9746003     
   2635115597.5727878     
   2578020896.0724025     
   2973849666.3621683     
   2885600145.9883037     
   2801634032.1548929     
   2722353692.0383921     
   2648193770.9481564     
   3149950440.6943927     
   3044008123.1018949     
   2941609183.2470598     
   2843247387.4435878     
   2749498175.7222958     
   3366957559.6111479     
   3241052744.0766306     
   3118122553.4178743     
   2998574467.2174859     
   2882955954.3876600     
   3624995689.5998321     
   3476733456.1180515     
   3331127699.7431374     
   3188348159.6353526     
   3048757795.7139068     
   2578020896.0724025     
   2518696992.4821148     
   2468093005.0570354     
   2427276325.8507466     
   2397391150.9781733     
   2648193770.9481564     
   2562591549.6499500     
   2483823668.0558233     
   2412809508.2164922     
   2350585938.5943594     
   2749498175.7222958     
   2641180092.9441571     
   2537838980.7206049     
   2440144430.4377346     
   2348887567.6287861     
   2882955954.3876600     
   2756069720.1117096     
   2632567813.1758313     
   2512835931.6598787     
   2397348828.9060879     
   3048757795.7139068     
   2907724669.6091990     
   2768917886.2400804     
   2632485145.9566178     
   2498620279.1468220     
   2397391150.9781733     
   2342448270.7288713     
   2290257329.0467076     
   2240751096.4561734     
   2193878795.3423309     
   2350585938.5943594     
   2276852080.1529460     
   2207501053.9030404     
   2142798849.4435785     
   2083029908.7192934     
   2348887567.6287861     
   2254598164.0093908     
   2165794888.1556911     
   2083020642.5243034     
   2006893194.8457043     
   2397348828.9060879     
   2281016210.3534894     
   2170655491.9031878     
   2066946970.9650781     
   1970750180.4297695     
   2498620279.1468220     
   2358946249.5034299     
   2225174850.9121337     
   2097917463.7386231     
   1978083344.9780114     
   2193878795.3423309     
   2139129622.7652316     
   2100031158.5091066     
   2077410598.1621103     
   2071986359.4906063     
   2083029908.7192934     
   2008177392.0058780     
   1946088893.9472520     
   1897912724.5765023     
   1864733453.3573132     
   2006893194.8457043     
   1910681994.7304270     
   1823311268.6686673     
   1746028489.5190928     
   1680172867.9249940     
   1970750180.4297695     
   1855090575.1927631     
   1743524519.5389006     
   1636966680.7443805     
   1536547552.4639599     
   1978083344.9780114     
   1848538902.7086852     
   1718473069.1190648     
   1588178855.5376155     
   1458112270.6136725     
   2071986359.4906063     
   2069403116.0898473     
   2085574339.6987228     
   2123104553.0448587     
   2185804703.1549392     
   1864733453.3573132     
   1854848448.7364917     
   1867634626.3953135     
   1905269453.5916519     
   1970782140.3838856     
   1680172867.9249940     
   1652017211.1994119     
   1651456392.4590621     
   1680828990.9983122     
   1742744891.1086979     
   1536547552.4639599     
   1475666124.6991560     
   1447522677.7977998     
   1456076762.5906010     
   1504642777.6308303     
   1458112270.6136725     
   1348552610.4309874     
   1274156093.9079590     
   1243122764.3819568     
   1262593205.7088664     
   2185804703.1549392     
   2156350099.5898623     
   2146570912.6288841     
   2166992104.6995740     
   2228681806.1721001     
   1970782140.3838856     
   1968956749.2526016     
   2003695071.7585495     
   2093664928.8279731     
   2257515043.9783840     
   1742744891.1086979     
   1787689731.6610880     
   1884747070.8642545     
   2060812877.2569292     
   2341096852.3851738     
   1504642777.6308303     
   1613253111.0691841     
   1788982184.8282466     
   2066557474.3157694     
   2476152550.5123119     
   1262593205.7088664     
   1446669559.1542380     
   1715833347.4352612     
   2110628773.4114144     
   2663452239.7272644     
   4879770434.7265072     
   4703853536.7078037     
   4526673478.5581064     
   4320627014.8845100     
   4067437738.7410917     
   5018975805.7370148     
   4876048730.4965668     
   4722361326.5731773     
   4550134305.3071070     
   4354519572.8450298     
   5290148003.6038122     
   5132725883.9019365     
   4972284855.7657776     
   4808488854.5603170     
   4641110180.2379627     
   5720056459.6144562     
   5497884584.3268728     
   5287355917.9799156     
   5087020145.5262547     
   4896714429.3884468     
   6330464497.5622387     
   5990524702.1813889     
   5676350082.6244421     
   5381151066.4985495     
   5104153237.9925718     
   4067437738.7410917     
   3923699976.2515016     
   3803582474.1336842     
   3704521343.4040136     
   3624995689.5998321     
   4354519572.8450298     
   4207745409.6247263     
   4070006579.7463431     
   3940763867.9435096     
   3819921177.1019258     
   4641110180.2379627     
   4490678887.0956812     
   4341519925.6031075     
   4193720312.0103698     
   4047439353.2031713     
   4896714429.3884468     
   4750835992.9968920     
   4603280044.0501919     
   4453853186.2415562     
   4302423114.0294867     
   5104153237.9925718     
   4975577602.7118397     
   4846083430.3505163     
   4714604566.5766487     
   4580523140.0226040     
   3624995689.5998321     
   3476733456.1180515     
   3331127699.7431374     
   3188348159.6353526     
   3048757795.7139068     
   3819921177.1019258     
   3655462751.8510666     
   3493136949.9001389     
   3333081425.6459064     
   3175574921.0529160     
   4047439353.2031713     
   3866972080.9695911     
   3688345661.3662443     
   3511650776.0527334     
   3337095503.7820754     
   4302423114.0294867     
   4105564118.4273410     
   3910449522.8647304     
   3717116807.4503551     
   3525724293.0131407     
   4580523140.0226040     
   4366376598.8220282     
   4154034142.7605724     
   3943478204.8273034     
   3734839587.2552376     
   3048757795.7139068     
   2907724669.6091990     
   2768917886.2400804     
   2632485145.9566178     
   2498620279.1468220     
   3175574921.0529160     
   3030127098.7366977     
   2886350862.1040483     
   2744386579.9594250     
   2604423038.2941670     
   3337095503.7820754     
   3185655444.3037338     
   3035202675.7943163     
   2885860295.6641541     
   2737803214.9133067     
   3525724293.0131407     
   3366865545.0800729     
   3208211761.2480588     
   3049857930.0319033     
   2891953973.4401746     
   3734839587.2552376     
   3567335711.2219648     
   3399186789.2630963     
   3230448740.6360765     
   3061234278.0022697     
   2498620279.1468220     
   2358946249.5034299     
   2225174850.9121337     
   2097917463.7386231     
   1978083344.9780114     
   2604423038.2941670     
   2452300706.3042846     
   2303303942.7657433     
   2157806096.8817778     
   2016370726.8139310     
   2737803214.9133067     
   2576714985.5709348     
   2416848098.2255912     
   2258353076.8367434     
   2101456746.3660440     
   2891953973.4401746     
   2725988531.3956285     
   2560230256.0053616     
   2394702616.6849027     
   2229439005.1211777     
   3061234278.0022697     
   2894626010.4901481     
   2728017063.3114600     
   2561410380.2515736     
   2394813972.6913357     
   1978083344.9780114     
   1848538902.7086852     
   1718473069.1190648     
   1588178855.5376155     
   1458112270.6136725     
   2016370726.8139310     
   1880493545.0610771     
   1744668954.9167876     
   1609008054.9376032     
   1473666517.1943958     
   2101456746.3660440     
   1961743197.6961010     
   1822953041.3734205     
   1685117449.4961846     
   1548294160.2306840     
   2229439005.1211777     
   2086484479.7652950     
   1945283666.8686385     
   1805832527.6469772     
   1668209368.4278214     
   2394813972.6913357     
   2247440926.2654052     
   2102382679.8686609     
   1959618242.6378524     
   1819315812.0303407     
   1458112270.6136725     
   1348552610.4309874     
   1274156093.9079590     
   1243122764.3819568     
   1262593205.7088664     
   1473666517.1943958     
   1328989589.1731002     
   1198866128.8884902     
   1087839501.6625926     
   1001897358.0611913     
   1548294160.2306840     
   1398157577.8693979     
   1244467547.3604856     
   1084945285.6836207     
   917552162.28893518     
   1668209368.4278214     
   1552865111.2059104     
   1428344368.9400125     
   1294966990.7174587     
   1158872623.9615872     
   1819315812.0303407     
   1779254177.2215691     
   1735582591.3924825     
   1696930598.7171268     
   1681927461.3328006     
   1262593205.7088664     
   1446669559.1542380     
   1715833347.4352612     
   2110628773.4114144     
   2663452239.7272644     
   1001897358.0611913     
   1164691954.6068749     
   1425434963.8318610     
   1808729233.3322484     
   2334670197.8742671     
   917552162.28893518     
   963006320.01377392     
   1144807473.9244077     
   1476380484.9998016     
   1957478613.9714916     
   1158872623.9615872     
   1008357577.9263338     
   985040429.02925849     
   1161360473.0701063     
   1544366253.1773224     
   1681927461.3328006     
   1384109771.8992035     
   1129462361.7450769     
   1009942377.4420757     
   1153395839.2463787     
 </DataArray>
 <DataArray  type="Float64" Name="strain" NumberOfComponents="3" format="ascii">
  0.10024558411682438       -2.9196775420072929E-002   8.5490539676369437E-004
   9.6848146889506048E-002  -2.8567870874222967E-002  -4.6412061535328064E-005
   9.3450709662187603E-002  -2.7859643468031325E-002  -5.0997263489171996E-004
   9.0053272434869214E-002  -2.7072093201497491E-002  -5.3577632330559233E-004
   8.6655835207550824E-002  -2.6205220074622226E-002  -1.2382312677672314E-004
   9.3682215583871908E-002  -2.7763298611586551E-002   7.8471629444234470E-003
   9.0642092568616162E-002  -2.7028140089507102E-002   7.3245288717409540E-003
   8.7601969553360581E-002  -2.6253946628077507E-002   7.0787663382418375E-003
   8.4561846538104890E-002  -2.5440718227297890E-002   7.1098753439251539E-003
   8.1521723522849199E-002  -2.4588454887168154E-002   7.4178558887909585E-003
   8.7518794209570761E-002  -2.6329821803100339E-002   1.4965818428808120E-002
   8.4675100060617681E-002  -2.5488409304791126E-002   1.4781579820751289E-002
   8.1831405911664684E-002  -2.4648249788123827E-002   1.4713327406117360E-002
   7.8987711762711563E-002  -2.3809343253097963E-002   1.4761061184905819E-002
   7.6144017613758552E-002  -2.2971689699713915E-002   1.4924781157117151E-002
   8.1755319993920675E-002  -2.4896344994614017E-002   2.2210871849918393E-002
   7.8947169365510314E-002  -2.3948678520075387E-002   2.2324740785495109E-002
   7.6139018737099884E-002  -2.3042552948170078E-002   2.2393710568734647E-002
   7.3330868108689509E-002  -2.2177968278898143E-002   2.2417781199636919E-002
   7.0522717480279051E-002  -2.1354924512259760E-002   2.2396952678201756E-002
   7.6391792936921887E-002  -2.3462868186127750E-002   2.9582323207753947E-002
   7.3458300483294103E-002  -2.2408947735359397E-002   2.9954011765972732E-002
   7.0524808029666264E-002  -2.1436856108216343E-002   3.0119915826094051E-002
   6.7591315576038480E-002  -2.0546593304698397E-002   3.0080035388118195E-002
   6.4657823122410751E-002  -1.9738159324805549E-002   2.9834370452044900E-002
   8.6655835207550824E-002  -2.6205220074622226E-002  -1.2382312677672314E-004
   8.3935552819050407E-002  -2.5298827855873451E-002   1.0002796163649519E-004
   8.1215270430549935E-002  -2.4392720313718808E-002   3.7805229059828527E-004
   7.8494988042049435E-002  -2.3486897448159114E-002   7.1024986010850832E-004
   7.5774705653549046E-002  -2.2581359259194023E-002   1.0966206701670256E-003
   8.1521723522849199E-002  -2.4588454887168154E-002   7.4178558887909585E-003
   7.8891687780924064E-002  -2.3718586471947745E-002   7.4321314259607196E-003
   7.6261652038999039E-002  -2.2852542845896065E-002   7.5727270157325277E-003
   7.3631616297073987E-002  -2.1990324009013146E-002   7.8396426581070211E-003
   7.1001580555148935E-002  -2.1131929961298979E-002   8.2328783530837835E-003
   7.6144017613758552E-002  -2.2971689699713915E-002   1.4924781157117151E-002
   7.3676375330462840E-002  -2.2138345088022149E-002   1.4725941030468967E-002
   7.1208733047167030E-002  -2.1312365378073211E-002   1.4725567768477096E-002
   6.8741090763871249E-002  -2.0493750569867179E-002   1.4923661371141470E-002
   6.6273448480575509E-002  -1.9682500663404212E-002   1.5320221838461906E-002
   7.0522717480279051E-002  -2.1354924512259760E-002   2.2396952678201756E-002
   6.8289615467666487E-002  -2.0558103704096442E-002   2.1981456775161678E-002
   6.6056513455053908E-002  -1.9772187910250358E-002   2.1836574548831741E-002
   6.3823411442441288E-002  -1.8997177130721212E-002   2.1962305999211933E-002
   6.1590309429828745E-002  -1.8233071365509307E-002   2.2358651126302344E-002
   6.4657823122410751E-002  -1.9738159324805549E-002   2.9834370452044900E-002
   6.2731408192535199E-002  -1.8977862320170874E-002   2.9198678660038724E-002
   6.0804993262659646E-002  -1.8232010442427601E-002   2.8905747356796574E-002
   5.8878578332784093E-002  -1.7500603691575408E-002   2.8955576542318465E-002
   5.6952163402908595E-002  -1.6783642067614457E-002   2.9348166216604465E-002
   7.5774705653549046E-002  -2.2581359259194023E-002   1.0966206701670256E-003
   7.2405942714052762E-002  -2.1671448265601800E-002   5.7994355578006029E-004
   6.9037179774556479E-002  -2.0752506986160463E-002   3.1083034007645116E-004
   6.5668416835060167E-002  -1.9824535420870253E-002   2.8928102305703085E-004
   6.2299653895563911E-002  -1.8887533569732051E-002   5.1529560472096669E-004
   7.1001580555148935E-002  -2.1131929961298979E-002   8.2328783530837835E-003
   6.7865618375327397E-002  -2.0272073322432138E-002   7.7543212521755667E-003
   6.4729656195505858E-002  -1.9405466712091396E-002   7.4938017719334560E-003
   6.1593694015684319E-002  -1.8532110130276412E-002   7.4513199123567159E-003
   5.8457731835862781E-002  -1.7652003576987596E-002   7.6268756734463317E-003
   6.6273448480575509E-002  -1.9682500663404212E-002   1.5320221838461906E-002
   6.3340760782410827E-002  -1.8872698379262892E-002   1.4877504436658445E-002
   6.0408073084246047E-002  -1.8058426438022343E-002   1.4623298377502592E-002
   5.7475385386081317E-002  -1.7239684839682353E-002   1.4557603660994560E-002
   5.4542697687916614E-002  -1.6416473584243252E-002   1.4680420287134566E-002
   6.1590309429828745E-002  -1.8233071365509307E-002   2.2358651126302344E-002
   5.8831369935302885E-002  -1.7473323436093549E-002   2.1949493109228176E-002
   5.6072430440777046E-002  -1.6711386163953228E-002   2.1699320156783910E-002
   5.3313490946251173E-002  -1.5947259549088183E-002   2.1608132268969758E-002
   5.0554551451725341E-002  -1.5180943591498852E-002   2.1675929445785169E-002
   5.6952163402908595E-002  -1.6783642067614457E-002   2.9348166216604465E-002
   5.4337445834003684E-002  -1.6073948492924151E-002   2.8970287269885209E-002
   5.1722728265098800E-002  -1.5364345889884112E-002   2.8721867109777754E-002
   4.9108010696193874E-002  -1.4654834258494065E-002   2.8602905736282644E-002
   4.6493293127289004E-002  -1.3945413598754397E-002   2.8613403149399252E-002
   6.2299653895563911E-002  -1.8887533569732051E-002   5.1529560472096669E-004
   5.9459823072926521E-002  -1.7963089752291772E-002   3.6028651283892543E-004
   5.6619992250289075E-002  -1.7072792288095773E-002   3.5797253571728804E-004
   5.3780161427651629E-002  -1.6216641177144275E-002   5.0835367335716475E-004
   5.0940330605014239E-002  -1.5394636419437502E-002   8.1142992575800044E-004
   5.8457731835862781E-002  -1.7652003576987596E-002   7.6268756734463317E-003
   5.5771406121763845E-002  -1.6779026559131160E-002   7.3719867893046187E-003
   5.3085080407664936E-002  -1.5927058583612430E-002   7.2714130074786887E-003
   5.0398754693565986E-002  -1.5096099650432293E-002   7.3251543279687636E-003
   4.7712428979467092E-002  -1.4286149759590305E-002   7.5332107507746215E-003
   5.4542697687916614E-002  -1.6416473584243252E-002   1.4680420287134566E-002
   5.2011497069910817E-002  -1.5594963365970660E-002   1.4338788921639950E-002
   4.9480296451905020E-002  -1.4781324879129309E-002   1.4153092646015969E-002
   4.6949095833899196E-002  -1.3975558123720422E-002   1.4123331460262623E-002
   4.4417895215893399E-002  -1.3177663099742776E-002   1.4249505364379522E-002
   5.0554551451725341E-002  -1.5180943591498852E-002   2.1675929445785169E-002
   4.8180095917367383E-002  -1.4410900172809882E-002   2.1260692909844378E-002
   4.5805640383009306E-002  -1.3635591174646078E-002   2.1003011451328893E-002
   4.3431184848651286E-002  -1.2855016597008051E-002   2.0902885070238325E-002
   4.1056729314293224E-002  -1.2069176439895302E-002   2.0960313766572633E-002
   4.6493293127289004E-002  -1.3945413598754397E-002   2.8613403149399252E-002
   4.4277202664133403E-002  -1.3226836979649381E-002   2.8137698753918583E-002
   4.2061112200977802E-002  -1.2489857470163027E-002   2.7821169423417585E-002
   3.9845021737822228E-002  -1.1734475070296058E-002   2.7663815157896413E-002
   3.7628931274666599E-002  -1.0960689780047939E-002   2.7665635957354717E-002
   5.0940330605014239E-002  -1.5394636419437502E-002   8.1142992575800044E-004
   4.8166027091128161E-002  -1.4576314287294001E-002   5.1135564106097320E-004
   4.5391723577242027E-002  -1.3731211053032710E-002   2.7591485706046637E-004
   4.2617420063355865E-002  -1.2859326716652783E-002   1.0510757375675750E-004
   3.9843116549469815E-002  -1.1960661278154427E-002  -1.0662088500978939E-006
   4.7712428979467092E-002  -1.4286149759590305E-002   7.5332107507746215E-003
   4.5010034547887046E-002  -1.3479717238695565E-002   7.1941576119403106E-003
   4.2307640116306972E-002  -1.2659310415357561E-002   6.9342891370215987E-003
   3.9605245684726911E-002  -1.1824929289576944E-002   6.7536053260176532E-003
   3.6902851253146907E-002  -1.0976573861353200E-002   6.6521061789294178E-003
   4.4417895215893399E-002  -1.3177663099742776E-002   1.4249505364379522E-002
   4.1801961029837686E-002  -1.2383120190097074E-002   1.3858666571733763E-002
   3.9186026843781960E-002  -1.1587409777683771E-002   1.3561563606221211E-002
   3.6570092657726226E-002  -1.0790531862502221E-002   1.3358196467842379E-002
   3.3954158471670520E-002  -9.9924864445520845E-003   1.3248565156596837E-002
   4.1056729314293224E-002  -1.2069176439895302E-002   2.0960313766572633E-002
   3.8541806536980118E-002  -1.1286523141498833E-002   2.0504882520440165E-002
   3.6026883759666978E-002  -1.0515509140009191E-002   2.0157738264659233E-002
   3.3511960982353817E-002  -9.7561344354264966E-003   1.9918880999229897E-002
   3.0997038205040676E-002  -9.0083990277510240E-003   1.9788310724152408E-002
   3.7628931274666599E-002  -1.0960689780047939E-002   2.7665635957354717E-002
   3.5229571069314292E-002  -1.0189926092900370E-002   2.7132805458060072E-002
   3.2830210863962012E-002  -9.4436085023348049E-003   2.6722813112335431E-002
   3.0430850658609745E-002  -8.7217370083514864E-003   2.6435658920180988E-002
   2.8031490453257479E-002  -8.0243116109500745E-003   2.6271342881596271E-002
   3.9843116549469815E-002  -1.1960661278154427E-002  -1.0662088500978939E-006
   3.7435108869151246E-002  -1.1129319806205018E-002  -2.8225756235822352E-004
   3.5027101188832677E-002  -1.0459407369473483E-002  -4.7711988494114621E-004
   3.2619093508514135E-002  -9.9509239679581030E-003  -5.8565317659964311E-004
   3.0211085828195539E-002  -9.6038696016604863E-003  -6.0785743733227093E-004
   3.6902851253146907E-002  -1.0976573861353200E-002   6.6521061789294178E-003
   3.4563671620684799E-002  -1.0174282097447307E-002   6.2112210240508059E-003
   3.2224491988222775E-002  -9.4780919646215156E-003   5.8216629339602477E-003
   2.9885312355760654E-002  -8.8880034628743693E-003   5.4834319086581873E-003
   2.7546132723298533E-002  -8.4040165922076859E-003   5.1965279481431814E-003
   3.3954158471670520E-002  -9.9924864445520845E-003   1.3248565156596837E-002
   3.1648804920927837E-002  -9.2192443886891517E-003   1.2703313604485456E-002
   2.9343451370185195E-002  -8.4967765597688816E-003   1.2174387151024924E-002
   2.7038097819442504E-002  -7.8250829577904135E-003   1.1661785796215379E-002
   2.4732744268699841E-002  -7.2041635827547745E-003   1.1165509540056739E-002
   3.0997038205040676E-002  -9.0083990277510240E-003   1.9788310724152408E-002
   2.8690508769880323E-002  -8.2642066799314406E-003   1.9194020178945503E-002
   2.6383979334719993E-002  -7.5154611549170247E-003   1.8581052766252354E-002
   2.4077449899559601E-002  -6.7621624527067908E-003   1.7949408486073078E-002
   2.1770920464399199E-002  -6.0043105733021407E-003   1.7299087338407335E-002
   2.8031490453257479E-002  -8.0243116109500745E-003   2.6271342881596271E-002
   2.5688783167542306E-002  -7.3091689711735630E-003   2.5683340747431394E-002
   2.3346075881827133E-002  -6.5341457500647238E-003   2.5041659779642789E-002
   2.1003368596112015E-002  -5.6992419476232237E-003   2.4346299978231040E-002
   1.8660661310396842E-002  -4.8044575638493958E-003   2.3597261343195952E-002
   3.0211085828195539E-002  -9.6038696016604863E-003  -6.0785743733227093E-004
   2.9602639600181613E-002  -9.1341657908923235E-003  -3.6202663023487958E-004
   2.8994193372167687E-002  -8.2577340559651380E-003  -1.7977422117968489E-003
   2.8385747144153761E-002  -6.9745743968803869E-003  -4.9150041820194557E-003
   2.7777300916139835E-002  -5.2846868136366965E-003  -9.7138125409017562E-003
   2.7546132723298533E-002  -8.4040165922076859E-003   5.1965279481431814E-003
   2.5525845825529581E-002  -7.8682936629507205E-003   5.8717799606530230E-003
   2.3505558927760517E-002  -7.1229969854333941E-003   5.4048970223125603E-003
   2.1485272029991537E-002  -6.1681265596564283E-003   3.7958791331216823E-003
   1.9464985132222390E-002  -5.0036823856194346E-003   1.0447262930806112E-003
   2.4732744268699841E-002  -7.2041635827547745E-003   1.1165509540056739E-002
   2.1840028138985557E-002  -6.6024215350096727E-003   1.2073028582080092E-002
   1.8947312009271217E-002  -5.9882599149018445E-003   1.2377824111062918E-002
   1.6054595879556877E-002  -5.3616787224329068E-003   1.2079896127005815E-002
   1.3161879749842592E-002  -4.7226779576021727E-003   1.1179244629908380E-002
   2.1770920464399199E-002  -6.0043105733021407E-003   1.7299087338407335E-002
   1.8545186540549444E-002  -5.3365494070679032E-003   1.8241719234046522E-002
   1.5319452616699626E-002  -4.8535228443701978E-003   1.9121039054455148E-002
   1.2093718692849809E-002  -4.5552308852096109E-003   1.9937046799633412E-002
   8.8679847689999355E-003  -4.4416735295844667E-003   2.0689742469580524E-002
   1.8660661310396842E-002  -4.8044575638493958E-003   2.3597261343195952E-002
   1.5641321030221367E-002  -4.0706772791267998E-003   2.4377851916552395E-002
   1.2621980750045836E-002  -3.7187857738388008E-003   2.5634541852488424E-002
   9.6026404698703188E-003  -3.7487830479853781E-003   2.7367331151003371E-002
   6.5833001896948296E-003  -4.1606691015669828E-003   2.9576219812097682E-002
   2.7777300916139835E-002  -5.2846868136366965E-003  -9.7138125409017562E-003
   2.3351233411404992E-002  -4.2046895061624845E-003  -4.1877835072123837E-003
   1.8925165906670316E-002  -4.7512006743852808E-003   2.6040123093934442E-003
   1.4499098401935612E-002  -6.9242203183047524E-003   1.0661574908914728E-002
   1.0073030897200796E-002  -1.0723748437920122E-002   1.9984904291351135E-002
   1.9464985132222390E-002  -5.0036823856194346E-003   1.0447262930806112E-003
   1.6231896130615986E-002  -4.6902263756952722E-003   6.7381481724294590E-003
   1.2998807129009471E-002  -6.2883204422549133E-003   1.3551760275119173E-002
   9.7657181274029004E-003  -9.7979645853004393E-003   2.1485562601149921E-002
   6.5326291257965519E-003  -1.5219158804830712E-002   3.0539555150520759E-002
   1.3161879749842592E-002  -4.7226779576021727E-003   1.1179244629908380E-002
   1.0976192691789288E-002  -5.1757632452267277E-003   1.6755017754128132E-002
   8.7905056337360260E-003  -7.8254402101252118E-003   2.3305404542113883E-002
   6.6048185756828678E-003  -1.2671708852297014E-002   3.0830404993865468E-002
   4.4191315176294599E-003  -1.9714569171741303E-002   3.9330019109382608E-002
   8.8679847689999355E-003  -4.4416735295844667E-003   2.0689742469580524E-002
   7.5841230949250243E-003  -5.6613001147590714E-003   2.5862825237883025E-002
   6.3002614208500056E-003  -9.3625599779951774E-003   3.1864945110375936E-002
   5.0163997467751100E-003  -1.5545453119292257E-002   3.8696102087060036E-002
   3.7325380727000895E-003  -2.4209979538652115E-002   4.6356296167934463E-002
   6.5833001896948296E-003  -4.1606691015669828E-003   2.9576219812097682E-002
   6.0556873400231526E-003  -6.1468369842905268E-003   3.4061570623693971E-002
   5.5280744903514478E-003  -1.0899679745864588E-002   3.9230381979906359E-002
   5.0004616406797292E-003  -1.8419197386288805E-002   4.5082653880734624E-002
   4.4728487910080661E-003  -2.8705389905562484E-002   5.1618386326178545E-002
   7.6391792936921887E-002  -2.3462868186127750E-002   2.9582323207753947E-002
   7.3458300483294103E-002  -2.2408947735359397E-002   2.9954011765972732E-002
   7.0524808029666264E-002  -2.1436856108216343E-002   3.0119915826094051E-002
   6.7591315576038480E-002  -2.0546593304698397E-002   3.0080035388118195E-002
   6.4657823122410751E-002  -1.9738159324805549E-002   2.9834370452044900E-002
   7.0939922986352488E-002  -2.1047777477696705E-002   3.5019868003374588E-002
   6.7911819908502091E-002  -2.0261439572542783E-002   3.4867998311371329E-002
   6.4883716830651750E-002  -1.9509471200372774E-002   3.4732691869020560E-002
   6.1855613752801436E-002  -1.8791872361186915E-002   3.4613948676321740E-002
   5.8827510674950984E-002  -1.8108643054984996E-002   3.4511768733275439E-002
   6.4911420089990818E-002  -1.8632686769265633E-002   4.0166100608060237E-002
   6.2011054135667570E-002  -1.8113931409726086E-002   3.9538131956476180E-002
   5.9110688181344323E-002  -1.7582086292529338E-002   3.9149074302294008E-002
   5.6210322227020999E-002  -1.7037151417675457E-002   3.8998927645513840E-002
   5.3309956272697759E-002  -1.6479126785164361E-002   3.9087691986135473E-002
   5.8306284247837008E-002  -1.6217596060834602E-002   4.5021021021810950E-002
   5.5756003164790395E-002  -1.5966423246909389E-002   4.3964412701287231E-002
   5.3205722081743859E-002  -1.5654701384685863E-002   4.3369063125915208E-002
   5.0655440998697288E-002  -1.5282430474163933E-002   4.3234972295694556E-002
   4.8105159915650696E-002  -1.4849610515343739E-002   4.3562140210625419E-002
   5.1124515459890885E-002  -1.3802505352403516E-002   4.9584629244626754E-002
   4.9146666995870669E-002  -1.3818915084092748E-002   4.8146840545804537E-002
   4.7168818531850454E-002  -1.3727316476842347E-002   4.7392658339883514E-002
   4.5190970067830238E-002  -1.3527709530652538E-002   4.7322082626863785E-002
   4.3213121603810051E-002  -1.3220094245523173E-002   4.7935113406745111E-002
   6.4657823122410751E-002  -1.9738159324805549E-002   2.9834370452044900E-002
   6.2731408192535199E-002  -1.8977862320170874E-002   2.9198678660038724E-002
   6.0804993262659646E-002  -1.8232010442427601E-002   2.8905747356796574E-002
   5.8878578332784093E-002  -1.7500603691575408E-002   2.8955576542318465E-002
   5.6952163402908595E-002  -1.6783642067614457E-002   2.9348166216604465E-002
   5.8827510674950984E-002  -1.8108643054984996E-002   3.4511768733275439E-002
   5.7196085537789890E-002  -1.7440310374108828E-002   3.4136129868146445E-002
   5.5564660400628740E-002  -1.6767401410900315E-002   3.4007710099682412E-002
   5.3933235263467619E-002  -1.6089916165359524E-002   3.4126509427882999E-002
   5.2301810126306497E-002  -1.5407854637486285E-002   3.4492527852748311E-002
   5.3309956272697759E-002  -1.6479126785164361E-002   3.9087691986135473E-002
   5.1877979536151704E-002  -1.5902758428046684E-002   3.8991127457107436E-002
   5.0446002799605677E-002  -1.5302792379373202E-002   3.9046240632645023E-002
   4.9014026063059692E-002  -1.4679228639143586E-002   3.9253031512747977E-002
   4.7582049326513651E-002  -1.4032067207358140E-002   3.9611500097416680E-002
   4.8105159915650696E-002  -1.4849610515343739E-002   4.3562140210625419E-002
   4.6777090187620614E-002  -1.4365206481984590E-002   4.3763671426921877E-002
   4.5449020459590456E-002  -1.3838183347846002E-002   4.4021338955684532E-002
   4.4120950731560346E-002  -1.3268541112927690E-002   4.4335142796913446E-002
   4.2792881003530223E-002  -1.2656279777230037E-002   4.4705082950608696E-002
   4.3213121603810051E-002  -1.3220094245523173E-002   4.7935113406745111E-002
   4.1893417492196577E-002  -1.2827654535922522E-002   4.8453761777589643E-002
   4.0573713380583076E-002  -1.2373574316318761E-002   4.8933005068801022E-002
   3.9254009268969582E-002  -1.1857853586711865E-002   4.9372843280379650E-002
   3.7934305157356130E-002  -1.1280492347101878E-002   4.9773276412325040E-002
   5.6952163402908595E-002  -1.6783642067614457E-002   2.9348166216604465E-002
   5.4337445834003684E-002  -1.6073948492924151E-002   2.8970287269885209E-002
   5.1722728265098800E-002  -1.5364345889884112E-002   2.8721867109777754E-002
   4.9108010696193874E-002  -1.4654834258494065E-002   2.8602905736282644E-002
   4.6493293127289004E-002  -1.3945413598754397E-002   2.8613403149399252E-002
   5.2301810126306497E-002  -1.5407854637486285E-002   3.4492527852748311E-002
   4.9833536976413073E-002  -1.4725540418404126E-002   3.4060146079455844E-002
   4.7365263826519649E-002  -1.4047297099236189E-002   3.3791194357574078E-002
   4.4896990676626253E-002  -1.3373124679982987E-002   3.3685672687103541E-002
   4.2428717526732829E-002  -1.2703023160644200E-002   3.3743581068043926E-002
   4.7582049326513651E-002  -1.4032067207358140E-002   3.9611500097416680E-002
   4.5294191860430780E-002  -1.3377132343884074E-002   3.9120635569286299E-002
   4.3006334394347930E-002  -1.2730248308588710E-002   3.8827172357365880E-002
   4.0718476928265038E-002  -1.2091415101471964E-002   3.8731110461655546E-002
   3.8430619462182194E-002  -1.1460632722533920E-002   3.8832449882155382E-002
   4.2792881003530223E-002  -1.2656279777230037E-002   4.4705082950608696E-002
   4.0719410486056901E-002  -1.2028724269363925E-002   4.4151755739376519E-002
   3.8645939968583572E-002  -1.1413199517940981E-002   4.3829801109153188E-002
   3.6572469451110277E-002  -1.0809705522960719E-002   4.3739219059938966E-002
   3.4498998933636928E-002  -1.0218242284423681E-002   4.3880009591733812E-002
   3.7934305157356130E-002  -1.1280492347101878E-002   4.9773276412325040E-002
   3.6109192853291394E-002  -1.0680316194843997E-002   4.9153506589726559E-002
   3.4284080549226659E-002  -1.0096150727293349E-002   4.8799080612936058E-002
   3.2458968245161937E-002  -9.5279959444496791E-003   4.8709998481953690E-002
   3.0633855941097216E-002  -8.9758518463134429E-003   4.8886260196779441E-002
   4.6493293127289004E-002  -1.3945413598754397E-002   2.8613403149399252E-002
   4.4277202664133403E-002  -1.3226836979649381E-002   2.8137698753918583E-002
   4.2061112200977802E-002  -1.2489857470163027E-002   2.7821169423417585E-002
   3.9845021737822228E-002  -1.1734475070296058E-002   2.7663815157896413E-002
   3.7628931274666599E-002  -1.0960689780047939E-002   2.7665635957354717E-002
   4.2428717526732829E-002  -1.2703023160644200E-002   3.3743581068043926E-002
   4.0370152069502729E-002  -1.2026407561247454E-002   3.3350455124719902E-002
   3.8311586612272644E-002  -1.1332692901820512E-002   3.3113204128267321E-002
   3.6253021155042552E-002  -1.0621879182363576E-002   3.3031828078685932E-002
   3.4194455697812487E-002  -9.8939664028762087E-003   3.3106326975975764E-002
   3.8430619462182194E-002  -1.1460632722533920E-002   3.8832449882155382E-002
   3.6526278892769069E-002  -1.0825978142845499E-002   3.8520598560637359E-002
   3.4621938323356027E-002  -1.0175528333477880E-002   3.8361322067882099E-002
   3.2717597753942979E-002  -9.5092832944309817E-003   3.8354620403889692E-002
   3.0813257184529860E-002  -8.8272430257047563E-003   3.8500493568660143E-002
   3.4498998933636928E-002  -1.0218242284423681E-002   4.3880009591733812E-002
   3.2745583133932436E-002  -9.6255487244436694E-003   4.3648129061671058E-002
   3.0992167334227914E-002  -9.0183637651353628E-003   4.3565523242262358E-002
   2.9238751534523398E-002  -8.3966874064985535E-003   4.3632192133508184E-002
   2.7485335734818910E-002  -7.7605196485333316E-003   4.3848135735408349E-002
   3.0633855941097216E-002  -8.9758518463134429E-003   4.8886260196779441E-002
   2.9028064792992775E-002  -8.4251193060417839E-003   4.8733046627820853E-002
   2.7422273644888320E-002  -7.8611991967927619E-003   4.8725807651407993E-002
   2.5816482496783859E-002  -7.2840915185660229E-003   4.8864543267541027E-002
   2.4210691348679453E-002  -6.6937962713616850E-003   4.9149253476219901E-002
   3.7628931274666599E-002  -1.0960689780047939E-002   2.7665635957354717E-002
   3.5229571069314292E-002  -1.0189926092900370E-002   2.7132805458060072E-002
   3.2830210863962012E-002  -9.4436085023348049E-003   2.6722813112335431E-002
   3.0430850658609745E-002  -8.7217370083514864E-003   2.6435658920180988E-002
   2.8031490453257479E-002  -8.0243116109500745E-003   2.6271342881596271E-002
   3.4194455697812487E-002  -9.8939664028762087E-003   3.3106326975975764E-002
   3.1924158128288138E-002  -9.1654018930001913E-003   3.2612877174593380E-002
   2.9653860558763859E-002  -8.4526329823765567E-003   3.2254714491297076E-002
   2.7383562989239545E-002  -7.7556596710051454E-003   3.2031838926086825E-002
   2.5113265419715231E-002  -7.0744819588862695E-003   3.1944250478962377E-002
   3.0813257184529860E-002  -8.8272430257047563E-003   3.8500493568660143E-002
   2.8684471215349561E-002  -8.1408776931003457E-003   3.8055074962519891E-002
   2.6555685246169199E-002  -7.4616574624183224E-003   3.7757392438981643E-002
   2.4426899276988854E-002  -6.7895823336590298E-003   3.7607445998045226E-002
   2.2298113307808551E-002  -6.1246523068224090E-003   3.7605235639711132E-002
   2.7485335734818910E-002  -7.7605196485333316E-003   4.3848135735408349E-002
   2.5510510330498507E-002  -7.1163534932003336E-003   4.3459398821839711E-002
   2.3535684926178121E-002  -6.4706819424599146E-003   4.3230846955389229E-002
   2.1560859521857694E-002  -5.8235049963129126E-003   4.3162480136056627E-002
   1.9586034117537336E-002  -5.1748226547584653E-003   4.3254298363842397E-002
   2.4210691348679453E-002  -6.6937962713616850E-003   4.9149253476219901E-002
   2.2402275473734967E-002  -6.0918292933002660E-003   4.8825848752552858E-002
   2.0593859598790551E-002  -5.4797064225018677E-003   4.8675078040520070E-002
   1.8785443723846086E-002  -4.8574276589664692E-003   4.8696941340121258E-002
   1.6977027848901677E-002  -4.2249930026947435E-003   4.8891438651355812E-002
   2.8031490453257479E-002  -8.0243116109500745E-003   2.6271342881596271E-002
   2.5688783167542306E-002  -7.3091689711735630E-003   2.5683340747431394E-002
   2.3346075881827133E-002  -6.5341457500647238E-003   2.5041659779642789E-002
   2.1003368596112015E-002  -5.6992419476232237E-003   2.4346299978231040E-002
   1.8660661310396842E-002  -4.8044575638493958E-003   2.3597261343195952E-002
   2.5113265419715231E-002  -7.0744819588862695E-003   3.1944250478962377E-002
   2.2756603609564940E-002  -6.3945516291297189E-003   3.1535636283550883E-002
   2.0399941799414595E-002  -5.7013204648456717E-003   3.1152791872892299E-002
   1.8043279989264201E-002  -4.9947884660345027E-003   3.0795717246986890E-002
   1.5686618179113904E-002  -4.2749556326957538E-003   3.0464412405834418E-002
   2.2298113307808551E-002  -6.1246523068224090E-003   3.7605235639711132E-002
   2.0006945591599323E-002  -5.4799342870858470E-003   3.7329429636248190E-002
   1.7715777875390123E-002  -4.8684951796269527E-003   3.7158842035914408E-002
   1.5424610159180993E-002  -4.2903349844456706E-003   3.7093472838710367E-002
   1.3133442442971710E-002  -3.7454537015420564E-003   3.7133322044635014E-002
   1.9586034117537336E-002  -5.1748226547584653E-003   4.3254298363842397E-002
   1.7439809113645663E-002  -4.5653169450417669E-003   4.3064720805522552E-002
   1.5293584109753875E-002  -4.0356698944082892E-003   4.3059810268708781E-002
   1.3147359105862134E-002  -3.5858815028570051E-003   4.3239566753400717E-002
   1.1001134101970411E-002  -3.2159517703884977E-003   4.3603990259598109E-002
   1.6977027848901677E-002  -4.2249930026947435E-003   4.8891438651355812E-002
   1.5055194175703723E-002  -3.6506996029980754E-003   4.8741509791375148E-002
   1.3133360502505756E-002  -3.2028446091891816E-003   4.8855696571276030E-002
   1.1211526829307795E-002  -2.8814280212680621E-003   4.9233998991058653E-002
   9.2896931561098350E-003  -2.6864498392347169E-003   4.9876417050723876E-002
   1.8660661310396842E-002  -4.8044575638493958E-003   2.3597261343195952E-002
   1.5641321030221367E-002  -4.0706772791267998E-003   2.4377851916552395E-002
   1.2621980750045836E-002  -3.7187857738388008E-003   2.5634541852488424E-002
   9.6026404698703188E-003  -3.7487830479853781E-003   2.7367331151003371E-002
   6.5833001896948296E-003  -4.1606691015669828E-003   2.9576219812097682E-002
   1.5686618179113904E-002  -4.2749556326957538E-003   3.0464412405834418E-002
   1.3124194631177977E-002  -3.7666121768033523E-003   3.1237603559564286E-002
   1.0561771083242036E-002  -3.6945483103319743E-003   3.2448528815194499E-002
   7.9993475353060950E-003  -4.0587640332807803E-003   3.4097188172724696E-002
   5.4369239873701680E-003  -4.8592593456501243E-003   3.6183581632154627E-002
   1.3133442442971710E-002  -3.7454537015420564E-003   3.7133322044635014E-002
   1.0989570366596105E-002  -3.4625470744803488E-003   3.7844722968752964E-002
   8.8456982902204509E-003  -3.6703108468250228E-003   3.8955492734091421E-002
   6.7018262138448005E-003  -4.3687450185760680E-003   4.0465631340650600E-002
   4.5579541374691918E-003  -5.5578495897331548E-003   4.2375138788430466E-002
   1.1001134101970411E-002  -3.2159517703884977E-003   4.3603990259598109E-002
   9.2374482364757406E-003  -3.1584819721572899E-003   4.4199210144118227E-002
   7.4737623709810134E-003  -3.6460733833181894E-003   4.5155433609179452E-002
   5.7100765054862975E-003  -4.6787260038714130E-003   4.6472660654781860E-002
   3.9463906399916128E-003  -6.2564398338162408E-003   4.8150891280925714E-002
   9.2896931561098350E-003  -2.6864498392347169E-003   4.9876417050723876E-002
   7.8678282408168598E-003  -2.8544168698340089E-003   5.0301065085659680E-002
   6.4459633255238014E-003  -3.6218359198115224E-003   5.1048351440457940E-002
   5.0240984102307706E-003  -4.9887069891665498E-003   5.2118276115118045E-002
   3.6022334949377677E-003  -6.9550300778993268E-003   5.3510839109639941E-002
   6.5833001896948296E-003  -4.1606691015669828E-003   2.9576219812097682E-002
   6.0556873400231526E-003  -6.1468369842905268E-003   3.4061570623693971E-002
   5.5280744903514478E-003  -1.0899679745864588E-002   3.9230381979906359E-002
   5.0004616406797292E-003  -1.8419197386288805E-002   4.5082653880734624E-002
   4.4728487910080661E-003  -2.8705389905562484E-002   5.1618386326178545E-002
   5.4369239873701680E-003  -4.8592593456501243E-003   3.6183581632154627E-002
   5.4894604044750384E-003  -6.9954817271036251E-003   3.8332102804536472E-002
   5.5419968215797699E-003  -1.1366878657304597E-002   4.0957461965855368E-002
   5.5945332386845500E-003  -1.7973450136253989E-002   4.4059659116112149E-002
   5.6470696557893718E-003  -2.6815196163950006E-002   4.7638694255305314E-002
   4.5579541374691918E-003  -5.5578495897331548E-003   4.2375138788430466E-002
   4.9840172656718529E-003  -7.8441264699160573E-003   4.2718330651700026E-002
   5.4100803938745209E-003  -1.1834077568744827E-002   4.3331737948228144E-002
   5.8361435220772688E-003  -1.7527702886218841E-002   4.4215360678015264E-002
   6.2622066502799612E-003  -2.4925002422337972E-002   4.5369198841060832E-002
   3.9463906399916128E-003  -6.2564398338162408E-003   4.8150891280925714E-002
   4.5393579236137557E-003  -8.6927712127291556E-003   4.7220254165185625E-002
   5.1323252072358171E-003  -1.2301276480184614E-002   4.6353209927025130E-002
   5.7252924908578499E-003  -1.7081955636183747E-002   4.5549758566444755E-002
   6.3182597744799660E-003  -2.3034808680725605E-002   4.4809900083444903E-002
   3.6022334949377677E-003  -6.9550300778993268E-003   5.3510839109639941E-002
   4.1554823783006012E-003  -9.5414159555413658E-003   5.1837873344991792E-002
   4.7087312616634902E-003  -1.2768475391624845E-002   5.0021877902245770E-002
   5.2619801450263376E-003  -1.6636208386148932E-002   4.8062852781400989E-002
   5.8152290283892683E-003  -2.1144614939113460E-002   4.5960797982457002E-002
   5.1124515459890885E-002  -1.3802505352403516E-002   4.9584629244626754E-002
   4.9146666995870669E-002  -1.3818915084092748E-002   4.8146840545804537E-002
   4.7168818531850454E-002  -1.3727316476842347E-002   4.7392658339883514E-002
   4.5190970067830238E-002  -1.3527709530652538E-002   4.7322082626863785E-002
   4.3213121603810051E-002  -1.3220094245523173E-002   4.7935113406745111E-002
   4.4047176534156518E-002  -1.3527742941063681E-002   5.3805860767503655E-002
   4.2577970565686990E-002  -1.2885492545662791E-002   5.2993744413480037E-002
   4.1108764597217476E-002  -1.2320963145334929E-002   5.2515306557656516E-002
   3.9639558628747969E-002  -1.1834154740080136E-002   5.2370547200033188E-002
   3.8170352660278448E-002  -1.1425067329898453E-002   5.2559466340610206E-002
   3.7755330278637741E-002  -1.3252980529723818E-002   5.8778617084477222E-002
   3.6444838811018038E-002  -1.1952070007232876E-002   5.8406443741239211E-002
   3.5134347343398292E-002  -1.0914609813827532E-002   5.8018020901500732E-002
   3.3823855875778547E-002  -1.0140599949507731E-002   5.7613348565261305E-002
   3.2513364408158808E-002  -9.6300404142736218E-003   5.7192426732521326E-002
   3.2248976693334680E-002  -1.2978218118383969E-002   6.4502898195546846E-002
   3.0747271731863784E-002  -1.1018647468802954E-002   6.4384938529082295E-002
   2.9245566770392827E-002  -9.5082564823200134E-003   6.3900801371416141E-002
   2.7743861808921910E-002  -8.4470451589352714E-003   6.3050486722548343E-002
   2.6242156847450973E-002  -7.8350134986488185E-003   6.1833994582478749E-002
   2.7528115778247320E-002  -1.2703455707044120E-002   7.0978704100712942E-002
   2.5485269328224258E-002  -1.0085224930373032E-002   7.0929228777009135E-002
   2.3442422878201211E-002  -8.1019031508126893E-003   7.0163647967402820E-002
   2.1399576428178142E-002  -6.7534903683629452E-003   6.8681961671893776E-002
   1.9356729978155088E-002  -6.0399865830240707E-003   6.6484169890482059E-002
   4.3213121603810051E-002  -1.3220094245523173E-002   4.7935113406745111E-002
   4.1893417492196577E-002  -1.2827654535922522E-002   4.8453761777589643E-002
   4.0573713380583076E-002  -1.2373574316318761E-002   4.8933005068801022E-002
   3.9254009268969582E-002  -1.1857853586711865E-002   4.9372843280379650E-002
   3.7934305157356130E-002  -1.1280492347101878E-002   4.9773276412325040E-002
   3.8170352660278448E-002  -1.1425067329898453E-002   5.2559466340610206E-002
   3.6887405106453997E-002  -1.1041994284039805E-002   5.2583723428503412E-002
   3.5604457552629566E-002  -1.0633228971754755E-002   5.2720898711607719E-002
   3.4321509998805122E-002  -1.0198771393043225E-002   5.2970992189922884E-002
   3.3038562444980699E-002  -9.7386215479050575E-003   5.3334003863449164E-002
   3.2513364408158808E-002  -9.6300404142736218E-003   5.7192426732521326E-002
   3.1419496686967412E-002  -9.2563340321572124E-003   5.6686344293886692E-002
   3.0325628965776012E-002  -8.8928836271909076E-003   5.6445503325307199E-002
   2.9231761244584598E-002  -8.5396891993744731E-003   5.6469903826782714E-002
   2.8137893523393215E-002  -8.1967507487082092E-003   5.6759545798313341E-002
   2.6242156847450973E-002  -7.8350134986488185E-003   6.1833994582478749E-002
   2.5489692233736670E-002  -7.4706737802746684E-003   6.0761624373739685E-002
   2.4737227620022374E-002  -7.1525382826270086E-003   6.0106818909899808E-002
   2.3984763006308071E-002  -6.8806070057058884E-003   5.9869578190959075E-002
   2.3232298392593775E-002  -6.6548799495113470E-003   6.0049902216917264E-002
   1.9356729978155088E-002  -6.0399865830240707E-003   6.6484169890482059E-002
   1.9097991746761897E-002  -5.6850135283919023E-003   6.4809563668062287E-002
   1.8839253515368699E-002  -5.4121929380630679E-003   6.3704845465385407E-002
   1.8580515283975505E-002  -5.2215248120371684E-003   6.3170015282451683E-002
   1.8321777052582311E-002  -5.1130091503145403E-003   6.3205073119261213E-002
   3.7934305157356130E-002  -1.1280492347101878E-002   4.9773276412325040E-002
   3.6109192853291394E-002  -1.0680316194843997E-002   4.9153506589726559E-002
   3.4284080549226659E-002  -1.0096150727293349E-002   4.8799080612936058E-002
   3.2458968245161937E-002  -9.5279959444496791E-003   4.8709998481953690E-002
   3.0633855941097216E-002  -8.9758518463134429E-003   4.8886260196779441E-002
   3.3038562444980699E-002  -9.7386215479050575E-003   5.3334003863449164E-002
   3.1476794260090160E-002  -9.2637978665331966E-003   5.2701130465671486E-002
   2.9915026075199629E-002  -8.7853187791205878E-003   5.2329601460434083E-002
   2.8353257890309114E-002  -8.3031842856674531E-003   5.2219416847736941E-002
   2.6791489705418559E-002  -7.8173943861734596E-003   5.2370576627580101E-002
   2.8137893523393215E-002  -8.1967507487082092E-003   5.6759545798313341E-002
   2.6835470004409098E-002  -7.8472795382224514E-003   5.6133234916104280E-002
   2.5533046485424926E-002  -7.4744868309481668E-003   5.5764268973167976E-002
   2.4230622966440782E-002  -7.0783726268850624E-003   5.5652647969503935E-002
   2.2928199447456617E-002  -6.6589369260334763E-003   5.5798371905112470E-002
   2.3232298392593775E-002  -6.6548799495113470E-003   6.0049902216917264E-002
   2.2185220086248181E-002  -6.4307612099118172E-003   5.9449819941024967E-002
   2.1138141779902610E-002  -6.1636548827756592E-003   5.9103083151137499E-002
   2.0091063473557030E-002  -5.8535609681028651E-003   5.9009691847254596E-002
   1.9043985167211445E-002  -5.5004794658934375E-003   5.9169646029376265E-002
   1.8321777052582311E-002  -5.1130091503145403E-003   6.3205073119261213E-002
   1.7526044505607463E-002  -5.0142428816009610E-003   6.2650885540433576E-002
   1.6730311958632643E-002  -4.8528229346030266E-003   6.2346043994342820E-002
   1.5934579411657795E-002  -4.6287493093205394E-003   6.2290548480988958E-002
   1.5138846864682962E-002  -4.3420220057535652E-003   6.2484399000371782E-002
   3.0633855941097216E-002  -8.9758518463134429E-003   4.8886260196779441E-002
   2.9028064792992775E-002  -8.4251193060417839E-003   4.8733046627820853E-002
   2.7422273644888320E-002  -7.8611991967927619E-003   4.8725807651407993E-002
   2.5816482496783859E-002  -7.2840915185660229E-003   4.8864543267541027E-002
   2.4210691348679453E-002  -6.6937962713616850E-003   4.9149253476219901E-002
   2.6791489705418559E-002  -7.8173943861734596E-003   5.2370576627580101E-002
   2.5337109792606866E-002  -7.3233020275375038E-003   5.2214944219695691E-002
   2.3882729879795159E-002  -6.8162601566580661E-003   5.2216159689850633E-002
   2.2428349966983445E-002  -6.2962687735353476E-003   5.2374223038045425E-002
   2.0973970054171759E-002  -5.7633278781693553E-003   5.2689134264279736E-002
   2.2928199447456617E-002  -6.6589369260334763E-003   5.5798371905112470E-002
   2.1636104055431503E-002  -6.2214847490329184E-003   5.5640082601567636E-002
   2.0344008663406344E-002  -5.7713211165233563E-003   5.5649514461556374E-002
   1.9051913271381185E-002  -5.3084460285047243E-003   5.5826667485078633E-002
   1.7759817879356064E-002  -4.8328594849769702E-003   5.6171541672134090E-002
   1.9043985167211445E-002  -5.5004794658934375E-003   5.9169646029376265E-002
   1.7925047581466673E-002  -5.1196674705285966E-003   5.9008461773437125E-002
   1.6806109995721890E-002  -4.7263820763886535E-003   5.9025871966525270E-002
   1.5687172409977104E-002  -4.3206232834739639E-003   5.9221876608640811E-002
   1.4568234824232333E-002  -3.9023910917845572E-003   5.9596475699783318E-002
   1.5138846864682962E-002  -4.3420220057535652E-003   6.2484399000371782E-002
   1.4203940370712376E-002  -4.0178501920240528E-003   6.2320081735304012E-002
   1.3269033876741783E-002  -3.6814430362539924E-003   6.2345232204757267E-002
   1.2334127382771193E-002  -3.3328005384433250E-003   6.2559850408731452E-002
   1.1399220888800604E-002  -2.9719226985921443E-003   6.2963936347226968E-002
   2.4210691348679453E-002  -6.6937962713616850E-003   4.9149253476219901E-002
   2.2402275473734967E-002  -6.0918292933002660E-003   4.8825848752552858E-002
   2.0593859598790551E-002  -5.4797064225018677E-003   4.8675078040520070E-002
   1.8785443723846086E-002  -4.8574276589664692E-003   4.8696941340121258E-002
   1.6977027848901677E-002  -4.2249930026947435E-003   4.8891438651355812E-002
   2.0973970054171759E-002  -5.7633278781693553E-003   5.2689134264279736E-002
   1.9354821535213992E-002  -5.2253686618657924E-003   5.2408553515842116E-002
   1.7735673016256240E-002  -4.6903223159299456E-003   5.2333873467743958E-002
   1.6116524497298487E-002  -4.1581888403620162E-003   5.2465094119985053E-002
   1.4497375978340721E-002  -3.6289682351617891E-003   5.2802215472565694E-002
   1.7759817879356064E-002  -4.8328594849769702E-003   5.6171541672134090E-002
   1.6363203405090468E-002  -4.3589080304311245E-003   5.5920716135820919E-002
   1.4966588930824930E-002  -3.9009382093576767E-003   5.5909057988552793E-002
   1.3569974456559388E-002  -3.4589500217570603E-003   5.6136567230329594E-002
   1.2173359982293804E-002  -3.0329434676291678E-003   5.6603243861151176E-002
   1.4568234824232333E-002  -3.9023910917845572E-003   5.9596475699783318E-002
   1.3427421083364480E-002  -3.4924473989965538E-003   5.9362336612489928E-002
   1.2286607342496633E-002  -3.1115541027856922E-003   5.9400631602946716E-002
   1.1145793601628784E-002  -2.7597112031523558E-003   5.9711360671154276E-002
   1.0004979860760934E-002  -2.4369187000964909E-003   6.0294523817112339E-002
   1.1399220888800604E-002  -2.9719226985921443E-003   6.2963936347226968E-002
   1.0547474570035964E-002  -2.6259867675619830E-003   6.2733414945848498E-002
   9.6957282512713239E-003  -2.3221699962134024E-003   6.2808594310925947E-002
   8.8439819325066837E-003  -2.0604723845475750E-003   6.3189474442459370E-002
   7.9922356137420436E-003  -1.8408939325637030E-003   6.3876055340448601E-002
   1.6977027848901677E-002  -4.2249930026947435E-003   4.8891438651355812E-002
   1.5055194175703723E-002  -3.6506996029980754E-003   4.8741509791375148E-002
   1.3133360502505756E-002  -3.2028446091891816E-003   4.8855696571276030E-002
   1.1211526829307795E-002  -2.8814280212680621E-003   4.9233998991058653E-002
   9.2896931561098350E-003  -2.6864498392347169E-003   4.9876417050723876E-002
   1.4497375978340721E-002  -3.6289682351617891E-003   5.2802215472565694E-002
   1.2833887139722236E-002  -3.1594849934903357E-003   5.2680651550507940E-002
   1.1170398301103709E-002  -2.8065636085075618E-003   5.2811661657727077E-002
   9.5069094624851899E-003  -2.5702040802138698E-003   5.3195245794223259E-002
   7.8434206238666981E-003  -2.4504064086088295E-003   5.3831403959996305E-002
   1.2173359982293804E-002  -3.0329434676291678E-003   5.6603243861151176E-002
   1.0756674367649738E-002  -2.6682703839825128E-003   5.6519921426215480E-002
   9.3399887530056479E-003  -2.4102826078260531E-003   5.6677631409951662E-002
   7.9233031383615597E-003  -2.2589801391594555E-003   5.7076373812359762E-002
   6.5066175237174645E-003  -2.2143629779828311E-003   5.7716148633439768E-002
   1.0004979860760934E-002  -2.4369187000964909E-003   6.0294523817112339E-002
   8.8235558594862429E-003  -2.1770557744746760E-003   6.0259319418497201E-002
   7.6421318582115634E-003  -2.0140016071443778E-003   6.0453605827949411E-002
   6.4607078569368630E-003  -1.9477561981049857E-003   6.0877383045468289E-002
   5.2792838556621931E-003  -1.9783195473568327E-003   6.1530651071054279E-002
   7.9922356137420436E-003  -1.8408939325637030E-003   6.3876055340448601E-002
   7.0345316152317650E-003  -1.6858411649670058E-003   6.3898845527353698E-002
   6.0768276167214585E-003  -1.6177206064628691E-003   6.4139584911720338E-002
   5.1191236182111660E-003  -1.6365322570507795E-003   6.4598273493549019E-002
   4.1614196197008735E-003  -1.7422761167309453E-003   6.5274911272839575E-002
   9.2896931561098350E-003  -2.6864498392347169E-003   4.9876417050723876E-002
   7.8678282408168598E-003  -2.8544168698340089E-003   5.0301065085659680E-002
   6.4459633255238014E-003  -3.6218359198115224E-003   5.1048351440457940E-002
   5.0240984102307706E-003  -4.9887069891665498E-003   5.2118276115118045E-002
   3.6022334949377677E-003  -6.9550300778993268E-003   5.3510839109639941E-002
   7.8434206238666981E-003  -2.4504064086088295E-003   5.3831403959996305E-002
   6.7194285416579680E-003  -2.6440990441384815E-003   5.3785820551769503E-002
   5.5954364594492517E-003  -3.3482104372480337E-003   5.4013344489849457E-002
   4.4714443772405077E-003  -4.5627405879378885E-003   5.4513975774235918E-002
   3.3474522950318053E-003  -6.2876894962079488E-003   5.5287714404929078E-002
   6.5066175237174645E-003  -2.2143629779828311E-003   5.7716148633439768E-002
   5.6309673010376468E-003  -2.4337812184425656E-003   5.7289367043847766E-002
   4.7553170783578361E-003  -3.0745849546845172E-003   5.7086161827007570E-002
   3.8796668556780323E-003  -4.1367741867092203E-003   5.7106532982918221E-002
   3.0040166329981799E-003  -5.6203489145161267E-003   5.7350480511580315E-002
   5.2792838556621931E-003  -1.9783195473568327E-003   6.1530651071054279E-002
   4.6024445189558703E-003  -2.2234633927465108E-003   6.0811704561895025E-002
   3.9256051822495665E-003  -2.8009594721215697E-003   6.0266803451931993E-002
   3.2487658455432472E-003  -3.7108077854806666E-003   5.9895947741164440E-002
   2.5719265088369400E-003  -4.9530083328243046E-003   5.9699137429593110E-002
   4.1614196197008735E-003  -1.7422761167309453E-003   6.5274911272839575E-002
   3.6338601954126609E-003  -2.0131455670510667E-003   6.4352833105911000E-002
   3.1063007711244345E-003  -2.5273339895577063E-003   6.3555269364622635E-002
   2.5787413468362150E-003  -3.2848413842521060E-003   6.2882220048974896E-002
   2.0511819225479955E-003  -4.2856677511328156E-003   6.2333685158967644E-002
   3.6022334949377677E-003  -6.9550300778993268E-003   5.3510839109639941E-002
   4.1554823783006012E-003  -9.5414159555413658E-003   5.1837873344991792E-002
   4.7087312616634902E-003  -1.2768475391624845E-002   5.0021877902245770E-002
   5.2619801450263376E-003  -1.6636208386148932E-002   4.8062852781400989E-002
   5.8152290283892683E-003  -2.1144614939113460E-002   4.5960797982457002E-002
   3.3474522950318053E-003  -6.2876894962079488E-003   5.5287714404929078E-002
   3.7743627800789770E-003  -8.5564779363986876E-003   5.2933818525584764E-002
   4.2012732651261486E-003  -1.1402526682851744E-002   5.0470275527707498E-002
   4.6281837501732925E-003  -1.4825835735566964E-002   4.7897085411297335E-002
   5.0550942352204364E-003  -1.8826405094543475E-002   4.5214248176354666E-002
   3.0040166329981799E-003  -5.6203489145161267E-003   5.7350480511580315E-002
   3.3379712792952487E-003  -7.5715399172558984E-003   5.4379067769718625E-002
   3.6719259255922343E-003  -1.0036577974078864E-002   5.1331390468889293E-002
   4.0058805718892233E-003  -1.3015463084984608E-002   4.8207448609092970E-002
   4.3398352181863165E-003  -1.6508195249973934E-002   4.5007242190329366E-002
   2.5719265088369400E-003  -4.9530083328243046E-003   5.9699137429593110E-002
   2.8463078759493748E-003  -6.5866018981133867E-003   5.6173621077392558E-002
   3.1206892430617784E-003  -8.6706292653057626E-003   5.2605222725790449E-002
   3.3950706101742176E-003  -1.1205090434403001E-002   4.8993942374786673E-002
   3.6694519772866446E-003  -1.4189985405404060E-002   4.5339780024380938E-002
   2.0511819225479955E-003  -4.2856677511328156E-003   6.2333685158967644E-002
   2.2993725700413831E-003  -5.6016638789702089E-003   5.8317478448607352E-002
   2.5475632175347845E-003  -7.3046805565327999E-003   5.4291772298411367E-002
   2.7957538650281583E-003  -9.3947177838207066E-003   5.0256566708378830E-002
   3.0439445125215459E-003  -1.1871775560834408E-002   4.6211861678509880E-002
   2.7528115778247320E-002  -1.2703455707044120E-002   7.0978704100712942E-002
   2.5485269328224258E-002  -1.0085224930373032E-002   7.0929228777009135E-002
   2.3442422878201211E-002  -8.1019031508126893E-003   7.0163647967402820E-002
   2.1399576428178142E-002  -6.7534903683629452E-003   6.8681961671893776E-002
   1.9356729978155088E-002  -6.0399865830240707E-003   6.6484169890482059E-002
   2.2643301232796287E-002  -5.3383061169359203E-003   6.6868662625081565E-002
   2.0223252101671391E-002  -4.8789235699584765E-003   6.5681650152039278E-002
   1.7803202970546481E-002  -4.5107120722627791E-003   6.4456337802696051E-002
   1.5383153839421591E-002  -4.2336716238487032E-003   6.3192725577051592E-002
   1.2963104708296688E-002  -4.0478022247162904E-003   6.1890813475106166E-002
   1.6645086756402361E-002   2.0268434731722240E-003   6.0327903945841671E-002
   1.4525640553777121E-002   3.2737779045596826E-004   5.8547092271290235E-002
   1.2406194351151877E-002  -9.1952099371293838E-004   5.7405786330039191E-002
   1.0286748148526646E-002  -1.7138528793344647E-003   5.6903986122088530E-002
   8.1673019459013972E-003  -2.0556178664085656E-003   5.7041691647438234E-002
   9.5334723490655294E-003   9.3919930632803961E-003   5.1356428062993766E-002
   8.3924346845414468E-003   5.5336791508704269E-003   4.9525555134761992E-002
   7.2513970200173668E-003   2.6716700848369371E-003   4.9011993549432309E-002
   6.1103593554932903E-003   8.0596586517974779E-004   4.9815743307004327E-002
   4.9693216909692068E-003  -6.3433508100785296E-005   5.1936804407478429E-002
   1.3084580107857804E-003   1.6757142653388568E-002   3.9954234976537606E-002
   1.8236344939643670E-003   1.0739980511284886E-002   3.8617038742454646E-002
   2.3388109771429570E-003   6.2628611633867570E-003   3.9274959460875114E-002
   2.8539874603215522E-003   3.3257846096940158E-003   4.1927997131799094E-002
   3.3691639435001405E-003   1.9287508502068840E-003   4.6576151755226447E-002
   1.9356729978155088E-002  -6.0399865830240707E-003   6.6484169890482059E-002
   1.9097991746761897E-002  -5.6850135283919023E-003   6.4809563668062287E-002
   1.8839253515368699E-002  -5.4121929380630679E-003   6.3704845465385407E-002
   1.8580515283975505E-002  -5.2215248120371684E-003   6.3170015282451683E-002
   1.8321777052582311E-002  -5.1130091503145403E-003   6.3205073119261213E-002
   1.2963104708296688E-002  -4.0478022247162904E-003   6.1890813475106166E-002
   1.3118991870341268E-002  -3.9188387723908258E-003   6.1606370479526440E-002
   1.3274879032385840E-002  -3.8125161643976363E-003   6.1581290251079002E-002
   1.3430766194430423E-002  -3.7288344007368017E-003   6.1815572789763962E-002
   1.3586653356474993E-002  -3.6677934814081103E-003   6.2309218095581376E-002
   8.1673019459013972E-003  -2.0556178664085656E-003   5.7041691647438234E-002
   8.4272892487730483E-003  -2.1526640163898048E-003   5.8206923498669363E-002
   8.6872765516446977E-003  -2.2128393907321978E-003   5.9320992864422224E-002
   8.9472638545163435E-003  -2.2361439894363223E-003   6.0383899744696809E-002
   9.2072511573879981E-003  -2.2225778125017359E-003   6.1395644139493069E-002
   4.9693216909692068E-003  -6.3433508100785296E-005   5.1936804407478429E-002
   5.0228838820572412E-003  -3.8648926038861720E-004   5.4611222725491168E-002
   5.0764460731452625E-003  -6.1316261706681821E-004   5.6923953305415109E-002
   5.1300082642332942E-003  -7.4345357813578820E-004   5.8874996147249996E-002
   5.1835704553213190E-003  -7.7736214359525047E-004   6.0464351250995932E-002
   3.3691639435001405E-003   1.9287508502068840E-003   4.6576151755226447E-002
   2.9057757701938455E-003   1.3796854956123483E-003   5.0819268159991854E-002
   2.4423875968875471E-003   9.8651415659864461E-004   5.4390171574057594E-002
   1.9789994235812555E-003   7.4923683316462791E-004   5.7288861997423779E-002
   1.5156112502749536E-003   6.6785352531101294E-004   5.9515339430090186E-002
   1.8321777052582311E-002  -5.1130091503145403E-003   6.3205073119261213E-002
   1.7526044505607463E-002  -5.0142428816009610E-003   6.2650885540433576E-002
   1.6730311958632643E-002  -4.8528229346030266E-003   6.2346043994342820E-002
   1.5934579411657795E-002  -4.6287493093205394E-003   6.2290548480988958E-002
   1.5138846864682962E-002  -4.3420220057535652E-003   6.2484399000371782E-002
   1.3586653356474993E-002  -3.6677934814081103E-003   6.2309218095581376E-002
   1.3016291569663607E-002  -3.5958152936450827E-003   6.2140361270943384E-002
   1.2445929782852222E-002  -3.4793217246815167E-003   6.2172899933895465E-002
   1.1875567996040837E-002  -3.3183127745172319E-003   6.2406834084437576E-002
   1.1305206209229451E-002  -3.1127884431519925E-003   6.2842163722569622E-002
   9.2072511573879981E-003  -2.2225778125017359E-003   6.1395644139493069E-002
   8.8143095855932677E-003  -2.1773877056892876E-003   6.1593979771960822E-002
   8.4213680137985407E-003  -2.1058205147599582E-003   6.1945760346871846E-002
   8.0284264420038137E-003  -2.0078762397135932E-003   6.2450985864226108E-002
   7.6354848702090798E-003  -1.8835548805501701E-003   6.3109656324023641E-002
   5.1835704553213190E-003  -7.7736214359525047E-004   6.0464351250995932E-002
   4.9200985533964670E-003  -7.5896011773345096E-004   6.1011741043485765E-002
   4.6566266514716055E-003  -7.3231930483845173E-004   6.1664625233271979E-002
   4.3931547495467474E-003  -6.9743970491006457E-004   6.2423003820354671E-002
   4.1296828476218928E-003  -6.5432131794841697E-004   6.3286876804733952E-002
   1.5156112502749536E-003   6.6785352531101294E-004   5.9515339430090186E-002
   1.3336584730731724E-003   6.5946747022244123E-004   6.0393645085518255E-002
   1.1517056958714016E-003   6.4118190508306860E-004   6.1329494593096057E-002
   9.6975291866962035E-004   6.1299682989337037E-004   6.2322887952823522E-002
   7.8780014146784955E-004   5.7491224465322510E-004   6.3373825164700692E-002
   1.5138846864682962E-002  -4.3420220057535652E-003   6.2484399000371782E-002
   1.4203940370712376E-002  -4.0178501920240528E-003   6.2320081735304012E-002
   1.3269033876741783E-002  -3.6814430362539924E-003   6.2345232204757267E-002
   1.2334127382771193E-002  -3.3328005384433250E-003   6.2559850408731452E-002
   1.1399220888800604E-002  -2.9719226985921443E-003   6.2963936347226968E-002
   1.1305206209229451E-002  -3.1127884431519925E-003   6.2842163722569622E-002
   1.0567312946059948E-002  -2.8856636380125422E-003   6.2854771724409092E-002
   9.8294196828904445E-003  -2.6598532665249863E-003   6.3071938453329646E-002
   9.0915264197209480E-003  -2.4353573286899424E-003   6.3493663909331255E-002
   8.3536331565514377E-003  -2.2121758245070566E-003   6.4119948092414059E-002
   7.6354848702090798E-003  -1.8835548805501701E-003   6.3109656324023641E-002
   7.1096958304006815E-003  -1.7534770840008651E-003   6.3285639817077716E-002
   6.5839067905922709E-003  -1.6382634967963203E-003   6.3681273029772945E-002
   6.0581177507838544E-003  -1.5379141189366171E-003   6.4296555962109217E-002
   5.5323287109754482E-003  -1.4524289504218024E-003   6.5131488614086713E-002
   4.1296828476218928E-003  -6.5432131794841697E-004   6.3286876804733952E-002
   3.8310890237345735E-003  -6.2129052998916023E-004   6.3612686013310077E-002
   3.5324951998472538E-003  -6.1667372706731768E-004   6.4173235934087150E-002
   3.2339013759599324E-003  -6.4047090918326315E-004   6.4968526567065366E-002
   2.9353075520726218E-003  -6.9268207633679801E-004   6.5998557912244599E-002
   7.8780014146784955E-004   5.7491224465322510E-004   6.3373825164700692E-002
   7.3149252606162160E-004   5.1089602402237810E-004   6.3835910313105926E-002
   6.7518491065540059E-004   4.0491604266143510E-004   6.4547827166272165E-002
   6.1887729524917612E-004   2.5697230057000059E-004   6.5509575724199548E-002
   5.6256967984295164E-004   6.7064797748539462E-005   6.6721155986888103E-002
   1.1399220888800604E-002  -2.9719226985921443E-003   6.2963936347226968E-002
   1.0547474570035964E-002  -2.6259867675619830E-003   6.2733414945848498E-002
   9.6957282512713239E-003  -2.3221699962134024E-003   6.2808594310925947E-002
   8.8439819325066837E-003  -2.0604723845475750E-003   6.3189474442459370E-002
   7.9922356137420436E-003  -1.8408939325637030E-003   6.3876055340448601E-002
   8.3536331565514377E-003  -2.2121758245070566E-003   6.4119948092414059E-002
   7.7772260053703621E-003  -1.9960286782899073E-003   6.4055911657855458E-002
   7.2008188541892726E-003  -1.7926358143526278E-003   6.4236852792008053E-002
   6.6244117030081762E-003  -1.6019972326945520E-003   6.4662771494871624E-002
   6.0480045518270936E-003  -1.4241129333157909E-003   6.5333667766446335E-002
   5.5323287109754482E-003  -1.4524289504218024E-003   6.5131488614086713E-002
   5.1705375296330763E-003  -1.3660705890179425E-003   6.5263302023750525E-002
   4.8087463482907079E-003  -1.2631016324911731E-003   6.5579369804380658E-002
   4.4469551669483291E-003  -1.1435220808413034E-003   6.6079691955977127E-002
   4.0851639856059677E-003  -1.0073319340682674E-003   6.6764268478539945E-002
   2.9353075520726218E-003  -6.9268207633679801E-004   6.5998557912244599E-002
   2.7274091428241241E-003  -7.3611249974619986E-004   6.6355586043533615E-002
   2.5195107335756394E-003  -7.3356745062989198E-004   6.6836145348043982E-002
   2.3116123243271409E-003  -6.8504692898811205E-004   6.7440235825775838E-002
   2.1037139150786571E-003  -5.9055093482038301E-004   6.8167857476729335E-002
   5.6256967984295164E-004   6.7064797748539462E-005   6.6721155986888103E-002
   4.4784084494351589E-004  -1.0615441047401308E-004   6.7332763717204647E-002
   3.3311201004405933E-004  -2.0403326876886063E-004   6.8007179422998054E-002
   2.1838317514461490E-004  -2.2657177713506643E-004   6.8744403104268048E-002
   1.0365434024516701E-004  -1.7376993557283171E-004   6.9544434761014573E-002
   7.9922356137420436E-003  -1.8408939325637030E-003   6.3876055340448601E-002
   7.0345316152317650E-003  -1.6858411649670058E-003   6.3898845527353698E-002
   6.0768276167214585E-003  -1.6177206064628691E-003   6.4139584911720338E-002
   5.1191236182111660E-003  -1.6365322570507795E-003   6.4598273493549019E-002
   4.1614196197008735E-003  -1.7422761167309453E-003   6.5274911272839575E-002
   6.0480045518270936E-003  -1.4241129333157909E-003   6.5333667766446335E-002
   5.3127935797156745E-003  -1.2885577396062886E-003   6.5262974208906976E-002
   4.5775826076042414E-003  -1.2249064749544347E-003   6.5419317506703406E-002
   3.8423716354928326E-003  -1.2331591393601737E-003   6.5802697659835832E-002
   3.1071606633813892E-003  -1.3133157328238942E-003   6.6413114668304074E-002
   4.0851639856059677E-003  -1.0073319340682674E-003   6.6764268478539945E-002
   3.5815336977673903E-003  -8.9127431424521064E-004   6.6615119456590849E-002
   3.0779034099288199E-003  -8.3209234344580607E-004   6.6702094947851648E-002
   2.5742731220902496E-003  -8.2978602166935284E-004   6.7025194952321995E-002
   2.0706428342516722E-003  -8.8435534891651013E-004   6.7584419470002627E-002
   2.1037139150786571E-003  -5.9055093482038301E-004   6.8167857476729335E-002
   1.8407519693869161E-003  -4.9399088888447962E-004   6.7955281270405052E-002
   1.5777900236951681E-003  -4.3927821193727457E-004   6.7987917235164452E-002
   1.3148280780034280E-003  -4.2641290397891704E-004   6.8265765371007897E-002
   1.0518661323116792E-003  -4.5539496500929255E-004   6.8788825677934790E-002
   1.0365434024516701E-004  -1.7376993557283171E-004   6.9544434761014573E-002
   9.0448394574241253E-005  -9.6707463523360016E-005   6.9283459650349544E-002
   7.7242448903305089E-005  -4.6464080428826326E-005   6.9276784368642264E-002
   6.4036503232377598E-005  -2.3039786287946951E-005   6.9524408915892871E-002
   5.0830557561443168E-005  -2.6434581101963950E-005   7.0026333292101062E-002
   4.1614196197008735E-003  -1.7422761167309453E-003   6.5274911272839575E-002
   3.6338601954126609E-003  -2.0131455670510667E-003   6.4352833105911000E-002
   3.1063007711244345E-003  -2.5273339895577063E-003   6.3555269364622635E-002
   2.5787413468362150E-003  -3.2848413842521060E-003   6.2882220048974896E-002
   2.0511819225479955E-003  -4.2856677511328156E-003   6.2333685158967644E-002
   3.1071606633813892E-003  -1.3133157328238942E-003   6.6413114668304074E-002
   2.7053489741706155E-003  -1.5197034148471400E-003   6.5298072327878154E-002
   2.3035372849598071E-003  -1.9066493449310939E-003   6.4310011031966680E-002
   1.9017255957490056E-003  -2.4741535230766651E-003   6.3448930780569665E-002
   1.4999139065382250E-003  -3.2222159492840685E-003   6.2714831573687180E-002
   2.0706428342516722E-003  -8.8435534891651013E-004   6.7584419470002627E-002
   1.7970454989923515E-003  -1.0262612626427969E-003   6.6339173680205060E-002
   1.5234481637330169E-003  -1.2859647003046065E-003   6.5223375553795968E-002
   1.2498508284736806E-003  -1.6634656619020048E-003   6.4237025090775557E-002
   9.7625349321436156E-004  -2.1587641474344887E-003   6.3380122291143509E-002
   1.0518661323116792E-003  -4.5539496500929255E-004   6.8788825677934790E-002
   9.0894976987787590E-004  -5.3281911043877306E-004   6.7476137162891664E-002
   7.6603340744406390E-004  -6.6528005567800114E-004   6.6295362930110971E-002
   6.2311704501024886E-004  -8.5277780072695424E-004   6.5246502979592821E-002
   4.8020068257643468E-004  -1.0953123455853253E-003   6.4329557311337243E-002
   5.0830557561443168E-005  -2.6434581101963950E-005   7.0026333292101062E-002
   4.1061786827195634E-005  -3.9376958234471626E-005   6.8708962775937854E-002
   3.1293016092951570E-005  -4.4595411051423506E-005   6.7525973160911301E-002
   2.1524245358707506E-005  -4.2089939551993860E-005   6.6477364447021486E-002
   1.1755474624459972E-005  -3.1860543735939828E-005   6.5563136634267938E-002
   2.0511819225479955E-003  -4.2856677511328156E-003   6.2333685158967644E-002
   2.2993725700413831E-003  -5.6016638789702089E-003   5.8317478448607352E-002
   2.5475632175347845E-003  -7.3046805565327999E-003   5.4291772298411367E-002
   2.7957538650281583E-003  -9.3947177838207066E-003   5.0256566708378830E-002
   3.0439445125215459E-003  -1.1871775560834408E-002   4.6211861678509880E-002
   1.4999139065382250E-003  -3.2222159492840685E-003   6.2714831573687180E-002
   1.7254169062851099E-003  -4.2067453186682702E-003   5.8373346164092399E-002
   1.9509199060320156E-003  -5.4836503263481773E-003   5.3995984898841609E-002
   2.1764229057788867E-003  -7.0529309723219996E-003   4.9582747777933811E-002
   2.4019259055258202E-003  -8.9145872565912221E-003   4.5133634801369338E-002
   9.7625349321436156E-004  -2.1587641474344887E-003   6.3380122291143509E-002
   1.1526924293943190E-003  -2.8118267583668866E-003   5.8808003093745620E-002
   1.3291313655743077E-003  -3.6626200961630967E-003   5.4173631624870447E-002
   1.5055703017542617E-003  -4.7111441608236222E-003   4.9477007884518219E-002
   1.6820092379342400E-003  -5.9573989523478144E-003   4.4718131872688915E-002
   4.8020068257643468E-004  -1.0953123455853253E-003   6.4329557311337243E-002
   5.8119913936902686E-004  -1.4169081980650033E-003   5.9621449237566446E-002
   6.8219759616162685E-004  -1.8415898659782451E-003   5.4824712476497686E-002
   7.8319605295420775E-004  -2.3693573493249690E-003   4.9939347028131222E-002
   8.8419450974681901E-004  -3.0002106481045177E-003   4.4965352892467697E-002
   1.1755474624459972E-005  -3.1860543735939828E-005   6.5563136634267938E-002
   1.0937036209225648E-005  -2.1989637763453196E-005   6.0813684595554807E-002
   1.0118597793994794E-005  -2.0559635793448994E-005   5.5949227453723549E-002
   9.3001593787570003E-006  -2.7570537826329677E-005   5.0969765208774387E-002
   8.4817209635296154E-006  -4.3022343861220946E-005   4.5875297860706876E-002
   1.3084580107857804E-003   1.6757142653388568E-002   3.9954234976537606E-002
   1.8236344939643670E-003   1.0739980511284886E-002   3.8617038742454646E-002
   2.3388109771429570E-003   6.2628611633867570E-003   3.9274959460875114E-002
   2.8539874603215522E-003   3.3257846096940158E-003   4.1927997131799094E-002
   3.3691639435001405E-003   1.9287508502068840E-003   4.6576151755226447E-002
  -6.9700077299527929E-003   8.5246402573883051E-003   4.9539487264423698E-002
  -4.9278301869368143E-003   5.8584917298450390E-003   4.9849192649704110E-002
  -2.8856526439208358E-003   3.8693411801047906E-003   5.1217783202156031E-002
  -8.4347510090485890E-004   2.5571886081674489E-003   5.3645258921779307E-002
   1.1987024421111214E-003   1.9220340140332637E-003   5.7131619808573869E-002
  -1.4241976344666106E-002   2.9213786138804210E-004   6.2907275575071142E-002
  -1.1609029527144803E-002   9.7700294840509516E-004   6.4000837763312779E-002
  -8.9760827096235056E-003   1.4758211968227408E-003   6.5217053333393629E-002
  -6.3431358921021922E-003   1.7885926066408819E-003   6.6555922285313721E-002
  -3.7101890745808788E-003   1.9153171778596156E-003   6.8017444619073247E-002
  -2.0507447833354155E-002  -7.9403645346122209E-003   8.0057599908480256E-002
  -1.8219963526659583E-002  -3.9044858330348417E-003   8.1071974083280457E-002
  -1.5932479219965035E-002  -9.1769878645932279E-004   8.1272769854587826E-002
  -1.3644994913270463E-002   1.0199966051143150E-003   8.0659987222402404E-002
  -1.1357510606575897E-002   1.9086003416860370E-003   7.9233626186724054E-002
  -2.5766422196016950E-002  -1.6172866930612484E-002  0.10099046026465097     
  -2.4760632185481184E-002  -8.7859746144747231E-003  0.10106260160960723     
  -2.3754842174945417E-002  -3.3112187697412754E-003   9.9384932765738621E-002
  -2.2749052164409665E-002   2.5140060358770644E-004   9.5957453733045234E-002
  -2.1743262153873892E-002   1.9018835055123473E-003   9.0780164511526873E-002
   3.3691639435001405E-003   1.9287508502068840E-003   4.6576151755226447E-002
   2.9057757701938455E-003   1.3796854956123483E-003   5.0819268159991854E-002
   2.4423875968875471E-003   9.8651415659864461E-004   5.4390171574057594E-002
   1.9789994235812555E-003   7.4923683316462791E-004   5.7288861997423779E-002
   1.5156112502749536E-003   6.6785352531101294E-004   5.9515339430090186E-002
   1.1987024421111214E-003   1.9220340140332637E-003   5.7131619808573869E-002
   2.9873602936002393E-004   1.6611741898463067E-003   5.8985683738127168E-002
  -6.0123038339108398E-004   1.4719059277512950E-003   6.0638804179490580E-002
  -1.5011967961421832E-003   1.3542292277478000E-003   6.2090981132664022E-002
  -2.4011632088932894E-003   1.3081440898361496E-003   6.3342214597647550E-002
  -3.7101890745808788E-003   1.9153171778596156E-003   6.8017444619073247E-002
  -4.5754642242670741E-003   1.9426628840802096E-003   6.7398153619925794E-002
  -5.4407393739532486E-003   1.9572976989040008E-003   6.7049188635098150E-002
  -6.3060145236394369E-003   1.9592216223309165E-003   6.6970549664590290E-002
  -7.1712896733256114E-003   1.9484346543610920E-003   6.7162236708402170E-002
  -1.1357510606575897E-002   1.9086003416860370E-003   7.9233626186724054E-002
  -1.1716824990687423E-002   2.2241515783141125E-003   7.6056677805387496E-002
  -1.2076139374798959E-002   2.4426894700567067E-003   7.3621324940880389E-002
  -1.2435453758910494E-002   2.5642140169140609E-003   7.1927567593202804E-002
  -1.2794768143022028E-002   2.5887252188859650E-003   7.0975405762354712E-002
  -2.1743262153873892E-002   1.9018835055123473E-003   9.0780164511526873E-002
  -2.1125346269901063E-002   2.5056402725480154E-003   8.4961256294512510E-002
  -2.0507430385928210E-002   2.9280812412094126E-003   8.0355213096837297E-002
  -1.9889514501955370E-002   3.1692064114973578E-003   7.6962034918501343E-002
  -1.9271598617982527E-002   3.2290157834111155E-003   7.4781721759504649E-002
   1.5156112502749536E-003   6.6785352531101294E-004   5.9515339430090186E-002
   1.3336584730731724E-003   6.5946747022244123E-004   6.0393645085518255E-002
   1.1517056958714016E-003   6.4118190508306860E-004   6.1329494593096057E-002
   9.6975291866962035E-004   6.1299682989337037E-004   6.2322887952823522E-002
   7.8780014146784955E-004   5.7491224465322510E-004   6.3373825164700692E-002
  -2.4011632088932894E-003   1.3081440898361496E-003   6.3342214597647550E-002
  -2.4675300597153688E-003   1.2895061837093491E-003   6.3411912017755256E-002
  -2.5338969105374622E-003   1.2541711790605148E-003   6.3655237438472789E-002
  -2.6002637613595538E-003   1.2021390758900491E-003   6.4072190859800052E-002
  -2.6666306121816280E-003   1.1334098741976328E-003   6.4662772281736947E-002
  -7.1712896733256114E-003   1.9484346543610920E-003   6.7162236708402170E-002
  -7.0059864493080028E-003   1.9195448971961737E-003   6.6416528304718558E-002
  -6.8406832252903916E-003   1.8671604530380095E-003   6.5960532050104437E-002
  -6.6753800012727821E-003   1.7912813218866706E-003   6.5794247944560083E-002
  -6.5100767772551717E-003   1.6919075037421516E-003   6.5917675988085483E-002
  -1.2794768143022028E-002   2.5887252188859650E-003   7.0975405762354712E-002
  -1.2281710695704712E-002   2.5495836106830955E-003   6.9407493946407856E-002
  -1.1768653248387377E-002   2.4801497270153135E-003   6.8245378427990985E-002
  -1.1255595801070072E-002   2.3804235678833207E-003   6.7489059207103574E-002
  -1.0742538353752735E-002   2.2504051332867259E-003   6.7138536283745998E-002
  -1.9271598617982527E-002   3.2290157834111155E-003   7.4781721759504649E-002
  -1.8294702798905483E-002   3.1796223241699062E-003   7.2384808942823675E-002
  -1.7317806979828446E-002   3.0931390009929227E-003   7.0509776572132365E-002
  -1.6340911160751408E-002   2.9695658138799083E-003   6.9156624647430831E-002
  -1.5364015341674364E-002   2.8089027628311336E-003   6.8325353168718961E-002
   7.8780014146784955E-004   5.7491224465322510E-004   6.3373825164700692E-002
   7.3149252606162160E-004   5.1089602402237810E-004   6.3835910313105926E-002
   6.7518491065540059E-004   4.0491604266143510E-004   6.4547827166272165E-002
   6.1887729524917612E-004   2.5697230057000059E-004   6.5509575724199548E-002
   5.6256967984295164E-004   6.7064797748539462E-005   6.6721155986888103E-002
  -2.6666306121816280E-003   1.1334098741976328E-003   6.4662772281736947E-002
  -2.4780981200179901E-003   1.0483221675817445E-003   6.4701858585499067E-002
  -2.2895656278543505E-003   9.4721454964080687E-004   6.4980793399639969E-002
  -2.1010331356907108E-003   8.3008702037452864E-004   6.5499576724159389E-002
  -1.9125006435270729E-003   6.9693957978333998E-004   6.6258208559057563E-002
  -6.5100767772551717E-003   1.6919075037421516E-003   6.5917675988085483E-002
  -6.0866873719041138E-003   1.5857483111411386E-003   6.5559707296609787E-002
  -5.6632979665530566E-003   1.4895130566200815E-003   6.5431603921130371E-002
  -5.2399085612019995E-003   1.4032017401790046E-003   6.5533365861647125E-002
  -4.8165191558509415E-003   1.3268143618181405E-003   6.5864993118159909E-002
  -1.0742538353752735E-002   2.2504051332867259E-003   6.7138536283745998E-002
  -1.0094275229596723E-002   2.1231744547005743E-003   6.6409456446437878E-002
  -9.4460121054407153E-003   2.0318115635992937E-003   6.5900258730743358E-002
  -8.7977489812847004E-003   1.9763164599835622E-003   6.5610943136662547E-002
  -8.1494858571286941E-003   1.9566891438529410E-003   6.5541509664195641E-002
  -1.5364015341674364E-002   2.8089027628311336E-003   6.8325353168718961E-002
  -1.4500861693095841E-002   2.6606005982598990E-003   6.7251106034983299E-002
  -1.3637708044517326E-002   2.5741100705786307E-003   6.6386757828478887E-002
  -1.2774554395938813E-002   2.5494311797879844E-003   6.5732308549205684E-002
  -1.1911400747360294E-002   2.5865639258878526E-003   6.5287758197163814E-002
   5.6256967984295164E-004   6.7064797748539462E-005   6.6721155986888103E-002
   4.4784084494351589E-004  -1.0615441047401308E-004   6.7332763717204647E-002
   3.3311201004405933E-004  -2.0403326876886063E-004   6.8007179422998054E-002
   2.1838317514461490E-004  -2.2657177713506643E-004   6.8744403104268048E-002
   1.0365434024516701E-004  -1.7376993557283171E-004   6.9544434761014573E-002
  -1.9125006435270729E-003   6.9693957978333998E-004   6.6258208559057563E-002
  -1.9113829917499804E-003   5.7095203009061013E-004   6.6546746633145637E-002
  -1.9102653399729018E-003   4.7530417352037446E-004   6.7004169705110167E-002
  -1.9091476881958162E-003   4.0999601007227215E-004   6.7630477774951125E-002
  -1.9080300364187307E-003   3.7502753974671954E-004   6.8425670842668429E-002
  -4.8165191558509415E-003   1.3268143618181405E-003   6.5864993118159909E-002
  -4.5934779949975248E-003   1.2480584706553999E-003   6.5785460879213387E-002
  -4.3704368341440951E-003   1.1546416158091793E-003   6.5980890660543259E-002
  -4.1473956732906644E-003   1.0465637972793922E-003   6.6451282462149375E-002
  -3.9243545124372347E-003   9.2382501506604875E-004   6.7196636284031525E-002
  -8.1494858571286941E-003   1.9566891438529410E-003   6.5541509664195641E-002
  -7.5984441647991216E-003   1.9251649112204394E-003   6.5048906455408534E-002
  -7.0474024724695552E-003   1.8339790580982548E-003   6.4937342289297623E-002
  -6.4963607801399818E-003   1.6831315844865104E-003   6.5206817165862713E-002
  -5.9453190878104162E-003   1.4726224903853224E-003   6.5857331085103887E-002
  -1.1911400747360294E-002   2.5865639258878526E-003   6.5287758197163814E-002
  -1.0926281501154766E-002   2.6022713517849239E-003   6.4337083361730496E-002
  -9.9411622549492526E-003   2.5133165003871083E-003   6.3873524591373076E-002
  -8.9560430087437318E-003   2.3196993716937675E-003   6.3897081886091139E-002
  -7.9709237625382040E-003   2.0214199657048182E-003   6.4407755245885712E-002
   1.0365434024516701E-004  -1.7376993557283171E-004   6.9544434761014573E-002
   9.0448394574241253E-005  -9.6707463523360016E-005   6.9283459650349544E-002
   7.7242448903305089E-005  -4.6464080428826326E-005   6.9276784368642264E-002
   6.4036503232377598E-005  -2.3039786287946951E-005   6.9524408915892871E-002
   5.0830557561443168E-005  -2.6434581101963950E-005   7.0026333292101062E-002
  -1.9080300364187307E-003   3.7502753974671954E-004   6.8425670842668429E-002
  -1.6701178496106306E-003   3.6211925336288031E-004   6.8150354729073326E-002
  -1.4322056628025253E-003   3.6299164173964060E-004   6.8122975051478435E-002
  -1.1942934759944157E-003   3.7764470487787472E-004   6.8343531809883631E-002
  -9.5638128918630605E-004   4.0607844277662508E-004   6.8812025004289346E-002
  -3.9243545124372347E-003   9.2382501506604875E-004   6.7196636284031525E-002
  -3.4416875861076491E-003   8.2094597024898186E-004   6.6947578931221524E-002
  -2.9590206597780435E-003   7.7244736390831570E-004   6.6940094621454407E-002
  -2.4763537334484549E-003   7.7832919604380393E-004   6.7174183354729883E-002
  -1.9936868071188524E-003   8.3859146665549167E-004   6.7649845131048242E-002
  -5.9453190878104162E-003   1.4726224903853224E-003   6.5857331085103887E-002
  -5.2242608149168507E-003   1.2797726871352638E-003   6.5675132256794513E-002
  -4.5032025420232939E-003   1.1819030860768867E-003   6.5728143078570195E-002
  -3.7821442691297292E-003   1.1790136872096794E-003   6.6016363550430959E-002
  -3.0610859962361715E-003   1.2711044905341640E-003   6.6539793672377195E-002
  -7.9709237625382040E-003   2.0214199657048182E-003   6.4407755245885712E-002
  -7.0178375360382197E-003   1.7385994040215458E-003   6.4333014705791891E-002
  -6.0647513095382286E-003   1.5913588082454855E-003   6.4487120422825783E-002
  -5.1116650830382460E-003   1.5796981783755062E-003   6.4870072396987499E-002
  -4.1585788565382531E-003   1.7036175144129473E-003   6.5481870628276817E-002
   5.0830557561443168E-005  -2.6434581101963950E-005   7.0026333292101062E-002
   4.1061786827195634E-005  -3.9376958234471626E-005   6.8708962775937854E-002
   3.1293016092951570E-005  -4.4595411051423506E-005   6.7525973160911301E-002
   2.1524245358707506E-005  -4.2089939551993860E-005   6.6477364447021486E-002
   1.1755474624459972E-005  -3.1860543735939828E-005   6.5563136634267938E-002
  -9.5638128918630605E-004   4.0607844277662508E-004   6.8812025004289346E-002
  -8.3165783410143329E-004   4.7249856482689534E-004   6.7499630150552825E-002
  -7.0693437901654839E-004   6.0111078041863442E-004   6.6321838847318099E-002
  -5.8221092393166696E-004   7.9191508955166190E-004   6.5278651094584514E-002
  -4.5748746884679073E-004   1.0449114922265190E-003   6.4370066892353361E-002
  -1.9936868071188524E-003   8.3859146665549167E-004   6.7649845131048242E-002
  -1.7342484768497705E-003   9.8437408788878966E-004   6.6396894108963406E-002
  -1.4748101465806877E-003   1.2468169718887062E-003   6.5278769286745711E-002
  -1.2153718163116119E-003   1.6259201186554322E-003   6.4295470664394450E-002
  -9.5593348604252303E-004   2.1216835281890889E-003   6.3446998241909913E-002
  -3.0610859962361715E-003   1.2711044905341640E-003   6.6539793672377195E-002
  -2.6667101414178181E-003   1.4962496109505868E-003   6.5400754651169762E-002
  -2.2723342865994577E-003   1.8925231633585490E-003   6.4396764479193958E-002
  -1.8779584317810934E-003   2.4599251477590341E-003   6.3527823156450405E-002
  -1.4835825769627434E-003   3.1984555641518253E-003   6.2793930682937968E-002
  -4.1585788565382531E-003   1.7036175144129473E-003   6.5481870628276817E-002
  -3.6290428278055592E-003   2.0081251340121620E-003   6.4511211777171895E-002
  -3.0995067990728653E-003   2.5382293548288914E-003   6.3675824424663630E-002
  -2.5699707703401697E-003   3.2939301768626500E-003   6.2975708570752520E-002
  -2.0404347416074775E-003   4.2752276001141176E-003   6.2410864215438178E-002
   1.1755474624459972E-005  -3.1860543735939828E-005   6.5563136634267938E-002
   1.0937036209225648E-005  -2.1989637763453196E-005   6.0813684595554807E-002
   1.0118597793994794E-005  -2.0559635793448994E-005   5.5949227453723549E-002
   9.3001593787570003E-006  -2.7570537826329677E-005   5.0969765208774387E-002
   8.4817209635296154E-006  -4.3022343861220946E-005   4.5875297860706876E-002
  -4.5748746884679073E-004   1.0449114922265190E-003   6.4370066892353361E-002
  -5.5994533971981744E-004   1.3754960025579854E-003   5.9647049059460444E-002
  -6.6240321059284242E-004   1.7990646346614514E-003   5.4835757464770263E-002
  -7.6486108146587781E-004   2.3156173885370696E-003   4.9936192108282290E-002
  -8.6731895233890799E-004   2.9251542641846040E-003   4.4948352989997220E-002
  -9.5593348604252303E-004   2.1216835281890889E-003   6.3446998241909913E-002
  -1.1332994480528422E-003   2.7729816428794796E-003   5.8851839640612330E-002
  -1.3106654100631674E-003   3.6186889051163795E-003   5.4195138618837929E-002
  -1.4880313720734787E-003   4.6588053149002537E-003   4.9476895176585947E-002
  -1.6653973340838256E-003   5.8933308722306510E-003   4.4697109313857286E-002
  -1.4835825769627434E-003   3.1984555641518253E-003   6.2793930682937968E-002
  -1.7091252887898468E-003   4.1704672832009460E-003   5.8428056339010520E-002
  -1.9346680006169499E-003   5.4383131755714048E-003   5.4027370915926125E-002
  -2.1602107124440565E-003   7.0019932412635454E-003   4.9591874413685413E-002
  -2.3857534242711703E-003   8.8615074802765870E-003   4.5121566832288018E-002
  -2.0404347416074775E-003   4.2752276001141176E-003   6.2410864215438178E-002
  -2.2874228619308504E-003   5.5679529235223013E-003   5.8375699154654681E-002
  -2.5344109822542371E-003   7.2579374460259860E-003   5.4332454356035287E-002
  -2.7813991025776117E-003   9.3451811676266150E-003   5.0281129819579773E-002
  -3.0283872229009967E-003   1.1829684088322523E-002   4.6221725545288805E-002
  -2.5766422196016950E-002  -1.6172866930612484E-002  0.10099046026465097     
  -2.4760632185481184E-002  -8.7859746144747231E-003  0.10106260160960723     
  -2.3754842174945417E-002  -3.3112187697412754E-003   9.9384932765738621E-002
  -2.2749052164409665E-002   2.5140060358770644E-004   9.5957453733045234E-002
  -2.1743262153873892E-002   1.9018835055123473E-003   9.0780164511526873E-002
  -3.1138194289569286E-002  -2.3358831131988222E-003   8.6253039655294905E-002
  -3.1330614485535112E-002   8.0158162266891209E-004   8.4295906501388046E-002
  -3.1523034681500903E-002   3.1536190431770555E-003   8.1692163123302936E-002
  -3.1715454877466714E-002   4.7202291483257018E-003   7.8441809521039504E-002
  -3.1907875073432526E-002   5.5014119381145976E-003   7.4544845694597767E-002
  -3.7742058970925980E-002   1.1501100704214895E-002   6.6702836887646333E-002
  -3.8029489408746849E-002   1.0389137859812547E-002   6.3843138390921247E-002
  -3.8316919846567696E-002   9.6184568560954697E-003   6.1440029634664398E-002
  -3.8604350284388529E-002   9.1890576930635862E-003   5.9493510618875783E-002
  -3.8891780722209390E-002   9.1009403707169034E-003   5.8003581343555349E-002
  -4.5578016240087053E-002   2.5338084521628612E-002   4.2339851961705380E-002
  -4.4857256955116449E-002   1.9976694096956168E-002   3.9704297278206777E-002
  -4.4136497670145769E-002   1.6083294669013870E-002   3.8628532299823014E-002
  -4.3415738385175116E-002   1.3657886237801471E-002   3.9112557026553973E-002
  -4.2694979100204457E-002   1.2700468803319070E-002   4.1156371458399593E-002
  -5.4646066097052498E-002   3.9175068339042274E-002   1.3164084877471949E-002
  -5.1813917124643824E-002   2.9564250334099818E-002   1.1879383163244661E-002
  -4.8981768152235150E-002   2.2548132481932270E-002   1.3257671118778791E-002
  -4.6149619179826476E-002   1.8126714782539410E-002   1.7298948744074033E-002
  -4.3317470207417788E-002   1.6299997235921404E-002   2.4003216039130693E-002
  -2.1743262153873892E-002   1.9018835055123473E-003   9.0780164511526873E-002
  -2.1125346269901063E-002   2.5056402725480154E-003   8.4961256294512510E-002
  -2.0507430385928210E-002   2.9280812412094126E-003   8.0355213096837297E-002
  -1.9889514501955370E-002   3.1692064114973578E-003   7.6962034918501343E-002
  -1.9271598617982527E-002   3.2290157834111155E-003   7.4781721759504649E-002
  -3.1907875073432526E-002   5.5014119381145976E-003   7.4544845694597767E-002
  -3.0354344839615677E-002   5.8093543639122780E-003   7.1458209473371309E-002
  -2.8800814605798850E-002   5.9562433770868478E-003   6.9029936932493596E-002
  -2.7247284371982039E-002   5.9420789776381301E-003   6.7260028071964642E-002
  -2.5693754138165180E-002   5.7668611655664059E-003   6.6148482891784433E-002
  -3.8891780722209390E-002   9.1009403707169034E-003   5.8003581343555349E-002
  -3.6957137477539079E-002   9.1130684552766794E-003   5.7669479503867666E-002
  -3.5022494232868753E-002   8.9844055129640055E-003   5.7439240005538184E-002
  -3.3087850988198421E-002   8.7149515437790689E-003   5.7312862848566931E-002
  -3.1153207743528113E-002   8.3047065477217241E-003   5.7290348032953964E-002
  -4.2694979100204457E-002   1.2700468803319070E-002   4.1156371458399593E-002
  -4.0933724183671173E-002   1.2416782546641039E-002   4.3595066386001496E-002
  -3.9172469267137883E-002   1.2012567648841357E-002   4.5583122315971031E-002
  -3.7411214350604606E-002   1.1487824109920008E-002   4.7120539248308335E-002
  -3.5649959434071295E-002   1.0842551929877056E-002   4.8207317183013292E-002
  -4.3317470207417788E-002   1.6299997235921404E-002   2.4003216039130693E-002
  -4.2284104958012020E-002   1.5720496638005288E-002   2.9234970119772857E-002
  -4.1250739708606272E-002   1.5040729784718571E-002   3.3461583863792138E-002
  -4.0217374459200511E-002   1.4260696676060884E-002   3.6683057271188757E-002
  -3.9184009209794757E-002   1.3380397312032388E-002   3.8899390341962381E-002
  -1.9271598617982527E-002   3.2290157834111155E-003   7.4781721759504649E-002
  -1.8294702798905483E-002   3.1796223241699062E-003   7.2384808942823675E-002
  -1.7317806979828446E-002   3.0931390009929227E-003   7.0509776572132365E-002
  -1.6340911160751408E-002   2.9695658138799083E-003   6.9156624647430831E-002
  -1.5364015341674364E-002   2.8089027628311336E-003   6.8325353168718961E-002
  -2.5693754138165180E-002   5.7668611655664059E-003   6.6148482891784433E-002
  -2.4262970288242026E-002   5.5076727138274884E-003   6.4624290709456106E-002
  -2.2832186438318868E-002   5.2415963953776068E-003   6.3485994142830265E-002
  -2.1401402588395700E-002   4.9686322102168792E-003   6.2733593191907050E-002
  -1.9970618738472556E-002   4.6887801583448963E-003   6.2367087856686210E-002
  -3.1153207743528113E-002   8.3047065477217241E-003   5.7290348032953964E-002
  -2.9404520693046044E-002   7.8357231034850705E-003   5.6669078482203206E-002
  -2.7655833642563965E-002   7.3900537897623603E-003   5.6297719716867742E-002
  -2.5907146592081876E-002   6.9676986065535206E-003   5.6176271736947635E-002
  -2.4158459541599790E-002   6.5686575538585201E-003   5.6304734542442794E-002
  -3.5649959434071295E-002   1.0842551929877056E-002   4.8207317183013292E-002
  -3.3719354013317500E-002   1.0163773493142542E-002   4.8519172261064968E-002
  -3.1788748592563726E-002   9.5385111841470235E-003   4.8944953294244850E-002
  -2.9858143171809938E-002   8.9667650028902712E-003   4.9484660282552800E-002
  -2.7927537751056178E-002   8.4485349493720469E-003   5.0138293225988784E-002
  -3.9184009209794757E-002   1.3380397312032388E-002   3.8899390341962381E-002
  -3.7207470249056435E-002   1.2491823882800263E-002   4.0174572046041523E-002
  -3.5230931288318168E-002   1.1686968578531756E-002   4.1427694874961507E-002
  -3.3254392327579881E-002   1.0965831399227122E-002   4.2658758828722318E-002
  -3.1277853366841579E-002   1.0328412344885796E-002   4.3867763907324053E-002
  -1.5364015341674364E-002   2.8089027628311336E-003   6.8325353168718961E-002
  -1.4500861693095841E-002   2.6606005982598990E-003   6.7251106034983299E-002
  -1.3637708044517326E-002   2.5741100705786307E-003   6.6386757828478887E-002
  -1.2774554395938813E-002   2.5494311797879844E-003   6.5732308549205684E-002
  -1.1911400747360294E-002   2.5865639258878526E-003   6.5287758197163814E-002
  -1.9970618738472556E-002   4.6887801583448963E-003   6.2367087856686210E-002
  -1.8897094569723449E-002   4.4192321700052273E-003   6.1756728724893684E-002
  -1.7823570400974393E-002   4.1771801754410393E-003   6.1357211706210973E-002
  -1.6750046232225303E-002   3.9626241746524120E-003   6.1168536800638190E-002
  -1.5676522063476202E-002   3.7755641676393559E-003   6.1190704008175278E-002
  -2.4158459541599790E-002   6.5686575538585201E-003   5.6304734542442794E-002
  -2.2873621666801600E-002   6.1778637417507776E-003   5.6123947769478502E-002
  -2.1588783792003345E-002   5.7802502803034408E-003   5.6154946295502724E-002
  -2.0303945917205128E-002   5.3758171695167268E-003   5.6397730120515258E-002
  -1.9019108042406901E-002   4.9645644093905816E-003   5.6852299244516236E-002
  -2.7927537751056178E-002   8.4485349493720469E-003   5.0138293225988784E-002
  -2.6430442984330206E-002   7.9364953134962724E-003   5.0352763168737741E-002
  -2.4933348217604262E-002   7.3833203851658459E-003   5.0779961596353701E-002
  -2.3436253450878304E-002   6.7890101643811535E-003   5.1419888508836636E-002
  -2.1939158684152370E-002   6.1535646511418907E-003   5.2272543906186575E-002
  -3.1277853366841579E-002   1.0328412344885796E-002   4.3867763907324053E-002
  -2.9567558522309328E-002   9.6951268852417116E-003   4.4443174922671302E-002
  -2.7857263677777078E-002   8.9863904900281955E-003   4.5232257608764093E-002
  -2.6146968833244820E-002   8.2022031592453998E-003   4.6235011965602590E-002
  -2.4436673988712576E-002   7.3425648928933107E-003   4.7451437993186629E-002
  -1.1911400747360294E-002   2.5865639258878526E-003   6.5287758197163814E-002
  -1.0926281501154766E-002   2.6022713517849239E-003   6.4337083361730496E-002
  -9.9411622549492526E-003   2.5133165003871083E-003   6.3873524591373076E-002
  -8.9560430087437318E-003   2.3196993716937675E-003   6.3897081886091139E-002
  -7.9709237625382040E-003   2.0214199657048182E-003   6.4407755245885712E-002
  -1.5676522063476202E-002   3.7755641676393559E-003   6.1190704008175278E-002
  -1.4273572928402183E-002   3.5716914336867966E-003   6.0510386471245070E-002
  -1.2870623793328134E-002   3.3066972520800764E-003   6.0178612646976049E-002
  -1.1467674658254115E-002   2.9805816228196599E-003   6.0195382535368130E-002
  -1.0064725523180065E-002   2.5933445459050963E-003   6.0560696136421566E-002
  -1.9019108042406901E-002   4.9645644093905816E-003   5.6852299244516236E-002
  -1.7336901370879045E-002   4.5411115155881698E-003   5.6485879835730668E-002
  -1.5654694699351206E-002   4.1000780037732665E-003   5.6329431787191464E-002
  -1.3972488027823346E-002   3.6414638739456634E-003   5.6382955098898707E-002
  -1.2290281356295485E-002   3.1652691261054300E-003   5.6646449770852397E-002
  -2.1939158684152370E-002   6.1535646511418907E-003   5.2272543906186575E-002
  -2.0116266828585378E-002   5.5105315974899594E-003   5.2263563455186908E-002
  -1.8293374973018386E-002   4.8934587554663456E-003   5.2325982012018893E-002
  -1.6470483117451390E-002   4.3023461250718334E-003   5.2459799576682883E-002
  -1.4647591261884398E-002   3.7371937063057914E-003   5.2665016149178505E-002
  -2.4436673988712576E-002   7.3425648928933107E-003   4.7451437993186629E-002
  -2.2611669301521128E-002   6.4799516793913603E-003   4.7843437329614158E-002
  -2.0786664614329722E-002   5.6868395071593414E-003   4.8168263321458793E-002
  -1.8961659927138316E-002   4.9632283761978715E-003   4.8425915968720534E-002
  -1.7136655239946869E-002   4.3091182865060418E-003   4.8616395271399271E-002
  -7.9709237625382040E-003   2.0214199657048182E-003   6.4407755245885712E-002
  -7.0178375360382197E-003   1.7385994040215458E-003   6.4333014705791891E-002
  -6.0647513095382286E-003   1.5913588082454855E-003   6.4487120422825783E-002
  -5.1116650830382460E-003   1.5796981783755062E-003   6.4870072396987499E-002
  -4.1585788565382531E-003   1.7036175144129473E-003   6.5481870628276817E-002
  -1.0064725523180065E-002   2.5933445459050963E-003   6.0560696136421566E-002
  -8.8773638442962190E-003   2.2405603541053032E-003   6.0492434311005538E-002
  -7.6900021654124212E-003   2.0178033801883932E-003   6.0663877133229405E-002
  -6.5026404865286009E-003   1.9250736241546371E-003   6.1075024603093386E-002
  -5.3152788076447771E-003   1.9623710860041665E-003   6.1725876720597483E-002
  -1.2290281356295485E-002   3.1652691261054300E-003   5.6646449770852397E-002
  -1.0857785834515446E-002   2.7425213041885055E-003   5.6579113912090334E-002
  -9.4252903127354411E-003   2.4442479521312871E-003   5.6762341091480636E-002
  -7.9927947909554029E-003   2.2704490699334313E-003   5.7196131309023311E-002
  -6.5602992691753698E-003   2.2211246575950527E-003   5.7880484564718393E-002
  -1.4647591261884398E-002   3.7371937063057914E-003   5.2665016149178505E-002
  -1.2959103506695812E-002   3.2444822542720964E-003   5.2593053509046687E-002
  -1.1270615751507226E-002   2.8706925240743544E-003   5.2782512297579617E-002
  -9.5821279963186189E-003   2.6158245157123939E-003   5.3233392514777489E-002
  -7.8936402411300538E-003   2.4798782291860499E-003   5.3945694160639823E-002
  -1.7136655239946869E-002   4.3091182865060418E-003   4.8616395271399271E-002
  -1.5181316860837346E-002   3.7464432043556317E-003   4.8534253101874203E-002
  -1.3225978481727838E-002   3.2971370960171720E-003   4.8724390751526292E-002
  -1.1270640102618315E-002   2.9611999614911552E-003   4.9186808220355399E-002
  -9.3153017235088065E-003   2.7386318007771582E-003   4.9921505508361719E-002
  -4.1585788565382531E-003   1.7036175144129473E-003   6.5481870628276817E-002
  -3.6290428278055592E-003   2.0081251340121620E-003   6.4511211777171895E-002
  -3.0995067990728653E-003   2.5382293548288914E-003   6.3675824424663630E-002
  -2.5699707703401697E-003   3.2939301768626500E-003   6.2975708570752520E-002
  -2.0404347416074775E-003   4.2752276001141176E-003   6.2410864215438178E-002
  -5.3152788076447771E-003   1.9623710860041665E-003   6.1725876720597483E-002
  -4.6282324729345140E-003   2.2254067716049875E-003   6.0962659081867765E-002
  -3.9411861382242681E-003   2.8098916868262713E-003   6.0379190556496320E-002
  -3.2541398035139859E-003   3.7158258316677545E-003   5.9975471144483483E-002
  -2.5670934688037592E-003   4.9432092061295618E-003   5.9751500845828365E-002
  -6.5602992691753698E-003   2.2211246575950527E-003   5.7880484564718393E-002
  -5.6712650137261886E-003   2.4426884091979795E-003   5.7420560766766965E-002
  -4.7822307582769787E-003   3.0815540188238455E-003   5.7184863696935345E-002
  -3.8931965028277823E-003   4.1377214864729631E-003   5.7173393355223034E-002
  -3.0041622473785893E-003   5.6111908121450060E-003   5.7386149741630699E-002
  -7.8936402411300538E-003   2.4798782291860499E-003   5.3945694160639823E-002
  -6.7581404501805536E-003   2.6599700467908882E-003   5.3884916831869523E-002
  -5.6226406592310664E-003   3.3532163508215446E-003   5.4092843845980142E-002
  -4.4871408682815445E-003   4.5596171412778976E-003   5.4569475202971909E-002
  -3.3516410773320794E-003   6.2791724181604502E-003   5.5314810902844375E-002
  -9.3153017235088065E-003   2.7386318007771582E-003   4.9921505508361719E-002
  -7.8888587822976280E-003   2.8772516843837415E-003   5.0355727277175300E-002
  -6.4624158410864635E-003   3.6248786828190493E-003   5.1103131003631230E-002
  -5.0359728998753059E-003   4.9815127960829500E-003   5.2163716687729372E-002
  -3.6095299586641205E-003   6.9471540241757834E-003   5.3537484329470142E-002
  -2.0404347416074775E-003   4.2752276001141176E-003   6.2410864215438178E-002
  -2.2874228619308504E-003   5.5679529235223013E-003   5.8375699154654681E-002
  -2.5344109822542371E-003   7.2579374460259860E-003   5.4332454356035287E-002
  -2.7813991025776117E-003   9.3451811676266150E-003   5.0281129819579773E-002
  -3.0283872229009967E-003   1.1829684088322523E-002   4.6221725545288805E-002
  -2.5670934688037592E-003   4.9432092061295618E-003   5.9751500845828365E-002
  -2.8390445535643599E-003   6.5599380875559499E-003   5.6216292998768125E-002
  -3.1109956383249919E-003   8.6339087532923964E-003   5.2639238960669243E-002
  -3.3829467230856464E-003   1.1165121203338596E-002   4.9020338731531471E-002
  -3.6548978078462316E-003   1.4153575437694021E-002   4.5359592311356334E-002
  -3.0041622473785893E-003   5.6111908121450060E-003   5.7386149741630699E-002
  -3.3348427497789102E-003   7.5519232515900980E-003   5.4410881693506857E-002
  -3.6655232521792301E-003   1.0009880060558696E-002   5.1360001001142158E-002
  -3.9962037545795501E-003   1.2985061239050411E-002   4.8233507664536546E-002
  -4.3268842569798988E-003   1.6477466787065520E-002   4.5031401683689798E-002
  -3.3516410773320794E-003   6.2791724181604502E-003   5.5314810902844375E-002
  -3.7748174505745566E-003   8.5439084156241074E-003   5.2959465238871101E-002
  -4.1979938238170056E-003   1.1385851367824606E-002   5.0494740477454350E-002
  -4.6211701970595804E-003   1.4805001274762419E-002   4.7920636618594498E-002
  -5.0443465703019332E-003   1.8801358136437019E-002   4.5237153662291030E-002
  -3.6095299586641205E-003   6.9471540241757834E-003   5.3537484329470142E-002
  -4.1589686559512368E-003   9.5358935796581168E-003   5.1862043634860577E-002
  -4.7084073532383114E-003   1.2761822675091211E-002   5.0043457389605417E-002
  -5.2578460505253652E-003   1.6624941310474380E-002   4.8081725593704522E-002
  -5.8072847478125023E-003   2.1125249485808517E-002   4.5976848247156976E-002
  -5.4646066097052498E-002   3.9175068339042274E-002   1.3164084877471949E-002
  -5.1813917124643824E-002   2.9564250334099818E-002   1.1879383163244661E-002
  -4.8981768152235150E-002   2.2548132481932270E-002   1.3257671118778791E-002
  -4.6149619179826476E-002   1.8126714782539410E-002   1.7298948744074033E-002
  -4.3317470207417788E-002   1.6299997235921404E-002   2.4003216039130693E-002
  -6.3458487479692904E-002   3.1077374868157870E-002   1.2415499313684630E-002
  -5.8516496700425955E-002   2.5420979869303445E-002   1.4323172346539459E-002
  -5.3574505921159019E-002   2.1174230864735577E-002   1.7787539323349533E-002
  -4.8632515141892076E-002   1.8337127854454405E-002   2.2808600244114796E-002
  -4.3690524362625147E-002   1.6909670838459651E-002   2.9386355108835360E-002
  -7.0527559325879077E-002   2.2979681397273438E-002   1.6213863835229575E-002
  -6.4582022465559816E-002   2.1277709404507017E-002   2.0128857456678209E-002
  -5.8636485605240644E-002   1.9800329247539022E-002   2.4494249296275902E-002
  -5.2690948744921473E-002   1.8547540926369260E-002   2.9310039354022925E-002
  -4.6745411884602281E-002   1.7519344440997869E-002   3.4576227629919076E-002
  -7.5853281635610600E-002   1.4881987926389006E-002   2.4559178442106672E-002
  -7.0010494420045324E-002   1.7134438939710617E-002   2.9296438493660863E-002
  -6.4167707204479993E-002   1.8426427630342385E-002   3.3377801037558122E-002
  -5.8324919988914592E-002   1.8757953998284296E-002   3.6803266073798566E-002
  -5.2482132773349288E-002   1.8129018043536102E-002   3.9572833602382139E-002
  -7.9435654408887946E-002   6.7842944555046025E-003   3.7451443134315920E-002
  -7.4801912563882383E-002   1.2991168474914161E-002   4.1825915457487373E-002
  -7.0168170718877015E-002   1.7052526013145802E-002   4.4438194547195886E-002
  -6.5534428873871536E-002   1.8968367070199159E-002   4.5288280403441489E-002
  -6.0900687028866085E-002   1.8738691646074390E-002   4.4376173026224319E-002
  -4.3317470207417788E-002   1.6299997235921404E-002   2.4003216039130693E-002
  -4.2284104958012020E-002   1.5720496638005288E-002   2.9234970119772857E-002
  -4.1250739708606272E-002   1.5040729784718571E-002   3.3461583863792138E-002
  -4.0217374459200511E-002   1.4260696676060884E-002   3.6683057271188757E-002
  -3.9184009209794757E-002   1.3380397312032388E-002   3.8899390341962381E-002
  -4.3690524362625147E-002   1.6909670838459651E-002   2.9386355108835360E-002
  -4.3402127212464531E-002   1.6181769670355770E-002   3.2141047783147456E-002
  -4.3113730062303908E-002   1.5443334203747140E-002   3.4410944595592047E-002
  -4.2825332912143285E-002   1.4694364438633501E-002   3.6196045546169162E-002
  -4.2536935761982662E-002   1.3934860375015179E-002   3.7496350634878772E-002
  -4.6745411884602281E-002   1.7519344440997869E-002   3.4576227629919076E-002
  -4.6681638358931590E-002   1.6643042702706196E-002   3.4943590854767163E-002
  -4.6617864833260837E-002   1.5845938622775599E-002   3.5346502692503029E-002
  -4.6554091307590105E-002   1.5128032201206339E-002   3.5784963143126555E-002
  -4.6490317781919331E-002   1.4489323437997942E-002   3.6258972206637971E-002
  -5.2482132773349288E-002   1.8129018043536102E-002   3.9572833602382139E-002
  -5.2122638397413185E-002   1.7104315735056649E-002   3.7642599334632189E-002
  -5.1763144021477060E-002   1.6248543041804391E-002   3.6268258154525154E-002
  -5.1403649645540922E-002   1.5561699963779011E-002   3.5449810062061236E-002
  -5.1044155269604784E-002   1.5043786500980746E-002   3.5187255057240338E-002
  -6.0900687028866085E-002   1.8738691646074390E-002   4.4376173026224319E-002
  -5.9725127327909300E-002   1.7565588767407103E-002   4.0238073222742254E-002
  -5.8549567626952542E-002   1.6651147460832794E-002   3.7176210981658464E-002
  -5.7374007925995757E-002   1.5995367726351808E-002   3.5190586302972920E-002
  -5.6198448225038999E-002   1.5598249563963551E-002   3.4281199186685651E-002
  -3.9184009209794757E-002   1.3380397312032388E-002   3.8899390341962381E-002
  -3.7207470249056435E-002   1.2491823882800263E-002   4.0174572046041523E-002
  -3.5230931288318168E-002   1.1686968578531756E-002   4.1427694874961507E-002
  -3.3254392327579881E-002   1.0965831399227122E-002   4.2658758828722318E-002
  -3.1277853366841579E-002   1.0328412344885796E-002   4.3867763907324053E-002
  -4.2536935761982662E-002   1.3934860375015179E-002   3.7496350634878772E-002
  -4.0547009183089677E-002   1.3184626473571853E-002   3.8262919738432100E-002
  -3.8557082604196616E-002   1.2463467194983563E-002   3.9078322953454217E-002
  -3.6567156025303547E-002   1.1771382539250190E-002   3.9942560279944868E-002
  -3.4577229446410548E-002   1.1108372506371700E-002   4.0855631717904017E-002
  -4.6490317781919331E-002   1.4489323437997942E-002   3.6258972206637971E-002
  -4.4416110598243852E-002   1.3877429064343375E-002   3.6462285207557107E-002
  -4.2341903414568352E-002   1.3239965811435085E-002   3.6785325306572643E-002
  -4.0267696230892831E-002   1.2576933679273256E-002   3.7228092503684473E-002
  -3.8193489047217373E-002   1.1888332667857548E-002   3.7790586798892634E-002
  -5.1044155269604784E-002   1.5043786500980746E-002   3.5187255057240338E-002
  -4.8814774494519139E-002   1.4570231655114875E-002   3.4772668453416575E-002
  -4.6585393719433453E-002   1.4016464427886777E-002   3.4548701934316917E-002
  -4.4356012944347795E-002   1.3382484819296155E-002   3.4515355499941086E-002
  -4.2126632169262129E-002   1.2668292829343314E-002   3.4672629150289541E-002
  -5.6198448225038999E-002   1.5598249563963551E-002   3.4281199186685651E-002
  -5.3743000871915414E-002   1.5263034245886431E-002   3.3194069476010390E-002
  -5.1287553518791870E-002   1.4792963044338317E-002   3.2368452836686823E-002
  -4.8832106165668306E-002   1.4188035959319421E-002   3.1804349268714990E-002
  -4.6376658812544741E-002   1.3448252990829301E-002   3.1501758772095045E-002
  -3.1277853366841579E-002   1.0328412344885796E-002   4.3867763907324053E-002
  -2.9567558522309328E-002   9.6951268852417116E-003   4.4443174922671302E-002
  -2.7857263677777078E-002   8.9863904900281955E-003   4.5232257608764093E-002
  -2.6146968833244820E-002   8.2022031592453998E-003   4.6235011965602590E-002
  -2.4436673988712576E-002   7.3425648928933107E-003   4.7451437993186629E-002
  -3.4577229446410548E-002   1.1108372506371700E-002   4.0855631717904017E-002
  -3.2669052025025902E-002   1.0436263707840815E-002   4.1037008573255679E-002
  -3.0760874603641214E-002   9.7168827551502718E-003   4.1400478911566452E-002
  -2.8852697182256547E-002   8.9502296483002820E-003   4.1946042732836475E-002
  -2.6944519760871921E-002   8.1363043872905161E-003   4.2673700037065554E-002
  -3.8193489047217373E-002   1.1888332667857548E-002   3.7790586798892634E-002
  -3.6119007236766670E-002   1.1177400530440057E-002   3.7606108275658370E-002
  -3.4044525426316113E-002   1.0447375020272570E-002   3.7572145047596789E-002
  -3.1970043615865508E-002   9.6982561373551643E-003   3.7688697114707931E-002
  -2.9895561805414847E-002   8.9300438816877215E-003   3.7955764476991977E-002
  -4.2126632169262129E-002   1.2668292829343314E-002   3.4672629150289541E-002
  -3.9917424157531897E-002   1.1918537353039174E-002   3.4150474029878961E-002
  -3.7708216145801665E-002   1.1177867285394757E-002   3.3747256016854667E-002
  -3.5499008134071454E-002   1.0446282626410102E-002   3.3462975111217083E-002
  -3.3289800122341257E-002   9.7237833760851489E-003   3.3297631312965349E-002
  -4.6376658812544741E-002   1.3448252990829301E-002   3.1501758772095045E-002
  -4.4064302787321374E-002   1.2659674175638291E-002   3.0670105835917782E-002
  -4.1751946762097994E-002   1.1908359550516945E-002   2.9925811819340675E-002
  -3.9439590736874620E-002   1.1194309115464790E-002   2.9268876722363640E-002
  -3.7127234711651247E-002   1.0517522870482243E-002   2.8699300544986373E-002
  -2.4436673988712576E-002   7.3425648928933107E-003   4.7451437993186629E-002
  -2.2611669301521128E-002   6.4799516793913603E-003   4.7843437329614158E-002
  -2.0786664614329722E-002   5.6868395071593414E-003   4.8168263321458793E-002
  -1.8961659927138316E-002   4.9632283761978715E-003   4.8425915968720534E-002
  -1.7136655239946869E-002   4.3091182865060418E-003   4.8616395271399271E-002
  -2.6944519760871921E-002   8.1363043872905161E-003   4.2673700037065554E-002
  -2.5142306022483303E-002   7.3256305762139373E-003   4.2728523544537877E-002
  -2.3340092284094685E-002   6.5687318191636757E-003   4.2804938498987505E-002
  -2.1537878545706070E-002   5.8656081161398005E-003   4.2902944900414450E-002
  -1.9735664807317504E-002   5.2162594671419926E-003   4.3022542748818560E-002
  -2.9895561805414847E-002   8.9300438816877215E-003   3.7955764476991977E-002
  -2.8027374224268851E-002   8.1713094730367641E-003   3.7657686168265148E-002
  -2.6159186643122827E-002   7.4506241311677740E-003   3.7469964098075778E-002
  -2.4290999061976824E-002   6.7679878560817260E-003   3.7392598266423889E-002
  -2.2422811480830813E-002   6.1234006477779435E-003   3.7425588673309668E-002
  -3.3289800122341257E-002   9.7237833760851489E-003   3.3297631312965349E-002
  -3.1266873906877608E-002   9.0169883698591330E-003   3.2630925200795774E-002
  -2.9243947691414050E-002   8.3325164431722124E-003   3.2163340118723821E-002
  -2.7221021475950447E-002   7.6703675960235421E-003   3.1894876066749608E-002
  -2.5198095260486844E-002   7.0305418284138388E-003   3.1825533044872976E-002
  -3.7127234711651247E-002   1.0517522870482243E-002   2.8699300544986373E-002
  -3.4860805070309836E-002   9.8626672666820570E-003   2.7648240642130062E-002
  -3.2594375428968425E-002   9.2144087551761511E-003   2.6885066560931592E-002
  -3.0327945787627014E-002   8.5727473359657885E-003   2.6409778301390907E-002
  -2.8061516146285603E-002   7.9376830090498451E-003   2.6222375863508396E-002
  -1.7136655239946869E-002   4.3091182865060418E-003   4.8616395271399271E-002
  -1.5181316860837346E-002   3.7464432043556317E-003   4.8534253101874203E-002
  -1.3225978481727838E-002   3.2971370960171720E-003   4.8724390751526292E-002
  -1.1270640102618315E-002   2.9611999614911552E-003   4.9186808220355399E-002
  -9.3153017235088065E-003   2.7386318007771582E-003   4.9921505508361719E-002
  -1.9735664807317504E-002   5.2162594671419926E-003   4.3022542748818560E-002
  -1.7551518593908397E-002   4.6269328514179642E-003   4.2898610481439947E-002
  -1.5367372380499345E-002   4.1038752482151497E-003   4.2960014063483293E-002
  -1.3183226167090289E-002   3.6470866575336741E-003   4.3206753494948610E-002
  -1.0999079953681240E-002   3.2565670793736068E-003   4.3638828775836191E-002
  -2.2422811480830813E-002   6.1234006477779435E-003   3.7425588673309668E-002
  -2.0096801402877243E-002   5.5074224984805464E-003   3.7212766346786552E-002
  -1.7770791324923749E-002   4.9106134004132523E-003   3.7098335899930321E-002
  -1.5444781246970293E-002   4.3329733535765295E-003   3.7082297332740953E-002
  -1.3118771169016691E-002   3.7745023579699444E-003   3.7164650645218539E-002
  -2.5198095260486844E-002   7.0305418284138388E-003   3.1825533044872976E-002
  -2.2817165287744041E-002   6.3879121455432258E-003   3.1476720697914309E-002
  -2.0436235315001206E-002   5.7173515526114591E-003   3.1139356260867609E-002
  -1.8055305342258375E-002   5.0188600496191612E-003   3.0813439733732510E-002
  -1.5674375369515568E-002   4.2924376365663930E-003   3.0498971116509156E-002
  -2.8061516146285603E-002   7.9376830090498451E-003   2.6222375863508396E-002
  -2.5712610248508572E-002   7.2684017926055167E-003   2.5690473534823233E-002
  -2.3363704350731540E-002   6.5240897048093049E-003   2.5083075146294875E-002
  -2.1014798452954508E-002   5.7047467456620080E-003   2.4400180697923018E-002
  -1.8665892555177477E-002   4.8103729151627306E-003   2.3641790189707801E-002
  -9.3153017235088065E-003   2.7386318007771582E-003   4.9921505508361719E-002
  -7.8888587822976280E-003   2.8772516843837415E-003   5.0355727277175300E-002
  -6.4624158410864635E-003   3.6248786828190493E-003   5.1103131003631230E-002
  -5.0359728998753059E-003   4.9815127960829500E-003   5.2163716687729372E-002
  -3.6095299586641205E-003   6.9471540241757834E-003   5.3537484329470142E-002
  -1.0999079953681240E-002   3.2565670793736068E-003   4.3638828775836191E-002
  -9.2381384269263067E-003   3.1755652765774189E-003   4.4239341013905309E-002
  -7.4771969001713109E-003   3.6473300119880536E-003   4.5195668465420197E-002
  -5.7162553734163464E-003   4.6718612856055178E-003   4.6507811130380175E-002
  -3.9553138466614374E-003   6.2491590974297351E-003   4.8175769008784952E-002
  -1.3118771169016691E-002   3.7745023579699444E-003   3.7164650645218539E-002
  -1.0980697800915255E-002   3.4738788687709021E-003   3.7875212775922207E-002
  -8.8426244328137331E-003   3.6697813411571550E-003   3.8984223375873803E-002
  -6.7045510647122126E-003   4.3622097751279711E-003   4.0491682445073361E-002
  -4.5664776966107198E-003   5.5511641706839643E-003   4.2397589983521028E-002
  -1.5674375369515568E-002   4.2924376365663930E-003   3.0498971116509156E-002
  -1.3116536904264604E-002   3.7721924609648155E-003   3.1263342563224931E-002
  -1.0558698439013695E-002   3.6922326703261524E-003   3.2468795734991604E-002
  -8.0008599737627015E-003   4.0525582646505926E-003   3.4115330631809340E-002
  -5.4430215085118205E-003   4.8531692439381657E-003   3.6202947253677432E-002
  -1.8665892555177477E-002   4.8103729151627306E-003   2.3641790189707801E-002
  -1.5645655736974351E-002   4.0705060531580073E-003   2.4403730375814114E-002
  -1.2625418918771197E-002   3.7146839994951775E-003   2.5649385542773961E-002
  -9.6051821005680577E-003   3.7429067541730823E-003   2.7378755690587647E-002
  -6.5849452823649179E-003   4.1551743171922562E-003   2.9591840819254700E-002
  -3.6095299586641205E-003   6.9471540241757834E-003   5.3537484329470142E-002
  -4.1589686559512368E-003   9.5358935796581168E-003   5.1862043634860577E-002
  -4.7084073532383114E-003   1.2761822675091211E-002   5.0043457389605417E-002
  -5.2578460505253652E-003   1.6624941310474380E-002   4.8081725593704522E-002
  -5.8072847478125023E-003   2.1125249485808517E-002   4.5976848247156976E-002
  -3.9553138466614374E-003   6.2491590974297351E-003   4.8175769008784952E-002
  -4.5447772805376069E-003   8.6876328017134186E-003   4.7241456559611705E-002
  -5.1342407144138111E-003   1.2295691752709142E-002   4.6370240187906031E-002
  -5.7237041482900881E-003   1.7073335950416289E-002   4.5562119893668124E-002
  -6.3131675821661848E-003   2.3020565394835879E-002   4.4817095676897845E-002
  -4.5664776966107198E-003   5.5511641706839643E-003   4.2397589983521028E-002
  -4.9897242389624896E-003   7.8393720237689424E-003   4.2736801486545073E-002
  -5.4129707813143253E-003   1.1829560830327282E-002   4.3345350695149928E-002
  -5.8362173236662356E-003   1.7521730590358640E-002   4.4223237609336406E-002
  -6.2594638660179308E-003   2.4915881303863241E-002   4.5370462229103348E-002
  -5.4430215085118205E-003   4.8531692439381657E-003   3.6202947253677432E-002
  -5.4938095312258173E-003   6.9911112458246882E-003   3.8348078415660229E-002
  -5.5445975539398411E-003   1.1363429907945428E-002   4.0968788911337442E-002
  -5.5953855766539343E-003   1.7970125230300768E-002   4.4065078740708953E-002
  -5.6461735993678618E-003   2.6811197212890603E-002   4.7636947903775567E-002
  -6.5849452823649179E-003   4.1551743171922562E-003   2.9591840819254700E-002
  -6.0570331573276404E-003   6.1428504678799900E-003   3.4075287346957306E-002
  -5.5291210322904183E-003   1.0897298985563658E-002   3.9240554836467878E-002
  -5.0012089072531546E-003   1.8418519870242810E-002   4.5087643287786555E-002
  -4.4732967822158631E-003   2.8706513121917965E-002   5.1616552700913143E-002
  -7.9435654408887946E-002   6.7842944555046025E-003   3.7451443134315920E-002
  -7.4801912563882383E-002   1.2991168474914161E-002   4.1825915457487373E-002
  -7.0168170718877015E-002   1.7052526013145802E-002   4.4438194547195886E-002
  -6.5534428873871536E-002   1.8968367070199159E-002   4.5288280403441489E-002
  -6.0900687028866085E-002   1.8738691646074390E-002   4.4376173026224319E-002
  -8.2901365320157155E-002   1.5284355120532334E-002   2.9502514562296023E-002
  -7.9600030839688668E-002   1.8462317422225732E-002   3.1120345586476167E-002
  -7.6298696359220083E-002   2.0432993494139490E-002   3.1835555115045405E-002
  -7.2997361878751499E-002   2.1196383336273446E-002   3.1648143148003835E-002
  -6.9696027398282984E-002   2.0752486948627746E-002   3.0558109685351387E-002
  -8.7877102043864785E-002   2.3784415785560065E-002   1.8055559146860439E-002
  -8.5048603190081173E-002   2.3933466369537110E-002   1.7854979123447801E-002
  -8.2220104336297492E-002   2.3813460975133108E-002   1.7611349342276483E-002
  -7.9391605482513755E-002   2.3424399602347570E-002   1.7324669803346092E-002
  -7.6563106628730129E-002   2.2766282251181075E-002   1.6994940506656869E-002
  -9.4362864580010836E-002   3.2284476450587823E-002   3.1105768880094128E-003
  -9.1147629615059983E-002   2.9404615316848556E-002   2.0298160684025061E-003
  -8.7932394650109214E-002   2.7193928456126622E-002   1.7655772288887560E-003
  -8.4717159685158361E-002   2.5652415868421777E-002   2.3178603694680618E-003
  -8.1501924720207564E-002   2.4780077553734195E-002   3.6866654901404929E-003
 -0.10235865292859514        4.0784537115615582E-002  -1.5332432214257175E-002
  -9.7897110114625208E-002   3.4875764264159947E-002  -1.6355143578660025E-002
  -9.3435567300655276E-002   3.0574395937120219E-002  -1.5701761225117628E-002
  -8.8974024486685233E-002   2.7880432134496126E-002  -1.3372285153630134E-002
  -8.4512481672715301E-002   2.6793872856287648E-002  -9.3667153641974754E-003
  -6.0900687028866085E-002   1.8738691646074390E-002   4.4376173026224319E-002
  -5.9725127327909300E-002   1.7565588767407103E-002   4.0238073222742254E-002
  -5.8549567626952542E-002   1.6651147460832794E-002   3.7176210981658464E-002
  -5.7374007925995757E-002   1.5995367726351808E-002   3.5190586302972920E-002
  -5.6198448225038999E-002   1.5598249563963551E-002   3.4281199186685651E-002
  -6.9696027398282984E-002   2.0752486948627746E-002   3.0558109685351387E-002
  -6.7656650456125733E-002   1.9767958382005915E-002   2.8328192421601409E-002
  -6.5617273513968580E-002   1.8909451687211740E-002   2.6749672077853989E-002
  -6.3577896571811371E-002   1.8176966864244953E-002   2.5822548654109184E-002
  -6.1538519629654190E-002   1.7570503913105939E-002   2.5546822150366882E-002
  -7.6563106628730129E-002   2.2766282251181075E-002   1.6994940506656869E-002
  -7.4084753087768213E-002   2.1970327996604810E-002   1.6540566082373434E-002
  -7.1606399546806337E-002   2.1167755913590630E-002   1.6312747935696904E-002
  -6.9128046005844504E-002   2.0358566002138319E-002   1.6311486066627100E-002
  -6.6649692464882587E-002   1.9542758262248133E-002   1.6536780475164284E-002
  -8.1501924720207564E-002   2.4780077553734195E-002   3.6866654901404929E-003
  -7.9009435222836794E-002   2.4172697611203608E-002   4.8751942050584036E-003
  -7.6516945725465912E-002   2.3426060139969326E-002   5.8654385551868519E-003
  -7.4024456228095073E-002   2.2540165140031463E-002   6.6573985405268959E-003
  -7.1531966730724261E-002   2.1515012611390341E-002   7.2510741610777620E-003
  -8.4512481672715301E-002   2.6793872856287648E-002  -9.3667153641974754E-003
  -8.2430696861331310E-002   2.6375067225802407E-002  -6.6679232103442065E-003
  -8.0348912049947263E-002   2.5684364366348383E-002  -4.5922560636755400E-003
  -7.8267127238563300E-002   2.4721764277924975E-002  -3.1397139241916595E-003
  -7.6185342427179226E-002   2.3487266960532716E-002  -2.3102967918924300E-003
  -5.6198448225038999E-002   1.5598249563963551E-002   3.4281199186685651E-002
  -5.3743000871915414E-002   1.5263034245886431E-002   3.3194069476010390E-002
  -5.1287553518791870E-002   1.4792963044338317E-002   3.2368452836686823E-002
  -4.8832106165668306E-002   1.4188035959319421E-002   3.1804349268714990E-002
  -4.6376658812544741E-002   1.3448252990829301E-002   3.1501758772095045E-002
  -6.1538519629654190E-002   1.7570503913105939E-002   2.5546822150366882E-002
  -5.8820551434720064E-002   1.6995167503506603E-002   2.4590286443427645E-002
  -5.6102583239785904E-002   1.6356062305159277E-002   2.3897279348757822E-002
  -5.3384615044851799E-002   1.5653188318063751E-002   2.3467800866357511E-002
  -5.0666646849917660E-002   1.4886545542220408E-002   2.3301850996226559E-002
  -6.6649692464882587E-002   1.9542758262248133E-002   1.6536780475164284E-002
  -6.3667187887220242E-002   1.8727300761126303E-002   1.5781925866684157E-002
  -6.0684683309557869E-002   1.7919161565979898E-002   1.5292615411391090E-002
  -5.7702178731895488E-002   1.7118340676808078E-002   1.5068849109285219E-002
  -5.4719674154233157E-002   1.6324838093611516E-002   1.5110626960366191E-002
  -7.1531966730724261E-002   2.1515012611390341E-002   7.2510741610777620E-003
  -6.8282910229416030E-002   2.0459434018746323E-002   6.7689877457799072E-003
  -6.5033853728107729E-002   1.9482260826800522E-002   6.5544610245864224E-003
  -6.1784797226799436E-002   1.8583493035552685E-002   6.6074939974981447E-003
  -5.8535740725491198E-002   1.7763130645002845E-002   6.9280866645141728E-003
  -7.6185342427179226E-002   2.3487266960532716E-002  -2.3102967918924300E-003
  -7.2667718461307318E-002   2.2191567276366342E-002  -2.4485279192851817E-003
  -6.9150094495435521E-002   2.1045360087621312E-002  -2.3171838116560206E-003
  -6.5632470529563613E-002   2.0048645394297029E-002  -1.9162644690036423E-003
  -6.2114846563691817E-002   1.9201423196393841E-002  -1.2457698913295179E-003
  -4.6376658812544741E-002   1.3448252990829301E-002   3.1501758772095045E-002
  -4.4064302787321374E-002   1.2659674175638291E-002   3.0670105835917782E-002
  -4.1751946762097994E-002   1.1908359550516945E-002   2.9925811819340675E-002
  -3.9439590736874620E-002   1.1194309115464790E-002   2.9268876722363640E-002
  -3.7127234711651247E-002   1.0517522870482243E-002   2.8699300544986373E-002
  -5.0666646849917660E-002   1.4886545542220408E-002   2.3301850996226559E-002
  -4.8258197270294040E-002   1.4096663112364655E-002   2.2743170263303414E-002
  -4.5849747690670427E-002   1.3324070163232477E-002   2.2289317719580870E-002
  -4.3441298111046786E-002   1.2568766694823021E-002   2.1940293365058788E-002
  -4.1032848531423194E-002   1.1830752707137016E-002   2.1696097199737308E-002
  -5.4719674154233157E-002   1.6324838093611516E-002   1.5110626960366191E-002
  -5.2197661750608727E-002   1.5533652049091018E-002   1.4804943721350883E-002
  -4.9675649346984319E-002   1.4739780775947620E-002   1.4621557941137092E-002
  -4.7153636943359861E-002   1.3943224274181196E-002   1.4560469619723806E-002
  -4.4631624539735487E-002   1.3143982543791510E-002   1.4621678757111872E-002
  -5.8535740725491198E-002   1.7763130645002845E-002   6.9280866645141728E-003
  -5.5882696228265451E-002   1.6970640985817326E-002   6.8554262100607756E-003
  -5.3229651731039697E-002   1.6155491388662568E-002   6.9225324840089669E-003
  -5.0576607233813971E-002   1.5317681853539121E-002   7.1294054863584727E-003
  -4.7923562736588189E-002   1.4457212380446199E-002   7.4760452171099487E-003
  -6.2114846563691817E-002   1.9201423196393841E-002  -1.2457698913295179E-003
  -5.9313300703264127E-002   1.8407629922543856E-002  -1.1053822705674454E-003
  -5.6511754842836548E-002   1.7571202001378655E-002  -8.0775865180310324E-004
  -5.3710208982408914E-002   1.6692139432897470E-002  -3.5289903503697706E-004
  -5.0908663121981279E-002   1.5770442217100777E-002   2.5919657973139110E-004
  -3.7127234711651247E-002   1.0517522870482243E-002   2.8699300544986373E-002
  -3.4860805070309836E-002   9.8626672666820570E-003   2.7648240642130062E-002
  -3.2594375428968425E-002   9.2144087551761511E-003   2.6885066560931592E-002
  -3.0327945787627014E-002   8.5727473359657885E-003   2.6409778301390907E-002
  -2.8061516146285603E-002   7.9376830090498451E-003   2.6222375863508396E-002
  -4.1032848531423194E-002   1.1830752707137016E-002   2.1696097199737308E-002
  -3.8520277649005216E-002   1.1103816514761777E-002   2.0915862128855711E-002
  -3.6007706766587169E-002   1.0381746432284358E-002   2.0340023718469380E-002
  -3.3495135884169150E-002   9.6645424597050118E-003   1.9968581968578314E-002
  -3.0982565001751200E-002   8.9522045970239494E-003   1.9801536879182569E-002
  -4.4631624539735487E-002   1.3143982543791510E-002   1.4621678757111872E-002
  -4.1956401577403594E-002   1.2344965762841442E-002   1.4110537535808113E-002
  -3.9281178615071563E-002   1.1549084109392677E-002   1.3720303813837084E-002
  -3.6605955652739615E-002   1.0756337583444846E-002   1.3450977591198759E-002
  -3.3930732690407708E-002   9.9667261849982758E-003   1.3302558867892972E-002
  -4.7923562736588189E-002   1.4457212380446199E-002   7.4760452171099487E-003
  -4.5169176855504908E-002   1.3586115010921246E-002   7.2322668629873389E-003
  -4.2414790974421565E-002   1.2716421786500995E-002   7.0259068470346631E-003
  -3.9660405093338305E-002   1.1848132707184263E-002   6.8569651692523929E-003
  -3.6906019212254948E-002   1.0981247772973046E-002   6.7254418296397722E-003
  -5.0908663121981279E-002   1.5770442217100777E-002   2.5919657973139110E-004
  -4.8158603483309359E-002   1.4827264259000827E-002   2.8105011039303296E-004
  -4.5408543844637272E-002   1.3883759463609091E-002   2.5683281806221370E-004
  -4.2658484205965241E-002   1.2939927830923653E-002   1.8654470273923862E-004
  -3.9908424567293266E-002   1.1995769360946928E-002   7.0185764422858732E-005
  -2.8061516146285603E-002   7.9376830090498451E-003   2.6222375863508396E-002
  -2.5712610248508572E-002   7.2684017926055167E-003   2.5690473534823233E-002
  -2.3363704350731540E-002   6.5240897048093049E-003   2.5083075146294875E-002
  -2.1014798452954508E-002   5.7047467456620080E-003   2.4400180697923018E-002
  -1.8665892555177477E-002   4.8103729151627306E-003   2.3641790189707801E-002
  -3.0982565001751200E-002   8.9522045970239494E-003   1.9801536879182569E-002
  -2.8685315167616104E-002   8.2357899331535478E-003   1.9222330421693634E-002
  -2.6388065333481051E-002   7.5063555570058227E-003   1.8615307896764216E-002
  -2.4090815499345941E-002   6.7639014685814333E-003   1.7980469304394273E-002
  -2.1793565665210901E-002   6.0084276678797899E-003   1.7317814644583596E-002
  -3.3930732690407708E-002   9.9667261849982758E-003   1.3302558867892972E-002
  -3.1637458927511755E-002   9.2031780737013291E-003   1.2738059440675159E-002
  -2.9344185164615864E-002   8.4886214092021323E-003   1.2193423938419462E-002
  -2.7050911401719939E-002   7.8230561915006401E-003   1.1668652361125881E-002
  -2.4757637638824020E-002   7.2064824205970712E-003   1.1163744708794832E-002
  -3.6906019212254948E-002   1.0981247772973046E-002   6.7254418296397722E-003
  -3.4569041528195413E-002   1.0170566214249568E-002   6.2376605917674952E-003
  -3.2232063844135968E-002   9.4708872613982684E-003   5.8174232712602768E-003
  -2.9895086160076492E-002   8.8822109144199562E-003   5.4647298681181466E-003
  -2.7558108476016984E-002   8.4045371733143526E-003   5.1795803823408010E-003
  -3.9908424567293266E-002   1.1995769360946928E-002   7.0185764422858732E-005
  -3.7480062969667327E-002   1.1137954354797142E-002  -2.7886612502930896E-004
  -3.5051701372041444E-002   1.0453153113594571E-002  -5.1269410471310728E-004
  -3.2623339774415505E-002   9.9413656373393416E-003  -6.3129817462953541E-004
  -3.0194978176789622E-002   9.6025919260314119E-003  -6.3467833477837132E-004
  -1.8665892555177477E-002   4.8103729151627306E-003   2.3641790189707801E-002
  -1.5645655736974351E-002   4.0705060531580073E-003   2.4403730375814114E-002
  -1.2625418918771197E-002   3.7146839994951775E-003   2.5649385542773961E-002
  -9.6051821005680577E-003   3.7429067541730823E-003   2.7378755690587647E-002
  -6.5849452823649179E-003   4.1551743171922562E-003   2.9591840819254700E-002
  -2.1793565665210901E-002   6.0084276678797899E-003   1.7317814644583596E-002
  -1.8561731283149488E-002   5.3388452639300810E-003   1.8255662207175727E-002
  -1.5329896901087964E-002   4.8540653657609956E-003   1.9132989916630899E-002
  -1.2098062519026460E-002   4.5540879733722700E-003   1.9949797772949127E-002
  -8.8662281369650264E-003   4.4389130867643622E-003   2.0706085776130312E-002
  -2.4757637638824020E-002   7.2064824205970712E-003   1.1163744708794832E-002
  -2.1858440526894840E-002   6.6071844747021824E-003   1.2078257345311871E-002
  -1.8959243414965687E-002   5.9934467320270218E-003   1.2388015294701474E-002
  -1.6060046303036524E-002   5.3652691925718983E-003   1.2093018556963479E-002
  -1.3160849191107354E-002   4.7226518563364128E-003   1.1193267132097701E-002
  -2.7558108476016984E-002   8.4045371733143526E-003   5.1795803823408010E-003
  -2.5535783468210629E-002   7.8755236854740479E-003   5.8715157902221315E-003
  -2.3513458460404368E-002   7.1328280982932771E-003   5.4144616769856192E-003
  -2.1491133452597993E-002   6.1764504117711953E-003   3.8084180426309639E-003
  -1.9468808444791753E-002   5.0063906259079360E-003   1.0533848871574283E-003
  -3.0194978176789622E-002   9.6025919260314119E-003  -6.3467833477837132E-004
  -2.9593760107096800E-002   9.1438628962461355E-003  -3.6456245809307619E-004
  -2.8992542037403923E-002   8.2722094645590882E-003  -1.7876709365164667E-003
  -2.8391323967711130E-002   6.9876316309704367E-003  -4.9040037700487163E-003
  -2.7790105898018225E-002   5.2901293954805695E-003  -9.7135609586899152E-003
  -6.5849452823649179E-003   4.1551743171922562E-003   2.9591840819254700E-002
  -6.0570331573276404E-003   6.1428504678799900E-003   3.4075287346957306E-002
  -5.5291210322904183E-003   1.0897298985563658E-002   3.9240554836467878E-002
  -5.0012089072531546E-003   1.8418519870242810E-002   4.5087643287786555E-002
  -4.4732967822158631E-003   2.8706513121917965E-002   5.1616552700913143E-002
  -8.8662281369650264E-003   4.4389130867643622E-003   2.0706085776130312E-002
  -7.5830173975862947E-003   5.6576868048754392E-003   2.5874605292151354E-002
  -6.2998066582074796E-003   9.3595552266461657E-003   3.1871901075047449E-002
  -5.0165959188287826E-003   1.5544518352074557E-002   3.8697973124818874E-002
  -3.7333851794498218E-003   2.4212576181162238E-002   4.6352821441464576E-002
  -1.3160849191107354E-002   4.7226518563364128E-003   1.1193267132097701E-002
  -1.0975384532320082E-002   5.1725231418712214E-003   1.6763181973100616E-002
  -8.7899198735327949E-003   7.8218114677285761E-003   2.3308828386045158E-002
  -6.6044552147456227E-003   1.2670516833906697E-002   3.0830206370931888E-002
  -4.4189905559583464E-003   1.9718639240406510E-002   3.9327315927760176E-002
  -1.9468808444791753E-002   5.0063906259079360E-003   1.0533848871574283E-003
  -1.6234134561529064E-002   4.6873594788668371E-003   6.7410173898049541E-003
  -1.2999460678266421E-002   6.2840677088100358E-003   1.3551336769461044E-002
  -9.7647867950039074E-003   9.7965153157384185E-003   2.1484343026125556E-002
  -6.5301129117410900E-003   1.5224702299650783E-002   3.0540036159799444E-002
  -2.7790105898018225E-002   5.2901293954805695E-003  -9.7135609586899152E-003
  -2.3359267485213331E-002   4.2021958158624528E-003  -4.1918884577354931E-003
  -1.8928429072408270E-002   4.7463239498937160E-003   2.5994262252949929E-003
  -1.4497590659603460E-002   6.9225137975701956E-003   1.0660383090400495E-002
  -1.0066752246798316E-002   1.0730765358895056E-002   1.9990982137582769E-002
 </DataArray>
 </PointData>
 </Piece>
 </UnstructuredGrid>
 </VTKFile>
