 <VTKFile type="UnstructuredGrid"  version="0.1"   >
 <UnstructuredGrid>
 <Piece  NumberOfPoints="           400 "  NumberOfCells="          256 ">
 <Points>
 <DataArray  type="Float64" NumberOfComponents="3"  format="ascii" >
   0.0000000000000000        0.0000000000000000        0.0000000000000000     
   6.2500000000000000E-002   0.0000000000000000        0.0000000000000000     
  0.12500000000000000        0.0000000000000000        0.0000000000000000     
  0.18750000000000000        0.0000000000000000        0.0000000000000000     
  0.25000000000000000        0.0000000000000000        0.0000000000000000     
   0.0000000000000000        6.2500000000000000E-002   0.0000000000000000     
   6.2500000000000000E-002   6.2500000000000000E-002   0.0000000000000000     
  0.12500000000000000        6.2500000000000000E-002   0.0000000000000000     
  0.18750000000000000        6.2500000000000000E-002   0.0000000000000000     
  0.25000000000000000        6.2500000000000000E-002   0.0000000000000000     
   0.0000000000000000       0.12500000000000000        0.0000000000000000     
   6.2500000000000000E-002  0.12500000000000000        0.0000000000000000     
  0.12500000000000000       0.12500000000000000        0.0000000000000000     
  0.18750000000000000       0.12500000000000000        0.0000000000000000     
  0.25000000000000000       0.12500000000000000        0.0000000000000000     
   0.0000000000000000       0.18750000000000000        0.0000000000000000     
   6.2500000000000000E-002  0.18750000000000000        0.0000000000000000     
  0.12500000000000000       0.18750000000000000        0.0000000000000000     
  0.18750000000000000       0.18750000000000000        0.0000000000000000     
  0.25000000000000000       0.18750000000000000        0.0000000000000000     
   0.0000000000000000       0.25000000000000000        0.0000000000000000     
   6.2500000000000000E-002  0.25000000000000000        0.0000000000000000     
  0.12500000000000000       0.25000000000000000        0.0000000000000000     
  0.18750000000000000       0.25000000000000000        0.0000000000000000     
  0.25000000000000000       0.25000000000000000        0.0000000000000000     
  0.25000000000000000        0.0000000000000000        0.0000000000000000     
  0.31250000000000000        0.0000000000000000        0.0000000000000000     
  0.37500000000000000        0.0000000000000000        0.0000000000000000     
  0.43750000000000000        0.0000000000000000        0.0000000000000000     
  0.50000000000000000        0.0000000000000000        0.0000000000000000     
  0.25000000000000000        6.2500000000000000E-002   0.0000000000000000     
  0.31250000000000000        6.2500000000000000E-002   0.0000000000000000     
  0.37500000000000000        6.2500000000000000E-002   0.0000000000000000     
  0.43750000000000000        6.2500000000000000E-002   0.0000000000000000     
  0.50000000000000000        6.2500000000000000E-002   0.0000000000000000     
  0.25000000000000000       0.12500000000000000        0.0000000000000000     
  0.31250000000000000       0.12500000000000000        0.0000000000000000     
  0.37500000000000000       0.12500000000000000        0.0000000000000000     
  0.43750000000000000       0.12500000000000000        0.0000000000000000     
  0.50000000000000000       0.12500000000000000        0.0000000000000000     
  0.25000000000000000       0.18750000000000000        0.0000000000000000     
  0.31250000000000000       0.18750000000000000        0.0000000000000000     
  0.37500000000000000       0.18750000000000000        0.0000000000000000     
  0.43750000000000000       0.18750000000000000        0.0000000000000000     
  0.50000000000000000       0.18750000000000000        0.0000000000000000     
  0.25000000000000000       0.25000000000000000        0.0000000000000000     
  0.31250000000000000       0.25000000000000000        0.0000000000000000     
  0.37500000000000000       0.25000000000000000        0.0000000000000000     
  0.43750000000000000       0.25000000000000000        0.0000000000000000     
  0.50000000000000000       0.25000000000000000        0.0000000000000000     
  0.50000000000000000        0.0000000000000000        0.0000000000000000     
  0.56250000000000000        0.0000000000000000        0.0000000000000000     
  0.62500000000000000        0.0000000000000000        0.0000000000000000     
  0.68750000000000000        0.0000000000000000        0.0000000000000000     
  0.75000000000000000        0.0000000000000000        0.0000000000000000     
  0.50000000000000000        6.2500000000000000E-002   0.0000000000000000     
  0.56250000000000000        6.2500000000000000E-002   0.0000000000000000     
  0.62500000000000000        6.2500000000000000E-002   0.0000000000000000     
  0.68750000000000000        6.2500000000000000E-002   0.0000000000000000     
  0.75000000000000000        6.2500000000000000E-002   0.0000000000000000     
  0.50000000000000000       0.12500000000000000        0.0000000000000000     
  0.56250000000000000       0.12500000000000000        0.0000000000000000     
  0.62500000000000000       0.12500000000000000        0.0000000000000000     
  0.68750000000000000       0.12500000000000000        0.0000000000000000     
  0.75000000000000000       0.12500000000000000        0.0000000000000000     
  0.50000000000000000       0.18750000000000000        0.0000000000000000     
  0.56250000000000000       0.18750000000000000        0.0000000000000000     
  0.62500000000000000       0.18750000000000000        0.0000000000000000     
  0.68750000000000000       0.18750000000000000        0.0000000000000000     
  0.75000000000000000       0.18750000000000000        0.0000000000000000     
  0.50000000000000000       0.25000000000000000        0.0000000000000000     
  0.56250000000000000       0.25000000000000000        0.0000000000000000     
  0.62500000000000000       0.25000000000000000        0.0000000000000000     
  0.68750000000000000       0.25000000000000000        0.0000000000000000     
  0.75000000000000000       0.25000000000000000        0.0000000000000000     
  0.75000000000000000        0.0000000000000000        0.0000000000000000     
  0.81250000000000000        0.0000000000000000        0.0000000000000000     
  0.87500000000000000        0.0000000000000000        0.0000000000000000     
  0.93750000000000000        0.0000000000000000        0.0000000000000000     
   1.0000000000000000        0.0000000000000000        0.0000000000000000     
  0.75000000000000000        6.2500000000000000E-002   0.0000000000000000     
  0.81250000000000000        6.2500000000000000E-002   0.0000000000000000     
  0.87500000000000000        6.2500000000000000E-002   0.0000000000000000     
  0.93750000000000000        6.2500000000000000E-002   0.0000000000000000     
   1.0000000000000000        6.2500000000000000E-002   0.0000000000000000     
  0.75000000000000000       0.12500000000000000        0.0000000000000000     
  0.81250000000000000       0.12500000000000000        0.0000000000000000     
  0.87500000000000000       0.12500000000000000        0.0000000000000000     
  0.93750000000000000       0.12500000000000000        0.0000000000000000     
   1.0000000000000000       0.12500000000000000        0.0000000000000000     
  0.75000000000000000       0.18750000000000000        0.0000000000000000     
  0.81250000000000000       0.18750000000000000        0.0000000000000000     
  0.87500000000000000       0.18750000000000000        0.0000000000000000     
  0.93750000000000000       0.18750000000000000        0.0000000000000000     
   1.0000000000000000       0.18750000000000000        0.0000000000000000     
  0.75000000000000000       0.25000000000000000        0.0000000000000000     
  0.81250000000000000       0.25000000000000000        0.0000000000000000     
  0.87500000000000000       0.25000000000000000        0.0000000000000000     
  0.93750000000000000       0.25000000000000000        0.0000000000000000     
   1.0000000000000000       0.25000000000000000        0.0000000000000000     
   0.0000000000000000       0.25000000000000000        0.0000000000000000     
   6.2500000000000000E-002  0.25000000000000000        0.0000000000000000     
  0.12500000000000000       0.25000000000000000        0.0000000000000000     
  0.18750000000000000       0.25000000000000000        0.0000000000000000     
  0.25000000000000000       0.25000000000000000        0.0000000000000000     
   0.0000000000000000       0.31250000000000000        0.0000000000000000     
   6.2500000000000000E-002  0.31250000000000000        0.0000000000000000     
  0.12500000000000000       0.31250000000000000        0.0000000000000000     
  0.18750000000000000       0.31250000000000000        0.0000000000000000     
  0.25000000000000000       0.31250000000000000        0.0000000000000000     
   0.0000000000000000       0.37500000000000000        0.0000000000000000     
   6.2500000000000000E-002  0.37500000000000000        0.0000000000000000     
  0.12500000000000000       0.37500000000000000        0.0000000000000000     
  0.18750000000000000       0.37500000000000000        0.0000000000000000     
  0.25000000000000000       0.37500000000000000        0.0000000000000000     
   0.0000000000000000       0.43750000000000000        0.0000000000000000     
   6.2500000000000000E-002  0.43750000000000000        0.0000000000000000     
  0.12500000000000000       0.43750000000000000        0.0000000000000000     
  0.18750000000000000       0.43750000000000000        0.0000000000000000     
  0.25000000000000000       0.43750000000000000        0.0000000000000000     
   0.0000000000000000       0.50000000000000000        0.0000000000000000     
   6.2500000000000000E-002  0.50000000000000000        0.0000000000000000     
  0.12500000000000000       0.50000000000000000        0.0000000000000000     
  0.18750000000000000       0.50000000000000000        0.0000000000000000     
  0.25000000000000000       0.50000000000000000        0.0000000000000000     
  0.25000000000000000       0.25000000000000000        0.0000000000000000     
  0.31250000000000000       0.25000000000000000        0.0000000000000000     
  0.37500000000000000       0.25000000000000000        0.0000000000000000     
  0.43750000000000000       0.25000000000000000        0.0000000000000000     
  0.50000000000000000       0.25000000000000000        0.0000000000000000     
  0.25000000000000000       0.31250000000000000        0.0000000000000000     
  0.31250000000000000       0.31250000000000000        0.0000000000000000     
  0.37500000000000000       0.31250000000000000        0.0000000000000000     
  0.43750000000000000       0.31250000000000000        0.0000000000000000     
  0.50000000000000000       0.31250000000000000        0.0000000000000000     
  0.25000000000000000       0.37500000000000000        0.0000000000000000     
  0.31250000000000000       0.37500000000000000        0.0000000000000000     
  0.37500000000000000       0.37500000000000000        0.0000000000000000     
  0.43750000000000000       0.37500000000000000        0.0000000000000000     
  0.50000000000000000       0.37500000000000000        0.0000000000000000     
  0.25000000000000000       0.43750000000000000        0.0000000000000000     
  0.31250000000000000       0.43750000000000000        0.0000000000000000     
  0.37500000000000000       0.43750000000000000        0.0000000000000000     
  0.43750000000000000       0.43750000000000000        0.0000000000000000     
  0.50000000000000000       0.43750000000000000        0.0000000000000000     
  0.25000000000000000       0.50000000000000000        0.0000000000000000     
  0.31250000000000000       0.50000000000000000        0.0000000000000000     
  0.37500000000000000       0.50000000000000000        0.0000000000000000     
  0.43750000000000000       0.50000000000000000        0.0000000000000000     
  0.50000000000000000       0.50000000000000000        0.0000000000000000     
  0.50000000000000000       0.25000000000000000        0.0000000000000000     
  0.56250000000000000       0.25000000000000000        0.0000000000000000     
  0.62500000000000000       0.25000000000000000        0.0000000000000000     
  0.68750000000000000       0.25000000000000000        0.0000000000000000     
  0.75000000000000000       0.25000000000000000        0.0000000000000000     
  0.50000000000000000       0.31250000000000000        0.0000000000000000     
  0.56250000000000000       0.31250000000000000        0.0000000000000000     
  0.62500000000000000       0.31250000000000000        0.0000000000000000     
  0.68750000000000000       0.31250000000000000        0.0000000000000000     
  0.75000000000000000       0.31250000000000000        0.0000000000000000     
  0.50000000000000000       0.37500000000000000        0.0000000000000000     
  0.56250000000000000       0.37500000000000000        0.0000000000000000     
  0.62500000000000000       0.37500000000000000        0.0000000000000000     
  0.68750000000000000       0.37500000000000000        0.0000000000000000     
  0.75000000000000000       0.37500000000000000        0.0000000000000000     
  0.50000000000000000       0.43750000000000000        0.0000000000000000     
  0.56250000000000000       0.43750000000000000        0.0000000000000000     
  0.62500000000000000       0.43750000000000000        0.0000000000000000     
  0.68750000000000000       0.43750000000000000        0.0000000000000000     
  0.75000000000000000       0.43750000000000000        0.0000000000000000     
  0.50000000000000000       0.50000000000000000        0.0000000000000000     
  0.56250000000000000       0.50000000000000000        0.0000000000000000     
  0.62500000000000000       0.50000000000000000        0.0000000000000000     
  0.68750000000000000       0.50000000000000000        0.0000000000000000     
  0.75000000000000000       0.50000000000000000        0.0000000000000000     
  0.75000000000000000       0.25000000000000000        0.0000000000000000     
  0.81250000000000000       0.25000000000000000        0.0000000000000000     
  0.87500000000000000       0.25000000000000000        0.0000000000000000     
  0.93750000000000000       0.25000000000000000        0.0000000000000000     
   1.0000000000000000       0.25000000000000000        0.0000000000000000     
  0.75000000000000000       0.31250000000000000        0.0000000000000000     
  0.81250000000000000       0.31250000000000000        0.0000000000000000     
  0.87500000000000000       0.31250000000000000        0.0000000000000000     
  0.93750000000000000       0.31250000000000000        0.0000000000000000     
   1.0000000000000000       0.31250000000000000        0.0000000000000000     
  0.75000000000000000       0.37500000000000000        0.0000000000000000     
  0.81250000000000000       0.37500000000000000        0.0000000000000000     
  0.87500000000000000       0.37500000000000000        0.0000000000000000     
  0.93750000000000000       0.37500000000000000        0.0000000000000000     
   1.0000000000000000       0.37500000000000000        0.0000000000000000     
  0.75000000000000000       0.43750000000000000        0.0000000000000000     
  0.81250000000000000       0.43750000000000000        0.0000000000000000     
  0.87500000000000000       0.43750000000000000        0.0000000000000000     
  0.93750000000000000       0.43750000000000000        0.0000000000000000     
   1.0000000000000000       0.43750000000000000        0.0000000000000000     
  0.75000000000000000       0.50000000000000000        0.0000000000000000     
  0.81250000000000000       0.50000000000000000        0.0000000000000000     
  0.87500000000000000       0.50000000000000000        0.0000000000000000     
  0.93750000000000000       0.50000000000000000        0.0000000000000000     
   1.0000000000000000       0.50000000000000000        0.0000000000000000     
   0.0000000000000000       0.50000000000000000        0.0000000000000000     
   6.2500000000000000E-002  0.50000000000000000        0.0000000000000000     
  0.12500000000000000       0.50000000000000000        0.0000000000000000     
  0.18750000000000000       0.50000000000000000        0.0000000000000000     
  0.25000000000000000       0.50000000000000000        0.0000000000000000     
   0.0000000000000000       0.56250000000000000        0.0000000000000000     
   6.2500000000000000E-002  0.56250000000000000        0.0000000000000000     
  0.12500000000000000       0.56250000000000000        0.0000000000000000     
  0.18750000000000000       0.56250000000000000        0.0000000000000000     
  0.25000000000000000       0.56250000000000000        0.0000000000000000     
   0.0000000000000000       0.62500000000000000        0.0000000000000000     
   6.2500000000000000E-002  0.62500000000000000        0.0000000000000000     
  0.12500000000000000       0.62500000000000000        0.0000000000000000     
  0.18750000000000000       0.62500000000000000        0.0000000000000000     
  0.25000000000000000       0.62500000000000000        0.0000000000000000     
   0.0000000000000000       0.68750000000000000        0.0000000000000000     
   6.2500000000000000E-002  0.68750000000000000        0.0000000000000000     
  0.12500000000000000       0.68750000000000000        0.0000000000000000     
  0.18750000000000000       0.68750000000000000        0.0000000000000000     
  0.25000000000000000       0.68750000000000000        0.0000000000000000     
   0.0000000000000000       0.75000000000000000        0.0000000000000000     
   6.2500000000000000E-002  0.75000000000000000        0.0000000000000000     
  0.12500000000000000       0.75000000000000000        0.0000000000000000     
  0.18750000000000000       0.75000000000000000        0.0000000000000000     
  0.25000000000000000       0.75000000000000000        0.0000000000000000     
  0.25000000000000000       0.50000000000000000        0.0000000000000000     
  0.31250000000000000       0.50000000000000000        0.0000000000000000     
  0.37500000000000000       0.50000000000000000        0.0000000000000000     
  0.43750000000000000       0.50000000000000000        0.0000000000000000     
  0.50000000000000000       0.50000000000000000        0.0000000000000000     
  0.25000000000000000       0.56250000000000000        0.0000000000000000     
  0.31250000000000000       0.56250000000000000        0.0000000000000000     
  0.37500000000000000       0.56250000000000000        0.0000000000000000     
  0.43750000000000000       0.56250000000000000        0.0000000000000000     
  0.50000000000000000       0.56250000000000000        0.0000000000000000     
  0.25000000000000000       0.62500000000000000        0.0000000000000000     
  0.31250000000000000       0.62500000000000000        0.0000000000000000     
  0.37500000000000000       0.62500000000000000        0.0000000000000000     
  0.43750000000000000       0.62500000000000000        0.0000000000000000     
  0.50000000000000000       0.62500000000000000        0.0000000000000000     
  0.25000000000000000       0.68750000000000000        0.0000000000000000     
  0.31250000000000000       0.68750000000000000        0.0000000000000000     
  0.37500000000000000       0.68750000000000000        0.0000000000000000     
  0.43750000000000000       0.68750000000000000        0.0000000000000000     
  0.50000000000000000       0.68750000000000000        0.0000000000000000     
  0.25000000000000000       0.75000000000000000        0.0000000000000000     
  0.31250000000000000       0.75000000000000000        0.0000000000000000     
  0.37500000000000000       0.75000000000000000        0.0000000000000000     
  0.43750000000000000       0.75000000000000000        0.0000000000000000     
  0.50000000000000000       0.75000000000000000        0.0000000000000000     
  0.50000000000000000       0.50000000000000000        0.0000000000000000     
  0.56250000000000000       0.50000000000000000        0.0000000000000000     
  0.62500000000000000       0.50000000000000000        0.0000000000000000     
  0.68750000000000000       0.50000000000000000        0.0000000000000000     
  0.75000000000000000       0.50000000000000000        0.0000000000000000     
  0.50000000000000000       0.56250000000000000        0.0000000000000000     
  0.56250000000000000       0.56250000000000000        0.0000000000000000     
  0.62500000000000000       0.56250000000000000        0.0000000000000000     
  0.68750000000000000       0.56250000000000000        0.0000000000000000     
  0.75000000000000000       0.56250000000000000        0.0000000000000000     
  0.50000000000000000       0.62500000000000000        0.0000000000000000     
  0.56250000000000000       0.62500000000000000        0.0000000000000000     
  0.62500000000000000       0.62500000000000000        0.0000000000000000     
  0.68750000000000000       0.62500000000000000        0.0000000000000000     
  0.75000000000000000       0.62500000000000000        0.0000000000000000     
  0.50000000000000000       0.68750000000000000        0.0000000000000000     
  0.56250000000000000       0.68750000000000000        0.0000000000000000     
  0.62500000000000000       0.68750000000000000        0.0000000000000000     
  0.68750000000000000       0.68750000000000000        0.0000000000000000     
  0.75000000000000000       0.68750000000000000        0.0000000000000000     
  0.50000000000000000       0.75000000000000000        0.0000000000000000     
  0.56250000000000000       0.75000000000000000        0.0000000000000000     
  0.62500000000000000       0.75000000000000000        0.0000000000000000     
  0.68750000000000000       0.75000000000000000        0.0000000000000000     
  0.75000000000000000       0.75000000000000000        0.0000000000000000     
  0.75000000000000000       0.50000000000000000        0.0000000000000000     
  0.81250000000000000       0.50000000000000000        0.0000000000000000     
  0.87500000000000000       0.50000000000000000        0.0000000000000000     
  0.93750000000000000       0.50000000000000000        0.0000000000000000     
   1.0000000000000000       0.50000000000000000        0.0000000000000000     
  0.75000000000000000       0.56250000000000000        0.0000000000000000     
  0.81250000000000000       0.56250000000000000        0.0000000000000000     
  0.87500000000000000       0.56250000000000000        0.0000000000000000     
  0.93750000000000000       0.56250000000000000        0.0000000000000000     
   1.0000000000000000       0.56250000000000000        0.0000000000000000     
  0.75000000000000000       0.62500000000000000        0.0000000000000000     
  0.81250000000000000       0.62500000000000000        0.0000000000000000     
  0.87500000000000000       0.62500000000000000        0.0000000000000000     
  0.93750000000000000       0.62500000000000000        0.0000000000000000     
   1.0000000000000000       0.62500000000000000        0.0000000000000000     
  0.75000000000000000       0.68750000000000000        0.0000000000000000     
  0.81250000000000000       0.68750000000000000        0.0000000000000000     
  0.87500000000000000       0.68750000000000000        0.0000000000000000     
  0.93750000000000000       0.68750000000000000        0.0000000000000000     
   1.0000000000000000       0.68750000000000000        0.0000000000000000     
  0.75000000000000000       0.75000000000000000        0.0000000000000000     
  0.81250000000000000       0.75000000000000000        0.0000000000000000     
  0.87500000000000000       0.75000000000000000        0.0000000000000000     
  0.93750000000000000       0.75000000000000000        0.0000000000000000     
   1.0000000000000000       0.75000000000000000        0.0000000000000000     
   0.0000000000000000       0.75000000000000000        0.0000000000000000     
   6.2500000000000000E-002  0.75000000000000000        0.0000000000000000     
  0.12500000000000000       0.75000000000000000        0.0000000000000000     
  0.18750000000000000       0.75000000000000000        0.0000000000000000     
  0.25000000000000000       0.75000000000000000        0.0000000000000000     
   0.0000000000000000       0.81250000000000000        0.0000000000000000     
   6.2500000000000000E-002  0.81250000000000000        0.0000000000000000     
  0.12500000000000000       0.81250000000000000        0.0000000000000000     
  0.18750000000000000       0.81250000000000000        0.0000000000000000     
  0.25000000000000000       0.81250000000000000        0.0000000000000000     
   0.0000000000000000       0.87500000000000000        0.0000000000000000     
   6.2500000000000000E-002  0.87500000000000000        0.0000000000000000     
  0.12500000000000000       0.87500000000000000        0.0000000000000000     
  0.18750000000000000       0.87500000000000000        0.0000000000000000     
  0.25000000000000000       0.87500000000000000        0.0000000000000000     
   0.0000000000000000       0.93750000000000000        0.0000000000000000     
   6.2500000000000000E-002  0.93750000000000000        0.0000000000000000     
  0.12500000000000000       0.93750000000000000        0.0000000000000000     
  0.18750000000000000       0.93750000000000000        0.0000000000000000     
  0.25000000000000000       0.93750000000000000        0.0000000000000000     
   0.0000000000000000        1.0000000000000000        0.0000000000000000     
   6.2500000000000000E-002   1.0000000000000000        0.0000000000000000     
  0.12500000000000000        1.0000000000000000        0.0000000000000000     
  0.18750000000000000        1.0000000000000000        0.0000000000000000     
  0.25000000000000000        1.0000000000000000        0.0000000000000000     
  0.25000000000000000       0.75000000000000000        0.0000000000000000     
  0.31250000000000000       0.75000000000000000        0.0000000000000000     
  0.37500000000000000       0.75000000000000000        0.0000000000000000     
  0.43750000000000000       0.75000000000000000        0.0000000000000000     
  0.50000000000000000       0.75000000000000000        0.0000000000000000     
  0.25000000000000000       0.81250000000000000        0.0000000000000000     
  0.31250000000000000       0.81250000000000000        0.0000000000000000     
  0.37500000000000000       0.81250000000000000        0.0000000000000000     
  0.43750000000000000       0.81250000000000000        0.0000000000000000     
  0.50000000000000000       0.81250000000000000        0.0000000000000000     
  0.25000000000000000       0.87500000000000000        0.0000000000000000     
  0.31250000000000000       0.87500000000000000        0.0000000000000000     
  0.37500000000000000       0.87500000000000000        0.0000000000000000     
  0.43750000000000000       0.87500000000000000        0.0000000000000000     
  0.50000000000000000       0.87500000000000000        0.0000000000000000     
  0.25000000000000000       0.93750000000000000        0.0000000000000000     
  0.31250000000000000       0.93750000000000000        0.0000000000000000     
  0.37500000000000000       0.93750000000000000        0.0000000000000000     
  0.43750000000000000       0.93750000000000000        0.0000000000000000     
  0.50000000000000000       0.93750000000000000        0.0000000000000000     
  0.25000000000000000        1.0000000000000000        0.0000000000000000     
  0.31250000000000000        1.0000000000000000        0.0000000000000000     
  0.37500000000000000        1.0000000000000000        0.0000000000000000     
  0.43750000000000000        1.0000000000000000        0.0000000000000000     
  0.50000000000000000        1.0000000000000000        0.0000000000000000     
  0.50000000000000000       0.75000000000000000        0.0000000000000000     
  0.56250000000000000       0.75000000000000000        0.0000000000000000     
  0.62500000000000000       0.75000000000000000        0.0000000000000000     
  0.68750000000000000       0.75000000000000000        0.0000000000000000     
  0.75000000000000000       0.75000000000000000        0.0000000000000000     
  0.50000000000000000       0.81250000000000000        0.0000000000000000     
  0.56250000000000000       0.81250000000000000        0.0000000000000000     
  0.62500000000000000       0.81250000000000000        0.0000000000000000     
  0.68750000000000000       0.81250000000000000        0.0000000000000000     
  0.75000000000000000       0.81250000000000000        0.0000000000000000     
  0.50000000000000000       0.87500000000000000        0.0000000000000000     
  0.56250000000000000       0.87500000000000000        0.0000000000000000     
  0.62500000000000000       0.87500000000000000        0.0000000000000000     
  0.68750000000000000       0.87500000000000000        0.0000000000000000     
  0.75000000000000000       0.87500000000000000        0.0000000000000000     
  0.50000000000000000       0.93750000000000000        0.0000000000000000     
  0.56250000000000000       0.93750000000000000        0.0000000000000000     
  0.62500000000000000       0.93750000000000000        0.0000000000000000     
  0.68750000000000000       0.93750000000000000        0.0000000000000000     
  0.75000000000000000       0.93750000000000000        0.0000000000000000     
  0.50000000000000000        1.0000000000000000        0.0000000000000000     
  0.56250000000000000        1.0000000000000000        0.0000000000000000     
  0.62500000000000000        1.0000000000000000        0.0000000000000000     
  0.68750000000000000        1.0000000000000000        0.0000000000000000     
  0.75000000000000000        1.0000000000000000        0.0000000000000000     
  0.75000000000000000       0.75000000000000000        0.0000000000000000     
  0.81250000000000000       0.75000000000000000        0.0000000000000000     
  0.87500000000000000       0.75000000000000000        0.0000000000000000     
  0.93750000000000000       0.75000000000000000        0.0000000000000000     
   1.0000000000000000       0.75000000000000000        0.0000000000000000     
  0.75000000000000000       0.81250000000000000        0.0000000000000000     
  0.81250000000000000       0.81250000000000000        0.0000000000000000     
  0.87500000000000000       0.81250000000000000        0.0000000000000000     
  0.93750000000000000       0.81250000000000000        0.0000000000000000     
   1.0000000000000000       0.81250000000000000        0.0000000000000000     
  0.75000000000000000       0.87500000000000000        0.0000000000000000     
  0.81250000000000000       0.87500000000000000        0.0000000000000000     
  0.87500000000000000       0.87500000000000000        0.0000000000000000     
  0.93750000000000000       0.87500000000000000        0.0000000000000000     
   1.0000000000000000       0.87500000000000000        0.0000000000000000     
  0.75000000000000000       0.93750000000000000        0.0000000000000000     
  0.81250000000000000       0.93750000000000000        0.0000000000000000     
  0.87500000000000000       0.93750000000000000        0.0000000000000000     
  0.93750000000000000       0.93750000000000000        0.0000000000000000     
   1.0000000000000000       0.93750000000000000        0.0000000000000000     
  0.75000000000000000        1.0000000000000000        0.0000000000000000     
  0.81250000000000000        1.0000000000000000        0.0000000000000000     
  0.87500000000000000        1.0000000000000000        0.0000000000000000     
  0.93750000000000000        1.0000000000000000        0.0000000000000000     
   1.0000000000000000        1.0000000000000000        0.0000000000000000     
 </DataArray>
 </Points>
 <Cells>
 <DataArray  type="Int32"  Name="connectivity"  format="ascii">
           0           1           6           5
           1           2           7           6
           2           3           8           7
           3           4           9           8
           5           6          11          10
           6           7          12          11
           7           8          13          12
           8           9          14          13
          10          11          16          15
          11          12          17          16
          12          13          18          17
          13          14          19          18
          15          16          21          20
          16          17          22          21
          17          18          23          22
          18          19          24          23
          25          26          31          30
          26          27          32          31
          27          28          33          32
          28          29          34          33
          30          31          36          35
          31          32          37          36
          32          33          38          37
          33          34          39          38
          35          36          41          40
          36          37          42          41
          37          38          43          42
          38          39          44          43
          40          41          46          45
          41          42          47          46
          42          43          48          47
          43          44          49          48
          50          51          56          55
          51          52          57          56
          52          53          58          57
          53          54          59          58
          55          56          61          60
          56          57          62          61
          57          58          63          62
          58          59          64          63
          60          61          66          65
          61          62          67          66
          62          63          68          67
          63          64          69          68
          65          66          71          70
          66          67          72          71
          67          68          73          72
          68          69          74          73
          75          76          81          80
          76          77          82          81
          77          78          83          82
          78          79          84          83
          80          81          86          85
          81          82          87          86
          82          83          88          87
          83          84          89          88
          85          86          91          90
          86          87          92          91
          87          88          93          92
          88          89          94          93
          90          91          96          95
          91          92          97          96
          92          93          98          97
          93          94          99          98
         100         101         106         105
         101         102         107         106
         102         103         108         107
         103         104         109         108
         105         106         111         110
         106         107         112         111
         107         108         113         112
         108         109         114         113
         110         111         116         115
         111         112         117         116
         112         113         118         117
         113         114         119         118
         115         116         121         120
         116         117         122         121
         117         118         123         122
         118         119         124         123
         125         126         131         130
         126         127         132         131
         127         128         133         132
         128         129         134         133
         130         131         136         135
         131         132         137         136
         132         133         138         137
         133         134         139         138
         135         136         141         140
         136         137         142         141
         137         138         143         142
         138         139         144         143
         140         141         146         145
         141         142         147         146
         142         143         148         147
         143         144         149         148
         150         151         156         155
         151         152         157         156
         152         153         158         157
         153         154         159         158
         155         156         161         160
         156         157         162         161
         157         158         163         162
         158         159         164         163
         160         161         166         165
         161         162         167         166
         162         163         168         167
         163         164         169         168
         165         166         171         170
         166         167         172         171
         167         168         173         172
         168         169         174         173
         175         176         181         180
         176         177         182         181
         177         178         183         182
         178         179         184         183
         180         181         186         185
         181         182         187         186
         182         183         188         187
         183         184         189         188
         185         186         191         190
         186         187         192         191
         187         188         193         192
         188         189         194         193
         190         191         196         195
         191         192         197         196
         192         193         198         197
         193         194         199         198
         200         201         206         205
         201         202         207         206
         202         203         208         207
         203         204         209         208
         205         206         211         210
         206         207         212         211
         207         208         213         212
         208         209         214         213
         210         211         216         215
         211         212         217         216
         212         213         218         217
         213         214         219         218
         215         216         221         220
         216         217         222         221
         217         218         223         222
         218         219         224         223
         225         226         231         230
         226         227         232         231
         227         228         233         232
         228         229         234         233
         230         231         236         235
         231         232         237         236
         232         233         238         237
         233         234         239         238
         235         236         241         240
         236         237         242         241
         237         238         243         242
         238         239         244         243
         240         241         246         245
         241         242         247         246
         242         243         248         247
         243         244         249         248
         250         251         256         255
         251         252         257         256
         252         253         258         257
         253         254         259         258
         255         256         261         260
         256         257         262         261
         257         258         263         262
         258         259         264         263
         260         261         266         265
         261         262         267         266
         262         263         268         267
         263         264         269         268
         265         266         271         270
         266         267         272         271
         267         268         273         272
         268         269         274         273
         275         276         281         280
         276         277         282         281
         277         278         283         282
         278         279         284         283
         280         281         286         285
         281         282         287         286
         282         283         288         287
         283         284         289         288
         285         286         291         290
         286         287         292         291
         287         288         293         292
         288         289         294         293
         290         291         296         295
         291         292         297         296
         292         293         298         297
         293         294         299         298
         300         301         306         305
         301         302         307         306
         302         303         308         307
         303         304         309         308
         305         306         311         310
         306         307         312         311
         307         308         313         312
         308         309         314         313
         310         311         316         315
         311         312         317         316
         312         313         318         317
         313         314         319         318
         315         316         321         320
         316         317         322         321
         317         318         323         322
         318         319         324         323
         325         326         331         330
         326         327         332         331
         327         328         333         332
         328         329         334         333
         330         331         336         335
         331         332         337         336
         332         333         338         337
         333         334         339         338
         335         336         341         340
         336         337         342         341
         337         338         343         342
         338         339         344         343
         340         341         346         345
         341         342         347         346
         342         343         348         347
         343         344         349         348
         350         351         356         355
         351         352         357         356
         352         353         358         357
         353         354         359         358
         355         356         361         360
         356         357         362         361
         357         358         363         362
         358         359         364         363
         360         361         366         365
         361         362         367         366
         362         363         368         367
         363         364         369         368
         365         366         371         370
         366         367         372         371
         367         368         373         372
         368         369         374         373
         375         376         381         380
         376         377         382         381
         377         378         383         382
         378         379         384         383
         380         381         386         385
         381         382         387         386
         382         383         388         387
         383         384         389         388
         385         386         391         390
         386         387         392         391
         387         388         393         392
         388         389         394         393
         390         391         396         395
         391         392         397         396
         392         393         398         397
         393         394         399         398
 </DataArray>
 <DataArray  type="Int32"  Name="offsets"  format="ascii"> 
           4
           8
          12
          16
          20
          24
          28
          32
          36
          40
          44
          48
          52
          56
          60
          64
          68
          72
          76
          80
          84
          88
          92
          96
         100
         104
         108
         112
         116
         120
         124
         128
         132
         136
         140
         144
         148
         152
         156
         160
         164
         168
         172
         176
         180
         184
         188
         192
         196
         200
         204
         208
         212
         216
         220
         224
         228
         232
         236
         240
         244
         248
         252
         256
         260
         264
         268
         272
         276
         280
         284
         288
         292
         296
         300
         304
         308
         312
         316
         320
         324
         328
         332
         336
         340
         344
         348
         352
         356
         360
         364
         368
         372
         376
         380
         384
         388
         392
         396
         400
         404
         408
         412
         416
         420
         424
         428
         432
         436
         440
         444
         448
         452
         456
         460
         464
         468
         472
         476
         480
         484
         488
         492
         496
         500
         504
         508
         512
         516
         520
         524
         528
         532
         536
         540
         544
         548
         552
         556
         560
         564
         568
         572
         576
         580
         584
         588
         592
         596
         600
         604
         608
         612
         616
         620
         624
         628
         632
         636
         640
         644
         648
         652
         656
         660
         664
         668
         672
         676
         680
         684
         688
         692
         696
         700
         704
         708
         712
         716
         720
         724
         728
         732
         736
         740
         744
         748
         752
         756
         760
         764
         768
         772
         776
         780
         784
         788
         792
         796
         800
         804
         808
         812
         816
         820
         824
         828
         832
         836
         840
         844
         848
         852
         856
         860
         864
         868
         872
         876
         880
         884
         888
         892
         896
         900
         904
         908
         912
         916
         920
         924
         928
         932
         936
         940
         944
         948
         952
         956
         960
         964
         968
         972
         976
         980
         984
         988
         992
         996
        1000
        1004
        1008
        1012
        1016
        1020
        1024
 </DataArray>
 <DataArray  type="UInt8"  Name="types"  format="ascii">
 9
 9
 9
 9
 9
 9
 9
 9
 9
 9
 9
 9
 9
 9
 9
 9
 9
 9
 9
 9
 9
 9
 9
 9
 9
 9
 9
 9
 9
 9
 9
 9
 9
 9
 9
 9
 9
 9
 9
 9
 9
 9
 9
 9
 9
 9
 9
 9
 9
 9
 9
 9
 9
 9
 9
 9
 9
 9
 9
 9
 9
 9
 9
 9
 9
 9
 9
 9
 9
 9
 9
 9
 9
 9
 9
 9
 9
 9
 9
 9
 9
 9
 9
 9
 9
 9
 9
 9
 9
 9
 9
 9
 9
 9
 9
 9
 9
 9
 9
 9
 9
 9
 9
 9
 9
 9
 9
 9
 9
 9
 9
 9
 9
 9
 9
 9
 9
 9
 9
 9
 9
 9
 9
 9
 9
 9
 9
 9
 9
 9
 9
 9
 9
 9
 9
 9
 9
 9
 9
 9
 9
 9
 9
 9
 9
 9
 9
 9
 9
 9
 9
 9
 9
 9
 9
 9
 9
 9
 9
 9
 9
 9
 9
 9
 9
 9
 9
 9
 9
 9
 9
 9
 9
 9
 9
 9
 9
 9
 9
 9
 9
 9
 9
 9
 9
 9
 9
 9
 9
 9
 9
 9
 9
 9
 9
 9
 9
 9
 9
 9
 9
 9
 9
 9
 9
 9
 9
 9
 9
 9
 9
 9
 9
 9
 9
 9
 9
 9
 9
 9
 9
 9
 9
 9
 9
 9
 9
 9
 9
 9
 9
 9
 9
 9
 9
 9
 9
 9
 9
 9
 9
 9
 9
 9
 9
 9
 9
 9
 9
 9
 9
 9
 9
 9
 9
 9
 </DataArray>
 </Cells> 
 <PointData>
 <DataArray  type="Float64" Name="disp" NumberOfComponents="3" format="ascii">
   0.0000000000000000        0.0000000000000000        0.0000000000000000     
   1.0684610648168360E-002   6.3698729609053938E-003   0.0000000000000000     
   2.0500982424781232E-002   1.2952832243418311E-002   0.0000000000000000     
   2.9449115329838623E-002   1.9748877847538752E-002   0.0000000000000000     
   3.7529009363340526E-002   2.6758009773266717E-002   0.0000000000000000     
   0.0000000000000000        0.0000000000000000        0.0000000000000000     
   8.1737973926263394E-003   5.0256076997047539E-003   0.0000000000000000     
   1.5984166054330923E-002   1.0753962241679248E-002   0.0000000000000000     
   2.3431105985113745E-002   1.7185063625923484E-002   0.0000000000000000     
   3.0514617184974807E-002   2.4318911852437460E-002   0.0000000000000000     
   0.0000000000000000        0.0000000000000000        0.0000000000000000     
   6.1392920312821966E-003   4.0077285254188095E-003   0.0000000000000000     
   1.2248472638238573E-002   9.0695810458998015E-003   0.0000000000000000     
   1.8327541820869129E-002   1.5185557561442978E-002   0.0000000000000000     
   2.4376499579173865E-002   2.2355658072048340E-002   0.0000000000000000     
   0.0000000000000000        0.0000000000000000        0.0000000000000000     
   4.5810945641359324E-003   3.3162354380475607E-003   0.0000000000000000     
   9.2939021765041912E-003   7.8996886560799718E-003   0.0000000000000000     
   1.4138422837104776E-002   1.3750359654097233E-002   0.0000000000000000     
   1.9114656545937688E-002   2.0868248432099345E-002   0.0000000000000000     
   0.0000000000000000        0.0000000000000000        0.0000000000000000     
   3.4992049911875462E-003   2.9511284375910076E-003   0.0000000000000000     
   7.1204546691277749E-003   7.2442850722197567E-003   0.0000000000000000     
   1.0863749033820685E-002   1.2879469903886248E-002   0.0000000000000000     
   1.4729088085266278E-002   1.9856682932590481E-002   0.0000000000000000     
   3.7529009363340526E-002   2.6758009773266717E-002   0.0000000000000000     
   4.5011027853456329E-002   3.4332755653464796E-002   0.0000000000000000     
   5.2165534128355437E-002   4.2825643120995571E-002   0.0000000000000000     
   5.8992528188037838E-002   5.2236672175859047E-002   0.0000000000000000     
   6.5492010032503531E-002   6.2565842818055231E-002   0.0000000000000000     
   3.0514617184974807E-002   2.4318911852437460E-002   0.0000000000000000     
   3.7232666378083631E-002   3.2216152183561851E-002   0.0000000000000000     
   4.3583220288609698E-002   4.0937429881637330E-002   0.0000000000000000     
   4.9566278916553033E-002   5.0482744946663896E-002   0.0000000000000000     
   5.5181842261913625E-002   6.0852097378641536E-002   0.0000000000000000     
   2.4376499579173865E-002   2.2355658072048340E-002   0.0000000000000000     
   3.0229233596111894E-002   3.0440832213001943E-002   0.0000000000000000     
   3.5719631554642334E-002   3.9302029619589854E-002   0.0000000000000000     
   4.0847693454765174E-002   4.8939250291812071E-002   0.0000000000000000     
   4.5613419296480447E-002   5.9352494229668609E-002   0.0000000000000000     
   1.9114656545937688E-002   2.0868248432099345E-002   0.0000000000000000     
   2.4000729507541133E-002   2.9006795741785069E-002   0.0000000000000000     
   2.8574767926453335E-002   3.7919442334853150E-002   0.0000000000000000     
   3.2836771802674282E-002   4.7606188211303614E-002   0.0000000000000000     
   3.6786741136203970E-002   5.8067033371136424E-002   0.0000000000000000     
   1.4729088085266278E-002   1.9856682932590481E-002   0.0000000000000000     
   1.8547154112371348E-002   2.7914042769911218E-002   0.0000000000000000     
   2.2148629404042698E-002   3.6789668027427218E-002   0.0000000000000000     
   2.5533513960280325E-002   4.6483558705138477E-002   0.0000000000000000     
   2.8701807781084235E-002   5.6995714803045001E-002   0.0000000000000000     
   6.5492010032503531E-002   6.2565842818055231E-002   0.0000000000000000     
   7.1633549473029801E-002   7.3656266553756886E-002   0.0000000000000000     
   7.7386716320893917E-002   8.5351054889136732E-002   0.0000000000000000     
   8.2751510576095866E-002   9.7650207824194840E-002   0.0000000000000000     
   8.7727932238635675E-002  0.11055372535893115        0.0000000000000000     
   5.5181842261913625E-002   6.0852097378641536E-002   0.0000000000000000     
   6.0455504485128167E-002   7.1956967979519032E-002   0.0000000000000000     
   6.5412859746633370E-002   8.3708837551245169E-002   0.0000000000000000     
   7.0053908046429206E-002   9.6107706093819897E-002   0.0000000000000000     
   7.4378649384515702E-002  0.10915357360724326        0.0000000000000000     
   4.5613419296480447E-002   5.9352494229668609E-002   0.0000000000000000     
   5.0068824825787020E-002   7.0490888507765748E-002   0.0000000000000000     
   5.4265925788683819E-002   8.2303560200709752E-002   0.0000000000000000     
   5.8204722185170851E-002   9.4790509308500706E-002   0.0000000000000000     
   6.1885214015248102E-002  0.10795173583113850        0.0000000000000000     
   3.6786741136203970E-002   5.8067033371136424E-002   0.0000000000000000     
   4.0473510495006332E-002   6.9258028138496977E-002   0.0000000000000000     
   4.3945914447045285E-002   8.1135222837530552E-002   0.0000000000000000     
   4.7203952992320788E-002   9.3698617468237183E-002   0.0000000000000000     
   5.0247626130832876E-002  0.10694821203061688        0.0000000000000000     
   2.8701807781084235E-002   5.6995714803045001E-002   0.0000000000000000     
   3.1669561492786130E-002   6.8258386871712720E-002   0.0000000000000000     
   3.4452825721717727E-002   8.0203825461707498E-002   0.0000000000000000     
   3.7051600467879017E-002   9.2832030573029398E-002   0.0000000000000000     
   3.9465885731270023E-002  0.10614300220567838        0.0000000000000000     
   8.7727932238635675E-002  0.11055372535893115        0.0000000000000000     
   9.2455139015736196E-002  0.12409244867210562        0.0000000000000000     
   9.7072288614620333E-002  0.13829721894247812        0.0000000000000000     
  0.10157938103528807       0.15316803617004870        0.0000000000000000     
  0.10597641627773943       0.16870490035481733        0.0000000000000000     
   7.4378649384515702E-002  0.10915357360724326        0.0000000000000000     
   7.8429635924630300E-002  0.12280600255779141        0.0000000000000000     
   8.2249419830510456E-002  0.13702455541174052        0.0000000000000000     
   8.5838001102156170E-002  0.15180923216909065        0.0000000000000000     
   8.9195379739567440E-002  0.16716003282984165        0.0000000000000000     
   6.1885214015248102E-002  0.10795173583113850        0.0000000000000000     
   6.5292108650235450E-002  0.12170711447911974        0.0000000000000000     
   6.8410113461452746E-002  0.13597651996294088        0.0000000000000000     
   7.1239228448900016E-002  0.15075995228260192        0.0000000000000000     
   7.3779453612577262E-002  0.16605741143810293        0.0000000000000000     
   5.0247626130832876E-002  0.10694821203061688        0.0000000000000000     
   5.3042557192551659E-002  0.12079578443609056        0.0000000000000000     
   5.5554369507447250E-002  0.13515311259607909        0.0000000000000000     
   5.7783063075519656E-002  0.15002019651058263        0.0000000000000000     
   5.9728637896768876E-002  0.16539703617960108        0.0000000000000000     
   3.9465885731270023E-002  0.10614300220567838        0.0000000000000000     
   4.1680981551578920E-002  0.12007201242870388        0.0000000000000000     
   4.3682187968493935E-002  0.13455433331115538        0.0000000000000000     
   4.5469504982015060E-002  0.14958996485303278        0.0000000000000000     
   4.7042932592142296E-002  0.16517890705433613        0.0000000000000000     
   0.0000000000000000        0.0000000000000000        0.0000000000000000     
   3.4992049911875462E-003   2.9511284375910076E-003   0.0000000000000000     
   7.1204546691277749E-003   7.2442850722197567E-003   0.0000000000000000     
   1.0863749033820685E-002   1.2879469903886248E-002   0.0000000000000000     
   1.4729088085266278E-002   1.9856682932590481E-002   0.0000000000000000     
   0.0000000000000000        0.0000000000000000        0.0000000000000000     
   2.6477029598512068E-003   2.7744537252167240E-003   0.0000000000000000     
   5.3382617296591425E-003   6.8958957889494327E-003   0.0000000000000000     
   8.0716763094238076E-003   1.2364326191198127E-002   0.0000000000000000     
   1.0847946699145204E-002   1.9179744931962804E-002   0.0000000000000000     
   0.0000000000000000        0.0000000000000000        0.0000000000000000     
   1.7806681175410815E-003   2.6482575020922846E-003   0.0000000000000000     
   3.5574549716481134E-003   6.6470463008992745E-003   0.0000000000000000     
   5.3303605623210952E-003   1.1996366396420969E-002   0.0000000000000000     
   7.0993848895600275E-003   1.8696217788657373E-002   0.0000000000000000     
   0.0000000000000000        0.0000000000000000        0.0000000000000000     
   8.9810046425717067E-004   2.5725397682176900E-003   0.0000000000000000     
   1.7780343950946861E-003   6.4977366080692829E-003   0.0000000000000000     
   2.6398017925125463E-003   1.1775590519554778E-002   0.0000000000000000     
   3.4834026565107512E-003   1.8406101502674178E-002   0.0000000000000000     
   0.0000000000000000        0.0000000000000000        0.0000000000000000     
  -5.2572963343822110E-016   2.5473005235929387E-003   0.0000000000000000     
  -1.1384122811097797E-015   6.4479667104594563E-003   0.0000000000000000     
  -1.8381563632319242E-015   1.1701998560599553E-002   0.0000000000000000     
  -2.6251787202391519E-015   1.8309396074013225E-002   0.0000000000000000     
   1.4729088085266278E-002   1.9856682932590481E-002   0.0000000000000000     
   1.8547154112371348E-002   2.7914042769911218E-002   0.0000000000000000     
   2.2148629404042698E-002   3.6789668027427218E-002   0.0000000000000000     
   2.5533513960280325E-002   4.6483558705138477E-002   0.0000000000000000     
   2.8701807781084235E-002   5.6995714803045001E-002   0.0000000000000000     
   1.0847946699145204E-002   1.9179744931962804E-002   0.0000000000000000     
   1.3588373693995952E-002   2.7107195450484175E-002   0.0000000000000000     
   1.6214258089148691E-002   3.5911721186002936E-002   0.0000000000000000     
   1.8725599884603407E-002   4.5593322138519091E-002   0.0000000000000000     
   2.1122399080360111E-002   5.6151998308032657E-002   0.0000000000000000     
   7.0993848895600275E-003   1.8696217788657373E-002   0.0000000000000000     
   8.8442545358083623E-003   2.6530875936607707E-002   0.0000000000000000     
   1.0544696083509554E-002   3.5284616299271196E-002   0.0000000000000000     
   1.2200709532663601E-002   4.4957438876647875E-002   0.0000000000000000     
   1.3812294883270506E-002   5.5549343668737677E-002   0.0000000000000000     
   3.4834026565107512E-003   1.8406101502674178E-002   0.0000000000000000     
   4.3147966378085760E-003   2.6185084228281811E-002   0.0000000000000000     
   5.1399433871252955E-003   3.4908353367232005E-002   0.0000000000000000     
   5.9588429044609122E-003   4.4575908919524759E-002   0.0000000000000000     
   6.7714951898154227E-003   5.5187750885160085E-002   0.0000000000000000     
  -2.6251787202391519E-015   1.8309396074013225E-002   0.0000000000000000     
  -3.4056958642114665E-015   2.6069820325506487E-002   0.0000000000000000     
  -4.0851924707624443E-015   3.4782932389885349E-002   0.0000000000000000     
  -4.6661689811523799E-015   4.4448732267149807E-002   0.0000000000000000     
  -5.1438887871402272E-015   5.5067219957299865E-002   0.0000000000000000     
   2.8701807781084235E-002   5.6995714803045001E-002   0.0000000000000000     
   3.1669561492786130E-002   6.8258386871712720E-002   0.0000000000000000     
   3.4452825721717727E-002   8.0203825461707498E-002   0.0000000000000000     
   3.7051600467879017E-002   9.2832030573029398E-002   0.0000000000000000     
   3.9465885731270023E-002  0.10614300220567838        0.0000000000000000     
   2.1122399080360111E-002   5.6151998308032657E-002   0.0000000000000000     
   2.3384014146031681E-002   6.7485734120613178E-002   0.0000000000000000     
   2.5489803551231000E-002   7.9492514002330261E-002   0.0000000000000000     
   2.7439767295958067E-002   9.2172337953183914E-002   0.0000000000000000     
   2.9233905380212893E-002  0.10552520597317412        0.0000000000000000     
   1.3812294883270506E-002   5.5549343668737677E-002   0.0000000000000000     
   1.5343904781648276E-002   6.6933839298398565E-002   0.0000000000000000     
   1.6759991874114925E-002   7.8984434388488456E-002   0.0000000000000000     
   1.8060556160670448E-002   9.1701128939007337E-002   0.0000000000000000     
   1.9245597641314852E-002  0.10508392294995521        0.0000000000000000     
   6.7714951898154227E-003   5.5187750885160085E-002   0.0000000000000000     
   7.5492333996359197E-003   6.6602702405068881E-002   0.0000000000000000     
   8.2633906903694931E-003   7.8679586620182068E-002   0.0000000000000000     
   8.9139670620161544E-003   9.1418403530499653E-002   0.0000000000000000     
   9.5009625145758888E-003  0.10481915313602162        0.0000000000000000     
  -5.1438887871402272E-015   5.5067219957299865E-002   0.0000000000000000     
  -5.3936889676808875E-015   6.6492323440624113E-002   0.0000000000000000     
  -5.2834256067391117E-015   7.8577970697411112E-002   0.0000000000000000     
  -4.8163242057780442E-015   9.1324161727660863E-002   0.0000000000000000     
  -3.9872619095326911E-015  0.10473089653137341        0.0000000000000000     
   3.9465885731270023E-002  0.10614300220567838        0.0000000000000000     
   4.1680981551578920E-002  0.12007201242870388        0.0000000000000000     
   4.3682187968493935E-002  0.13455433331115538        0.0000000000000000     
   4.5469504982015060E-002  0.14958996485303278        0.0000000000000000     
   4.7042932592142296E-002  0.16517890705433613        0.0000000000000000     
   2.9233905380212893E-002  0.10552520597317412        0.0000000000000000     
   3.0887729405142172E-002  0.11952076856283329        0.0000000000000000     
   3.2416750971892630E-002  0.13412867622269384        0.0000000000000000     
   3.3820970080464252E-002  0.14934892895275576        0.0000000000000000     
   3.5100386730857046E-002  0.16518152675301903        0.0000000000000000     
   1.9245597641314852E-002  0.10508392294995521        0.0000000000000000     
   2.0343148431066341E-002  0.11912702294435232        0.0000000000000000     
   2.1381240644943140E-002  0.13382463544521894        0.0000000000000000     
   2.2359874282945249E-002  0.14917676045255504        0.0000000000000000     
   2.3279049345072661E-002  0.16518339796636067        0.0000000000000000     
   9.5009625145758888E-003  0.10481915313602162        0.0000000000000000     
   1.0047238629351422E-002  0.11889077557326098        0.0000000000000000     
   1.0575656987645473E-002  0.13364221097873064        0.0000000000000000     
   1.1086217589458044E-002  0.14907345935243069        0.0000000000000000     
   1.1578920434789133E-002  0.16518452069436099        0.0000000000000000     
  -3.9872619095326911E-015  0.10473089653137341        0.0000000000000000     
  -2.5804011705155006E-015  0.11881202644955925        0.0000000000000000     
  -3.6711085560359180E-016  0.13358140282322900        0.0000000000000000     
   2.6477843355354747E-015  0.14903902565238261        0.0000000000000000     
   6.4670491184415368E-015  0.16518489493702010        0.0000000000000000     
   0.0000000000000000        0.0000000000000000        0.0000000000000000     
  -5.2572963343822110E-016   2.5473005235929387E-003   0.0000000000000000     
  -1.1384122811097797E-015   6.4479667104594563E-003   0.0000000000000000     
  -1.8381563632319242E-015   1.1701998560599553E-002   0.0000000000000000     
  -2.6251787202391519E-015   1.8309396074013225E-002   0.0000000000000000     
   0.0000000000000000        0.0000000000000000        0.0000000000000000     
  -8.9810046425815577E-004   2.5725397682180053E-003   0.0000000000000000     
  -1.7780343950968287E-003   6.4977366080697539E-003   0.0000000000000000     
  -2.6398017925160170E-003   1.1775590519555245E-002   0.0000000000000000     
  -3.4834026565157246E-003   1.8406101502674486E-002   0.0000000000000000     
   0.0000000000000000        0.0000000000000000        0.0000000000000000     
  -1.7806681175418682E-003   2.6482575020928575E-003   0.0000000000000000     
  -3.5574549716498524E-003   6.6470463009001305E-003   0.0000000000000000     
  -5.3303605623239514E-003   1.1996366396421819E-002   0.0000000000000000     
  -7.0993848895641674E-003   1.8696217788657925E-002   0.0000000000000000     
   0.0000000000000000        0.0000000000000000        0.0000000000000000     
  -2.6477029598516635E-003   2.7744537252174990E-003   0.0000000000000000     
  -5.3382617296602103E-003   6.8958957889505880E-003   0.0000000000000000     
  -8.0716763094256395E-003   1.2364326191199268E-002   0.0000000000000000     
  -1.0847946699147955E-002   1.9179744931963547E-002   0.0000000000000000     
   0.0000000000000000        0.0000000000000000        0.0000000000000000     
  -3.4992049911875397E-003   2.9511284375919270E-003   0.0000000000000000     
  -7.1204546691279007E-003   7.2442850722211280E-003   0.0000000000000000     
  -1.0863749033821082E-002   1.2879469903887599E-002   0.0000000000000000     
  -1.4729088085267085E-002   1.9856682932591345E-002   0.0000000000000000     
  -2.6251787202391519E-015   1.8309396074013225E-002   0.0000000000000000     
  -3.4056958642114665E-015   2.6069820325506487E-002   0.0000000000000000     
  -4.0851924707624443E-015   3.4782932389885349E-002   0.0000000000000000     
  -4.6661689811523799E-015   4.4448732267149807E-002   0.0000000000000000     
  -5.1438887871402272E-015   5.5067219957299865E-002   0.0000000000000000     
  -3.4834026565157246E-003   1.8406101502674486E-002   0.0000000000000000     
  -4.3147966378150378E-003   2.6185084228281731E-002   0.0000000000000000     
  -5.1399433871330488E-003   3.4908353367231255E-002   0.0000000000000000     
  -5.9588429044697532E-003   4.4575908919523059E-002   0.0000000000000000     
  -6.7714951898251562E-003   5.5187750885157136E-002   0.0000000000000000     
  -7.0993848895641674E-003   1.8696217788657925E-002   0.0000000000000000     
  -8.8442545358137729E-003   2.6530875936607533E-002   0.0000000000000000     
  -1.0544696083516042E-002   3.5284616299269753E-002   0.0000000000000000     
  -1.2200709532670977E-002   4.4957438876644572E-002   0.0000000000000000     
  -1.3812294883278578E-002   5.5549343668732001E-002   0.0000000000000000     
  -1.0847946699147955E-002   1.9179744931963547E-002   0.0000000000000000     
  -1.3588373693999610E-002   2.7107195450483904E-002   0.0000000000000000     
  -1.6214258089153073E-002   3.5911721186000847E-002   0.0000000000000000     
  -1.8725599884608337E-002   4.5593322138514365E-002   0.0000000000000000     
  -2.1122399080365405E-002   5.6151998308024476E-002   0.0000000000000000     
  -1.4729088085267085E-002   1.9856682932591345E-002   0.0000000000000000     
  -1.8547154112372552E-002   2.7914042769910830E-002   0.0000000000000000     
  -2.2148629404044141E-002   3.6789668027424526E-002   0.0000000000000000     
  -2.5533513960281837E-002   4.6483558705132426E-002   0.0000000000000000     
  -2.8701807781085647E-002   5.6995714803034531E-002   0.0000000000000000     
  -5.1438887871402272E-015   5.5067219957299865E-002   0.0000000000000000     
  -5.3936889676808875E-015   6.6492323440624113E-002   0.0000000000000000     
  -5.2834256067391117E-015   7.8577970697411112E-002   0.0000000000000000     
  -4.8163242057780442E-015   9.1324161727660863E-002   0.0000000000000000     
  -3.9872619095326911E-015  0.10473089653137341        0.0000000000000000     
  -6.7714951898251562E-003   5.5187750885157136E-002   0.0000000000000000     
  -7.5492333996460973E-003   6.6602702405064412E-002   0.0000000000000000     
  -8.2633906903794192E-003   7.8679586620175782E-002   0.0000000000000000     
  -8.9139670620251264E-003   9.1418403530491257E-002   0.0000000000000000     
  -9.5009625145832180E-003  0.10481915313601087        0.0000000000000000     
  -1.3812294883278578E-002   5.5549343668732001E-002   0.0000000000000000     
  -1.5343904781656625E-002   6.6933839298389947E-002   0.0000000000000000     
  -1.6759991874122918E-002   7.8984434388476327E-002   0.0000000000000000     
  -1.8060556160677452E-002   9.1701128938991142E-002   0.0000000000000000     
  -1.9245597641320229E-002  0.10508392294993441        0.0000000000000000     
  -2.1122399080365405E-002   5.6151998308024476E-002   0.0000000000000000     
  -2.3384014146036986E-002   6.7485734120600729E-002   0.0000000000000000     
  -2.5489803551235781E-002   7.9492514002312747E-002   0.0000000000000000     
  -2.7439767295961790E-002   9.2172337953160530E-002   0.0000000000000000     
  -2.9233905380215027E-002  0.10552520597314403        0.0000000000000000     
  -2.8701807781085647E-002   5.6995714803034531E-002   0.0000000000000000     
  -3.1669561492787171E-002   6.8258386871696761E-002   0.0000000000000000     
  -3.4452825721718004E-002   8.0203825461685030E-002   0.0000000000000000     
  -3.7051600467878150E-002   9.2832030572999352E-002   0.0000000000000000     
  -3.9465885731267608E-002  0.10614300220563973        0.0000000000000000     
  -3.9872619095326911E-015  0.10473089653137341        0.0000000000000000     
  -2.5804011705155006E-015  0.11881202644955925        0.0000000000000000     
  -3.6711085560359180E-016  0.13358140282322900        0.0000000000000000     
   2.6477843355354747E-015  0.14903902565238261        0.0000000000000000     
   6.4670491184415368E-015  0.16518489493702010        0.0000000000000000     
  -9.5009625145832180E-003  0.10481915313601087        0.0000000000000000     
  -1.0047238629355970E-002  0.11889077557324752        0.0000000000000000     
  -1.0575656987645682E-002  0.13364221097871423        0.0000000000000000     
  -1.1086217589452340E-002  0.14907345935241093        0.0000000000000000     
  -1.1578920434775954E-002  0.16518452069433770        0.0000000000000000     
  -1.9245597641320229E-002  0.10508392294993441        0.0000000000000000     
  -2.0343148431069054E-002  0.11912702294432623        0.0000000000000000     
  -2.1381240644941749E-002  0.13382463544518666        0.0000000000000000     
  -2.2359874282938313E-002  0.14917676045251577        0.0000000000000000     
  -2.3279049345058749E-002  0.16518339796631351        0.0000000000000000     
  -2.9233905380215027E-002  0.10552520597314403        0.0000000000000000     
  -3.0887729405141836E-002  0.11952076856279530        0.0000000000000000     
  -3.2416750971888585E-002  0.13412867622264632        0.0000000000000000     
  -3.3820970080455273E-002  0.14934892895269711        0.0000000000000000     
  -3.5100386730841912E-002  0.16518152675294764        0.0000000000000000     
  -3.9465885731267608E-002  0.10614300220563973        0.0000000000000000     
  -4.1680981551574306E-002  0.12007201242865478        0.0000000000000000     
  -4.3682187968486171E-002  0.13455433331109318        0.0000000000000000     
  -4.5469504982003223E-002  0.14958996485295489        0.0000000000000000     
  -4.7042932592125448E-002  0.16517890705423999        0.0000000000000000     
   0.0000000000000000        0.0000000000000000        0.0000000000000000     
  -3.4992049911875397E-003   2.9511284375919270E-003   0.0000000000000000     
  -7.1204546691279007E-003   7.2442850722211280E-003   0.0000000000000000     
  -1.0863749033821082E-002   1.2879469903887599E-002   0.0000000000000000     
  -1.4729088085267085E-002   1.9856682932591345E-002   0.0000000000000000     
   0.0000000000000000        0.0000000000000000        0.0000000000000000     
  -4.5810945641354527E-003   3.3162354380485391E-003   0.0000000000000000     
  -9.2939021765033152E-003   7.8996886560814186E-003   0.0000000000000000     
  -1.4138422837103586E-002   1.3750359654098638E-002   0.0000000000000000     
  -1.9114656545936262E-002   2.0868248432100202E-002   0.0000000000000000     
   0.0000000000000000        0.0000000000000000        0.0000000000000000     
  -6.1392920312813579E-003   4.0077285254197306E-003   0.0000000000000000     
  -1.2248472638236843E-002   9.0695810459011355E-003   0.0000000000000000     
  -1.8327541820866450E-002   1.5185557561444218E-002   0.0000000000000000     
  -2.4376499579170197E-002   2.2355658072048968E-002   0.0000000000000000     
   0.0000000000000000        0.0000000000000000        0.0000000000000000     
  -8.1737973926252518E-003   5.0256076997055015E-003   0.0000000000000000     
  -1.5984166054328487E-002   1.0753962241680281E-002   0.0000000000000000     
  -2.3431105985109685E-002   1.7185063625924334E-002   0.0000000000000000     
  -3.0514617184968874E-002   2.4318911852437671E-002   0.0000000000000000     
   0.0000000000000000        0.0000000000000000        0.0000000000000000     
  -1.0684610648167139E-002   6.3698729609058527E-003   0.0000000000000000     
  -2.0500982424778234E-002   1.2952832243418852E-002   0.0000000000000000     
  -2.9449115329833294E-002   1.9748877847538995E-002   0.0000000000000000     
  -3.7529009363332311E-002   2.6758009773266284E-002   0.0000000000000000     
  -1.4729088085267085E-002   1.9856682932591345E-002   0.0000000000000000     
  -1.8547154112372552E-002   2.7914042769910830E-002   0.0000000000000000     
  -2.2148629404044141E-002   3.6789668027424526E-002   0.0000000000000000     
  -2.5533513960281837E-002   4.6483558705132426E-002   0.0000000000000000     
  -2.8701807781085647E-002   5.6995714803034531E-002   0.0000000000000000     
  -1.9114656545936262E-002   2.0868248432100202E-002   0.0000000000000000     
  -2.4000729507539443E-002   2.9006795741784476E-002   0.0000000000000000     
  -2.8574767926451222E-002   3.7919442334849847E-002   0.0000000000000000     
  -3.2836771802671597E-002   4.7606188211296308E-002   0.0000000000000000     
  -3.6786741136200569E-002   5.8067033371123865E-002   0.0000000000000000     
  -2.4376499579170197E-002   2.2355658072048968E-002   0.0000000000000000     
  -3.0229233596107120E-002   3.0440832213000993E-002   0.0000000000000000     
  -3.5719631554636311E-002   3.9302029619585850E-002   0.0000000000000000     
  -4.0847693454757750E-002   4.8939250291803571E-002   0.0000000000000000     
  -4.5613419296471447E-002   5.9352494229654142E-002   0.0000000000000000     
  -3.0514617184968874E-002   2.4318911852437671E-002   0.0000000000000000     
  -3.7232666378075596E-002   3.2216152183560380E-002   0.0000000000000000     
  -4.3583220288599400E-002   4.0937429881632570E-002   0.0000000000000000     
  -4.9566278916540300E-002   5.0482744946654244E-002   0.0000000000000000     
  -5.5181842261898283E-002   6.0852097378625403E-002   0.0000000000000000     
  -3.7529009363332311E-002   2.6758009773266284E-002   0.0000000000000000     
  -4.5011027853444859E-002   3.4332755653462645E-002   0.0000000000000000     
  -5.2165534128340497E-002   4.2825643120989972E-002   0.0000000000000000     
  -5.8992528188019241E-002   5.2236672175848292E-002   0.0000000000000000     
  -6.5492010032481077E-002   6.2565842818037593E-002   0.0000000000000000     
  -2.8701807781085647E-002   5.6995714803034531E-002   0.0000000000000000     
  -3.1669561492787171E-002   6.8258386871696761E-002   0.0000000000000000     
  -3.4452825721718004E-002   8.0203825461685030E-002   0.0000000000000000     
  -3.7051600467878150E-002   9.2832030572999352E-002   0.0000000000000000     
  -3.9465885731267608E-002  0.10614300220563973        0.0000000000000000     
  -3.6786741136200569E-002   5.8067033371123865E-002   0.0000000000000000     
  -4.0473510495001988E-002   6.9258028138477867E-002   0.0000000000000000     
  -4.3945914447039686E-002   8.1135222837503684E-002   0.0000000000000000     
  -4.7203952992313690E-002   9.3698617468201323E-002   0.0000000000000000     
  -5.0247626130823973E-002  0.10694821203057077        0.0000000000000000     
  -4.5613419296471447E-002   5.9352494229654142E-002   0.0000000000000000     
  -5.0068824825776230E-002   7.0490888507743918E-002   0.0000000000000000     
  -5.4265925788670948E-002   8.2303560200679221E-002   0.0000000000000000     
  -5.8204722185155558E-002   9.4790509308460072E-002   0.0000000000000000     
  -6.1885214015230103E-002  0.10795173583108646        0.0000000000000000     
  -5.5181842261898283E-002   6.0852097378625403E-002   0.0000000000000000     
  -6.0455504485109925E-002   7.1956967979494899E-002   0.0000000000000000     
  -6.5412859746611762E-002   8.3708837551211626E-002   0.0000000000000000     
  -7.0053908046403809E-002   9.6107706093775586E-002   0.0000000000000000     
  -7.4378649384486031E-002  0.10915357360718680        0.0000000000000000     
  -6.5492010032481077E-002   6.2565842818037593E-002   0.0000000000000000     
  -7.1633549473003030E-002   7.3656266553730823E-002   0.0000000000000000     
  -7.7386716320862123E-002   8.5351054889100941E-002   0.0000000000000000     
  -8.2751510576058354E-002   9.7650207824147919E-002   0.0000000000000000     
  -8.7727932238591710E-002  0.11055372535887178        0.0000000000000000     
  -3.9465885731267608E-002  0.10614300220563973        0.0000000000000000     
  -4.1680981551574306E-002  0.12007201242865478        0.0000000000000000     
  -4.3682187968486171E-002  0.13455433331109318        0.0000000000000000     
  -4.5469504982003223E-002  0.14958996485295489        0.0000000000000000     
  -4.7042932592125448E-002  0.16517890705423999        0.0000000000000000     
  -5.0247626130823973E-002  0.10694821203057077        0.0000000000000000     
  -5.3042557192540460E-002  0.12079578443603170        0.0000000000000000     
  -5.5554369507433074E-002  0.13515311259600377        0.0000000000000000     
  -5.7783063075501809E-002  0.15002019651048704        0.0000000000000000     
  -5.9728637896746678E-002  0.16539703617948140        0.0000000000000000     
  -6.1885214015230103E-002  0.10795173583108646        0.0000000000000000     
  -6.5292108650214273E-002  0.12170711447905308        0.0000000000000000     
  -6.8410113461427807E-002  0.13597651996285465        0.0000000000000000     
  -7.1239228448870678E-002  0.15075995228249114        0.0000000000000000     
  -7.3779453612542900E-002  0.16605741143796260        0.0000000000000000     
  -7.4378649384486031E-002  0.10915357360718680        0.0000000000000000     
  -7.8429635924595786E-002  0.12280600255771897        0.0000000000000000     
  -8.2249419830470405E-002  0.13702455541164579        0.0000000000000000     
  -8.5838001102109832E-002  0.15180923216896738        0.0000000000000000     
  -8.9195379739514150E-002  0.16716003282968361        0.0000000000000000     
  -8.7727932238591710E-002  0.11055372535887178        0.0000000000000000     
  -9.2455139015684945E-002  0.12409244867202929        0.0000000000000000     
  -9.7072288614560825E-002  0.13829721894237723        0.0000000000000000     
 -0.10157938103521931       0.15316803616991562        0.0000000000000000     
 -0.10597641627766043       0.16870490035464444        0.0000000000000000     
 </DataArray>
 <DataArray  type="Float64" Name="stress" NumberOfComponents="3" format="ascii">
   11729649319.327755        3518894795.7983270        2312614080.0375257     
   10336619310.058781        1653825820.5459666        1376288831.6559494     
   9120440987.5194416        378262467.72571707        658015235.33072615     
   8081114351.7097330       -307795262.66242170        157793291.06185600     
   7218639402.6296587       -404347370.61844921       -124377001.15066080     
   8814605810.7293720        2644381743.2188115        1725871118.2411878     
   8057418579.5261259        1283396244.8242781        1146211130.7310312     
   7433318628.5178995        366035013.74648571        721282364.24788964     
   6942305957.7046967       -107701950.01456308        451084818.79176408     
   6584380567.0865192       -137814646.45886612        335618494.36265194     
   6492498718.3596735        1947749615.5079019        1285169179.5277729     
   6190238747.9954720        1036572938.8031890        1011115978.5986576     
   5977301651.2916832        423139174.29985189        828473567.66721988     
   5853687428.2483063        107448321.99789095        737241946.73345816     
   5819396078.8653431        89500381.897306442        737421115.79737437     
   4763328042.2186584        1428998412.6655974        990508263.89728081     
   4735079815.4668226        913355902.48270154        971003375.25882864     
   4752390055.8407898        549574949.38581514        979588845.58871531     
   4815258763.3405590        337655553.37493682        1016264674.8869408     
   4923685937.9661312        277597714.45006895        1081030863.1535053     
   3627093782.3063269        1088128134.6918981        841888371.34971189     
   3691941781.9401765        913745135.86281562        1025873320.7115439     
   3758583842.1652188        745342339.00437498        1174628198.0123770     
   3827019962.9814534        582919744.11657643        1288153003.2522106     
   3897250144.3888812        426477351.19941926        1366447736.4310451     
   7218639402.6296587       -404347370.61844921       -124377001.15066080     
   6996489301.0656185       -96808620.471792221       -48741839.338622011     
   6737263383.4408760        87144076.139179468        3796382.2383515821     
   6440961649.7554293        147510719.21447206        33237663.580264423     
   6107584100.0092716        84291308.754071236        39582004.687111996     
   6584380567.0865192       -137814646.45886612        335618494.36265194     
   6277464301.4484577        15116039.012369633        339087465.57330894     
   5948058982.7064762        93083214.137198687        336127419.57949400     
   5596164610.8605719        96086878.915623426        326738356.38120925     
   5221781185.9107456        24127033.347644567        310920275.97845429     
   5819396078.8653431        89500381.897306442        737421115.79737437     
   5475336286.3835249        102109793.86219954        685741786.52289701     
   5123374203.7545681        88378238.669965267        644301363.07454181     
   4763509830.9784727        48305716.320604086        613099845.45230508     
   4395743168.0552416       -18107773.185882568        592137233.65619338     
   4923685937.9661312        277597714.45006895        1081030863.1535053     
   4590105255.8708191        164172644.07769871        991221123.51014066     
   4263209046.5851545        73029149.737480879        928318212.72349107     
   3942997310.1091337        4167231.4294152260        892322130.79355359     
   3629470046.4427586       -42413110.846499920        883232877.72033238     
   3897250144.3888812        426477351.19941926        1366447736.4310451     
   3621771209.9103422        201304589.65886581        1255525476.5350413     
   3367563511.1982331        47035947.339744210        1188177968.5263448     
   3134627048.2525520       -36328575.757948637        1164405212.4049537     
   2922961821.0732999       -48788979.634210944        1184207208.1708713     
   6107584100.0092716        84291308.754071236        39582004.687111996     
   5699425800.3177061       -33444060.365584850       -66875673.836718477     
   5307190525.2523575       -98102680.731179476       -144128214.34968266     
   4930878274.8132286       -109684552.34271288       -192175616.85179159     
   4570489049.0003176       -68189675.200184345       -211017881.34303454     
   5221781185.9107456        24127033.347644567        310920275.97845429     
   4895685663.7832432       -50675762.940776587        238525943.14353818     
   4580653268.4516602       -88601469.909455776        190144169.00137204     
   4276683999.9160018       -89650087.558389664        165774953.55195379     
   3983777858.1762619       -53821615.887599468        165418296.79528457     
   4395743168.0552416       -18107773.185882568        592137233.65619338     
   4136874482.5829048       -54428778.915726900        548136365.70818412     
   3884209026.0761900       -70072354.760160446        522955477.13480347     
   3637746798.5351019       -65038500.719177008        516594567.93605745     
   3397487799.9596362       -39327216.792777300        529053638.11194760     
   3629470046.4427586       -42413110.846499920        883232877.72033238     
   3422992256.7166872       -44703108.290448189        861955593.85721219     
   3217857798.1259456       -42515335.283298850        854305710.05060971     
   3014066670.6705308       -35849791.825059533        860283226.30052531     
   2811618874.3504448       -24706477.915725350        879888142.60696006     
   2922961821.0732999       -48788979.634210944        1184207208.1708713     
   2754038986.1845989       -21498751.064923286        1179983627.5906270     
   2581599584.6009274       -5930411.4788702726        1184194867.7487864     
   2405643616.3222876       -2083960.8760454655        1196840928.6453507     
   2226171081.3486791       -9959399.2564476728        1217921810.2803183     
   4570489049.0003176       -68189675.200184345       -211017881.34303454     
   4492072771.8875046        22605704.716218948       -220705553.60785431     
   4374464427.1795769       -17239140.684423447       -286839228.06071824     
   4217664014.8765268       -187724211.40212345       -409418904.70161378     
   4021671534.9783826       -488849507.43683672       -588444583.53054774     
   3983777858.1762619       -53821615.887599468        165418296.79528457     
   3774155703.6126499       -12713701.549429178        130698727.19935973     
   3540477617.7572031       -51792224.850721121        62963899.962763138     
   3282743600.6099138       -171057185.79147100       -37786184.914510481     
   3000953652.1707950       -370508584.37167454       -171551527.43245298     
   3397487799.9596362       -39327216.792777300        529053638.11194760     
   3123604752.3662739       -27823272.706534982        486960996.87207329     
   2840801909.7843494       -46051978.582156897        435283842.53889340     
   2549079272.2138567       -94013334.419666767        374022175.11240649     
   2248436839.6548119       -171707340.21904457        303175994.59261036     
   2811618874.3504448       -24706477.915725350        879888142.60696006     
   2540419918.1483731       -22723008.755089164        848081255.41029251     
   2275437303.2610154       -18401.878746509552        830120599.66768169     
   2016671029.6883729        43407342.713310242        826006175.37913322     
   1764121097.4304433        107554225.02108306        835737982.54463816     
   2226171081.3486791       -9959399.2564476728        1217921810.2803183     
   2024601200.9589474        2587090.3048899174        1214059502.8140111     
   1844383798.1872039        86308505.259527624        1247474171.3491280     
   1685518873.0334516        241204845.60745782        1318165815.8856668     
   1548006425.4976854        467276111.34868735        1426134436.4236350     
   3627093782.3063269        1088128134.6918981        841888371.34971189     
   3691941781.9401765        913745135.86281562        1025873320.7115439     
   3758583842.1652188        745342339.00437498        1174628198.0123770     
   3827019962.9814534        582919744.11657643        1288153003.2522106     
   3897250144.3888812        426477351.19941926        1366447736.4310451     
   2770575882.0636578        831172764.61909735        775738912.96937764     
   2767859577.4995303        684979824.21047199        955820107.44054794     
   2766488818.3787909        543272035.27980590        1112653434.1849370     
   2766463604.7014380        406049397.82709765        1246238893.2025449     
   2767783936.4674735        273311911.85234857        1356576484.4933708     
   1880554284.9316285        564166285.47948861        728489299.84059024     
   1844508545.6958609        456433864.34922194        904143471.74865925     
   1809359836.7556758        351691544.20423055        1068531980.2641655     
   1775108158.1110737        249939325.04451483        1221654825.3871081     
   1741753509.7620535        151177206.87007421        1363512007.1174877     
   957028990.91023982        287108697.27307194        700139531.96334946     
   921888686.52916873        228107256.27906483        870843413.63587868     
   887196897.29587519        170600865.77764982        1042263836.2500623     
   852953623.21035933        114589525.76882672        1214400799.8059003     
   819158864.27262139        60073236.252596051        1387254304.3033934     
  -5.0852179610062971E-004  -1.5255653883018892E-004   690689609.33765543     
  -5.4618054584559871E-004   8.5783029031821084E-007   855919933.10220528     
  -6.1110114221688027E-004   6.3139168801720655E-005   1033849002.1426274     
  -7.0337222767780701E-004   3.4208842260739352E-005   1224476816.4589226     
  -8.2309960129751838E-004  -8.5548555419133146E-005   1427803376.0510900     
   3897250144.3888812        426477351.19941926        1366447736.4310451     
   3621771209.9103422        201304589.65886581        1255525476.5350413     
   3367563511.1982331        47035947.339744210        1188177968.5263448     
   3134627048.2525520       -36328575.757948637        1164405212.4049537     
   2922961821.0732999       -48788979.634210944        1184207208.1708713     
   2767783936.4674735        273311911.85234857        1356576484.4933708     
   2611707080.4461184        119592044.14814961        1297675694.3034735     
   2471583651.2495732        19050265.859985471        1270558775.5387902     
   2347413648.8778381       -28313423.012146711        1275225728.1993206     
   2239197073.3309135       -22499022.468243003        1311676552.2850666     
   1741753509.7620535        151177206.87007421        1363512007.1174877     
   1671390502.3061891        58803764.034720957        1350428576.2018065     
   1611663112.7335167        1882380.8100057244        1357338136.2492485     
   1562571341.0440359       -19586942.804070175        1384240687.2598116     
   1524115187.2377460       -5604206.8075094223        1431136229.2334976     
   819158864.27262139        60073236.252596051        1387254304.3033934     
   800821475.49055576        18939749.318580478        1413784122.2300420     
   787801895.65006351       -4467707.8101908863        1448516050.6577191     
   780100124.75114298       -10149135.133723468        1491450089.5864272     
   777716162.79379630        1895467.3479899764        1542586239.0161643     
  -8.2309960129751838E-004  -8.5548555419133146E-005   1427803376.0510900     
  -7.8182652659600867E-004  -2.6941589984593643E-004   1487742332.3881779     
  -7.8710647203291718E-004  -6.0837324189366834E-004   1544092518.7642031     
  -8.3781460764006423E-004  -1.0988012525957613E-003   1596853935.1791656     
  -9.3588140899995343E-004  -1.7470914824736616E-003   1646026581.6330650     
   2922961821.0732999       -48788979.634210944        1184207208.1708713     
   2754038986.1845989       -21498751.064923286        1179983627.5906270     
   2581599584.6009274       -5930411.4788702726        1184194867.7487864     
   2405643616.3222876       -2083960.8760454655        1196840928.6453507     
   2226171081.3486791       -9959399.2564476728        1217921810.2803183     
   2239197073.3309135       -22499022.468243003        1311676552.2850666     
   2094087137.8690014       -7556693.8300840855        1295050889.1987264     
   1946339777.3858514       -1405781.9293869734        1291157535.6863880     
   1795954991.8814623       -4046286.7661492825        1299996491.7480526     
   1642932781.3558364       -15478208.340371966        1321567757.3837159     
   1524115187.2377460       -5604206.8075094223        1431136229.2334976     
   1415096690.7329028        673783.75860685110        1403134148.9270809     
   1304319910.8805513        1090829.8330307007        1392161867.0302634     
   1191784847.6806924       -4353068.5842381716        1398219383.5430446     
   1077491501.1333263       -15657911.493197441        1421306698.4654272     
   777716162.79379630        1895467.3479899764        1542586239.0161643     
   717067644.77629900        3192681.7011453211        1504233406.7756894     
   655539985.08502567        1559423.8083791435        1487207861.7804115     
   593133183.71997428       -3004306.3303131461        1491509604.0303314     
   529847240.68114763       -10498508.714924514        1517138633.5254467     
  -9.3588140899995343E-004  -1.7470914824736616E-003   1646026581.6330650     
  -8.0681798238727898E-004  -2.4652670015280595E-003   1598348662.7445524     
  -7.2426039524705536E-004  -3.3391558748810174E-003   1576295519.9368346     
  -6.8832874381992686E-004  -4.3675971722063047E-003   1579867153.2099102     
  -6.9779347135643776E-004  -5.5484005668293085E-003   1609063562.5637803     
   2226171081.3486791       -9959399.2564476728        1217921810.2803183     
   2024601200.9589474        2587090.3048899174        1214059502.8140111     
   1844383798.1872039        86308505.259527624        1247474171.3491280     
   1685518873.0334516        241204845.60745782        1318165815.8856668     
   1548006425.4976854        467276111.34868735        1426134436.4236350     
   1642932781.3558364       -15478208.340371966        1321567757.3837159     
   1529326811.2743366        5203090.8935459256        1341348393.0474713     
   1431735199.4063230        79265584.172418475        1389639335.3301537     
   1350157945.7517908        206709271.49622887        1466440584.2317650     
   1284595050.3107448        387534152.86499023        1571752139.7523060     
   1077491501.1333263       -15657911.493197441        1421306698.4654272     
   1026801814.5529289        5643909.3711625338        1458502471.2873187     
   986788366.78151166        62533192.932123274        1515441881.3456440     
   957451157.81907463        155009939.18968073        1592124928.6404021     
   938790187.66561329        283074148.14383262        1688551613.1715930     
   529847240.68114763       -10498508.714924514        1517138633.5254467     
   517026210.79472488        3909545.7377437353        1565521737.5335565     
   509543300.31277531        36111331.538655698        1624881809.3956034     
   507398509.23530048        86106848.687814757        1695218849.1115901     
   510591837.56229842        153896097.18522161        1776532856.6815121     
  -6.9779347135643776E-004  -5.5484005668293085E-003   1609063562.5637803     
  -2.7821151975599909E-004  -6.7206542528921416E-003   1662406191.7861826     
   1.1204407365276135E-004  -7.9899685768701784E-003   1717959119.4800282     
   4.7080013880103746E-004  -9.3653221624687474E-003   1775722345.6453168     
   7.9826255495850503E-004  -1.0844987911370011E-002   1835695870.2820461     
  -5.0852179610062971E-004  -1.5255653883018892E-004   690689609.33765543     
  -5.4618054584559871E-004   8.5783029031821084E-007   855919933.10220528     
  -6.1110114221688027E-004   6.3139168801720655E-005   1033849002.1426274     
  -7.0337222767780701E-004   3.4208842260739352E-005   1224476816.4589226     
  -8.2309960129751838E-004  -8.5548555419133146E-005   1427803376.0510900     
  -957028990.91118836       -287108697.27335650        700139531.96349514     
  -921888686.53020823       -228107256.27910161        870843413.63601446     
  -887196897.29705143       -170600865.77759176        1042263836.2501895     
  -852953623.21171820       -114589525.76882705        1214400799.8060212     
  -819158864.27420866       -60073236.252807528        1387254304.3035092     
  -1880554284.9323716       -564166285.47971141        728489299.84085548     
  -1844508545.6967056       -456433864.34925461        904143471.74891520     
  -1809359836.7566593       -351691544.20419681        1068531980.2644147     
  -1775108158.1122327       -249939325.04453850        1221654825.3873544     
  -1741753509.7634261       -151177206.87027907        1363512007.1177340     
  -2770575882.0640574       -831172764.61921716        775738912.96973634     
  -2767859577.5000386       -684979824.21045828        955820107.44090772     
  -2766488818.3794351       -543272035.27975273        1112653434.1853027     
  -2766463604.7022476       -406049397.82709992        1246238893.2029214     
  -2767783936.4684763       -273311911.85250008        1356576484.4937637     
  -3627093782.3062463       -1088128134.6918740        841888371.35013795     
  -3691941781.9402061       -913745135.86271262        1025873320.7119921     
  -3758583842.1653776       -745342339.00425780        1174628198.0128534     
  -3827019962.9817615       -582919744.11651111        1288153003.2527225     
  -3897250144.3893580       -426477351.19947124        1366447736.4315984     
  -8.2309960129751838E-004  -8.5548555419133146E-005   1427803376.0510900     
  -7.8182652659600867E-004  -2.6941589984593643E-004   1487742332.3881779     
  -7.8710647203291718E-004  -6.0837324189366834E-004   1544092518.7642031     
  -8.3781460764006423E-004  -1.0988012525957613E-003   1596853935.1791656     
  -9.3588140899995343E-004  -1.7470914824736616E-003   1646026581.6330650     
  -819158864.27420866       -60073236.252807528        1387254304.3035092     
  -800821475.49204814       -18939749.319110274        1413784122.2301059     
  -787801895.65154886        4467707.8090498447        1448516050.6577301     
  -780100124.75270867        10149135.131676763        1491450089.5863819     
  -777716162.79553139       -1895467.3512339592        1542586239.0160625     
  -1741753509.7634261       -151177206.87027907        1363512007.1177340     
  -1671390502.3074589       -58803764.035195291        1350428576.2019551     
  -1611663112.7347665       -1882380.8110279441        1357338136.2492952     
  -1562571341.0453496        19586942.802222908        1384240687.2597539     
  -1524115187.2392073        5604206.8045555353        1431136229.2333305     
  -2767783936.4684763       -273311911.85250008        1356576484.4937637     
  -2611707080.4470134       -119592044.14852226        1297675694.3037262     
  -2471583651.2504420       -19050265.860843420        1270558775.5388985     
  -2347413648.8787594        28313423.010536551        1275225728.1992800     
  -2239197073.3319654        22499022.465621710        1311676552.2848706     
  -3897250144.3893580       -426477351.19947124        1366447736.4315984     
  -3621771209.9107141       -201304589.65909493        1255525476.5354197     
  -3367563511.1985741       -47035947.340397000        1188177968.5265403     
  -3134627048.2529383        36328575.756622314        1164405212.4049609     
  -2922961821.0738063        48788979.631958961        1184207208.1706820     
  -9.3588140899995343E-004  -1.7470914824736616E-003   1646026581.6330650     
  -8.0681798238727898E-004  -2.4652670015280595E-003   1598348662.7445524     
  -7.2426039524705536E-004  -3.3391558748810174E-003   1576295519.9368346     
  -6.8832874381992686E-004  -4.3675971722063047E-003   1579867153.2099102     
  -6.9779347135643776E-004  -5.5484005668293085E-003   1609063562.5637803     
  -777716162.79553139       -1895467.3512339592        1542586239.0160625     
  -717067644.77776396       -3192681.7057224214        1504233406.7755229     
  -655539985.08630943       -1559423.8145830929        1487207861.7801650     
  -593133183.72116423        3004306.3221890330        1491509604.0299888     
  -529847240.68233097        10498508.704589605        1517138633.5249941     
  -1524115187.2392073        5604206.8045555353        1431136229.2333305     
  -1415096690.7341266       -673783.76280409098        1403134148.9267890     
  -1304319910.8816197       -1090829.8387445211        1392161867.0298173     
  -1191784847.6816885        4353068.5767286420        1398219383.5424135     
  -1077491501.1343343        15657911.483616531        1421306698.4645796     
  -2239197073.3319654        22499022.465621710        1311676552.2848706     
  -2094087137.8698912        7556693.8262984753        1295050889.1983523     
  -1946339777.3866541        1405781.9241802692        1291157535.6857896     
  -1795954991.8822596        4046286.7592537403        1299996491.7471836     
  -1642932781.3567026        15478208.331537366        1321567757.3825345     
  -2922961821.0738063        48788979.631958961        1184207208.1706820     
  -2754038986.1850591        21498751.061575294        1179983627.5902112     
  -2581599584.6014161        5930411.4741802216        1184194867.7480836     
  -2405643616.3228788        2083960.8697679043        1196840928.6443002     
  -2226171081.3494439        9959399.2483412027        1217921810.2788606     
  -6.9779347135643776E-004  -5.5484005668293085E-003   1609063562.5637803     
  -2.7821151975599909E-004  -6.7206542528921416E-003   1662406191.7861826     
   1.1204407365276135E-004  -7.9899685768701784E-003   1717959119.4800282     
   4.7080013880103746E-004  -9.3653221624687474E-003   1775722345.6453168     
   7.9826255495850503E-004  -1.0844987911370011E-002   1835695870.2820461     
  -529847240.68233097        10498508.704589605        1517138633.5249941     
  -517026210.79509872       -3909545.7503856122        1565521737.5329618     
  -509543300.31247294       -36111331.554053321        1624881809.3948359     
  -507398509.23445463       -86106848.706408232        1695218849.1106167     
  -510591837.56104630       -153896097.20746621        1776532856.6803036     
  -1077491501.1343343        15657911.483616531        1421306698.4645796     
  -1026801814.5532451       -5643909.3830454350        1458502471.2861030     
  -986788366.78134346       -62533192.946995735        1515441881.3439968     
  -957451157.81862807       -155009939.20823133        1592124928.6382627     
  -938790187.66509616       -283074148.16675240        1688551613.1688998     
  -1642932781.3567026        15478208.331537366        1321567757.3825345     
  -1529326811.2747211       -5203090.9047064781        1341348393.0456071     
  -1431735199.4064987       -79265584.186821818        1389639335.3275151     
  -1350157945.7520430       -206709271.51482397        1466440584.2282596     
  -1284595050.3113513       -387534152.88870007        1571752139.7478392     
  -2226171081.3494439        9959399.2483412027        1217921810.2788606     
  -2024601200.9595234       -2587090.3153628111        1214059502.8114748     
  -1844383798.1879444       -86308505.273542881        1247474171.3453906     
  -1685518873.0347073       -241204845.62618846        1318165815.8806059     
  -1548006425.4998093       -467276111.37330538        1426134436.4171197     
  -3627093782.3062463       -1088128134.6918740        841888371.35013795     
  -3691941781.9402061       -913745135.86271262        1025873320.7119921     
  -3758583842.1653776       -745342339.00425780        1174628198.0128534     
  -3827019962.9817615       -582919744.11651111        1288153003.2527225     
  -3897250144.3893580       -426477351.19947124        1366447736.4315984     
  -4763328042.2181091       -1428998412.6654329        990508263.89773619     
  -4735079815.4663591       -913355902.48256242        971003375.25924933     
  -4752390055.8404198       -549574949.38572133        979588845.58913672     
  -4815258763.3402872       -337655553.37490988        1016264674.8873979     
  -4923685937.9659653       -277597714.45012879        1081030863.1540344     
  -6492498718.3588152       -1947749615.5076447        1285169179.5282066     
  -6190238747.9945955       -1036572938.8030365        1011115978.5990161     
  -5977301651.2907820       -423139174.29978013        828473567.66756666     
  -5853687428.2473698       -107448321.99787641        737241946.73385799     
  -5819396078.8643684       -89500381.897324800        737421115.79789042     
  -8814605810.7283669       -2644381743.2185102        1725871118.2415493     
  -8057418579.5249147       -1283396244.8241358        1146211130.7312922     
  -7433318628.5164604       -366035013.74643421        721282364.24814296     
  -6942305957.7030106        107701950.01458979        451084818.79210132     
  -6584380567.0845633        137814646.45894098        335618494.36316854     
  -11729649319.326761       -3518894795.7980280        2312614080.0377645     
  -10336619310.057308       -1653825820.5458579        1376288831.6560781     
  -9120440987.5174599       -378262467.72568464        658015235.33086586     
  -8081114351.7072077        307795262.66248989        157793291.06212848     
  -7218639402.6265564        404347370.61866665       -124377001.15013397     
  -3897250144.3893580       -426477351.19947124        1366447736.4315984     
  -3621771209.9107141       -201304589.65909493        1255525476.5354197     
  -3367563511.1985741       -47035947.340397000        1188177968.5265403     
  -3134627048.2529383        36328575.756622314        1164405212.4049609     
  -2922961821.0738063        48788979.631958961        1184207208.1706820     
  -4923685937.9659653       -277597714.45012879        1081030863.1540344     
  -4590105255.8705463       -164172644.07788563        991221123.51047575     
  -4263209046.5848374       -73029149.738010168        928318212.72362924     
  -3942997310.1088362       -4167231.4304978848        892322130.79349542     
  -3629470046.4425445        42413110.844655752        883232877.72007346     
  -5819396078.8643684       -89500381.897324800        737421115.79789042     
  -5475336286.3824244       -102109793.86229229        685741786.52321279     
  -5123374203.7533951       -88378238.670310497        644301363.07466018     
  -4763509830.9772778       -48305716.321375370        613099845.45223105     
  -4395743168.0540810        18107773.184511900        592137233.65592754     
  -6584380567.0845633        137814646.45894098        335618494.36316854     
  -6277464301.4463463       -15116039.012311459        339087465.57363260     
  -5948058982.7042503       -93083214.137300968        336127419.57963347     
  -5596164610.8582697       -96086878.916018009        326738356.38117015     
  -5221781185.9084120       -24127033.348467350        310920275.97824436     
  -7218639402.6265564        404347370.61866665       -124377001.15013397     
  -6996489301.0623121        96808620.472056866       -48741839.338269010     
  -6737263383.4373999       -87144076.138980627        3796382.2385463379     
  -6440961649.7518091       -147510719.21442723        33237663.580310110     
  -6107584100.0055418       -84291308.754292727        39582004.687022962     
  -2922961821.0738063        48788979.631958961        1184207208.1706820     
  -2754038986.1850591        21498751.061575294        1179983627.5902112     
  -2581599584.6014161        5930411.4741802216        1184194867.7480836     
  -2405643616.3228788        2083960.8697679043        1196840928.6443002     
  -2226171081.3494439        9959399.2483412027        1217921810.2788606     
  -3629470046.4425445        42413110.844655752        883232877.72007346     
  -3422992256.7164698        44703108.287693262        861955593.85675597     
  -3217857798.1257710        42515335.279482365        854305710.04994202     
  -3014066670.6704502        35849791.820005417        860283226.29962933     
  -2811618874.3505054        24706477.909281611        879888142.60582149     
  -4395743168.0540810        18107773.184511900        592137233.65592754     
  -4136874482.5816498        54428778.913681984        548136365.70777977     
  -3884209026.0748692        70072354.757357836        522955477.13429314     
  -3637746798.5337386        65038500.715536356        516594567.93546993     
  -3397487799.9582534        39327216.788222075        529053638.11130887     
  -5221781185.9084120       -24127033.348467350        310920275.97824436     
  -4895685663.7806053        50675762.939531326        238525943.14328116     
  -4580653268.4487143        88601469.907810688        190144169.00113985     
  -4276683999.9127479        89650087.556336403        165774953.55182064     
  -3983777858.1726980        53821615.885145426        165418296.79532480     
  -6107584100.0055418       -84291308.754292727        39582004.687022962     
  -5699425800.3133249        33444060.365257263       -66875673.836738013     
  -5307190525.2472992        98102680.730842590       -144128214.34951901     
  -4930878274.8074675        109684552.34244204       -192175616.85131592     
  -4570489048.9938278        68189675.200069904       -211017881.34213397     
  -2226171081.3494439        9959399.2483412027        1217921810.2788606     
  -2024601200.9595234       -2587090.3153628111        1214059502.8114748     
  -1844383798.1879444       -86308505.273542881        1247474171.3453906     
  -1685518873.0347073       -241204845.62618846        1318165815.8806059     
  -1548006425.4998093       -467276111.37330538        1426134436.4171197     
  -2811618874.3505054        24706477.909281611        879888142.60582149     
  -2540419918.1483674        22723008.746673584        848081255.40794468     
  -2275437303.2613168        18401.867113232613        830120599.66406512     
  -2016671029.6893511       -43407342.729410887        826006175.37418568     
  -1764121097.4324780       -107554225.04289317        835737982.53830373     
  -3397487799.9582534        39327216.788222075        529053638.11130887     
  -3123604752.3647618        27823272.700452566        486960996.87006962     
  -2840801909.7830997        46051978.573240757        435283842.53552419     
  -2549079272.2132759        94013334.406582236        374022175.10767800     
  -2248436839.6552792        171707340.20048237        303175994.58652806     
  -3983777858.1726980        53821615.885145426        165418296.79532480     
  -3774155703.6087084        12713701.545970678        130698727.19784749     
  -3540477617.7532992        51792224.844847679        62963899.959767163     
  -3282743600.6064711        171057185.78179955       -37786184.918921605     
  -3000953652.1682229        370508584.35680878       -171551527.43821222     
  -4570489048.9938278        68189675.200069904       -211017881.34213397     
  -4492072771.8802090       -22605704.716791153       -220705553.60871518     
  -4374464427.1719122        17239140.681930542       -286839228.06320596     
  -4217664014.8689475        187724211.39622664       -409418904.70560086     
  -4021671534.9713035        488849507.42610383       -588444583.53590238     
 </DataArray>
 <DataArray  type="Float64" Name="VM" NumberOfComponents="1" format="ascii">
   11168547060.452593     
   9907995939.5469093     
   9009692444.0521679     
   8243856620.0370321     
   7432193377.3594227     
   8385507800.5560904     
   7756909127.1985264     
   7363972930.7564087     
   7040265914.7858019     
   6679700871.3177862     
   6185101919.1495018     
   6003663199.2703543     
   5952903212.9762106     
   5939596772.6721163     
   5914719991.3161144     
   4568135522.5516081     
   4664646763.6413908     
   4811884481.4326105     
   4977269435.7994013     
   5143814044.5602436     
   3538278881.1654363     
   3774800479.4763947     
   4002537974.7520084     
   4211062360.8481965     
   4394302100.4110861     
   7432193377.3594227     
   7045898255.5108948     
   6694120004.3140373     
   6368747893.2169952     
   6066265120.4499254     
   6679700871.3177862     
   6297367472.4635954     
   5930712488.8246660     
   5577530538.6330633     
   5237519358.6760683     
   5914719991.3161144     
   5553501039.2375650     
   5200899143.0302057     
   4857049398.4468670     
   4522649944.6309843     
   5143814044.5602436     
   4825972145.3468046     
   4522639739.3551083     
   4233146598.7301583     
   3958420108.3575153     
   4394302100.4110861     
   4142185864.2737751     
   3926779914.5093594     
   3742806637.9758306     
   3591063161.8501725     
   6066265120.4499254     
   5717394683.4436054     
   5362729142.0962420     
   4997722165.2883120     
   4619444315.2107134     
   5237519358.6760683     
   4938530412.4112053     
   4637300034.9333696     
   4331733172.0760746     
   4021179651.5500827     
   4522649944.6309843     
   4271208076.1149740     
   4023010422.4556856     
   3778178822.8542094     
   3538047056.7975106     
   3958420108.3575153     
   3755102540.3186822     
   3561283392.9007587     
   3378490558.4999566     
   3209031899.9321613     
   3591063161.8501725     
   3438238708.4748678     
   3299538450.6336718     
   3176385279.5694079     
   3070522562.6183681     
   4619444315.2107134     
   4497089632.1236248     
   4411176537.9061451     
   4372477477.5479345     
   4406541615.4602318     
   4021179651.5500827     
   3787300209.1741276     
   3568322682.6266842     
   3372163456.5161147     
   3216079648.0644517     
   3538047056.7975106     
   3248997188.0236707     
   2961674677.4076233     
   2676932731.2406187     
   2397242539.4776630     
   3209031899.9321613     
   2944435621.1383624     
   2691645857.7810040     
   2455232476.6004329     
   2242615973.9565196     
   3070522562.6183681     
   2918150153.5975494     
   2813998963.9121661     
   2775838915.3311043     
   2827172213.8967781     
   3538278881.1654363     
   3774800479.4763947     
   4002537974.7520084     
   4211062360.8481965     
   4394302100.4110861     
   2805249409.7174783     
   2995845834.9620347     
   3187419311.8262730     
   3369600903.0159540     
   3535499720.7889585     
   2094257068.8959653     
   2284966900.6026878     
   2487250527.1205273     
   2692049561.4775963     
   2893223355.8168602     
   1481266565.9202888     
   1722418916.8311319     
   1980860455.5207014     
   2251050643.4295869     
   2529593649.0024023     
   1196309495.6327183     
   1482496811.3439741     
   1790678999.0654159     
   2120856058.7970448     
   2473027990.5388598     
   4394302100.4110861     
   4142185864.2737751     
   3926779914.5093594     
   3742806637.9758306     
   3591063161.8501725     
   3535499720.7889585     
   3402185086.8768415     
   3302266363.9382424     
   3233607548.5547495     
   3197870481.7319870     
   2893223355.8168602     
   2858267317.6985765     
   2849829506.6437831     
   2867226129.9837203     
   2911348946.3965774     
   2529593649.0024023     
   2573492378.9523268     
   2630355052.6353087     
   2699971603.6185880     
   2782460925.4184861     
   2473027990.5388598     
   2576845308.2673483     
   2674446694.0865998     
   2765832147.9966135     
   2851001669.9973888     
   3591063161.8501725     
   3438238708.4748678     
   3299538450.6336718     
   3176385279.5694079     
   3070522562.6183681     
   3197870481.7319870     
   3071246137.4509954     
   2965171155.3338656     
   2881442397.4614730     
   2822148360.1920676     
   2911348946.3965774     
   2812099206.7486992     
   2741199157.4488230     
   2700113021.1703129     
   2690435385.7831960     
   2782460925.4184861     
   2701862553.4681630     
   2657832671.8610778     
   2650924489.6845016     
   2681704648.7305255     
   2851001669.9973888     
   2768421092.0833368     
   2730223928.2737975     
   2736410178.5687680     
   2786979842.9682508     
   3070522562.6183681     
   2918150153.5975494     
   2813998963.9121661     
   2775838915.3311043     
   2827172213.8967781     
   2822148360.1920676     
   2780028214.9693160     
   2781358271.4175096     
   2835120631.8733602     
   2951907362.1593843     
   2690435385.7831960     
   2725847945.1268635     
   2793858790.4401612     
   2897742521.3950028     
   3041271182.9395499     
   2681704648.7305255     
   2760051626.6273298     
   2857142068.5052443     
   2973630439.2199912     
   3110308170.4013739     
   2786979842.9682508     
   2879371986.9907594     
   2975592480.2657003     
   3075641322.7930717     
   3179518514.5728712     
   1196309495.6327183     
   1482496811.3439741     
   1790678999.0654159     
   2120856058.7970448     
   2473027990.5388598     
   1481266565.9209793     
   1722418916.8318205     
   1980860455.5213864     
   2251050643.4302630     
   2529593649.0030589     
   2094257068.8967693     
   2284966900.6035829     
   2487250527.1215019     
   2692049561.4786367     
   2893223355.8179474     
   2805249409.7180877     
   2995845834.9627938     
   3187419311.8271742     
   3369600903.0169873     
   3535499720.7901092     
   3538278881.1656756     
   3774800479.4768109     
   4002537974.7525954     
   4211062360.8489461     
   4394302100.4119844     
   2473027990.5388598     
   2576845308.2673483     
   2674446694.0865998     
   2765832147.9966135     
   2851001669.9973888     
   2529593649.0030589     
   2573492378.9528122     
   2630355052.6356001     
   2699971603.6186647     
   2782460925.4183502     
   2893223355.8179474     
   2858267317.6993876     
   2849829506.6442680     
   2867226129.9838414     
   2911348946.3963180     
   3535499720.7901092     
   3402185086.8776717     
   3302266363.9386988     
   3233607548.5547762     
   3197870481.7315497     
   4394302100.4119844     
   4142185864.2743464     
   3926779914.5095549     
   3742806637.9755950     
   3591063161.8494539     
   2851001669.9973888     
   2768421092.0833368     
   2730223928.2737975     
   2736410178.5687680     
   2786979842.9682508     
   2782460925.4183502     
   2701862553.4676714     
   2657832671.8602185     
   2650924489.6832724     
   2681704648.7289319     
   2911348946.3963180     
   2812099206.7478228     
   2741199157.4472942     
   2700113021.1681037     
   2690435385.7802849     
   3197870481.7315497     
   3071246137.4498301     
   2965171155.3319001     
   2881442397.4586353     
   2822148360.1882949     
   3591063161.8494539     
   3438238708.4734478     
   3299538450.6314549     
   3176385279.5662875     
   3070522562.6142240     
   2786979842.9682508     
   2879371986.9907594     
   2975592480.2657003     
   3075641322.7930717     
   3179518514.5728712     
   2681704648.7289319     
   2760051626.6252217     
   2857142068.5027046     
   2973630439.2171464     
   3110308170.3984036     
   2690435385.7802849     
   2725847945.1228170     
   2793858790.4351296     
   2897742521.3892684     
   3041271182.9335246     
   2822148360.1882949     
   2780028214.9637799     
   2781358271.4103460     
   2835120631.8649592     
   2951907362.1504273     
   3070522562.6142240     
   2918150153.5911593     
   2813998963.9035063     
   2775838915.3205433     
   2827172213.8852348     
   3538278881.1656756     
   3774800479.4768109     
   4002537974.7525954     
   4211062360.8489461     
   4394302100.4119844     
   4568135522.5514526     
   4664646763.6412716     
   4811884481.4325600     
   4977269435.7994394     
   5143814044.5603981     
   6185101919.1490602     
   6003663199.2697601     
   5952903212.9755135     
   5939596772.6713572     
   5914719991.3153467     
   8385507800.5554790     
   7756909127.1975336     
   7363972930.7550898     
   7040265914.7842054     
   6679700871.3159552     
   11168547060.451916     
   9907995939.5455894     
   9009692444.0502491     
   8243856620.0345612     
   7432193377.3564167     
   4394302100.4119844     
   4142185864.2743464     
   3926779914.5095549     
   3742806637.9755950     
   3591063161.8494539     
   5143814044.5603981     
   4825972145.3466740     
   4522639739.3546562     
   4233146598.7293410     
   3958420108.3562794     
   5914719991.3153467     
   5553501039.2365627     
   5200899143.0289402     
   4857049398.4453020     
   4522649944.6290779     
   6679700871.3159552     
   6297367472.4615746     
   5930712488.8224249     
   5577530538.6305742     
   5237519358.6733036     
   7432193377.3564167     
   7045898255.5077162     
   6694120004.3106604     
   6368747893.2133989     
   6066265120.4460869     
   3591063161.8494539     
   3438238708.4734478     
   3299538450.6314549     
   3176385279.5662875     
   3070522562.6142240     
   3958420108.3562794     
   3755102540.3168793     
   3561283392.8983498     
   3378490558.4968915     
   3209031899.9284053     
   4522649944.6290779     
   4271208076.1125784     
   4023010422.4527979     
   3778178822.8508282     
   3538047056.7936502     
   5237519358.6733036     
   4938530412.4079094     
   4637300034.9295588     
   4331733172.0717564     
   4021179651.5452843     
   6066265120.4460869     
   5717394683.4390602     
   5362729142.0910044     
   4997722165.2823715     
   4619444315.2040625     
   3070522562.6142240     
   2918150153.5911593     
   2813998963.9035063     
   2775838915.3205433     
   2827172213.8852348     
   3209031899.9284053     
   2944435621.1326332     
   2691645857.7729950     
   2455232476.5899067     
   2242615973.9434576     
   3538047056.7936502     
   3248997188.0183334     
   2961674677.4005146     
   2676932731.2313843     
   2397242539.4657760     
   4021179651.5452843     
   3787300209.1683016     
   3568322682.6196251     
   3372163456.5076265     
   3216079648.0541763     
   4619444315.2040625     
   4497089632.1161995     
   4411176537.8977680     
   4372477477.5384836     
   4406541615.4494352     
 </DataArray>
 <DataArray  type="Float64" Name="strain" NumberOfComponents="3" format="ascii">
  0.17789968134313763        0.0000000000000000       0.10021327680162610     
  0.16400785939824986       -2.4119332874527794E-002   5.9639182705091137E-002
  0.15011603745336211       -3.9297830475501921E-002   2.8513993530998132E-002
  0.13622421550847433       -4.5535492802922364E-002   6.8377092793470932E-003
  0.12233239356358656       -4.2832319856789113E-002  -5.3896700498619679E-003
  0.13368818812939548        0.0000000000000000        7.4787748457118136E-002
  0.12787332843464738       -1.8897155483892668E-002   4.9669148998344681E-002
  0.12205846873989923       -3.1066009580148064E-002   3.1255569117408552E-002
  0.11624360904515110       -3.6506562288766198E-002   1.9547008814309777E-002
  0.11042874935040299       -3.5218813609747032E-002   1.4543468089048252E-002
   9.8469563895121709E-002   0.0000000000000000        5.5690664446203492E-002
   9.7987781105908583E-002  -1.3674978093257543E-002   4.3815025739275162E-002
   9.7505998316695458E-002  -2.2834188684794216E-002   3.5900521265579528E-002
   9.7024215527482319E-002  -2.7477631774610017E-002   3.1947151025116520E-002
   9.6542432738269193E-002  -2.7605307362704942E-002   3.1954915017886221E-002
   7.2243808640316320E-002   0.0000000000000000        4.2922024768882169E-002
   7.4351217412033530E-002  -8.4528007026224185E-003   4.2076812927882574E-002
   7.6458626183750752E-002  -1.4602367789440364E-002   4.2448849975510995E-002
   7.8566034955467962E-002  -1.8448701260453844E-002   4.4038135911767438E-002
   8.0673443727185185E-002  -1.9991801115662844E-002   4.6844670736651897E-002
   5.5010922364979294E-002   0.0000000000000000        3.6481829425154183E-002
   5.6963637353022199E-002  -3.2306233119872912E-003   4.4454510564166903E-002
   5.8916352341065112E-002  -6.3705468940865144E-003   5.0900555247203008E-002
   6.0869067329108011E-002  -9.4197707462976617E-003   5.5819963474262456E-002
   6.2821782317150923E-002  -1.2378294868620753E-002   5.9212735245345288E-002
  0.12233239356358656       -4.2832319856789113E-002  -5.3896700498619679E-003
  0.11709219812011928       -3.6595923513191304E-002  -2.1121463713402872E-003
  0.11185200267665205       -3.2233915648218057E-002   1.6450989699523522E-004
  0.10661180723318479       -2.9746296261869278E-002   1.4402987551447918E-003
  0.10137161178971751       -2.9133065354145171E-002   1.7152202031081865E-003
  0.11042874935040299       -3.5218813609747032E-002   1.4543468089048252E-002
  0.10454882482907912       -3.1135387523702797E-002   1.4693790174843388E-002
   9.8668900307755270E-002  -2.8188908011245732E-002   1.4565521515111406E-002
   9.2788975786431416E-002  -2.6379375072375803E-002   1.4158662109852402E-002
   8.6909051265107548E-002  -2.5706788707092990E-002   1.3473211959066353E-002
   9.6542432738269193E-002  -2.7605307362704942E-002   3.1954915017886221E-002
   9.0745055803747754E-002  -2.5674851534214300E-002   2.9715477415992203E-002
   8.4947678869226315E-002  -2.4143900374273424E-002   2.7919725733230146E-002
   7.9150301934704861E-002  -2.3012453882882297E-002   2.6567659969599887E-002
   7.3352925000183450E-002  -2.2280512060040919E-002   2.5659280125101713E-002
   8.0673443727185185E-002  -1.9991801115662844E-002   4.6844670736651897E-002
   7.5680891044125162E-002  -2.0214315544725782E-002   4.2952915352106096E-002
   7.0688338361065167E-002  -2.0098892737301092E-002   4.0227122551351281E-002
   6.5695785678005159E-002  -1.9645532693388749E-002   3.8667292334387322E-002
   6.0703232994945143E-002  -1.8854235412988793E-002   3.8273424701214406E-002
   6.2821782317150923E-002  -1.2378294868620753E-002   5.9212735245345288E-002
   5.9356330550211368E-002  -1.4753779555237278E-002   5.4406103983185121E-002
   5.5890878783271827E-002  -1.6053885100328760E-002   5.1487711969474936E-002
   5.2425427016332272E-002  -1.6278611503895236E-002   5.0457559204214665E-002
   4.8959975249392718E-002  -1.5427958765936681E-002   5.1315645687404418E-002
  0.10137161178971751       -2.9133065354145171E-002   1.7152202031081865E-003
   9.5157650307123032E-002  -2.9054530007681614E-002  -2.8979458662578006E-003
   8.8943688824528536E-002  -2.8170997305114784E-002  -6.2455559551529150E-003
   8.2729727341934040E-002  -2.6482467246444690E-002  -8.3276100635776354E-003
   7.6515765859339557E-002  -2.3988939831671330E-002  -9.1441081915314970E-003
   8.6909051265107548E-002  -2.5706788707092990E-002   1.3473211959066353E-002
   8.1848139877757936E-002  -2.5323024367929159E-002   1.0336124202886654E-002
   7.6787228490408282E-002  -2.4379957507415898E-002   8.2395806567261212E-003
   7.1726317103058643E-002  -2.2877588125553169E-002   7.1835813205846644E-003
   6.6665405715709031E-002  -2.0815916222341302E-002   7.1681261944623320E-003
   7.3352925000183450E-002  -2.2280512060040919E-002   2.5659280125101713E-002
   6.9220051937627050E-002  -2.1591518728176641E-002   2.3752575847354646E-002
   6.5087178875070636E-002  -2.0588917709716957E-002   2.2661404009174817E-002
   6.0954305812514244E-002  -1.9272709004661791E-002   2.2385764610562488E-002
   5.6821432749957823E-002  -1.7642892613011135E-002   2.2925657651517731E-002
   6.0703232994945143E-002  -1.8854235412988793E-002   3.8273424701214406E-002
   5.7273386486730360E-002  -1.7860013088424238E-002   3.7351409067145860E-002
   5.3843539978515591E-002  -1.6797877912018044E-002   3.7019914102193088E-002
   5.0413693470300808E-002  -1.5667829883770312E-002   3.7278939806356097E-002
   4.6983846962086045E-002  -1.4469869003680982E-002   3.8128486179634935E-002
   4.8959975249392718E-002  -1.5427958765936681E-002   5.1315645687404418E-002
   4.6008143525067935E-002  -1.4128507448671716E-002   5.1132623862260501E-002
   4.3056311800743138E-002  -1.3006838114319141E-002   5.1315110935780749E-002
   4.0104480076418356E-002  -1.2062950762878864E-002   5.1863106907965195E-002
   3.7152648352093559E-002  -1.1296845394350857E-002   5.2776611778813792E-002
   7.6515765859339557E-002  -2.3988939831671330E-002  -9.1441081915314970E-003
   7.4754851007877321E-002  -2.2083602114167211E-002  -9.5639073230070204E-003
   7.2993936156415057E-002  -2.2159641147304940E-002  -1.2429699882631123E-002
   7.1233021304952737E-002  -2.4217056931084693E-002  -1.7741485870403265E-002
   6.9472106453490556E-002  -2.8255849465505856E-002  -2.5499265286323736E-002
   6.6665405715709031E-002  -2.0815916222341302E-002   7.1681261944623320E-003
   6.2966163567957978E-002  -1.9082673543887069E-002   5.6636115119722552E-003
   5.9266921420206994E-002  -1.8565591836298037E-002   2.7284356650530694E-003
   5.5567679272455921E-002  -1.9264671099574086E-002  -1.6374013462954543E-003
   5.1868437124704958E-002  -2.1179911333715218E-002  -7.4338995220729620E-003
   5.6821432749957823E-002  -1.7642892613011135E-002   2.2925657651517731E-002
   5.2199195569637244E-002  -1.6081744973606954E-002   2.1101643197789843E-002
   4.7576958389316609E-002  -1.4971542525291030E-002   1.8862299843352047E-002
   4.2954721208995947E-002  -1.4312285268063730E-002   1.6207627588204283E-002
   3.8332484028675423E-002  -1.4103973201924802E-002   1.3137626432346450E-002
   4.6983846962086045E-002  -1.4469869003680982E-002   3.8128486179634935E-002
   4.2453947012915001E-002  -1.3080816403326687E-002   3.6750187734446008E-002
   3.7924047063743992E-002  -1.1377493214284187E-002   3.5971892652266205E-002
   3.3394147114572996E-002  -9.3598994365533608E-003   3.5793600933095776E-002
   2.8864247165401972E-002  -7.0280350701341643E-003   3.6215312576934319E-002
   3.7152648352093559E-002  -1.1296845394350857E-002   5.2776611778813792E-002
   3.3730417897791340E-002  -1.0079887833046572E-002   5.2609245121940484E-002
   3.0308187443489093E-002  -7.7834439032772249E-003   5.4057214091795550E-002
   2.6885956989186902E-002  -4.4075136050429602E-003   5.7120518688378898E-002
   2.3463726534884655E-002   4.7903061656362489E-005   6.1799158911690855E-002
   5.5010922364979294E-002   0.0000000000000000        3.6481829425154183E-002
   5.6963637353022199E-002  -3.2306233119872912E-003   4.4454510564166903E-002
   5.8916352341065112E-002  -6.3705468940865144E-003   5.0900555247203008E-002
   6.0869067329108011E-002  -9.4197707462976617E-003   5.5819963474262456E-002
   6.2821782317150923E-002  -1.2378294868620753E-002   5.9212735245345288E-002
   4.2020400877965478E-002   0.0000000000000000        3.3615352895339699E-002
   4.2706093837273140E-002  -2.4229674839897830E-003   4.1418871322423743E-002
   4.3391786796580817E-002  -4.7779101705638562E-003   4.8214982148013938E-002
   4.4077479755888473E-002  -7.0648280597222276E-003   5.4003685372110283E-002
   4.4763172715196149E-002  -9.2837211514648910E-003   5.8784980994712729E-002
   2.8521739988129700E-002   0.0000000000000000        3.1567869659758913E-002
   2.8459639773184907E-002  -1.6153116559922734E-003   3.9179550442441903E-002
   2.8397539558240110E-002  -3.1852734470412033E-003   4.6303052478113838E-002
   2.8335439343295320E-002  -4.7098853731467874E-003   5.2938375766774681E-002
   2.8273339128350519E-002  -6.1891474343090305E-003   5.9085520308424462E-002
   1.4514939695471971E-002   0.0000000000000000        3.0339379718411812E-002
   1.4224275160757489E-002  -8.0765582799476369E-004   3.7736547924221410E-002
   1.3933610626043005E-002  -1.5926367235185460E-003   4.5164766237502700E-002
   1.3642946091328522E-002  -2.3549426865713519E-003   5.2624034658255679E-002
   1.3352281556614042E-002  -3.0945737171531726E-003   6.0114353186480382E-002
  -7.7125805741928843E-015   0.0000000000000000        2.9929883071298402E-002
  -9.1072982488782372E-015   2.7451999007332972E-015   3.7089863767762229E-002
  -1.0500714880956608E-014   4.1078251911130792E-015   4.4800123426180519E-002
  -1.1893914672600481E-014   4.0870085094013575E-015   5.3060662046553311E-002
  -1.3290583911196308E-014   2.6896887495020394E-015   6.1871479628880566E-002
   6.2821782317150923E-002  -1.2378294868620753E-002   5.9212735245345288E-002
   5.9356330550211368E-002  -1.4753779555237278E-002   5.4406103983185121E-002
   5.5890878783271827E-002  -1.6053885100328760E-002   5.1487711969474936E-002
   5.2425427016332272E-002  -1.6278611503895236E-002   5.0457559204214665E-002
   4.8959975249392718E-002  -1.5427958765936681E-002   5.1315645687404418E-002
   4.4763172715196149E-002  -9.2837211514648910E-003   5.8784980994712729E-002
   4.2930491120027892E-002  -1.1065334666428098E-002   5.6232613419817189E-002
   4.1097809524859627E-002  -1.2040413825248109E-002   5.5057546940014239E-002
   3.9265127929691369E-002  -1.2208958627924968E-002   5.5259781555303887E-002
   3.7432446334523112E-002  -1.1570969074458620E-002   5.6839317265686216E-002
   2.8273339128350519E-002  -6.1891474343090305E-003   5.9085520308424462E-002
   2.7562489551596216E-002  -7.3768897776189304E-003   5.8518571635411618E-002
   2.6851639974841916E-002  -8.0269425501674884E-003   5.8817985904134104E-002
   2.6140790398087616E-002  -8.1393057519546820E-003   5.9983763114591838E-002
   2.5429940821333312E-002  -7.7139793829805528E-003   6.2015903266784897E-002
   1.3352281556614042E-002  -3.0945737171531726E-003   6.0114353186480382E-002
   1.3252325844916360E-002  -3.6884448888097705E-003   6.1263978629968484E-002
   1.3152370133218679E-002  -4.0134712750868320E-003   6.2769028861834497E-002
   1.3052414421521000E-002  -4.0696528759844395E-003   6.4629503882078512E-002
   1.2952458709823322E-002  -3.8569896915024819E-003   6.6845403690700453E-002
  -1.3290583911196308E-014   2.6896887495020394E-015   6.1871479628880566E-002
  -1.1683362610703796E-014  -5.8113236445223038E-016   6.4468834403487704E-002
  -1.0076574991080278E-014  -6.2040216713965535E-015   6.6910675813115467E-002
  -8.4695705310222635E-015  -1.4124281171729036E-014   6.9197003857763839E-002
  -6.8625660709642489E-015  -2.4438784329561258E-014   7.1327818537432822E-002
   4.8959975249392718E-002  -1.5427958765936681E-002   5.1315645687404418E-002
   4.6008143525067935E-002  -1.4128507448671716E-002   5.1132623862260501E-002
   4.3056311800743138E-002  -1.3006838114319141E-002   5.1315110935780749E-002
   4.0104480076418356E-002  -1.2062950762878864E-002   5.1863106907965195E-002
   3.7152648352093559E-002  -1.1296845394350857E-002   5.2776611778813792E-002
   3.7432446334523112E-002  -1.1570969074458620E-002   5.6839317265686216E-002
   3.4939235766967114E-002  -1.0596380586513077E-002   5.6118871865278142E-002
   3.2446025199411123E-002  -9.7551285857523720E-003   5.5950159879743486E-002
   2.9952814631855118E-002  -9.0472130721764663E-003   5.6333181309082284E-002
   2.7459604064299134E-002  -8.4726340457853822E-003   5.7267936153294355E-002
   2.5429940821333312E-002  -7.7139793829805528E-003   6.2015903266784897E-002
   2.3581575926755343E-002  -7.0642537243543989E-003   6.0802479786840176E-002
   2.1733211032177367E-002  -6.5034190571855773E-003   6.0327014237978087E-002
   1.9884846137599398E-002  -6.0314753814740985E-003   6.0589506620198602E-002
   1.8036481243021422E-002  -5.6484226972199209E-003   6.1589956933501840E-002
   1.2952458709823322E-002  -3.8569896915024819E-003   6.6845403690700453E-002
   1.1935164004432591E-002  -3.5321268621957402E-003   6.5183447626946542E-002
   1.0917869299041866E-002  -3.2517095286188095E-003   6.4445674010484497E-002
   9.9005745936511375E-003  -3.0157376907717576E-003   6.4632082841314359E-002
   8.8832798882604175E-003  -2.8242113486544804E-003   6.5742674119436018E-002
  -6.8625660709642489E-015  -2.4438784329561258E-014   7.1327818537432822E-002
  -1.1206313654810174E-015  -3.7053693446864600E-014   6.9261775385597274E-002
   4.6247727869541677E-015  -5.2031295938448352E-014   6.8306139197262833E-002
   1.0365840130699411E-014  -6.9351642484338782E-014   6.8460909972429443E-002
   1.6112111644872584E-014  -8.8984375423706297E-014   6.9726087711097146E-002
   3.7152648352093559E-002  -1.1296845394350857E-002   5.2776611778813792E-002
   3.3730417897791340E-002  -1.0079887833046572E-002   5.2609245121940484E-002
   3.0308187443489093E-002  -7.7834439032772249E-003   5.4057214091795550E-002
   2.6885956989186902E-002  -4.4075136050429602E-003   5.7120518688378898E-002
   2.3463726534884655E-002   4.7903061656362489E-005   6.1799158911690855E-002
   2.7459604064299134E-002  -8.4726340457853822E-003   5.7267936153294355E-002
   2.5462764733437879E-002  -7.5599158748125839E-003   5.8125097032057094E-002
   2.3465925402576623E-002  -5.8375829274913069E-003   6.0217704530973325E-002
   2.1469086071715368E-002  -3.3056352038218061E-003   6.3545758650043152E-002
   1.9472246740854127E-002   3.5927296196114344E-005   6.8109259389266597E-002
   1.8036481243021422E-002  -5.6484226972199209E-003   6.1589956933501840E-002
   1.7085144029026337E-002  -5.0399439165786028E-003   6.3201773755783813E-002
   1.6133806815031244E-002  -3.8917219517055034E-003   6.5669148191644572E-002
   1.5182469601036173E-002  -2.2037568026006945E-003   6.8992080241084094E-002
   1.4231132387041059E-002   2.3951530735810689E-005   7.3170569904102367E-002
   8.8832798882604175E-003  -2.8242113486544804E-003   6.5742674119436018E-002
   8.5975557845566972E-003  -2.5199719583445628E-003   6.7839275293120782E-002
   8.3118316808529769E-003  -1.9458609759196149E-003   7.0411545073809478E-002
   8.0261075771492670E-003  -1.1018784013795894E-003   7.3459483461502245E-002
   7.7403834734455328E-003   1.1975765275534789E-005   7.6983090456198860E-002
   1.6112111644872584E-014  -8.8984375423706297E-014   6.9726087711097146E-002
   2.8966412601860725E-014  -1.1061984661608903E-013   7.2037601644067917E-002
   4.1817244111896912E-014  -1.3372636331610011E-013   7.4444895177467885E-002
   5.4673279792361029E-014  -1.5844270340181765E-013   7.6947968311297063E-002
   6.7529315472825147E-014  -1.8474111129762605E-013   7.9546821045555327E-002
  -7.7125805741928843E-015   0.0000000000000000        2.9929883071298402E-002
  -9.1072982488782372E-015   2.7451999007332972E-015   3.7089863767762229E-002
  -1.0500714880956608E-014   4.1078251911130792E-015   4.4800123426180519E-002
  -1.1893914672600481E-014   4.0870085094013575E-015   5.3060662046553311E-002
  -1.3290583911196308E-014   2.6896887495020394E-015   6.1871479628880566E-002
  -1.4514939695486357E-002   0.0000000000000000        3.0339379718418123E-002
  -1.4224275160774629E-002   8.0765582799934791E-004   3.7736547924227294E-002
  -1.3933610626062898E-002   1.5926367235253947E-003   4.5164766237508217E-002
  -1.3642946091351169E-002   2.3549426865781403E-003   5.2624034658260918E-002
  -1.3352281556639440E-002   3.0945737171575848E-003   6.0114353186485406E-002
  -2.8521739988140969E-002   0.0000000000000000        3.1567869659770403E-002
  -2.8459639773198819E-002   1.6153116559959506E-003   3.9179550442452991E-002
  -2.8397539558256669E-002   3.1852734470466833E-003   4.6303052478124634E-002
  -2.8335439343314523E-002   4.7098853731521902E-003   5.2938375766785360E-002
  -2.8273339128372373E-002   6.1891474343124791E-003   5.9085520308435141E-002
  -4.2020400877971535E-002   0.0000000000000000        3.3615352895355242E-002
  -4.2706093837281682E-002   2.4229674839925546E-003   4.1418871322439335E-002
  -4.3391786796591822E-002   4.7779101705679641E-003   4.8214982148029786E-002
  -4.4077479755901962E-002   7.0648280597262400E-003   5.4003685372126589E-002
  -4.4763172715212102E-002   9.2837211514673786E-003   5.8784980994729757E-002
  -5.5010922364978072E-002   0.0000000000000000        3.6481829425172647E-002
  -5.6963637353023205E-002   3.2306233119891534E-003   4.4454510564186325E-002
  -5.8916352341068338E-002   6.3705468940892570E-003   5.0900555247223651E-002
  -6.0869067329113472E-002   9.4197707463002916E-003   5.5819963474284640E-002
  -6.2821782317158611E-002   1.2378294868622271E-002   5.9212735245369269E-002
  -1.3290583911196308E-014   2.6896887495020394E-015   6.1871479628880566E-002
  -1.1683362610703796E-014  -5.8113236445223038E-016   6.4468834403487704E-002
  -1.0076574991080278E-014  -6.2040216713965535E-015   6.6910675813115467E-002
  -8.4695705310222635E-015  -1.4124281171729036E-014   6.9197003857763839E-002
  -6.8625660709642489E-015  -2.4438784329561258E-014   7.1327818537432822E-002
  -1.3352281556639440E-002   3.0945737171575848E-003   6.0114353186485406E-002
  -1.3252325844938583E-002   3.6884448888084022E-003   6.1263978629971252E-002
  -1.3152370133237730E-002   4.0134712750752415E-003   6.2769028861834969E-002
  -1.3052414421536861E-002   4.0696528759581558E-003   6.4629503882076555E-002
  -1.2952458709836020E-002   3.8569896914570911E-003   6.6845403690696040E-002
  -2.8273339128372373E-002   6.1891474343124791E-003   5.9085520308435141E-002
  -2.7562489551615003E-002   7.3768897776173717E-003   5.8518571635418050E-002
  -2.6851639974857636E-002   8.0269425501567002E-003   5.8817985904136123E-002
  -2.6140790398100276E-002   8.1393057519304635E-003   5.9983763114589334E-002
  -2.5429940821342898E-002   7.7139793829386280E-003   6.2015903266777653E-002
  -4.4763172715212102E-002   9.2837211514673786E-003   5.8784980994729757E-002
  -4.2930491120040951E-002   1.1065334666426365E-002   5.6232613419828138E-002
  -4.1097809524869813E-002   1.2040413825238152E-002   5.5057546940018937E-002
  -3.9265127929698669E-002   1.2208958627902739E-002   5.5259781555302132E-002
  -3.7432446334527532E-002   1.1570969074420189E-002   5.6839317265677730E-002
  -6.2821782317158611E-002   1.2378294868622271E-002   5.9212735245369269E-002
  -5.9356330550216427E-002   1.4753779555235321E-002   5.4406103983201518E-002
  -5.5890878783274256E-002   1.6053885100319590E-002   5.1487711969483416E-002
  -5.2425427016332078E-002   1.6278611503875062E-002   5.0457559204214970E-002
  -4.8959975249389900E-002   1.5427958765901681E-002   5.1315645687396216E-002
  -6.8625660709642489E-015  -2.4438784329561258E-014   7.1327818537432822E-002
  -1.1206313654810174E-015  -3.7053693446864600E-014   6.9261775385597274E-002
   4.6247727869541677E-015  -5.2031295938448352E-014   6.8306139197262833E-002
   1.0365840130699411E-014  -6.9351642484338782E-014   6.8460909972429443E-002
   1.6112111644872584E-014  -8.8984375423706297E-014   6.9726087711097146E-002
  -1.2952458709836020E-002   3.8569896914570911E-003   6.6845403690696040E-002
  -1.1935164004434121E-002   3.5321268621267797E-003   6.5183447626939325E-002
  -1.0917869299032242E-002   3.2517095285218289E-003   6.4445674010473811E-002
  -9.9005745936303485E-003   3.0157376906423047E-003   6.4632082841299510E-002
  -8.8832798882284639E-003   2.8242113484881481E-003   6.5742674119416408E-002
  -2.5429940821342898E-002   7.7139793829386280E-003   6.2015903266777653E-002
  -2.3581575926754753E-002   7.0642537242905645E-003   6.0802479786827526E-002
  -2.1733211032166608E-002   6.5034190570956909E-003   6.0327014237958755E-002
  -1.9884846137578453E-002   6.0314753813539203E-003   6.0589506620171256E-002
  -1.8036481242990322E-002   5.6484226970652807E-003   6.1589956933465112E-002
  -3.7432446334527532E-002   1.1570969074420189E-002   5.6839317265677730E-002
  -3.4939235766963013E-002   1.0596380586454429E-002   5.6118871865261939E-002
  -3.2446025199398473E-002   9.7551285856696084E-003   5.5950159879717548E-002
  -2.9952814631833930E-002   9.0472130720655273E-003   5.6333181309044626E-002
  -2.7459604064269397E-002   8.4726340456424687E-003   5.7267936153243160E-002
  -4.8959975249389900E-002   1.5427958765901681E-002   5.1315645687396216E-002
  -4.6008143525058866E-002   1.4128507448618217E-002   5.1132623862242488E-002
  -4.3056311800727831E-002   1.3006838114243417E-002   5.1315110935750287E-002
  -4.0104480076396817E-002   1.2062950762777191E-002   5.1863106907919676E-002
  -3.7152648352065769E-002   1.1296845394219573E-002   5.2776611778750621E-002
   1.6112111644872584E-014  -8.8984375423706297E-014   6.9726087711097146E-002
   2.8966412601860725E-014  -1.1061984661608903E-013   7.2037601644067917E-002
   4.1817244111896912E-014  -1.3372636331610011E-013   7.4444895177467885E-002
   5.4673279792361029E-014  -1.5844270340181765E-013   7.6947968311297063E-002
   6.7529315472825147E-014  -1.8474111129762605E-013   7.9546821045555327E-002
  -8.8832798882284639E-003   2.8242113484881481E-003   6.5742674119416408E-002
  -8.5975557844997167E-003   2.5199719581357333E-003   6.7839275293095011E-002
  -8.3118316807709487E-003   1.9458609756614759E-003   7.0411545073776227E-002
  -8.0261075770422033E-003   1.1018784010654696E-003   7.3459483461460057E-002
  -7.7403834733134405E-003  -1.1975765652538772E-005   7.6983090456146486E-002
  -1.8036481242990322E-002   5.6484226970652807E-003   6.1589956933465112E-002
  -1.7085144028972189E-002   5.0399439163821350E-003   6.3201773755731133E-002
  -1.6133806814954080E-002   3.8917219514567891E-003   6.5669148191573198E-002
  -1.5182469600935977E-002   2.2037568022892848E-003   6.8992080240991391E-002
  -1.4231132386917842E-002  -2.3951531120391945E-005   7.3170569903985655E-002
  -2.7459604064269397E-002   8.4726340456424687E-003   5.7267936153243160E-002
  -2.5462764733388488E-002   7.5599158746284985E-003   5.8125097031976311E-002
  -2.3465925402507536E-002   5.8375829272521301E-003   6.0217704530858986E-002
  -2.1469086071626595E-002   3.3056352035131485E-003   6.3545758649891246E-002
  -1.9472246740745686E-002  -3.5927296588245117E-005   6.8109259389073029E-002
  -3.7152648352065769E-002   1.1296845394219573E-002   5.2776611778750621E-002
  -3.3730417897748576E-002   1.0079887832874904E-002   5.2609245121830572E-002
  -3.0308187443431358E-002   7.7834439030473393E-003   5.4057214091633596E-002
  -2.6885956989114182E-002   4.4075136047370626E-003   5.7120518688159587E-002
  -2.3463726534796961E-002  -4.7903062056042778E-005   6.1799158911408525E-002
  -5.5010922364978072E-002   0.0000000000000000        3.6481829425172647E-002
  -5.6963637353023205E-002   3.2306233119891534E-003   4.4454510564186325E-002
  -5.8916352341068338E-002   6.3705468940892570E-003   5.0900555247223651E-002
  -6.0869067329113472E-002   9.4197707463002916E-003   5.5819963474284640E-002
  -6.2821782317158611E-002   1.2378294868622271E-002   5.9212735245369269E-002
  -7.2243808640307994E-002   0.0000000000000000        4.2922024768901904E-002
  -7.4351217412026521E-002   8.4528007026224272E-003   4.2076812927900803E-002
  -7.6458626183745049E-002   1.4602367789440076E-002   4.2448849975529258E-002
  -7.8566034955463576E-002   1.8448701260452942E-002   4.4038135911787242E-002
  -8.0673443727182104E-002   1.9991801115661012E-002   4.6844670736674823E-002
  -9.8469563895108705E-002   0.0000000000000000        5.5690664446222289E-002
  -9.7987781105894747E-002   1.3674978093255706E-002   4.3815025739290699E-002
  -9.7505998316680789E-002   2.2834188684790903E-002   3.5900521265594558E-002
  -9.7024215527466789E-002   2.7477631774605576E-002   3.1947151025133846E-002
  -9.6542432738252845E-002   2.7605307362699762E-002   3.1954915017908585E-002
 -0.13368818812938024        0.0000000000000000        7.4787748457133804E-002
 -0.12787332843462790        1.8897155483888973E-002   4.9669148998355998E-002
 -0.12205846873987550        3.1066009580141728E-002   3.1255569117419529E-002
 -0.11624360904512313        3.6506562288758218E-002   1.9547008814324390E-002
 -0.11042874935037077        3.5218813609738497E-002   1.4543468089070637E-002
 -0.17789968134312253        0.0000000000000000       0.10021327680163647     
 -0.16400785939822587        2.4119332874522253E-002   5.9639182705096716E-002
 -0.15011603745332924        3.9297830475492554E-002   2.8513993531004186E-002
 -0.13622421550843258        4.5535492802910874E-002   6.8377092793589014E-003
 -0.12233239356353594        4.2832319856777226E-002  -5.3896700498391389E-003
  -6.2821782317158611E-002   1.2378294868622271E-002   5.9212735245369269E-002
  -5.9356330550216427E-002   1.4753779555235321E-002   5.4406103983201518E-002
  -5.5890878783274256E-002   1.6053885100319590E-002   5.1487711969483416E-002
  -5.2425427016332078E-002   1.6278611503875062E-002   5.0457559204214970E-002
  -4.8959975249389900E-002   1.5427958765901681E-002   5.1315645687396216E-002
  -8.0673443727182104E-002   1.9991801115661012E-002   4.6844670736674823E-002
  -7.5680891044119666E-002   2.0214315544721299E-002   4.2952915352120619E-002
  -7.0688338361057243E-002   2.0098892737290684E-002   4.0227122551357269E-002
  -6.5695785677994778E-002   1.9645532693369216E-002   3.8667292334384804E-002
  -6.0703232994932355E-002   1.8854235412956985E-002   3.8273424701203186E-002
  -9.6542432738252845E-002   2.7605307362699762E-002   3.1954915017908585E-002
  -9.0745055803728936E-002   2.5674851534207246E-002   2.9715477416005890E-002
  -8.4947678869205040E-002   2.4143900374261805E-002   2.7919725733235277E-002
  -7.9150301934681089E-002   2.3012453882863465E-002   2.6567659969596678E-002
  -7.3352925000157235E-002   2.2280512060012268E-002   2.5659280125090191E-002
 -0.11042874935037077        3.5218813609738497E-002   1.4543468089070637E-002
 -0.10454882482904421        3.1135387523693204E-002   1.4693790174857413E-002
  -9.8668900307717661E-002   2.8188908011232899E-002   1.4565521515117450E-002
  -9.2788975786391073E-002   2.6379375072357714E-002   1.4158662109850707E-002
  -8.6909051265064527E-002   2.5706788707067604E-002   1.3473211959057256E-002
 -0.12233239356353594        4.2832319856777226E-002  -5.3896700498391389E-003
 -0.11709219812006549        3.6595923513179175E-002  -2.1121463713249904E-003
 -0.11185200267659509        3.2233915648203992E-002   1.6450989700367465E-004
 -0.10661180723312468        2.9746296261851921E-002   1.4402987551467715E-003
 -0.10137161178965423        2.9133065354122828E-002   1.7152202031043284E-003
  -4.8959975249389900E-002   1.5427958765901681E-002   5.1315645687396216E-002
  -4.6008143525058866E-002   1.4128507448618217E-002   5.1132623862242488E-002
  -4.3056311800727831E-002   1.3006838114243417E-002   5.1315110935750287E-002
  -4.0104480076396817E-002   1.2062950762777191E-002   5.1863106907919676E-002
  -3.7152648352065769E-002   1.1296845394219573E-002   5.2776611778750621E-002
  -6.0703232994932355E-002   1.8854235412956985E-002   3.8273424701203186E-002
  -5.7273386486712964E-002   1.7860013088377237E-002   3.7351409067126091E-002
  -5.3843539978493594E-002   1.6797877911953561E-002   3.7019914102164153E-002
  -5.0413693470274197E-002   1.5667829883685674E-002   3.7278939806317274E-002
  -4.6983846962054834E-002   1.4469869003573888E-002   3.8128486179585599E-002
  -7.3352925000157235E-002   2.2280512060012268E-002   2.5659280125090191E-002
  -6.9220051937595908E-002   2.1591518728136281E-002   2.3752575847337126E-002
  -6.5087178875034610E-002   2.0588917709663646E-002   2.2661404009152702E-002
  -6.0954305812473325E-002   1.9272709004594296E-002   2.2385764610537030E-002
  -5.6821432749911999E-002   1.7642892612928299E-002   2.2925657651490051E-002
  -8.6909051265064527E-002   2.5706788707067604E-002   1.3473211959057256E-002
  -8.1848139877707740E-002   2.5323024367895214E-002   1.0336124202875517E-002
  -7.6787228490350953E-002   2.4379957507373748E-002   8.2395806567160598E-003
  -7.1726317102994153E-002   2.2877588125502682E-002   7.1835813205788947E-003
  -6.6665405715637352E-002   2.0815916222282578E-002   7.1681261944640754E-003
 -0.10137161178965423        2.9133065354122828E-002   1.7152202031043284E-003
  -9.5157650307048369E-002   2.9054530007654247E-002  -2.8979458662586471E-003
  -8.8943688824442521E-002   2.8170997305083871E-002  -6.2455559551458234E-003
  -8.2729727341836673E-002   2.6482467246411373E-002  -8.3276100635570234E-003
  -7.6515765859230811E-002   2.3988939831636968E-002  -9.1441081914924727E-003
  -3.7152648352065769E-002   1.1296845394219573E-002   5.2776611778750621E-002
  -3.3730417897748576E-002   1.0079887832874904E-002   5.2609245121830572E-002
  -3.0308187443431358E-002   7.7834439030473393E-003   5.4057214091633596E-002
  -2.6885956989114182E-002   4.4075136047370626E-003   5.7120518688159587E-002
  -2.3463726534796961E-002  -4.7903062056042778E-005   6.1799158911408525E-002
  -4.6983846962054834E-002   1.4469869003573888E-002   3.8128486179585599E-002
  -4.2453947012872820E-002   1.3080816403186396E-002   3.6750187734344270E-002
  -3.7924047063690840E-002   1.1377493214091802E-002   3.5971892652109490E-002
  -3.3394147114508797E-002   9.3598994362899084E-003   3.5793600932881378E-002
  -2.8864247165326831E-002   7.0280350697808358E-003   3.6215312576659831E-002
  -5.6821432749911999E-002   1.7642892612928299E-002   2.2925657651490051E-002
  -5.2199195569581629E-002   1.6081744973498020E-002   2.1101643197703017E-002
  -4.7576958389251203E-002   1.4971542525136178E-002   1.8862299843206049E-002
  -4.2954721208920847E-002   1.4312285267842752E-002   1.6207627587999381E-002
  -3.8332484028590401E-002   1.4103973201617770E-002   1.3137626432082883E-002
  -6.6665405715637352E-002   2.0815916222282578E-002   7.1681261944640754E-003
  -6.2966163567874989E-002   1.9082673543809717E-002   5.6636115119067243E-003
  -5.9266921420112556E-002   1.8565591836180624E-002   2.7284356649232436E-003
  -5.5567679272350186E-002   1.9264671099395683E-002  -1.6374013464866030E-003
  -5.1868437124587760E-002   2.1179911333454593E-002  -7.4338995223225297E-003
  -7.6515765859230811E-002   2.3988939831636968E-002  -9.1441081914924727E-003
  -7.4754851007752865E-002   2.2083602114121192E-002  -9.5639073230443239E-003
  -7.2993936156274863E-002   2.2159641147225073E-002  -1.2429699882738926E-002
  -7.1233021304796917E-002   2.4217056930948513E-002  -1.7741485870576036E-002
  -6.9472106453318916E-002   2.8255849465291583E-002  -2.5499265286555772E-002
 </DataArray>
 </PointData>
 </Piece>
 <Piece  NumberOfPoints="           400 "  NumberOfCells="          256 ">
 <Points>
 <DataArray  type="Float64" NumberOfComponents="3"  format="ascii" >
  0.50000000000000000        0.0000000000000000        0.0000000000000000     
  0.56250000000000000        0.0000000000000000        0.0000000000000000     
  0.62500000000000000        0.0000000000000000        0.0000000000000000     
  0.68750000000000000        0.0000000000000000        0.0000000000000000     
  0.75000000000000000        0.0000000000000000        0.0000000000000000     
  0.50000000000000000        6.2500000000000000E-002   0.0000000000000000     
  0.56250000000000000        6.2500000000000000E-002   0.0000000000000000     
  0.62500000000000000        6.2500000000000000E-002   0.0000000000000000     
  0.68750000000000000        6.2500000000000000E-002   0.0000000000000000     
  0.75000000000000000        6.2500000000000000E-002   0.0000000000000000     
  0.50000000000000000       0.12500000000000000        0.0000000000000000     
  0.56250000000000000       0.12500000000000000        0.0000000000000000     
  0.62500000000000000       0.12500000000000000        0.0000000000000000     
  0.68750000000000000       0.12500000000000000        0.0000000000000000     
  0.75000000000000000       0.12500000000000000        0.0000000000000000     
  0.50000000000000000       0.18750000000000000        0.0000000000000000     
  0.56250000000000000       0.18750000000000000        0.0000000000000000     
  0.62500000000000000       0.18750000000000000        0.0000000000000000     
  0.68750000000000000       0.18750000000000000        0.0000000000000000     
  0.75000000000000000       0.18750000000000000        0.0000000000000000     
  0.50000000000000000       0.25000000000000000        0.0000000000000000     
  0.56250000000000000       0.25000000000000000        0.0000000000000000     
  0.62500000000000000       0.25000000000000000        0.0000000000000000     
  0.68750000000000000       0.25000000000000000        0.0000000000000000     
  0.75000000000000000       0.25000000000000000        0.0000000000000000     
  0.75000000000000000        0.0000000000000000        0.0000000000000000     
  0.81250000000000000        0.0000000000000000        0.0000000000000000     
  0.87500000000000000        0.0000000000000000        0.0000000000000000     
  0.93750000000000000        0.0000000000000000        0.0000000000000000     
   1.0000000000000000        0.0000000000000000        0.0000000000000000     
  0.75000000000000000        6.2500000000000000E-002   0.0000000000000000     
  0.81250000000000000        6.2500000000000000E-002   0.0000000000000000     
  0.87500000000000000        6.2500000000000000E-002   0.0000000000000000     
  0.93750000000000000        6.2500000000000000E-002   0.0000000000000000     
   1.0000000000000000        6.2500000000000000E-002   0.0000000000000000     
  0.75000000000000000       0.12500000000000000        0.0000000000000000     
  0.81250000000000000       0.12500000000000000        0.0000000000000000     
  0.87500000000000000       0.12500000000000000        0.0000000000000000     
  0.93750000000000000       0.12500000000000000        0.0000000000000000     
   1.0000000000000000       0.12500000000000000        0.0000000000000000     
  0.75000000000000000       0.18750000000000000        0.0000000000000000     
  0.81250000000000000       0.18750000000000000        0.0000000000000000     
  0.87500000000000000       0.18750000000000000        0.0000000000000000     
  0.93750000000000000       0.18750000000000000        0.0000000000000000     
   1.0000000000000000       0.18750000000000000        0.0000000000000000     
  0.75000000000000000       0.25000000000000000        0.0000000000000000     
  0.81250000000000000       0.25000000000000000        0.0000000000000000     
  0.87500000000000000       0.25000000000000000        0.0000000000000000     
  0.93750000000000000       0.25000000000000000        0.0000000000000000     
   1.0000000000000000       0.25000000000000000        0.0000000000000000     
   1.0000000000000000        0.0000000000000000        0.0000000000000000     
   1.0625000000000000        0.0000000000000000        0.0000000000000000     
   1.1250000000000000        0.0000000000000000        0.0000000000000000     
   1.1875000000000000        0.0000000000000000        0.0000000000000000     
   1.2500000000000000        0.0000000000000000        0.0000000000000000     
   1.0000000000000000        6.2500000000000000E-002   0.0000000000000000     
   1.0625000000000000        6.2500000000000000E-002   0.0000000000000000     
   1.1250000000000000        6.2500000000000000E-002   0.0000000000000000     
   1.1875000000000000        6.2500000000000000E-002   0.0000000000000000     
   1.2500000000000000        6.2500000000000000E-002   0.0000000000000000     
   1.0000000000000000       0.12500000000000000        0.0000000000000000     
   1.0625000000000000       0.12500000000000000        0.0000000000000000     
   1.1250000000000000       0.12500000000000000        0.0000000000000000     
   1.1875000000000000       0.12500000000000000        0.0000000000000000     
   1.2500000000000000       0.12500000000000000        0.0000000000000000     
   1.0000000000000000       0.18750000000000000        0.0000000000000000     
   1.0625000000000000       0.18750000000000000        0.0000000000000000     
   1.1250000000000000       0.18750000000000000        0.0000000000000000     
   1.1875000000000000       0.18750000000000000        0.0000000000000000     
   1.2500000000000000       0.18750000000000000        0.0000000000000000     
   1.0000000000000000       0.25000000000000000        0.0000000000000000     
   1.0625000000000000       0.25000000000000000        0.0000000000000000     
   1.1250000000000000       0.25000000000000000        0.0000000000000000     
   1.1875000000000000       0.25000000000000000        0.0000000000000000     
   1.2500000000000000       0.25000000000000000        0.0000000000000000     
   1.2500000000000000        0.0000000000000000        0.0000000000000000     
   1.3125000000000000        0.0000000000000000        0.0000000000000000     
   1.3750000000000000        0.0000000000000000        0.0000000000000000     
   1.4375000000000000        0.0000000000000000        0.0000000000000000     
   1.5000000000000000        0.0000000000000000        0.0000000000000000     
   1.2500000000000000        6.2500000000000000E-002   0.0000000000000000     
   1.3125000000000000        6.2500000000000000E-002   0.0000000000000000     
   1.3750000000000000        6.2500000000000000E-002   0.0000000000000000     
   1.4375000000000000        6.2500000000000000E-002   0.0000000000000000     
   1.5000000000000000        6.2500000000000000E-002   0.0000000000000000     
   1.2500000000000000       0.12500000000000000        0.0000000000000000     
   1.3125000000000000       0.12500000000000000        0.0000000000000000     
   1.3750000000000000       0.12500000000000000        0.0000000000000000     
   1.4375000000000000       0.12500000000000000        0.0000000000000000     
   1.5000000000000000       0.12500000000000000        0.0000000000000000     
   1.2500000000000000       0.18750000000000000        0.0000000000000000     
   1.3125000000000000       0.18750000000000000        0.0000000000000000     
   1.3750000000000000       0.18750000000000000        0.0000000000000000     
   1.4375000000000000       0.18750000000000000        0.0000000000000000     
   1.5000000000000000       0.18750000000000000        0.0000000000000000     
   1.2500000000000000       0.25000000000000000        0.0000000000000000     
   1.3125000000000000       0.25000000000000000        0.0000000000000000     
   1.3750000000000000       0.25000000000000000        0.0000000000000000     
   1.4375000000000000       0.25000000000000000        0.0000000000000000     
   1.5000000000000000       0.25000000000000000        0.0000000000000000     
  0.50000000000000000       0.25000000000000000        0.0000000000000000     
  0.56250000000000000       0.25000000000000000        0.0000000000000000     
  0.62500000000000000       0.25000000000000000        0.0000000000000000     
  0.68750000000000000       0.25000000000000000        0.0000000000000000     
  0.75000000000000000       0.25000000000000000        0.0000000000000000     
  0.50000000000000000       0.31250000000000000        0.0000000000000000     
  0.56250000000000000       0.31250000000000000        0.0000000000000000     
  0.62500000000000000       0.31250000000000000        0.0000000000000000     
  0.68750000000000000       0.31250000000000000        0.0000000000000000     
  0.75000000000000000       0.31250000000000000        0.0000000000000000     
  0.50000000000000000       0.37500000000000000        0.0000000000000000     
  0.56250000000000000       0.37500000000000000        0.0000000000000000     
  0.62500000000000000       0.37500000000000000        0.0000000000000000     
  0.68750000000000000       0.37500000000000000        0.0000000000000000     
  0.75000000000000000       0.37500000000000000        0.0000000000000000     
  0.50000000000000000       0.43750000000000000        0.0000000000000000     
  0.56250000000000000       0.43750000000000000        0.0000000000000000     
  0.62500000000000000       0.43750000000000000        0.0000000000000000     
  0.68750000000000000       0.43750000000000000        0.0000000000000000     
  0.75000000000000000       0.43750000000000000        0.0000000000000000     
  0.50000000000000000       0.50000000000000000        0.0000000000000000     
  0.56250000000000000       0.50000000000000000        0.0000000000000000     
  0.62500000000000000       0.50000000000000000        0.0000000000000000     
  0.68750000000000000       0.50000000000000000        0.0000000000000000     
  0.75000000000000000       0.50000000000000000        0.0000000000000000     
  0.75000000000000000       0.25000000000000000        0.0000000000000000     
  0.81250000000000000       0.25000000000000000        0.0000000000000000     
  0.87500000000000000       0.25000000000000000        0.0000000000000000     
  0.93750000000000000       0.25000000000000000        0.0000000000000000     
   1.0000000000000000       0.25000000000000000        0.0000000000000000     
  0.75000000000000000       0.31250000000000000        0.0000000000000000     
  0.81250000000000000       0.31250000000000000        0.0000000000000000     
  0.87500000000000000       0.31250000000000000        0.0000000000000000     
  0.93750000000000000       0.31250000000000000        0.0000000000000000     
   1.0000000000000000       0.31250000000000000        0.0000000000000000     
  0.75000000000000000       0.37500000000000000        0.0000000000000000     
  0.81250000000000000       0.37500000000000000        0.0000000000000000     
  0.87500000000000000       0.37500000000000000        0.0000000000000000     
  0.93750000000000000       0.37500000000000000        0.0000000000000000     
   1.0000000000000000       0.37500000000000000        0.0000000000000000     
  0.75000000000000000       0.43750000000000000        0.0000000000000000     
  0.81250000000000000       0.43750000000000000        0.0000000000000000     
  0.87500000000000000       0.43750000000000000        0.0000000000000000     
  0.93750000000000000       0.43750000000000000        0.0000000000000000     
   1.0000000000000000       0.43750000000000000        0.0000000000000000     
  0.75000000000000000       0.50000000000000000        0.0000000000000000     
  0.81250000000000000       0.50000000000000000        0.0000000000000000     
  0.87500000000000000       0.50000000000000000        0.0000000000000000     
  0.93750000000000000       0.50000000000000000        0.0000000000000000     
   1.0000000000000000       0.50000000000000000        0.0000000000000000     
   1.0000000000000000       0.25000000000000000        0.0000000000000000     
   1.0625000000000000       0.25000000000000000        0.0000000000000000     
   1.1250000000000000       0.25000000000000000        0.0000000000000000     
   1.1875000000000000       0.25000000000000000        0.0000000000000000     
   1.2500000000000000       0.25000000000000000        0.0000000000000000     
   1.0000000000000000       0.31250000000000000        0.0000000000000000     
   1.0625000000000000       0.31250000000000000        0.0000000000000000     
   1.1250000000000000       0.31250000000000000        0.0000000000000000     
   1.1875000000000000       0.31250000000000000        0.0000000000000000     
   1.2500000000000000       0.31250000000000000        0.0000000000000000     
   1.0000000000000000       0.37500000000000000        0.0000000000000000     
   1.0625000000000000       0.37500000000000000        0.0000000000000000     
   1.1250000000000000       0.37500000000000000        0.0000000000000000     
   1.1875000000000000       0.37500000000000000        0.0000000000000000     
   1.2500000000000000       0.37500000000000000        0.0000000000000000     
   1.0000000000000000       0.43750000000000000        0.0000000000000000     
   1.0625000000000000       0.43750000000000000        0.0000000000000000     
   1.1250000000000000       0.43750000000000000        0.0000000000000000     
   1.1875000000000000       0.43750000000000000        0.0000000000000000     
   1.2500000000000000       0.43750000000000000        0.0000000000000000     
   1.0000000000000000       0.50000000000000000        0.0000000000000000     
   1.0625000000000000       0.50000000000000000        0.0000000000000000     
   1.1250000000000000       0.50000000000000000        0.0000000000000000     
   1.1875000000000000       0.50000000000000000        0.0000000000000000     
   1.2500000000000000       0.50000000000000000        0.0000000000000000     
   1.2500000000000000       0.25000000000000000        0.0000000000000000     
   1.3125000000000000       0.25000000000000000        0.0000000000000000     
   1.3750000000000000       0.25000000000000000        0.0000000000000000     
   1.4375000000000000       0.25000000000000000        0.0000000000000000     
   1.5000000000000000       0.25000000000000000        0.0000000000000000     
   1.2500000000000000       0.31250000000000000        0.0000000000000000     
   1.3125000000000000       0.31250000000000000        0.0000000000000000     
   1.3750000000000000       0.31250000000000000        0.0000000000000000     
   1.4375000000000000       0.31250000000000000        0.0000000000000000     
   1.5000000000000000       0.31250000000000000        0.0000000000000000     
   1.2500000000000000       0.37500000000000000        0.0000000000000000     
   1.3125000000000000       0.37500000000000000        0.0000000000000000     
   1.3750000000000000       0.37500000000000000        0.0000000000000000     
   1.4375000000000000       0.37500000000000000        0.0000000000000000     
   1.5000000000000000       0.37500000000000000        0.0000000000000000     
   1.2500000000000000       0.43750000000000000        0.0000000000000000     
   1.3125000000000000       0.43750000000000000        0.0000000000000000     
   1.3750000000000000       0.43750000000000000        0.0000000000000000     
   1.4375000000000000       0.43750000000000000        0.0000000000000000     
   1.5000000000000000       0.43750000000000000        0.0000000000000000     
   1.2500000000000000       0.50000000000000000        0.0000000000000000     
   1.3125000000000000       0.50000000000000000        0.0000000000000000     
   1.3750000000000000       0.50000000000000000        0.0000000000000000     
   1.4375000000000000       0.50000000000000000        0.0000000000000000     
   1.5000000000000000       0.50000000000000000        0.0000000000000000     
  0.50000000000000000       0.50000000000000000        0.0000000000000000     
  0.56250000000000000       0.50000000000000000        0.0000000000000000     
  0.62500000000000000       0.50000000000000000        0.0000000000000000     
  0.68750000000000000       0.50000000000000000        0.0000000000000000     
  0.75000000000000000       0.50000000000000000        0.0000000000000000     
  0.50000000000000000       0.56250000000000000        0.0000000000000000     
  0.56250000000000000       0.56250000000000000        0.0000000000000000     
  0.62500000000000000       0.56250000000000000        0.0000000000000000     
  0.68750000000000000       0.56250000000000000        0.0000000000000000     
  0.75000000000000000       0.56250000000000000        0.0000000000000000     
  0.50000000000000000       0.62500000000000000        0.0000000000000000     
  0.56250000000000000       0.62500000000000000        0.0000000000000000     
  0.62500000000000000       0.62500000000000000        0.0000000000000000     
  0.68750000000000000       0.62500000000000000        0.0000000000000000     
  0.75000000000000000       0.62500000000000000        0.0000000000000000     
  0.50000000000000000       0.68750000000000000        0.0000000000000000     
  0.56250000000000000       0.68750000000000000        0.0000000000000000     
  0.62500000000000000       0.68750000000000000        0.0000000000000000     
  0.68750000000000000       0.68750000000000000        0.0000000000000000     
  0.75000000000000000       0.68750000000000000        0.0000000000000000     
  0.50000000000000000       0.75000000000000000        0.0000000000000000     
  0.56250000000000000       0.75000000000000000        0.0000000000000000     
  0.62500000000000000       0.75000000000000000        0.0000000000000000     
  0.68750000000000000       0.75000000000000000        0.0000000000000000     
  0.75000000000000000       0.75000000000000000        0.0000000000000000     
  0.75000000000000000       0.50000000000000000        0.0000000000000000     
  0.81250000000000000       0.50000000000000000        0.0000000000000000     
  0.87500000000000000       0.50000000000000000        0.0000000000000000     
  0.93750000000000000       0.50000000000000000        0.0000000000000000     
   1.0000000000000000       0.50000000000000000        0.0000000000000000     
  0.75000000000000000       0.56250000000000000        0.0000000000000000     
  0.81250000000000000       0.56250000000000000        0.0000000000000000     
  0.87500000000000000       0.56250000000000000        0.0000000000000000     
  0.93750000000000000       0.56250000000000000        0.0000000000000000     
   1.0000000000000000       0.56250000000000000        0.0000000000000000     
  0.75000000000000000       0.62500000000000000        0.0000000000000000     
  0.81250000000000000       0.62500000000000000        0.0000000000000000     
  0.87500000000000000       0.62500000000000000        0.0000000000000000     
  0.93750000000000000       0.62500000000000000        0.0000000000000000     
   1.0000000000000000       0.62500000000000000        0.0000000000000000     
  0.75000000000000000       0.68750000000000000        0.0000000000000000     
  0.81250000000000000       0.68750000000000000        0.0000000000000000     
  0.87500000000000000       0.68750000000000000        0.0000000000000000     
  0.93750000000000000       0.68750000000000000        0.0000000000000000     
   1.0000000000000000       0.68750000000000000        0.0000000000000000     
  0.75000000000000000       0.75000000000000000        0.0000000000000000     
  0.81250000000000000       0.75000000000000000        0.0000000000000000     
  0.87500000000000000       0.75000000000000000        0.0000000000000000     
  0.93750000000000000       0.75000000000000000        0.0000000000000000     
   1.0000000000000000       0.75000000000000000        0.0000000000000000     
   1.0000000000000000       0.50000000000000000        0.0000000000000000     
   1.0625000000000000       0.50000000000000000        0.0000000000000000     
   1.1250000000000000       0.50000000000000000        0.0000000000000000     
   1.1875000000000000       0.50000000000000000        0.0000000000000000     
   1.2500000000000000       0.50000000000000000        0.0000000000000000     
   1.0000000000000000       0.56250000000000000        0.0000000000000000     
   1.0625000000000000       0.56250000000000000        0.0000000000000000     
   1.1250000000000000       0.56250000000000000        0.0000000000000000     
   1.1875000000000000       0.56250000000000000        0.0000000000000000     
   1.2500000000000000       0.56250000000000000        0.0000000000000000     
   1.0000000000000000       0.62500000000000000        0.0000000000000000     
   1.0625000000000000       0.62500000000000000        0.0000000000000000     
   1.1250000000000000       0.62500000000000000        0.0000000000000000     
   1.1875000000000000       0.62500000000000000        0.0000000000000000     
   1.2500000000000000       0.62500000000000000        0.0000000000000000     
   1.0000000000000000       0.68750000000000000        0.0000000000000000     
   1.0625000000000000       0.68750000000000000        0.0000000000000000     
   1.1250000000000000       0.68750000000000000        0.0000000000000000     
   1.1875000000000000       0.68750000000000000        0.0000000000000000     
   1.2500000000000000       0.68750000000000000        0.0000000000000000     
   1.0000000000000000       0.75000000000000000        0.0000000000000000     
   1.0625000000000000       0.75000000000000000        0.0000000000000000     
   1.1250000000000000       0.75000000000000000        0.0000000000000000     
   1.1875000000000000       0.75000000000000000        0.0000000000000000     
   1.2500000000000000       0.75000000000000000        0.0000000000000000     
   1.2500000000000000       0.50000000000000000        0.0000000000000000     
   1.3125000000000000       0.50000000000000000        0.0000000000000000     
   1.3750000000000000       0.50000000000000000        0.0000000000000000     
   1.4375000000000000       0.50000000000000000        0.0000000000000000     
   1.5000000000000000       0.50000000000000000        0.0000000000000000     
   1.2500000000000000       0.56250000000000000        0.0000000000000000     
   1.3125000000000000       0.56250000000000000        0.0000000000000000     
   1.3750000000000000       0.56250000000000000        0.0000000000000000     
   1.4375000000000000       0.56250000000000000        0.0000000000000000     
   1.5000000000000000       0.56250000000000000        0.0000000000000000     
   1.2500000000000000       0.62500000000000000        0.0000000000000000     
   1.3125000000000000       0.62500000000000000        0.0000000000000000     
   1.3750000000000000       0.62500000000000000        0.0000000000000000     
   1.4375000000000000       0.62500000000000000        0.0000000000000000     
   1.5000000000000000       0.62500000000000000        0.0000000000000000     
   1.2500000000000000       0.68750000000000000        0.0000000000000000     
   1.3125000000000000       0.68750000000000000        0.0000000000000000     
   1.3750000000000000       0.68750000000000000        0.0000000000000000     
   1.4375000000000000       0.68750000000000000        0.0000000000000000     
   1.5000000000000000       0.68750000000000000        0.0000000000000000     
   1.2500000000000000       0.75000000000000000        0.0000000000000000     
   1.3125000000000000       0.75000000000000000        0.0000000000000000     
   1.3750000000000000       0.75000000000000000        0.0000000000000000     
   1.4375000000000000       0.75000000000000000        0.0000000000000000     
   1.5000000000000000       0.75000000000000000        0.0000000000000000     
  0.50000000000000000       0.75000000000000000        0.0000000000000000     
  0.56250000000000000       0.75000000000000000        0.0000000000000000     
  0.62500000000000000       0.75000000000000000        0.0000000000000000     
  0.68750000000000000       0.75000000000000000        0.0000000000000000     
  0.75000000000000000       0.75000000000000000        0.0000000000000000     
  0.50000000000000000       0.81250000000000000        0.0000000000000000     
  0.56250000000000000       0.81250000000000000        0.0000000000000000     
  0.62500000000000000       0.81250000000000000        0.0000000000000000     
  0.68750000000000000       0.81250000000000000        0.0000000000000000     
  0.75000000000000000       0.81250000000000000        0.0000000000000000     
  0.50000000000000000       0.87500000000000000        0.0000000000000000     
  0.56250000000000000       0.87500000000000000        0.0000000000000000     
  0.62500000000000000       0.87500000000000000        0.0000000000000000     
  0.68750000000000000       0.87500000000000000        0.0000000000000000     
  0.75000000000000000       0.87500000000000000        0.0000000000000000     
  0.50000000000000000       0.93750000000000000        0.0000000000000000     
  0.56250000000000000       0.93750000000000000        0.0000000000000000     
  0.62500000000000000       0.93750000000000000        0.0000000000000000     
  0.68750000000000000       0.93750000000000000        0.0000000000000000     
  0.75000000000000000       0.93750000000000000        0.0000000000000000     
  0.50000000000000000        1.0000000000000000        0.0000000000000000     
  0.56250000000000000        1.0000000000000000        0.0000000000000000     
  0.62500000000000000        1.0000000000000000        0.0000000000000000     
  0.68750000000000000        1.0000000000000000        0.0000000000000000     
  0.75000000000000000        1.0000000000000000        0.0000000000000000     
  0.75000000000000000       0.75000000000000000        0.0000000000000000     
  0.81250000000000000       0.75000000000000000        0.0000000000000000     
  0.87500000000000000       0.75000000000000000        0.0000000000000000     
  0.93750000000000000       0.75000000000000000        0.0000000000000000     
   1.0000000000000000       0.75000000000000000        0.0000000000000000     
  0.75000000000000000       0.81250000000000000        0.0000000000000000     
  0.81250000000000000       0.81250000000000000        0.0000000000000000     
  0.87500000000000000       0.81250000000000000        0.0000000000000000     
  0.93750000000000000       0.81250000000000000        0.0000000000000000     
   1.0000000000000000       0.81250000000000000        0.0000000000000000     
  0.75000000000000000       0.87500000000000000        0.0000000000000000     
  0.81250000000000000       0.87500000000000000        0.0000000000000000     
  0.87500000000000000       0.87500000000000000        0.0000000000000000     
  0.93750000000000000       0.87500000000000000        0.0000000000000000     
   1.0000000000000000       0.87500000000000000        0.0000000000000000     
  0.75000000000000000       0.93750000000000000        0.0000000000000000     
  0.81250000000000000       0.93750000000000000        0.0000000000000000     
  0.87500000000000000       0.93750000000000000        0.0000000000000000     
  0.93750000000000000       0.93750000000000000        0.0000000000000000     
   1.0000000000000000       0.93750000000000000        0.0000000000000000     
  0.75000000000000000        1.0000000000000000        0.0000000000000000     
  0.81250000000000000        1.0000000000000000        0.0000000000000000     
  0.87500000000000000        1.0000000000000000        0.0000000000000000     
  0.93750000000000000        1.0000000000000000        0.0000000000000000     
   1.0000000000000000        1.0000000000000000        0.0000000000000000     
   1.0000000000000000       0.75000000000000000        0.0000000000000000     
   1.0625000000000000       0.75000000000000000        0.0000000000000000     
   1.1250000000000000       0.75000000000000000        0.0000000000000000     
   1.1875000000000000       0.75000000000000000        0.0000000000000000     
   1.2500000000000000       0.75000000000000000        0.0000000000000000     
   1.0000000000000000       0.81250000000000000        0.0000000000000000     
   1.0625000000000000       0.81250000000000000        0.0000000000000000     
   1.1250000000000000       0.81250000000000000        0.0000000000000000     
   1.1875000000000000       0.81250000000000000        0.0000000000000000     
   1.2500000000000000       0.81250000000000000        0.0000000000000000     
   1.0000000000000000       0.87500000000000000        0.0000000000000000     
   1.0625000000000000       0.87500000000000000        0.0000000000000000     
   1.1250000000000000       0.87500000000000000        0.0000000000000000     
   1.1875000000000000       0.87500000000000000        0.0000000000000000     
   1.2500000000000000       0.87500000000000000        0.0000000000000000     
   1.0000000000000000       0.93750000000000000        0.0000000000000000     
   1.0625000000000000       0.93750000000000000        0.0000000000000000     
   1.1250000000000000       0.93750000000000000        0.0000000000000000     
   1.1875000000000000       0.93750000000000000        0.0000000000000000     
   1.2500000000000000       0.93750000000000000        0.0000000000000000     
   1.0000000000000000        1.0000000000000000        0.0000000000000000     
   1.0625000000000000        1.0000000000000000        0.0000000000000000     
   1.1250000000000000        1.0000000000000000        0.0000000000000000     
   1.1875000000000000        1.0000000000000000        0.0000000000000000     
   1.2500000000000000        1.0000000000000000        0.0000000000000000     
   1.2500000000000000       0.75000000000000000        0.0000000000000000     
   1.3125000000000000       0.75000000000000000        0.0000000000000000     
   1.3750000000000000       0.75000000000000000        0.0000000000000000     
   1.4375000000000000       0.75000000000000000        0.0000000000000000     
   1.5000000000000000       0.75000000000000000        0.0000000000000000     
   1.2500000000000000       0.81250000000000000        0.0000000000000000     
   1.3125000000000000       0.81250000000000000        0.0000000000000000     
   1.3750000000000000       0.81250000000000000        0.0000000000000000     
   1.4375000000000000       0.81250000000000000        0.0000000000000000     
   1.5000000000000000       0.81250000000000000        0.0000000000000000     
   1.2500000000000000       0.87500000000000000        0.0000000000000000     
   1.3125000000000000       0.87500000000000000        0.0000000000000000     
   1.3750000000000000       0.87500000000000000        0.0000000000000000     
   1.4375000000000000       0.87500000000000000        0.0000000000000000     
   1.5000000000000000       0.87500000000000000        0.0000000000000000     
   1.2500000000000000       0.93750000000000000        0.0000000000000000     
   1.3125000000000000       0.93750000000000000        0.0000000000000000     
   1.3750000000000000       0.93750000000000000        0.0000000000000000     
   1.4375000000000000       0.93750000000000000        0.0000000000000000     
   1.5000000000000000       0.93750000000000000        0.0000000000000000     
   1.2500000000000000        1.0000000000000000        0.0000000000000000     
   1.3125000000000000        1.0000000000000000        0.0000000000000000     
   1.3750000000000000        1.0000000000000000        0.0000000000000000     
   1.4375000000000000        1.0000000000000000        0.0000000000000000     
   1.5000000000000000        1.0000000000000000        0.0000000000000000     
 </DataArray>
 </Points>
 <Cells>
 <DataArray  type="Int32"  Name="connectivity"  format="ascii">
           0           1           6           5
           1           2           7           6
           2           3           8           7
           3           4           9           8
           5           6          11          10
           6           7          12          11
           7           8          13          12
           8           9          14          13
          10          11          16          15
          11          12          17          16
          12          13          18          17
          13          14          19          18
          15          16          21          20
          16          17          22          21
          17          18          23          22
          18          19          24          23
          25          26          31          30
          26          27          32          31
          27          28          33          32
          28          29          34          33
          30          31          36          35
          31          32          37          36
          32          33          38          37
          33          34          39          38
          35          36          41          40
          36          37          42          41
          37          38          43          42
          38          39          44          43
          40          41          46          45
          41          42          47          46
          42          43          48          47
          43          44          49          48
          50          51          56          55
          51          52          57          56
          52          53          58          57
          53          54          59          58
          55          56          61          60
          56          57          62          61
          57          58          63          62
          58          59          64          63
          60          61          66          65
          61          62          67          66
          62          63          68          67
          63          64          69          68
          65          66          71          70
          66          67          72          71
          67          68          73          72
          68          69          74          73
          75          76          81          80
          76          77          82          81
          77          78          83          82
          78          79          84          83
          80          81          86          85
          81          82          87          86
          82          83          88          87
          83          84          89          88
          85          86          91          90
          86          87          92          91
          87          88          93          92
          88          89          94          93
          90          91          96          95
          91          92          97          96
          92          93          98          97
          93          94          99          98
         100         101         106         105
         101         102         107         106
         102         103         108         107
         103         104         109         108
         105         106         111         110
         106         107         112         111
         107         108         113         112
         108         109         114         113
         110         111         116         115
         111         112         117         116
         112         113         118         117
         113         114         119         118
         115         116         121         120
         116         117         122         121
         117         118         123         122
         118         119         124         123
         125         126         131         130
         126         127         132         131
         127         128         133         132
         128         129         134         133
         130         131         136         135
         131         132         137         136
         132         133         138         137
         133         134         139         138
         135         136         141         140
         136         137         142         141
         137         138         143         142
         138         139         144         143
         140         141         146         145
         141         142         147         146
         142         143         148         147
         143         144         149         148
         150         151         156         155
         151         152         157         156
         152         153         158         157
         153         154         159         158
         155         156         161         160
         156         157         162         161
         157         158         163         162
         158         159         164         163
         160         161         166         165
         161         162         167         166
         162         163         168         167
         163         164         169         168
         165         166         171         170
         166         167         172         171
         167         168         173         172
         168         169         174         173
         175         176         181         180
         176         177         182         181
         177         178         183         182
         178         179         184         183
         180         181         186         185
         181         182         187         186
         182         183         188         187
         183         184         189         188
         185         186         191         190
         186         187         192         191
         187         188         193         192
         188         189         194         193
         190         191         196         195
         191         192         197         196
         192         193         198         197
         193         194         199         198
         200         201         206         205
         201         202         207         206
         202         203         208         207
         203         204         209         208
         205         206         211         210
         206         207         212         211
         207         208         213         212
         208         209         214         213
         210         211         216         215
         211         212         217         216
         212         213         218         217
         213         214         219         218
         215         216         221         220
         216         217         222         221
         217         218         223         222
         218         219         224         223
         225         226         231         230
         226         227         232         231
         227         228         233         232
         228         229         234         233
         230         231         236         235
         231         232         237         236
         232         233         238         237
         233         234         239         238
         235         236         241         240
         236         237         242         241
         237         238         243         242
         238         239         244         243
         240         241         246         245
         241         242         247         246
         242         243         248         247
         243         244         249         248
         250         251         256         255
         251         252         257         256
         252         253         258         257
         253         254         259         258
         255         256         261         260
         256         257         262         261
         257         258         263         262
         258         259         264         263
         260         261         266         265
         261         262         267         266
         262         263         268         267
         263         264         269         268
         265         266         271         270
         266         267         272         271
         267         268         273         272
         268         269         274         273
         275         276         281         280
         276         277         282         281
         277         278         283         282
         278         279         284         283
         280         281         286         285
         281         282         287         286
         282         283         288         287
         283         284         289         288
         285         286         291         290
         286         287         292         291
         287         288         293         292
         288         289         294         293
         290         291         296         295
         291         292         297         296
         292         293         298         297
         293         294         299         298
         300         301         306         305
         301         302         307         306
         302         303         308         307
         303         304         309         308
         305         306         311         310
         306         307         312         311
         307         308         313         312
         308         309         314         313
         310         311         316         315
         311         312         317         316
         312         313         318         317
         313         314         319         318
         315         316         321         320
         316         317         322         321
         317         318         323         322
         318         319         324         323
         325         326         331         330
         326         327         332         331
         327         328         333         332
         328         329         334         333
         330         331         336         335
         331         332         337         336
         332         333         338         337
         333         334         339         338
         335         336         341         340
         336         337         342         341
         337         338         343         342
         338         339         344         343
         340         341         346         345
         341         342         347         346
         342         343         348         347
         343         344         349         348
         350         351         356         355
         351         352         357         356
         352         353         358         357
         353         354         359         358
         355         356         361         360
         356         357         362         361
         357         358         363         362
         358         359         364         363
         360         361         366         365
         361         362         367         366
         362         363         368         367
         363         364         369         368
         365         366         371         370
         366         367         372         371
         367         368         373         372
         368         369         374         373
         375         376         381         380
         376         377         382         381
         377         378         383         382
         378         379         384         383
         380         381         386         385
         381         382         387         386
         382         383         388         387
         383         384         389         388
         385         386         391         390
         386         387         392         391
         387         388         393         392
         388         389         394         393
         390         391         396         395
         391         392         397         396
         392         393         398         397
         393         394         399         398
 </DataArray>
 <DataArray  type="Int32"  Name="offsets"  format="ascii"> 
           4
           8
          12
          16
          20
          24
          28
          32
          36
          40
          44
          48
          52
          56
          60
          64
          68
          72
          76
          80
          84
          88
          92
          96
         100
         104
         108
         112
         116
         120
         124
         128
         132
         136
         140
         144
         148
         152
         156
         160
         164
         168
         172
         176
         180
         184
         188
         192
         196
         200
         204
         208
         212
         216
         220
         224
         228
         232
         236
         240
         244
         248
         252
         256
         260
         264
         268
         272
         276
         280
         284
         288
         292
         296
         300
         304
         308
         312
         316
         320
         324
         328
         332
         336
         340
         344
         348
         352
         356
         360
         364
         368
         372
         376
         380
         384
         388
         392
         396
         400
         404
         408
         412
         416
         420
         424
         428
         432
         436
         440
         444
         448
         452
         456
         460
         464
         468
         472
         476
         480
         484
         488
         492
         496
         500
         504
         508
         512
         516
         520
         524
         528
         532
         536
         540
         544
         548
         552
         556
         560
         564
         568
         572
         576
         580
         584
         588
         592
         596
         600
         604
         608
         612
         616
         620
         624
         628
         632
         636
         640
         644
         648
         652
         656
         660
         664
         668
         672
         676
         680
         684
         688
         692
         696
         700
         704
         708
         712
         716
         720
         724
         728
         732
         736
         740
         744
         748
         752
         756
         760
         764
         768
         772
         776
         780
         784
         788
         792
         796
         800
         804
         808
         812
         816
         820
         824
         828
         832
         836
         840
         844
         848
         852
         856
         860
         864
         868
         872
         876
         880
         884
         888
         892
         896
         900
         904
         908
         912
         916
         920
         924
         928
         932
         936
         940
         944
         948
         952
         956
         960
         964
         968
         972
         976
         980
         984
         988
         992
         996
        1000
        1004
        1008
        1012
        1016
        1020
        1024
 </DataArray>
 <DataArray  type="UInt8"  Name="types"  format="ascii">
 9
 9
 9
 9
 9
 9
 9
 9
 9
 9
 9
 9
 9
 9
 9
 9
 9
 9
 9
 9
 9
 9
 9
 9
 9
 9
 9
 9
 9
 9
 9
 9
 9
 9
 9
 9
 9
 9
 9
 9
 9
 9
 9
 9
 9
 9
 9
 9
 9
 9
 9
 9
 9
 9
 9
 9
 9
 9
 9
 9
 9
 9
 9
 9
 9
 9
 9
 9
 9
 9
 9
 9
 9
 9
 9
 9
 9
 9
 9
 9
 9
 9
 9
 9
 9
 9
 9
 9
 9
 9
 9
 9
 9
 9
 9
 9
 9
 9
 9
 9
 9
 9
 9
 9
 9
 9
 9
 9
 9
 9
 9
 9
 9
 9
 9
 9
 9
 9
 9
 9
 9
 9
 9
 9
 9
 9
 9
 9
 9
 9
 9
 9
 9
 9
 9
 9
 9
 9
 9
 9
 9
 9
 9
 9
 9
 9
 9
 9
 9
 9
 9
 9
 9
 9
 9
 9
 9
 9
 9
 9
 9
 9
 9
 9
 9
 9
 9
 9
 9
 9
 9
 9
 9
 9
 9
 9
 9
 9
 9
 9
 9
 9
 9
 9
 9
 9
 9
 9
 9
 9
 9
 9
 9
 9
 9
 9
 9
 9
 9
 9
 9
 9
 9
 9
 9
 9
 9
 9
 9
 9
 9
 9
 9
 9
 9
 9
 9
 9
 9
 9
 9
 9
 9
 9
 9
 9
 9
 9
 9
 9
 9
 9
 9
 9
 9
 9
 9
 9
 9
 9
 9
 9
 9
 9
 9
 9
 9
 9
 9
 9
 9
 9
 9
 9
 9
 9
 </DataArray>
 </Cells> 
 <PointData>
 <DataArray  type="Float64" Name="disp" NumberOfComponents="3" format="ascii">
   6.0104081614491725E-002   6.3326341783856321E-002   0.0000000000000000     
   6.8049565317360561E-002   7.3834257440806170E-002   0.0000000000000000     
   7.5101164603785617E-002   8.5182473748491749E-002   0.0000000000000000     
   8.1258879473766893E-002   9.7370990706913074E-002   0.0000000000000000     
   8.6522709927304375E-002  0.11039980831607013        0.0000000000000000     
   5.3251195814012650E-002   6.1162853940646814E-002   0.0000000000000000     
   5.9396484580272392E-002   7.1972412324541671E-002   0.0000000000000000     
   6.4949804452204440E-002   8.3567957082834682E-002   0.0000000000000000     
   6.9911155429808802E-002   9.5949488215525847E-002   0.0000000000000000     
   7.4280537513085471E-002  0.10911700572261518        0.0000000000000000     
   4.5976680066316347E-002   5.9318870261278168E-002   0.0000000000000000     
   5.0679928516423743E-002   7.0391241624590942E-002   0.0000000000000000     
   5.5006594658480790E-002   8.2198428637045517E-002   0.0000000000000000     
   5.8956678492487501E-002   9.4740431298641903E-002   0.0000000000000000     
   6.2530180018443904E-002  0.10801724960938011        0.0000000000000000     
   3.8280534371402816E-002   5.7794390745750393E-002   0.0000000000000000     
   4.1899897125814579E-002   6.9090745340953996E-002   0.0000000000000000     
   4.5271535222614637E-002   8.1073888411124284E-002   0.0000000000000000     
   4.8395448661803016E-002   9.3743819956261298E-002   0.0000000000000000     
   5.1271637443379689E-002  0.10710053997636497        0.0000000000000000     
   3.0162758729272054E-002   5.6589415394063473E-002   0.0000000000000000     
   3.3056390408444936E-002   6.8070923473630834E-002   0.0000000000000000     
   3.5744626144606016E-002   8.0194336405070982E-002   0.0000000000000000     
   3.8227465937755306E-002   9.2959654188383950E-002   0.0000000000000000     
   4.0504909787892812E-002  0.10636687682356968        0.0000000000000000     
   8.6522709927304375E-002  0.11039980831607013        0.0000000000000000     
   9.1139437995811937E-002  0.12407363195023355        0.0000000000000000     
   9.5355845710703463E-002  0.13819716698367393        0.0000000000000000     
   9.9171933071978927E-002  0.15277041341639133        0.0000000000000000     
  0.10258770007963836       0.16779337124838573        0.0000000000000000     
   7.4280537513085471E-002  0.10911700572261518        0.0000000000000000     
   7.8192901498540690E-002  0.12289798124833294        0.0000000000000000     
   8.1783198182680719E-002  0.13711988643690934        0.0000000000000000     
   8.5051427565505544E-002  0.15178272128834444        0.0000000000000000     
   8.7997589647015179E-002  0.16688648580263823        0.0000000000000000     
   6.2530180018443904E-002  0.10801724960938011        0.0000000000000000     
   6.5787084983131155E-002  0.12188195638917343        0.0000000000000000     
   6.8787379133330426E-002  0.13618762445793506        0.0000000000000000     
   7.1531062469041756E-002  0.15093425381566508        0.0000000000000000     
   7.4018134990265078E-002  0.16612184446236347        0.0000000000000000     
   5.1271637443379689E-002  0.10710053997636497        0.0000000000000000     
   5.3921988449583333E-002  0.12102555737275500        0.0000000000000000     
   5.6368388562652590E-002  0.13540038104675103        0.0000000000000000     
   5.8610837782587501E-002  0.15022501099835323        0.0000000000000000     
   6.0649336109388031E-002  0.16549944722756141        0.0000000000000000     
   4.0504909787892812E-002  0.10636687682356968        0.0000000000000000     
   4.2597611897897208E-002  0.12032878419907768        0.0000000000000000     
   4.4526226470647218E-002  0.13475815620335740        0.0000000000000000     
   4.6290753506142826E-002  0.14965499283640887        0.0000000000000000     
   4.7891193004384054E-002  0.16501929409823204        0.0000000000000000     
  0.10258770007963836       0.16779337124838573        0.0000000000000000     
  0.10565439281445396       0.18319931649341828        0.0000000000000000     
  0.10842325735719796       0.19892152516525025        0.0000000000000000     
  0.11089429370787036       0.21495999726388162        0.0000000000000000     
  0.11306750186647119       0.23131473278931236        0.0000000000000000     
   8.7997589647015179E-002  0.16688648580263823        0.0000000000000000     
   9.0622738698860811E-002  0.18238018426401548        0.0000000000000000     
   9.2927928992693684E-002  0.19821282095670095        0.0000000000000000     
   9.4913160528513771E-002  0.21438439588069466        0.0000000000000000     
   9.6578433306321057E-002  0.23089490903599660        0.0000000000000000     
   7.4018134990265078E-002  0.16612184446236347        0.0000000000000000     
   7.6217164967480905E-002  0.18170520275182178        0.0000000000000000     
   7.8096720671169698E-002  0.19763913503783162        0.0000000000000000     
   7.9656802101331456E-002  0.21392364132039302        0.0000000000000000     
   8.0897409257966180E-002  0.23055872159950588        0.0000000000000000     
   6.0649336109388031E-002  0.16549944722756141        0.0000000000000000     
   6.2437671620314182E-002  0.18117437195683725        0.0000000000000000     
   6.3929632392625987E-002  0.19720046740864228        0.0000000000000000     
   6.5125218426323420E-002  0.21357773358297666        0.0000000000000000     
   6.6024429721406500E-002  0.23030617047984020        0.0000000000000000     
   4.7891193004384054E-002  0.16501929409823204        0.0000000000000000     
   4.9284258657360698E-002  0.18078769187906177        0.0000000000000000     
   5.0426664157062581E-002  0.19689681806913298        0.0000000000000000     
   5.1318409503489711E-002  0.21334667266844554        0.0000000000000000     
   5.1959494696642079E-002  0.23013725567699955        0.0000000000000000     
  0.11306750186647119       0.23131473278931236        0.0000000000000000     
  0.11490417090007891       0.24820959733013753        0.0000000000000000     
  0.11636558987577206       0.26586845647495205        0.0000000000000000     
  0.11745175879355060       0.28429131022375592        0.0000000000000000     
  0.11816267765341458       0.30347815857654920        0.0000000000000000     
   9.6578433306321057E-002  0.23089490903599660        0.0000000000000000     
   9.7937244043192637E-002  0.24788690538584346        0.0000000000000000     
   9.9003089456205576E-002  0.26550292989347174        0.0000000000000000     
   9.9775969545359874E-002  0.28374298255888158        0.0000000000000000     
  0.10025588431065549       0.30260706338207299        0.0000000000000000     
   8.0897409257966180E-002  0.23055872159950588        0.0000000000000000     
   8.1869445277188285E-002  0.24760385381549813        0.0000000000000000     
   8.2623813295112286E-002  0.26511851590869739        0.0000000000000000     
   8.3160513311738141E-002  0.28310270787910380        0.0000000000000000     
   8.3479545327065849E-002  0.30155642972671731        0.0000000000000000     
   6.6024429721406500E-002  0.23030617047984020        0.0000000000000000     
   6.6700774602065874E-002  0.24736044261910145        0.0000000000000000     
   6.7227761392492175E-002  0.26471521452062891        0.0000000000000000     
   6.7605390092685430E-002  0.28237048618442256        0.0000000000000000     
   6.7833660702645612E-002  0.30032625761048232        0.0000000000000000     
   5.1959494696642079E-002  0.23013725567699955        0.0000000000000000     
   5.2431232017825360E-002  0.24715667179665363        0.0000000000000000     
   5.2814933748345248E-002  0.26429302572926633        0.0000000000000000     
   5.3110599888201729E-002  0.28154631747483777        0.0000000000000000     
   5.3318230437394809E-002  0.29891654703336790        0.0000000000000000     
   3.0162758729272054E-002   5.6589415394063473E-002   0.0000000000000000     
   3.3056390408444936E-002   6.8070923473630834E-002   0.0000000000000000     
   3.5744626144606016E-002   8.0194336405070982E-002   0.0000000000000000     
   3.8227465937755306E-002   9.2959654188383950E-002   0.0000000000000000     
   4.0504909787892812E-002  0.10636687682356968        0.0000000000000000     
   2.2031143346888465E-002   5.5674845033019227E-002   0.0000000000000000     
   2.4333932722354928E-002   6.7301374396861569E-002   0.0000000000000000     
   2.6443461586258273E-002   7.9531910745967577E-002   0.0000000000000000     
   2.8359729938598519E-002   9.2366454080337307E-002   0.0000000000000000     
   3.0082737779375642E-002  0.10580500439997072        0.0000000000000000     
   1.4293478431216467E-002   5.5021580489419478E-002   0.0000000000000000     
   1.5917048425584682E-002   6.6751696484886311E-002   0.0000000000000000     
   1.7385635709374774E-002   7.9058749560896091E-002   0.0000000000000000     
   1.8699240282586727E-002   9.1942739717448832E-002   0.0000000000000000     
   1.9857862145220555E-002  0.10540366695454449        0.0000000000000000     
   6.9497639822560563E-003   5.4629621763264198E-002   0.0000000000000000     
   7.8057375181342040E-003   6.6421889737705048E-002   0.0000000000000000     
   8.5711485139555021E-003   7.8774852849856469E-002   0.0000000000000000     
   9.2459969697199548E-003   9.1688511099718470E-002   0.0000000000000000     
   9.8302828854275499E-003  0.10516286448729102        0.0000000000000000     
   7.2311948096093204E-015   5.4498968854553409E-002   0.0000000000000000     
   3.4911309954033243E-015   6.6311954155317834E-002   0.0000000000000000     
   4.7769947719711325E-016   7.8680220612848795E-002   0.0000000000000000     
  -1.8119728807663993E-015   9.1603768227146276E-002   0.0000000000000000     
  -3.3766392459888550E-015  0.10508259699821029        0.0000000000000000     
   4.0504909787892812E-002  0.10636687682356968        0.0000000000000000     
   4.2597611897897208E-002  0.12032878419907768        0.0000000000000000     
   4.4526226470647218E-002  0.13475815620335740        0.0000000000000000     
   4.6290753506142826E-002  0.14965499283640887        0.0000000000000000     
   4.7891193004384054E-002  0.16501929409823204        0.0000000000000000     
   3.0082737779375642E-002  0.10580500439997072        0.0000000000000000     
   3.1644748733711911E-002  0.11978894397830984        0.0000000000000000     
   3.3078026426729586E-002  0.13425965508879664        0.0000000000000000     
   3.4382570858428649E-002  0.14921713773143117        0.0000000000000000     
   3.5558382028809121E-002  0.16466139190621337        0.0000000000000000     
   1.9857862145220555E-002  0.10540366695454449        0.0000000000000000     
   2.0894192362666545E-002  0.11940334382061979        0.0000000000000000     
   2.1840922000314979E-002  0.13390358286411139        0.0000000000000000     
   2.2698051058165868E-002  0.14890438408501930        0.0000000000000000     
   2.3465579536219201E-002  0.16440574748334344        0.0000000000000000     
   9.8302828854275499E-003  0.10516286448729102        0.0000000000000000     
   1.0345942784761100E-002  0.11917198372600760        0.0000000000000000     
   1.0814913191403409E-002  0.13368993952930167        0.0000000000000000     
   1.1237194105354479E-002  0.14871673189717316        0.0000000000000000     
   1.1612785526614306E-002  0.16425236082962222        0.0000000000000000     
  -3.3766392459888550E-015  0.10508259699821029        0.0000000000000000     
  -4.4140038846229857E-015  0.11909486369447321        0.0000000000000000     
  -5.1280594354219389E-015  0.13361872508436742        0.0000000000000000     
  -5.5134390976319114E-015  0.14865418116789289        0.0000000000000000     
  -5.5754012517894580E-015  0.16420123194504965        0.0000000000000000     
   4.7891193004384054E-002  0.16501929409823204        0.0000000000000000     
   4.9284258657360698E-002  0.18078769187906177        0.0000000000000000     
   5.0426664157062581E-002  0.19689681806913298        0.0000000000000000     
   5.1318409503489711E-002  0.21334667266844554        0.0000000000000000     
   5.1959494696642079E-002  0.23013725567699955        0.0000000000000000     
   3.5558382028809121E-002  0.16466139190621337        0.0000000000000000     
   3.6573712913140155E-002  0.18051241274978741        0.0000000000000000     
   3.7396816486690895E-002  0.19669019539879737        0.0000000000000000     
   3.8027692749461370E-002  0.21319473985324322        0.0000000000000000     
   3.8466341701451551E-002  0.23002604611312494        0.0000000000000000     
   2.3465579536219201E-002  0.16440574748334344        0.0000000000000000     
   2.4122821222172273E-002  0.18031578480030605        0.0000000000000000     
   2.4649089903722363E-002  0.19654260777712923        0.0000000000000000     
   2.5044385580869476E-002  0.21308621641381301        0.0000000000000000     
   2.5308708253613608E-002  0.22994661071035732        0.0000000000000000     
   1.1612785526614306E-002  0.16425236082962222        0.0000000000000000     
   1.1931583584457083E-002  0.18019780803061766        0.0000000000000000     
   1.2183484408156999E-002  0.19645405520412856        0.0000000000000000     
   1.2368487997714058E-002  0.21302110235015495        0.0000000000000000     
   1.2486594353128254E-002  0.22989894946869674        0.0000000000000000     
  -5.5754012517894580E-015  0.16420123194504965        0.0000000000000000     
  -5.4318528841523772E-015  0.18015848244072227        0.0000000000000000     
  -5.2076398748823749E-015  0.19642453767979540        0.0000000000000000     
  -4.9044969474554279E-015  0.21299939766226902        0.0000000000000000     
  -4.5180872931815941E-015  0.22988306238814316        0.0000000000000000     
   5.1959494696642079E-002  0.23013725567699955        0.0000000000000000     
   5.2431232017825360E-002  0.24715667179665363        0.0000000000000000     
   5.2814933748345248E-002  0.26429302572926633        0.0000000000000000     
   5.3110599888201729E-002  0.28154631747483777        0.0000000000000000     
   5.3318230437394809E-002  0.29891654703336790        0.0000000000000000     
   3.8466341701451551E-002  0.23002604611312494        0.0000000000000000     
   3.8789296112611359E-002  0.24699571499061426        0.0000000000000000     
   3.9073088752890672E-002  0.26391534729788291        0.0000000000000000     
   3.9317719622289513E-002  0.28078494303493073        0.0000000000000000     
   3.9523188720807859E-002  0.29760450220175794        0.0000000000000000     
   2.5308708253613608E-002  0.22994661071035732        0.0000000000000000     
   2.5503445474568443E-002  0.24688074584344322        0.0000000000000000     
   2.5689984796347654E-002  0.26364557698975161        0.0000000000000000     
   2.5868326218951250E-002  0.28024110414928266        0.0000000000000000     
   2.6038469742379222E-002  0.29666732732203616        0.0000000000000000     
   1.2486594353128254E-002  0.22989894946869674        0.0000000000000000     
   1.2573680103696618E-002  0.24681176435514049        0.0000000000000000     
   1.2665621878716182E-002  0.26348371480487270        0.0000000000000000     
   1.2762419678186939E-002  0.27991480081789344        0.0000000000000000     
   1.2864073502108895E-002  0.29610502239420255        0.0000000000000000     
  -4.5180872931815941E-015  0.22988306238814316        0.0000000000000000     
  -4.1117283189340270E-015  0.24678877052570605        0.0000000000000000     
  -3.7426658994199613E-015  0.26342976074324598        0.0000000000000000     
  -3.4143694815913506E-015  0.27980603304076307        0.0000000000000000     
  -3.1242369802342296E-015  0.29591758741825724        0.0000000000000000     
   7.2311948096093204E-015   5.4498968854553409E-002   0.0000000000000000     
   3.4911309954033243E-015   6.6311954155317834E-002   0.0000000000000000     
   4.7769947719711325E-016   7.8680220612848795E-002   0.0000000000000000     
  -1.8119728807663993E-015   9.1603768227146276E-002   0.0000000000000000     
  -3.3766392459888550E-015  0.10508259699821029        0.0000000000000000     
  -6.9497639822413762E-003   5.4629621763287076E-002   0.0000000000000000     
  -7.8057375181268610E-003   6.6421889737724393E-002   0.0000000000000000     
  -8.5711485139540779E-003   7.8774852849872637E-002   0.0000000000000000     
  -9.2459969697230235E-003   9.1688511099731820E-002   0.0000000000000000     
  -9.8302828854336961E-003  0.10516286448730193        0.0000000000000000     
  -1.4293478431201129E-002   5.5021580489465170E-002   0.0000000000000000     
  -1.5917048425576258E-002   6.6751696484924558E-002   0.0000000000000000     
  -1.7385635709371926E-002   7.9058749560927760E-002   0.0000000000000000     
  -1.8699240282588136E-002   9.1942739717474742E-002   0.0000000000000000     
  -1.9857862145224885E-002  0.10540366695456557        0.0000000000000000     
  -2.2031143346872041E-002   5.5674845033087693E-002   0.0000000000000000     
  -2.4333932722344704E-002   6.7301374396918301E-002   0.0000000000000000     
  -2.6443461586253068E-002   7.9531910746014095E-002   0.0000000000000000     
  -2.8359729938597152E-002   9.2366454080375068E-002   0.0000000000000000     
  -3.0082737779376943E-002  0.10580500440000122        0.0000000000000000     
  -3.0162758729254092E-002   5.6589415394154637E-002   0.0000000000000000     
  -3.3056390408432182E-002   6.8070923473705650E-002   0.0000000000000000     
  -3.5744626144597509E-002   8.0194336405131683E-002   0.0000000000000000     
  -3.8227465937750067E-002   9.2959654188432758E-002   0.0000000000000000     
  -4.0504909787889863E-002  0.10636687682360887        0.0000000000000000     
  -3.3766392459888550E-015  0.10508259699821029        0.0000000000000000     
  -4.4140038846229857E-015  0.11909486369447321        0.0000000000000000     
  -5.1280594354219389E-015  0.13361872508436742        0.0000000000000000     
  -5.5134390976319114E-015  0.14865418116789289        0.0000000000000000     
  -5.5754012517894580E-015  0.16420123194504965        0.0000000000000000     
  -9.8302828854336961E-003  0.10516286448730193        0.0000000000000000     
  -1.0345942784769298E-002  0.11917198372601633        0.0000000000000000     
  -1.0814913191413020E-002  0.13368993952930841        0.0000000000000000     
  -1.1237194105364869E-002  0.14871673189717818        0.0000000000000000     
  -1.1612785526624838E-002  0.16425236082962566        0.0000000000000000     
  -1.9857862145224885E-002  0.10540366695456557        0.0000000000000000     
  -2.0894192362672835E-002  0.11940334382063665        0.0000000000000000     
  -2.1840922000322657E-002  0.13390358286412443        0.0000000000000000     
  -2.2698051058174337E-002  0.14890438408502887        0.0000000000000000     
  -2.3465579536227882E-002  0.16440574748335007        0.0000000000000000     
  -3.0082737779376943E-002  0.10580500440000122        0.0000000000000000     
  -3.1644748733715027E-002  0.11978894397833412        0.0000000000000000     
  -3.3078026426734020E-002  0.13425965508881538        0.0000000000000000     
  -3.4382570858433915E-002  0.14921713773144499        0.0000000000000000     
  -3.5558382028814721E-002  0.16466139190622292        0.0000000000000000     
  -4.0504909787889863E-002  0.10636687682360887        0.0000000000000000     
  -4.2597611897895883E-002  0.12032878419910882        0.0000000000000000     
  -4.4526226470647134E-002  0.13475815620338136        0.0000000000000000     
  -4.6290753506143624E-002  0.14965499283642650        0.0000000000000000     
  -4.7891193004385338E-002  0.16501929409824423        0.0000000000000000     
  -5.5754012517894580E-015  0.16420123194504965        0.0000000000000000     
  -5.4318528841523772E-015  0.18015848244072227        0.0000000000000000     
  -5.2076398748823749E-015  0.19642453767979540        0.0000000000000000     
  -4.9044969474554279E-015  0.21299939766226902        0.0000000000000000     
  -4.5180872931815941E-015  0.22988306238814316        0.0000000000000000     
  -1.1612785526624838E-002  0.16425236082962566        0.0000000000000000     
  -1.1931583584467362E-002  0.18019780803061983        0.0000000000000000     
  -1.2183484408166861E-002  0.19645405520412970        0.0000000000000000     
  -1.2368487997723344E-002  0.21302110235015526        0.0000000000000000     
  -1.2486594353136799E-002  0.22989894946869657        0.0000000000000000     
  -2.3465579536227882E-002  0.16440574748335007        0.0000000000000000     
  -2.4122821222180801E-002  0.18031578480031019        0.0000000000000000     
  -2.4649089903730576E-002  0.19654260777713137        0.0000000000000000     
  -2.5044385580877206E-002  0.21308621641381362        0.0000000000000000     
  -2.5308708253620700E-002  0.22994661071035699        0.0000000000000000     
  -3.5558382028814721E-002  0.16466139190622292        0.0000000000000000     
  -3.6573712913145748E-002  0.18051241274979341        0.0000000000000000     
  -3.7396816486696342E-002  0.19669019539880045        0.0000000000000000     
  -3.8027692749466477E-002  0.21319473985324416        0.0000000000000000     
  -3.8466341701456207E-002  0.23002604611312449        0.0000000000000000     
  -4.7891193004385338E-002  0.16501929409824423        0.0000000000000000     
  -4.9284258657362211E-002  0.18078769187906946        0.0000000000000000     
  -5.0426664157064163E-002  0.19689681806913695        0.0000000000000000     
  -5.1318409503491196E-002  0.21334667266844684        0.0000000000000000     
  -5.1959494696643314E-002  0.23013725567699897        0.0000000000000000     
  -4.5180872931815941E-015  0.22988306238814316        0.0000000000000000     
  -4.1117283189340270E-015  0.24678877052570605        0.0000000000000000     
  -3.7426658994199613E-015  0.26342976074324598        0.0000000000000000     
  -3.4143694815913506E-015  0.27980603304076307        0.0000000000000000     
  -3.1242369802342296E-015  0.29591758741825724        0.0000000000000000     
  -1.2486594353136799E-002  0.22989894946869657        0.0000000000000000     
  -1.2573680103704387E-002  0.24681176435513991        0.0000000000000000     
  -1.2665621878723242E-002  0.26348371480487159        0.0000000000000000     
  -1.2762419678193363E-002  0.27991480081789177        0.0000000000000000     
  -1.2864073502114756E-002  0.29610502239420022        0.0000000000000000     
  -2.5308708253620700E-002  0.22994661071035699        0.0000000000000000     
  -2.5503445474574844E-002  0.24688074584344213        0.0000000000000000     
  -2.5689984796353423E-002  0.26364557698974961        0.0000000000000000     
  -2.5868326218956454E-002  0.28024110414927950        0.0000000000000000     
  -2.6038469742383920E-002  0.29666732732203177        0.0000000000000000     
  -3.8466341701456207E-002  0.23002604611312449        0.0000000000000000     
  -3.8789296112615473E-002  0.24699571499061265        0.0000000000000000     
  -3.9073088752894301E-002  0.26391534729787991        0.0000000000000000     
  -3.9317719622292670E-002  0.28078494303492635        0.0000000000000000     
  -3.9523188720810613E-002  0.29760450220175177        0.0000000000000000     
  -5.1959494696643314E-002  0.23013725567699897        0.0000000000000000     
  -5.2431232017826283E-002  0.24715667179665157        0.0000000000000000     
  -5.2814933748345859E-002  0.26429302572926261        0.0000000000000000     
  -5.3110599888202041E-002  0.28154631747483222        0.0000000000000000     
  -5.3318230437394837E-002  0.29891654703336035        0.0000000000000000     
  -3.0162758729254092E-002   5.6589415394154637E-002   0.0000000000000000     
  -3.3056390408432182E-002   6.8070923473705650E-002   0.0000000000000000     
  -3.5744626144597509E-002   8.0194336405131683E-002   0.0000000000000000     
  -3.8227465937750067E-002   9.2959654188432758E-002   0.0000000000000000     
  -4.0504909787889863E-002  0.10636687682360887        0.0000000000000000     
  -3.8280534371380417E-002   5.7794390745862956E-002   0.0000000000000000     
  -4.1899897125796712E-002   6.9090745341045395E-002   0.0000000000000000     
  -4.5271535222600523E-002   8.1073888411197656E-002   0.0000000000000000     
  -4.8395448661791865E-002   9.3743819956319752E-002   0.0000000000000000     
  -5.1271637443370738E-002  0.10710053997641165        0.0000000000000000     
  -4.5976680066284144E-002   5.9318870261409591E-002   0.0000000000000000     
  -5.0679928516396265E-002   7.0391241624696385E-002   0.0000000000000000     
  -5.5006594658457385E-002   8.2198428637129173E-002   0.0000000000000000     
  -5.8956678492467517E-002   9.4740431298707906E-002   0.0000000000000000     
  -6.2530180018426654E-002  0.10801724960943263        0.0000000000000000     
  -5.3251195813965271E-002   6.1162853940794543E-002   0.0000000000000000     
  -5.9396484580230842E-002   7.1972412324658633E-002   0.0000000000000000     
  -6.4949804452168095E-002   8.3567957082926192E-002   0.0000000000000000     
  -6.9911155429777022E-002   9.5949488215597234E-002   0.0000000000000000     
  -7.4280537513057632E-002  0.10911700572267179        0.0000000000000000     
  -6.0104081614423800E-002   6.3326341784017817E-002   0.0000000000000000     
  -6.8049565317300470E-002   7.3834257440932111E-002   0.0000000000000000     
  -7.5101164603732673E-002   8.5182473748588755E-002   0.0000000000000000     
  -8.1258879473720388E-002   9.7370990706987751E-002   0.0000000000000000     
  -8.6522709927263616E-002  0.11039980831612914        0.0000000000000000     
  -4.0504909787889863E-002  0.10636687682360887        0.0000000000000000     
  -4.2597611897895883E-002  0.12032878419910882        0.0000000000000000     
  -4.4526226470647134E-002  0.13475815620338136        0.0000000000000000     
  -4.6290753506143624E-002  0.14965499283642650        0.0000000000000000     
  -4.7891193004385338E-002  0.16501929409824423        0.0000000000000000     
  -5.1271637443370738E-002  0.10710053997641165        0.0000000000000000     
  -5.3921988449576047E-002  0.12102555737279203        0.0000000000000000     
  -5.6368388562646705E-002  0.13540038104677954        0.0000000000000000     
  -5.8610837782582713E-002  0.15022501099837413        0.0000000000000000     
  -6.0649336109384062E-002  0.16549944722757587        0.0000000000000000     
  -6.2530180018426654E-002  0.10801724960943263        0.0000000000000000     
  -6.5787084983116167E-002  0.12188195638921508        0.0000000000000000     
  -6.8787379133317436E-002  0.13618762445796712        0.0000000000000000     
  -7.1531062469030460E-002  0.15093425381568873        0.0000000000000000     
  -7.4018134990255224E-002  0.16612184446237988        0.0000000000000000     
  -7.4280537513057632E-002  0.10911700572267179        0.0000000000000000     
  -7.8192901498516265E-002  0.12289798124837802        0.0000000000000000     
  -8.1783198182659333E-002  0.13711988643694414        0.0000000000000000     
  -8.5051427565486851E-002  0.15178272128837023        0.0000000000000000     
  -8.7997589646998817E-002  0.16688648580265619        0.0000000000000000     
  -8.6522709927263616E-002  0.11039980831612914        0.0000000000000000     
  -9.1139437995776326E-002  0.12407363195028079        0.0000000000000000     
  -9.5355845710672418E-002  0.13819716698371060        0.0000000000000000     
  -9.9171933071951934E-002  0.15277041341641864        0.0000000000000000     
 -0.10258770007961485       0.16779337124840482        0.0000000000000000     
  -4.7891193004385338E-002  0.16501929409824423        0.0000000000000000     
  -4.9284258657362211E-002  0.18078769187906946        0.0000000000000000     
  -5.0426664157064163E-002  0.19689681806913695        0.0000000000000000     
  -5.1318409503491196E-002  0.21334667266844684        0.0000000000000000     
  -5.1959494696643314E-002  0.23013725567699897        0.0000000000000000     
  -6.0649336109384062E-002  0.16549944722757587        0.0000000000000000     
  -6.2437671620310810E-002  0.18117437195684635        0.0000000000000000     
  -6.3929632392623045E-002  0.19720046740864711        0.0000000000000000     
  -6.5125218426320727E-002  0.21357773358297824        0.0000000000000000     
  -6.6024429721403877E-002  0.23030617047983956        0.0000000000000000     
  -7.4018134990255224E-002  0.16612184446237988        0.0000000000000000     
  -7.6217164967472245E-002  0.18170520275183219        0.0000000000000000     
  -7.8096720671161982E-002  0.19763913503783720        0.0000000000000000     
  -7.9656802101324448E-002  0.21392364132039490        0.0000000000000000     
  -8.0897409257959685E-002  0.23055872159950527        0.0000000000000000     
  -8.7997589646998817E-002  0.16688648580265619        0.0000000000000000     
  -9.0622738698846447E-002  0.18238018426402691        0.0000000000000000     
  -9.2927928992680972E-002  0.19821282095670714        0.0000000000000000     
  -9.4913160528502419E-002  0.21438439588069685        0.0000000000000000     
  -9.6578433306310746E-002  0.23089490903599616        0.0000000000000000     
 -0.10258770007961485       0.16779337124840482        0.0000000000000000     
 -0.10565439281443345       0.18319931649343049        0.0000000000000000     
 -0.10842325735718002       0.19892152516525696        0.0000000000000000     
 -0.11089429370785457       0.21495999726388415        0.0000000000000000     
 -0.11306750186645709       0.23131473278931211        0.0000000000000000     
  -5.1959494696643314E-002  0.23013725567699897        0.0000000000000000     
  -5.2431232017826283E-002  0.24715667179665157        0.0000000000000000     
  -5.2814933748345859E-002  0.26429302572926261        0.0000000000000000     
  -5.3110599888202041E-002  0.28154631747483222        0.0000000000000000     
  -5.3318230437394837E-002  0.29891654703336035        0.0000000000000000     
  -6.6024429721403877E-002  0.23030617047983956        0.0000000000000000     
  -6.6700774602063195E-002  0.24736044261909906        0.0000000000000000     
  -6.7227761392489413E-002  0.26471521452062458        0.0000000000000000     
  -6.7605390092682544E-002  0.28237048618441613        0.0000000000000000     
  -6.7833660702642545E-002  0.30032625761047360        0.0000000000000000     
  -8.0897409257959685E-002  0.23055872159950527        0.0000000000000000     
  -8.1869445277182137E-002  0.24760385381549549        0.0000000000000000     
  -8.2623813295106277E-002  0.26511851590869262        0.0000000000000000     
  -8.3160513311732145E-002  0.28310270787909675        0.0000000000000000     
  -8.3479545327059715E-002  0.30155642972670782        0.0000000000000000     
  -9.6578433306310746E-002  0.23089490903599616        0.0000000000000000     
  -9.7937244043183075E-002  0.24788690538584085        0.0000000000000000     
  -9.9003089456196458E-002  0.26550292989346685        0.0000000000000000     
  -9.9775969545350868E-002  0.28374298255887426        0.0000000000000000     
 -0.10025588431064633       0.30260706338206300        0.0000000000000000     
 -0.11306750186645709       0.23131473278931211        0.0000000000000000     
 -0.11490417090006605       0.24820959733013503        0.0000000000000000     
 -0.11636558987575991       0.26586845647494722        0.0000000000000000     
 -0.11745175879353870       0.28429131022374854        0.0000000000000000     
 -0.11816267765340238       0.30347815857653904        0.0000000000000000     
 </DataArray>
 <DataArray  type="Float64" Name="stress" NumberOfComponents="3" format="ascii">
   8118281072.7578917        205173993.70262909        1272256432.5088720     
   7276891566.4040737        260972438.47668743        851713073.94823098     
   6417815045.8294697        257814169.18144608        558620788.63145351     
   5541051511.0340729        195699185.81690025        392979576.55853671     
   4646600962.0178890        74627488.383069277        354789437.72948235     
   6161039984.2147112       -75274335.573099852        1237980709.8860619     
   5625865789.8868856        35112145.182754755        929624555.30788243     
   5073999463.4386997        89858185.537415266        716770328.43311179     
   4505441004.8701601        88963785.490892410        599418029.26174307     
   3920190414.1812620        32428945.043173075        577567657.79378843     
   4627273977.9144592       -228680140.17594576        1188787501.8228731     
   4307031822.6398954       -91090605.330111742        993779247.01099193     
   3971092417.3454056       -5825237.2173643112        862323774.36206329     
   3619455762.0309906        27115964.162307262        794421083.87608814     
   3252121856.6966491        7732998.8088874817        790071175.55306423     
   3516983053.8571334       -255043420.10591531        1124676808.3193030     
   3320389664.6630993       -117635813.06192350        1044177149.0575587     
   3109093907.5495791       -29236099.082904339        995281126.41830897     
   2883095782.5165596        10155721.831133962        977988740.40156317     
   2642395289.5640507        539649.68019986153        992299991.00731146     
   2830167212.0427260       -154364175.36301100        1045648629.3753543     
   2665939315.9565034       -44523478.012673259        1080818261.4475822     
   2488003934.0512190        19625599.940790653        1115642384.6018527     
   2296361066.3268752        38083058.497392297        1150120998.8381691     
   2091010712.7834699        10848897.657120824        1184254104.1565292     
   4646600962.0178890        74627488.383069277        354789437.72948235     
   4261902914.8675456        73325796.119944572        251735204.52915978     
   3873030950.9122515        58111047.840321302        179936848.88120356     
   3479985070.1520042        28983243.544186831        139394370.78561467     
   3082765272.5868101       -14057616.768437147        130107770.24239789     
   3920190414.1812620        32428945.043173075        577567657.79378843     
   3610632791.8824878        31185568.255889177        489328191.06708843     
   3299690536.7436600        25326748.668433547        427619716.17941207     
   2987363648.7647910        14852486.280835748        392442233.13077056     
   2673652127.9458776       -237218.90691184998        383795741.92116040     
   3252121856.6966491        7732998.8088874817        790071175.55306423     
   3004204985.7827578        2498035.4574202299        719900639.92570662     
   2757692765.9937234        1945242.5221458673        671536210.42404008     
   2512585197.3295517        6074620.0030766726        644977887.04806268     
   2268882279.7902341        14886167.900190234        640225669.79777813     
   2642395289.5640507        539649.68019986153        992299991.00731146     
   2442619496.5683632       -12736802.275442004        943452551.10501778     
   2247037638.6624389       -12033470.598544717        911686331.61507976     
   2055649715.8462794        2649644.7109044790        897001332.53749001     
   1868455728.1198776        31312543.652879953        899397553.87225688     
   2091010712.7834699        10848897.657120824        1184254104.1565292     
   1925876324.2393045       -14518944.942708492        1159983924.6050246     
   1767725154.7498057       -16609390.693642139        1148070079.7525311     
   1616557204.3149757        4577560.4043164849        1148512569.5990548     
   1472372472.9348123        49041908.351163745        1161311394.1445909     
   3082765272.5868101       -14057616.768437147        130107770.24239789     
   2796043635.0356965       -16746193.976379514        81002824.885855019     
   2518245036.3338032        10308691.646411180        19551507.410673436     
   2249369476.4811268        67107040.099927783       -54246182.183151998     
   1989416955.4776578        153648851.38413334       -140390243.89561105     
   2673652127.9458776       -237218.90691184998        383795741.92116040     
   2364187370.4788857       -7918384.8226565123        348758272.07808793     
   2060151977.8957496        2498332.2077913284        309724602.58171368     
   1761545950.1964667        31012932.184417605        266694733.43201342     
   1468369287.3810306        77625415.107200205        219668664.62900504     
   2268882279.7902341        14886167.900190234        640225669.79777813     
   1960532038.0225844        9369703.9612127542        615179722.50859022     
   1654117487.1734290        10305543.083884537        594487748.03142154     
   1349638627.2427583        17693685.268172860        578149746.36626053     
   1047095458.2305789        31534130.514096379        566165717.51312482     
   1868455728.1198776        31312543.652879953        899397553.87225688     
   1585077637.6667986        35118072.375246406        880267176.17736137     
   1300141564.1668422        33730324.274694562        873840943.75980890     
   1013647507.6200142        27149299.351234198        880118856.61959755     
   725595468.02631116        15374997.604856104        899100914.75673199     
   1472372472.9348123        49041908.351163745        1161311394.1445909     
   1237824169.4115217        69326720.419422925        1144020633.0843954     
   998224208.87599432        72772675.780230373        1147784189.7668722     
   753572591.32822895        59379774.433577567        1172602064.1920185     
   503869316.76822960        29148016.379474983        1218474256.3598387     
   1989416955.4776578        153648851.38413334       -140390243.89561105     
   1631251374.3506565        160563766.28747439       -51555345.048884049     
   1231088263.1587288        27486914.307714999        68951593.109958589     
   788927621.90187752       -245581704.55509996        221130570.58092773     
   304769450.58009440       -658642090.30105436        404981587.36399847     
   1468369287.3810306        77625415.107200205        219668664.62900504     
   1183085588.8313076        64168789.622467220        290454504.84637690     
   851205274.17538011       -104609889.54961884        390332417.05447757     
   472728343.41325033       -428710622.40904653        519302401.25329703     
   47654796.544901013       -908133408.95583344        677364457.44286382     
   1047095458.2305789        31534130.514096379        566165717.51312482     
   827322307.05417144       -4505435.9198876619        613536898.71964312     
   556353453.73027802       -211197342.84548622        687420184.59550810     
   234188898.25890243       -588541590.26268959        787815575.14070237     
  -139171359.35995114       -1136538178.1714971        914723070.35525262     
   725595468.02631116        15374997.604856104        899100914.75673199     
   563961529.01924896       -45458910.339572698        917691836.57091689     
   346532801.82342571       -292275445.57986826        960214895.73304546     
   73309286.438834697       -725074608.11604512        1026670092.2431276     
  -255709017.13450566       -1343856397.9480779        1117057426.1011665     
   503869316.76822960        29148016.379474983        1218474256.3598387     
   393003254.72654480       -58691633.636590511        1202919318.4001927     
   221743318.45482203       -347844197.75277984        1208716550.4671054     
  -9910492.0469469428       -838309675.96911740        1235865952.5605800     
  -301958176.77874434       -1530088068.2855639        1284367524.6806202     
   2830167212.0427260       -154364175.36301100        1045648629.3753543     
   2665939315.9565034       -44523478.012673259        1080818261.4475822     
   2488003934.0512190        19625599.940790653        1115642384.6018527     
   2296361066.3268752        38083058.497392297        1150120998.8381691     
   2091010712.7834699        10848897.657120824        1184254104.1565292     
   2283158922.7795143       -67613077.395268559        1251650112.8059180     
   2118619855.5146103        2357002.0570077896        1240195150.1701119     
   1943800173.8854256        38058366.961677313        1238047245.8297505     
   1758699877.8919547        39491017.318728626        1245206399.7848394     
   1563318967.5342009        6654953.1281740665        1261672612.0353701     
   1629128291.0178723       -12968682.177053809        1440353639.2169185     
   1491856816.0411527        25404408.417226672        1386272098.5703204     
   1347731598.1549253        40931689.313148558        1351150183.4325664     
   1196752637.3591921        33613160.510718226        1334987893.8036647     
   1038919933.6539532        3448822.0099320412        1337785229.6836083     
   868075316.75780058        9569010.2916305661        1611759208.6083553     
   785650197.53612614        24618741.067971170        1519049106.6482015     
   699798206.85972166        28245566.995210469        1454951197.4102988     
   610519344.72858810        20449488.073354036        1419465480.8946452     
   517813611.14272428        1230504.3023981452        1412591957.1012418     
  -7.0191105674996491E-004   1.0787295964911811E-002   1765866820.9802291     
  -4.6812370829524448E-004   9.2462210049609680E-003   1638526174.4037614     
  -1.8739588635431235E-004   7.8616142899641667E-003   1549450287.7629452     
   1.4047828834250859E-004   6.6341620841536587E-003   1498639161.0577819     
   5.1652821214359960E-004   5.5672957086907180E-003   1486092794.2882693     
   2091010712.7834699        10848897.657120824        1184254104.1565292     
   1925876324.2393045       -14518944.942708492        1159983924.6050246     
   1767725154.7498057       -16609390.693642139        1148070079.7525311     
   1616557204.3149757        4577560.4043164849        1148512569.5990548     
   1472372472.9348123        49041908.351163745        1161311394.1445909     
   1563318967.5342009        6654953.1281740665        1261672612.0353701     
   1433489160.6944573       -14164633.451448977        1246381136.0483553     
   1308896768.1457219       -17526172.394374549        1244841098.3610635     
   1189541789.8879957       -3429663.7006080747        1257052498.9735005     
   1075424225.9212768        28124892.629856050        1283015337.8856580     
   1038919933.6539532        3448822.0099320412        1337785229.6836083     
   948380718.80637586       -11626705.463160574        1329435685.0368142     
   861333113.48614907       -15063534.511755228        1336232682.2904551     
   777777117.69327056       -6861665.1358546317        1358176221.4445336     
   697712731.42774224        12978902.664545327        1395266302.4990451     
   517813611.14272428        1230504.3023981452        1412591957.1012418     
   470550998.57506001       -6905160.9778437316        1409147571.5703993     
   425034190.77108556       -9221477.0457856953        1422244831.5407045     
   381263187.73080170       -5718443.9014267176        1451883737.0121553     
   339237989.45420927        3603938.4552384168        1498064287.9847524     
   5.1652821214359960E-004   5.5672957086907180E-003   1486092794.2882693     
   5.1112960018319712E-004   4.5056906923417288E-003   1485516795.6491115     
   5.3400507459168238E-004   3.5383326305557000E-003   1502877546.1118095     
   5.9055324732945830E-004   2.6828699518387767E-003   1538175045.6763656     
   6.7720554438880081E-004   1.9284482435841335E-003   1591409294.3427789     
   1472372472.9348123        49041908.351163745        1161311394.1445909     
   1237824169.4115217        69326720.419422925        1144020633.0843954     
   998224208.87599432        72772675.780230373        1147784189.7668722     
   753572591.32822895        59379774.433577567        1172602064.1920185     
   503869316.76822960        29148016.379474983        1218474256.3598387     
   1075424225.9212768        28124892.629856050        1283015337.8856580     
   895048264.22244418        41999081.463975370        1267821425.9807143     
   710883559.76444542        43244127.767541140        1274723603.0982561     
   522930112.54728150        31860031.540557802        1303721869.2382824     
   331187922.57095176        7846792.7830159515        1354816224.4007871     
   697712731.42774224        12978902.664545327        1395266302.4990451     
   574485600.92425561        21335415.075792819        1383642639.7112722     
   448732641.91467345        21272499.133387879        1395156837.2257929     
   320453854.39899689        12790154.837333426        1429808895.0426068     
   189649238.37722337       -4111617.8123765662        1487598813.1617150     
   339237989.45420927        3603938.4552384168        1498064287.9847524     
   276136179.51695424        7335721.2548722625        1491484274.2760656     
   211771455.32667905        6857789.8777714148        1509083892.1494827     
   146143816.88337547        2170144.3239097670        1550863141.6050031     
   79253264.187046140       -6727215.4067045823        1616822022.6426263     
   6.7720554438880081E-004   1.9284482435841335E-003   1591409294.3427789     
   5.4434478902431788E-004   1.2274522058105079E-003   1591346329.6750934     
   4.5705197868153771E-004   6.7834931810922513E-004   1616504767.8693223     
   4.1445784533293789E-004   2.7962979916932516E-004   1666884608.9254656     
   4.1807217028947861E-004   3.2162917018330433E-005   1742485852.8435233     
   503869316.76822960        29148016.379474983        1218474256.3598387     
   393003254.72654480       -58691633.636590511        1202919318.4001927     
   221743318.45482203       -347844197.75277984        1208716550.4671054     
  -9910492.0469469428       -838309675.96911740        1235865952.5605800     
  -301958176.77874434       -1530088068.2855639        1284367524.6806202     
   331187922.57095176        7846792.7830159515        1354816224.4007871     
   276379392.77855605       -49530639.707413167        1285202703.0463409     
   176275457.31362399       -257892757.77296779        1230328447.8127186     
   30876116.176159620       -617239561.41363204        1190193458.6999142     
  -159818630.63384062       -1127571050.6294074        1164797735.7079384     
   189649238.37722337       -4111617.8123765662        1487598813.1617150     
   172004229.67485204       -36695036.124964580        1381541588.3962319     
   124162283.85745184       -169934911.48765081        1283610725.8458302     
   46123400.925025284       -403831243.90042210        1193806225.5105042     
  -62112419.122428954       -738384033.36329186        1112128087.3902619     
   79253264.187046140       -6727215.4067045823        1616822022.6426263     
   79877765.415439442       -20184822.889219817        1491935974.4498615     
   65403798.086310178       -83970658.896813244        1368563384.5664351     
   35831362.199658737       -198084723.42948022        1246704252.9923415     
  -8839542.2445180267       -362527016.48722655        1126358579.7275915     
   4.1807217028947861E-004   3.2162917018330433E-005   1742485852.8435233     
   3.1421751647495502E-004  -1.9050695087386617E-004   1616385861.2072325     
   1.8808215058656669E-004  -4.8813974840266922E-004   1485186423.9745362     
   5.2384836395431475E-005  -8.1487014937906574E-004   1348887541.1454396     
  -1.0449516709796114E-004  -1.2170667404290555E-003   1207489212.7199349     
  -7.0191105674996491E-004   1.0787295964911811E-002   1765866820.9802291     
  -4.6812370829524448E-004   9.2462210049609680E-003   1638526174.4037614     
  -1.8739588635431235E-004   7.8616142899641667E-003   1549450287.7629452     
   1.4047828834250859E-004   6.6341620841536587E-003   1498639161.0577819     
   5.1652821214359960E-004   5.5672957086907180E-003   1486092794.2882693     
  -868075316.75905788       -9569010.2700719833        1611759208.6071420     
  -785650197.53706276       -24618741.049887240        1519049106.6472268     
  -699798206.86020195       -28245566.980152160        1454951197.4095418     
  -610519344.72847605       -20449488.060862184        1419465480.8940835     
  -517813611.14188504       -1230504.2920269966        1412591957.1008518     
  -1629128291.0186543        12968682.198698401        1440353639.2143359     
  -1491856816.0418227       -25404408.399469912        1386272098.5682602     
  -1347731598.1553090       -40931689.298694909        1351150183.4309926     
  -1196752637.3591111       -33613160.498972297        1334987893.8025270     
  -1038919933.6532286       -3448822.0003038645        1337785229.6828647     
  -2283158922.7794876        67613077.417096615        1251650112.8018029     
  -2118619855.5147479       -2357002.0395032167        1240195150.1668580     
  -1943800173.8855054       -38058366.947762966        1238047245.8272946     
  -1758699877.8917599       -39491017.307679951        1245206399.7831125     
  -1563318967.5335147       -6654953.1192626953        1261672612.0343068     
  -2830167212.0415626        154364175.38512254        1045648629.3695499     
  -2665939315.9558372        44523478.030016661        1080818261.4430230     
  -2488003934.0507917       -19625599.927355647        1115642384.5984523     
  -2296361066.3264289       -38083058.486999273        1150120998.8358371     
  -2091010712.7827427       -10848897.648904085        1184254104.1551783     
   5.1652821214359960E-004   5.5672957086907180E-003   1486092794.2882693     
   5.1112960018319712E-004   4.5056906923417288E-003   1485516795.6491115     
   5.3400507459168238E-004   3.5383326305557000E-003   1502877546.1118095     
   5.9055324732945830E-004   2.6828699518387767E-003   1538175045.6763656     
   6.7720554438880081E-004   1.9284482435841335E-003   1591409294.3427789     
  -517813611.14188504       -1230504.2920269966        1412591957.1008518     
  -470550998.57422078        6905160.9861819744        1409147571.5701070     
  -425034190.77018112        9221477.0523095131        1422244831.5404942     
  -381263187.72976452        5718443.9063600153        1451883737.0120142     
  -339237989.45297468       -3603938.4516789168        1498064287.9846694     
  -1038919933.6532286       -3448822.0003038645        1337785229.6828647     
  -948380718.80567563        11626705.470845103        1329435685.0362668     
  -861333113.48540354        15063534.517723501        1336232682.2900777     
  -777777117.69241035        6861665.1403399408        1358176221.4442985     
  -697712731.42669475       -12978902.661303431        1395266302.4989307     
  -1563318967.5335147       -6654953.1192626953        1261672612.0343068     
  -1433489160.6938519        14164633.458496571        1246381136.0475905     
  -1308896768.1451292        17526172.399792314        1244841098.3605616     
  -1189541789.8873398        3429663.7046430707        1257052498.9732177     
  -1075424225.9204848       -28124892.626955628        1283015337.8855639     
  -2091010712.7827427       -10848897.648904085        1184254104.1551783     
  -1925876324.2387564        14518944.949117899        1159983924.6040807     
  -1767725154.7493634        16609390.698501587        1148070079.7519464     
  -1616557204.3145595       -4577560.4007484913        1148512569.5987756     
  -1472372472.9343417       -49041908.348617792        1161311394.1445677     
   6.7720554438880081E-004   1.9284482435841335E-003   1591409294.3427789     
   5.4434478902431788E-004   1.2274522058105079E-003   1591346329.6750934     
   4.5705197868153771E-004   6.7834931810922513E-004   1616504767.8693223     
   4.1445784533293789E-004   2.7962979916932516E-004   1666884608.9254656     
   4.1807217028947861E-004   3.2162917018330433E-005   1742485852.8435233     
  -339237989.45297468       -3603938.4516789168        1498064287.9846694     
  -276136179.51594949       -7335721.2525940835        1491484274.2760594     
  -211771455.32581940       -6857789.8764937147        1509083892.1495538     
  -146143816.88258198       -2170144.3233668134        1550863141.6051533     
  -79253264.186234355        6727215.4067907408        1616822022.6428556     
  -697712731.42669475       -12978902.661303431        1395266302.4989307     
  -574485600.92339873       -21335415.073699713        1383642639.7113016     
  -448732641.91393721       -21272499.132208198        1395156837.2259665     
  -320453854.39830768       -12790154.836825356        1429808895.0429204     
  -189649238.37651116        4111617.8124486804        1487598813.1621706     
  -1075424225.9204848       -28124892.626955628        1283015337.8855639     
  -895048264.22180688       -41999081.462097615        1267821425.9808164     
  -710883559.76390219       -43244127.766486824        1274723603.0985560     
  -522930112.54676861       -31860031.540111154        1303721869.2387741     
  -331187922.57040513       -7846792.7829701900        1354816224.4014750     
  -1472372472.9343417       -49041908.348617792        1161311394.1445677     
  -1237824169.4111681       -69326720.417774796        1144020633.0846093     
  -998224208.87570667       -72772675.779304773        1147784189.7673237     
  -753572591.32795715       -59379774.433206230        1172602064.1927099     
  -503869316.76791936       -29148016.379481837        1218474256.3607647     
   4.1807217028947861E-004   3.2162917018330433E-005   1742485852.8435233     
   3.1421751647495502E-004  -1.9050695087386617E-004   1616385861.2072325     
   1.8808215058656669E-004  -4.8813974840266922E-004   1485186423.9745362     
   5.2384836395431475E-005  -8.1487014937906574E-004   1348887541.1454396     
  -1.0449516709796114E-004  -1.2170667404290555E-003   1207489212.7199349     
  -79253264.186234355        6727215.4067907408        1616822022.6428556     
  -79877765.414827511        20184822.888875902        1491935974.4500327     
  -65403798.085924014        83970658.895948842        1368563384.5665491     
  -35831362.199519500        198084723.42802501        1246704252.9924171     
   8839542.2443834096        362527016.48509449        1126358579.7276111     
  -189649238.37651116        4111617.8124486804        1487598813.1621706     
  -172004229.67431960        36695036.124633044        1381541588.3965874     
  -124162283.85711497        169934911.48685798        1283610725.8460908     
  -46123400.924897432        403831243.89913124        1193806225.5106754     
   62112419.122333586        738384033.36144483        1112128087.3903553     
  -331187922.57040513       -7846792.7829701900        1354816224.4014750     
  -276379392.77816045        49530639.707082629        1285202703.0468967     
  -176275457.31338596        257892757.77224189        1230328447.8131487     
  -30876116.176081538        617239561.41249812        1190193458.7002358     
   159818630.63374811        1127571050.6278343        1164797735.7081389     
  -503869316.76791936       -29148016.379481837        1218474256.3607647     
  -393003254.72634727        58691633.636240125        1202919318.4009573     
  -221743318.45473072        347844197.75211287        1208716550.4677272     
   9910492.0469249487        838309675.96811628        1235865952.5610769     
   301958176.77862453        1530088068.2842624        1284367524.6809943     
  -2830167212.0415626        154364175.38512254        1045648629.3695499     
  -2665939315.9558372        44523478.030016661        1080818261.4430230     
  -2488003934.0507917       -19625599.927355647        1115642384.5984523     
  -2296361066.3264289       -38083058.486999273        1150120998.8358371     
  -2091010712.7827427       -10848897.648904085        1184254104.1551783     
  -3516983053.8559442        255043420.12559509        1124676808.3135412     
  -3320389664.6626196        117635813.07677293        1044177149.0530392     
  -3109093907.5494952        29236099.093938112        995281126.41497958     
  -2883095782.5165758       -10155721.822909117        977988740.39936101     
  -2642395289.5638618       -539649.67377007008        992299991.00618315     
  -4627273977.9142389        228680140.19289136        1188787501.8171279     
  -4307031822.6404963        91090605.342201471        993779247.00654173     
  -3971092417.3464746        5825237.2257561684        862323774.35888016     
  -3619455762.0321875       -27115964.156460285        794421083.87414551     
  -3252121856.6976271       -7732998.8044289351        790071175.55234098     
  -6161039984.2164497        75274335.587014437        1237980709.8803129     
  -5625865789.8894691       -35112145.173698425        929624555.30352831     
  -5073999463.4417391       -89858185.531919956        716770328.43015492     
  -4505441004.8732595       -88963785.487643480        599418029.26019585     
  -3920190414.1840386       -32428945.040882826        577567657.79364848     
  -8118281072.7625628       -205173993.69203377        1272256432.5030935     
  -7276891566.4095335       -260972438.47092772        851713073.94400036     
  -6417815045.8352766       -257814169.17907143        558620788.62880254     
  -5541051511.0397987       -195699185.81647921        392979576.55750537     
  -4646600962.0230961       -74627488.383125544        354789437.73010623     
  -2091010712.7827427       -10848897.648904085        1184254104.1551783     
  -1925876324.2387564        14518944.949117899        1159983924.6040807     
  -1767725154.7493634        16609390.698501587        1148070079.7519464     
  -1616557204.3145595       -4577560.4007484913        1148512569.5987756     
  -1472372472.9343417       -49041908.348617792        1161311394.1445677     
  -2642395289.5638618       -539649.67377007008        992299991.00618315     
  -2442619496.5683098        12736802.280515671        943452551.10416937     
  -2247037638.6624703        12033470.602423310        911686331.61449134     
  -2055649715.8463409       -2649644.7080328465        897001332.53714526     
  -1868455728.1199241       -31312543.650867105        899397553.87213647     
  -3252121856.6976271       -7732998.8044289351        790071175.55234098     
  -3004204985.7837291       -2498035.4538457394        719900639.92510021     
  -2757692765.9946699       -1945242.5193808079        671536210.42356908     
  -2512585197.3304391       -6074620.0010139942        644977887.04774308     
  -2268882279.7910461       -14886167.898775101        640225669.79762411     
  -3920190414.1840386       -32428945.040882826        577567657.79364848     
  -3610632791.8850183       -31185568.253960848        489328191.06687450     
  -3299690536.7459631       -25326748.666916251        427619716.17918026     
  -2987363648.7668529       -14852486.279687166        392442233.13056552     
  -2673652127.9477029        237218.90766835213        383795741.92103207     
  -4646600962.0230961       -74627488.383125544        354789437.73010623     
  -4261902914.8721809       -73325796.119853258        251735204.52949348     
  -3873030950.9163499       -58111047.840183496        179936848.88132814     
  -3479985070.1555829       -28983243.544069290        139394370.78561762     
  -3082765272.5899038        14057616.768428326        130107770.24235561     
  -1472372472.9343417       -49041908.348617792        1161311394.1445677     
  -1237824169.4111681       -69326720.417774796        1144020633.0846093     
  -998224208.87570667       -72772675.779304773        1147784189.7673237     
  -753572591.32795715       -59379774.433206230        1172602064.1927099     
  -503869316.76791936       -29148016.379481837        1218474256.3607647     
  -1868455728.1199241       -31312543.650867105        899397553.87213647     
  -1585077637.6668966       -35118072.373957753        880267176.17745388     
  -1300141564.1669478       -33730324.273983538        873840943.76012599     
  -1013647507.6200843       -27149299.350953817        880118856.62015438     
  -725595468.02630401       -15374997.604868919        899100914.75754011     
  -2268882279.7910461       -14886167.898775101        640225669.79762411     
  -1960532038.0233479       -9369703.9603525400        615179722.50861645     
  -1654117487.1740978       -10305543.083427727        594487748.03164911     
  -1349638627.2433078       -17693685.268033564        578149746.36672270     
  -1047095458.2309668       -31534130.514137805        566165717.51383674     
  -2673652127.9477029        237218.90766835213        383795741.92103207     
  -2364187370.4805236        7918384.8230361938        348758272.07809782     
  -2060151977.8971632       -2498332.2076600790        309724602.58189350     
  -1761545950.1976249       -31012932.184436321        266694733.43241358     
  -1468369287.3819113       -77625415.107282102        219668664.62966052     
  -3082765272.5899038        14057616.768428326        130107770.24235561     
  -2796043635.0384264        16746193.976206779        81002824.885901138     
  -2518245036.3361325       -10308691.646648765        19551507.410861749     
  -2249369476.4830470       -67107040.100181818       -54246182.182776660     
  -1989416955.4791431       -153648851.38433254       -140390243.89499742     
  -503869316.76791936       -29148016.379481837        1218474256.3607647     
  -393003254.72634727        58691633.636240125        1202919318.4009573     
  -221743318.45473072        347844197.75211287        1208716550.4677272     
   9910492.0469249487        838309675.96811628        1235865952.5610769     
   301958176.77862453        1530088068.2842624        1284367524.6809943     
  -725595468.02630401       -15374997.604868919        899100914.75754011     
  -563961529.01927328        45458910.339301437        917691836.57154107     
  -346532801.82347369        292275445.57936800        960214895.73352170     
  -73309286.438915402        725074608.11529565        1026670092.2434886     
   255709017.13440382        1343856397.9471014        1117057426.1014335     
  -1047095458.2309668       -31534130.514137805        566165717.51383674     
  -827322307.05445755        4505435.9196977615        613536898.72015202     
  -556353453.73045874        211197342.84516430        687420184.59585893     
  -234188898.25898504        588541590.26221824        787815575.14094973     
   139171359.35997501        1136538178.1708848        914723070.35543191     
  -1468369287.3819113       -77625415.107282102        219668664.62966052     
  -1183085588.8319035       -64168789.622570693        290454504.84679407     
  -851205274.17569864        104609889.54945731        390332417.05472815     
  -472728343.41327739        428710622.40887463        519302401.25345349     
  -47654796.544668436        908133408.95559359        677364457.44297087     
  -1989416955.4791431       -153648851.38433254       -140390243.89499742     
  -1631251374.3516278       -160563766.28756917       -51555345.048533686     
  -1231088263.1591725       -27486914.307673275        68951593.110131845     
  -788927621.90181077        245581704.55525035        221130570.58099893     
  -304769450.57952201        658642090.30125260        404981587.36406249     
 </DataArray>
 <DataArray  type="Float64" Name="VM" NumberOfComponents="1" format="ascii">
   8314976433.1880894     
   7300577705.0337143     
   6366819143.8723001     
   5488211875.7168884     
   4650519566.4901133     
   6559393022.0782957     
   5834952268.3274679     
   5180625809.1516514     
   4580829405.0103273     
   4030207200.4306703     
   5173178124.5737114     
   4681232992.5866404     
   4245414979.8718185     
   3859580913.9856200     
   3524747523.2915406     
   4138344367.4109244     
   3834102268.2556648     
   3567908493.0536213     
   3339528475.7174387     
   3151952570.4265308     
   3427928579.0295100     
   3276036631.3290529     
   3142561687.7202110     
   3025823350.6554675     
   2925257542.1605921     
   4650519566.4901133     
   4248152250.5099254     
   3856917365.2653933     
   3473984345.6597490     
   3098025140.4528427     
   4030207200.4306703     
   3693693043.2597313     
   3369511020.0980415     
   3056505375.0541415     
   2755167420.1267743     
   3524747523.2915406     
   3251541176.1660972     
   2992054718.7648821     
   2746970640.3402972     
   2518717959.5544634     
   3151952570.4265308     
   2944141902.3664122     
   2751341221.4954848     
   2575672767.4922171     
   2420815784.3004007     
   2925257542.1605921     
   2788164310.8633442     
   2666211480.0588503     
   2561859018.0205450     
   2478711422.1838355     
   3098025140.4528427     
   2807961521.4659762     
   2513334698.1450195     
   2218568415.3846869     
   1932574558.4281094     
   2755167420.1267743     
   2443984894.7919183     
   2127645049.8110509     
   1806309351.7014709     
   1480849168.6834602     
   2518717959.5544634     
   2227272397.2652745     
   1944070815.1298740     
   1673537808.7207944     
   1423381506.9247177     
   2420815784.3004007     
   2186927166.0493274     
   1984551740.3334746     
   1823328313.7906582     
   1714851745.7605042     
   2478711422.1838355     
   2318954550.0485129     
   2209373129.5673428     
   2156765504.2592545     
   2166583865.0687056     
   1932574558.4281094     
   1559748622.6143277     
   1223420610.8807640     
   1011513491.8059890     
   1104290753.1192155     
   1480849168.6834602     
   1257371636.3762574     
   1132084945.9744081     
   1191198345.6209133     
   1498906936.9228673     
   1423381506.9247177     
   1348144103.8009787     
   1374508415.6822443     
   1549521116.8108175     
   1913914580.3319683     
   1714851745.7605042     
   1694765799.7647793     
   1752949196.5976529     
   1935566215.8314939     
   2295899126.8529081     
   2166583865.0687056     
   2126501100.1337714     
   2151809682.5750842     
   2297095389.2676940     
   2630423055.1729970     
   3427928579.0295100     
   3276036631.3290529     
   3142561687.7202110     
   3025823350.6554675     
   2925257542.1605921     
   3173584977.6735711     
   3016258292.6199107     
   2881685729.5157619     
   2770694657.9883413     
   2684969275.0719647     
   2983154478.1255202     
   2820218679.0219693     
   2690671177.8609514     
   2596092854.8304191     
   2538659377.5577540     
   2922095641.7413249     
   2742451669.9010906     
   2611780638.9092035     
   2530872181.3134117     
   2500748565.9199138     
   3058571053.3378921     
   2838010583.5987778     
   2683726622.2076387     
   2595719169.1644759     
   2573988224.4692860     
   2925257542.1605921     
   2788164310.8633442     
   2666211480.0588503     
   2561859018.0205450     
   2478711422.1838355     
   2684969275.0719647     
   2595340915.5790577     
   2526924206.8753095     
   2481863033.3494916     
   2462816914.8655334     
   2538659377.5577540     
   2492545974.1629715     
   2472175096.3886600     
   2478759592.7963004     
   2513606995.2460332     
   2500748565.9199138     
   2486323749.8945751     
   2500599852.9412794     
   2543909139.1932945     
   2616574600.8534598     
   2573988224.4692860     
   2572990565.5611744     
   2603060267.4200921     
   2664197330.0460439     
   2756401753.4390273     
   2478711422.1838355     
   2318954550.0485129     
   2209373129.5673428     
   2156765504.2592545     
   2166583865.0687056     
   2462816914.8655334     
   2363767674.2217021     
   2313275760.3733387     
   2314494011.9450941     
   2369330972.0070772     
   2513606995.2460332     
   2462038358.7865782     
   2455942922.7440286     
   2496360557.9869337     
   2583720997.1212335     
   2616574600.8534598     
   2597663443.4894819     
   2622106877.1248708     
   2690088292.8877563     
   2801642348.3017740     
   2756401753.4390273     
   2756292695.4355145     
   2799868388.6269999     
   2887128833.0134850     
   3018074028.5949683     
   2166583865.0687056     
   2126501100.1337714     
   2151809682.5750842     
   2297095389.2676940     
   2630423055.1729970     
   2369330972.0070772     
   2246723406.4080076     
   2164293451.3759766     
   2156542922.9503269     
   2277501460.5905852     
   2583720997.1212335     
   2400669732.2890892     
   2237937251.1560311     
   2111718026.6869047     
   2052728126.9248683     
   2801642348.3017740     
   2585733756.3259492     
   2373966710.1935425     
   2170353329.0531788     
   1983519688.0018802     
   3018074028.5949683     
   2799662436.2469025     
   2572418345.0354285     
   2336341754.9605560     
   2091432666.0222712     
   3058571053.3378921     
   2838010583.5987778     
   2683726622.2076387     
   2595719169.1644759     
   2573988224.4692860     
   2922095641.7428203     
   2742451669.9021635     
   2611780638.9099188     
   2530872181.3138456     
   2500748565.9201479     
   2983154478.1282120     
   2820218679.0238194     
   2690671177.8621697     
   2596092854.8311825     
   2538659377.5582395     
   3173584977.6769996     
   3016258292.6221275     
   2881685729.5171590     
   2770694657.9892402     
   2684969275.0726399     
   3427928579.0333357     
   3276036631.3312860     
   3142561687.7214870     
   3025823350.6562858     
   2925257542.1613393     
   2573988224.4692860     
   2572990565.5611744     
   2603060267.4200921     
   2664197330.0460439     
   2756401753.4390273     
   2500748565.9201479     
   2486323749.8947306     
   2500599852.9413438     
   2543909139.1932769     
   2616574600.8533835     
   2538659377.5582395     
   2492545974.1633258     
   2472175096.3888617     
   2478759592.7963595     
   2513606995.2459879     
   2684969275.0726399     
   2595340915.5796046     
   2526924206.8756995     
   2481863033.3497195     
   2462816914.8656454     
   2925257542.1613393     
   2788164310.8640332     
   2666211480.0594420     
   2561859018.0210266     
   2478711422.1842341     
   2756401753.4390273     
   2756292695.4355145     
   2799868388.6269999     
   2887128833.0134850     
   3018074028.5949683     
   2616574600.8533835     
   2597663443.4894805     
   2622106877.1249733     
   2690088292.8879876     
   2801642348.3021488     
   2513606995.2459879     
   2462038358.7866573     
   2455942922.7442908     
   2496360557.9874153     
   2583720997.1219702     
   2462816914.8656454     
   2363767674.2219529     
   2313275760.3738151     
   2314494011.9458570     
   2369330972.0081849     
   2478711422.1842341     
   2318954550.0490370     
   2209373129.5681005     
   2156765504.2603455     
   2166583865.0701976     
   3018074028.5949683     
   2799662436.2469025     
   2572418345.0354285     
   2336341754.9605560     
   2091432666.0222712     
   2801642348.3021488     
   2585733756.3262162     
   2373966710.1936793     
   2170353329.0531554     
   1983519688.0015402     
   2583720997.1219702     
   2400669732.2896438     
   2237937251.1563654     
   2111718026.6869187     
   2052728126.9243982     
   2369330972.0081849     
   2246723406.4088807     
   2164293451.3765602     
   2156542922.9505143     
   2277501460.5901861     
   2166583865.0701976     
   2126501100.1349878     
   2151809682.5759730     
   2297095389.2681365     
   2630423055.1728835     
   3427928579.0333357     
   3276036631.3312860     
   3142561687.7214870     
   3025823350.6562858     
   2925257542.1613393     
   4138344367.4147549     
   3834102268.2584352     
   3567908493.0556598     
   3339528475.7190433     
   3151952570.4280014     
   5173178124.5778761     
   4681232992.5901613     
   4245414979.8748159     
   3859580913.9882398     
   3524747523.2940025     
   6559393022.0833778     
   5834952268.3321810     
   5180625809.1559706     
   4580829405.0142717     
   4030207200.4343948     
   8314976433.1948500     
   7300577705.0402422     
   6366819143.8784389     
   5488211875.7225437     
   4650519566.4953909     
   2925257542.1613393     
   2788164310.8640332     
   2666211480.0594420     
   2561859018.0210266     
   2478711422.1842341     
   3151952570.4280014     
   2944141902.3676786     
   2751341221.4965262     
   2575672767.4930487     
   2420815784.3010530     
   3524747523.2940025     
   3251541176.1682405     
   2992054718.7667098     
   2746970640.3418212     
   2518717959.5557041     
   4030207200.4343948     
   3693693043.2630353     
   3369511020.1009312     
   3056505375.0566287     
   2755167420.1288590     
   4650519566.4953909     
   4248152250.5146394     
   3856917365.2695622     
   3473984345.6633773     
   3098025140.4559188     
   2478711422.1842341     
   2318954550.0490370     
   2209373129.5681005     
   2156765504.2603455     
   2166583865.0701976     
   2420815784.3010530     
   2186927166.0499554     
   1984551740.3341827     
   1823328313.7915766     
   1714851745.7617695     
   2518717959.5557041     
   2227272397.2663417     
   1944070815.1308422     
   1673537808.7217684     
   1423381506.9258339     
   2755167420.1288590     
   2443984894.7936945     
   2127645049.8125608     
   1806309351.7027586     
   1480849168.6845658     
   3098025140.4559188     
   2807961521.4686193     
   2513334698.1472349     
   2218568415.3864565     
   1932574558.4293590     
   2166583865.0701976     
   2126501100.1349878     
   2151809682.5759730     
   2297095389.2681365     
   2630423055.1728835     
   1714851745.7617695     
   1694765799.7657492     
   1752949196.5983160     
   1935566215.8317914     
   2295899126.8527994     
   1423381506.9258339     
   1348144103.8017905     
   1374508415.6827433     
   1549521116.8110080     
   1913914580.3318787     
   1480849168.6845658     
   1257371636.3770485     
   1132084945.9748461     
   1191198345.6210375     
   1498906936.9227855     
   1932574558.4293590     
   1559748622.6152191     
   1223420610.8812549     
   1011513491.8060707     
   1104290753.1191027     
 </DataArray>
 <DataArray  type="Float64" Name="strain" NumberOfComponents="3" format="ascii">
  0.13427881457745172       -3.7171838802078971E-002   5.5131112075384459E-002
  0.11997666391435113       -3.2034917190742251E-002   3.6907566537756675E-002
  0.10567451325125060       -2.7792172409456584E-002   2.4206900840696322E-002
   9.1372362588150041E-002  -2.4443604458222024E-002   1.7029114984203259E-002
   7.7070211925049481E-002  -2.1989213337038294E-002   1.5374208968277570E-002
  0.10306037141477736       -3.2059772180625223E-002   5.3645830761729352E-002
   9.3588869105534322E-002  -2.7544126529721852E-002   4.0283730730008238E-002
   8.4117366796291254E-002  -2.3872360891569910E-002   3.1060047565434845E-002
   7.4645864487048200E-002  -2.1044475266169260E-002   2.5974781268008867E-002
   6.5174362177805173E-002  -1.9060469653520096E-002   2.5027931837730832E-002
   7.8264633666120714E-002  -2.6947705559171392E-002   5.1514125078991169E-002
   7.2239316737315484E-002  -2.3053335868701341E-002   4.3063767370476319E-002
   6.6213999808510240E-002  -1.9952549373683098E-002   3.7367363555689412E-002
   6.0188682879704976E-002  -1.7645346074116497E-002   3.4424913634630488E-002
   5.4163365950899711E-002  -1.6131725970001787E-002   3.4236417607299452E-002
   5.9891601331481796E-002  -2.1835638937717589E-002   4.8735995027169798E-002
   5.5928006809694605E-002  -1.8562545207680886E-002   4.5247676459160877E-002
   5.1964412287907505E-002  -1.6032737855796300E-002   4.3128848811460056E-002
   4.8000817766120328E-002  -1.4246216882063900E-002   4.2379512084067740E-002
   4.4037223244333179E-002  -1.3202982286483589E-002   4.2999666276983498E-002
   4.7941274410860490E-002  -1.6723572316263813E-002   4.5311440606265352E-002
   4.4654939322671755E-002  -1.4071754546660403E-002   4.6835457996061897E-002
   4.1368604234483033E-002  -1.2112926337909585E-002   4.8344503332746952E-002
   3.8082269146294291E-002  -1.0847087690011172E-002   4.9838576616320657E-002
   3.4795934058105563E-002  -1.0274238602965335E-002   5.1317677846782928E-002
   7.7070211925049481E-002  -2.1989213337038294E-002   1.5374208968277570E-002
   7.0665086267192700E-002  -2.0087417972338650E-002   1.0908525529596924E-002
   6.4259960609335920E-002  -1.8396637290555906E-002   7.7972634515188211E-003
   5.7854834951479139E-002  -1.6916871291690241E-002   6.0404227340433020E-003
   5.1449709293622359E-002  -1.5648119975741337E-002   5.6380033771705751E-003
   6.5174362177805173E-002  -1.9060469653520096E-002   2.5027931837730832E-002
   6.0021285356762016E-002  -1.7533404488480953E-002   2.1204221612907165E-002
   5.4868208535718832E-002  -1.6076340205911074E-002   1.8530187701107856E-002
   4.9715131714675675E-002  -1.4689276805810027E-002   1.7005830102333391E-002
   4.4562054893632519E-002  -1.3372214288177919E-002   1.6631148816583619E-002
   5.4163365950899711E-002  -1.6131725970001787E-002   3.4236417607299452E-002
   5.0057592919092189E-002  -1.4979391004623449E-002   3.1195694396780618E-002
   4.5951819887284667E-002  -1.3756043121266187E-002   2.9099902451708404E-002
   4.1846046855477145E-002  -1.2461682319929814E-002   2.7949041772082718E-002
   3.7740273823669623E-002  -1.1096308600614668E-002   2.7743112357903721E-002
   4.4037223244333179E-002  -1.3202982286483589E-002   4.2999666276983498E-002
   4.0774008954183261E-002  -1.2425377520765848E-002   4.0882943881217437E-002
   3.7510794664033370E-002  -1.1435746036621272E-002   3.9506407703320125E-002
   3.4247580373883466E-002  -1.0234087834049655E-002   3.8870057743291234E-002
   3.0984366083733561E-002  -8.8204029130513895E-003   3.8973894001131132E-002
   3.4795934058105563E-002  -1.0274238602965335E-002   5.1317677846782928E-002
   3.2170533462035286E-002  -9.8713640369083311E-003   5.0265970066217733E-002
   2.9545132865964975E-002  -9.1154489519763987E-003   4.9749703455943012E-002
   2.6919732269894681E-002  -8.0064933481696042E-003   4.9768878015959042E-002
   2.4294331673824388E-002  -6.5444972254879996E-003   5.0323493746265602E-002
   5.1449709293622359E-002  -1.5648119975741337E-002   5.6380033771705751E-003
   4.6684458220476843E-002  -1.4259321408118142E-002   3.5101224117203844E-003
   4.1919207147331328E-002  -1.2419413654228828E-002   8.4723198779584896E-004
   3.7153956074185812E-002  -1.0128396714073507E-002  -2.3506678946032533E-003
   3.2388705001040297E-002  -7.3862705876527324E-003  -6.0835772354764783E-003
   4.4562054893632519E-002  -1.3372214288177919E-002   1.6631148816583619E-002
   3.9442714765428044E-002  -1.1952909932772038E-002   1.5112858456717143E-002
   3.4323374637223542E-002  -1.0259121019348894E-002   1.3421399445207594E-002
   2.9204034509019025E-002  -8.2908475479087085E-003   1.1556771782053915E-002
   2.4084694380814509E-002  -6.0480895184518157E-003   9.5189754672568849E-003
   3.7740273823669623E-002  -1.1096308600614668E-002   2.7743112357903721E-002
   3.2628685447237016E-002  -9.6464984574260448E-003   2.6657787975372244E-002
   2.7517097070804394E-002  -8.0988283844690701E-003   2.5761135748028269E-002
   2.2405508694371773E-002  -6.4532983817442435E-003   2.5053155675871290E-002
   1.7293920317939165E-002  -4.7099084492512877E-003   2.4533847758902078E-002
   3.0984366083733561E-002  -8.8204029130513895E-003   3.8973894001131132E-002
   2.6242370265903741E-002  -7.3400869820798853E-003   3.8144910967685658E-002
   2.1500374448073900E-002  -5.9385357495893021E-003   3.7866440896258388E-002
   1.6758378630244066E-002  -4.6157492155795010E-003   3.8138483786849225E-002
   1.2016382812414239E-002  -3.3717273800506209E-003   3.8961039639458385E-002
   2.4294331673824388E-002  -6.5444972254879996E-003   5.0323493746265602E-002
   2.0283769221428244E-002  -5.0336755067338923E-003   4.9574227433657136E-002
   1.6273206769032086E-002  -3.7782431147094647E-003   4.9737314889897799E-002
   1.2262644316635929E-002  -2.7782000494148522E-003   5.0812756114987465E-002
   8.2520818642397853E-003  -2.0335463108498986E-003   5.2800551108926341E-002
   3.2388705001040297E-002  -7.3862705876527324E-003  -6.0835772354764783E-003
   2.6384704074406906E-002  -5.4801941002953769E-003  -2.2340649521183087E-003
   2.0380703147773571E-002  -5.6973260773317269E-003   2.9879023680982053E-003
   1.4376702221140125E-002  -8.0376665187610538E-003   9.5823247251735355E-003
   8.3727012945068457E-003  -1.2501215424584711E-002   1.7549202119106599E-002
   2.4084694380814509E-002  -6.0480895184518157E-003   9.5189754672568849E-003
   1.9397249199076122E-002  -4.8459481171154173E-003   1.2586361876676333E-002
   1.4709804017337763E-002  -5.9995245300372146E-003   1.6914404739027361E-002
   1.0022358835599404E-002  -9.5088187572170274E-003   2.2503104054309539E-002
   5.3349136538608510E-003  -1.5373830798655064E-002   2.9352459822524102E-002
   1.7293920317939165E-002  -4.7099084492512877E-003   2.4533847758902078E-002
   1.3811232297168963E-002  -4.2117021339356520E-003   2.6586598944517870E-002
   1.0328544276398732E-002  -6.3017229827428273E-003   2.9788207999138686E-002
   6.8458562556284880E-003  -1.0979970995672671E-002   3.4138674922763769E-002
   3.3631682348582992E-003  -1.8246446172725195E-002   3.9637999715394279E-002
   1.2016382812414239E-002  -3.3717273800506209E-003   3.8961039639458385E-002
   9.6266533686853450E-003  -3.5774561507557895E-003   3.9766646251406398E-002
   7.2369239249564371E-003  -6.6039214354482664E-003   4.1609312148431971E-002
   4.8471944812274702E-003  -1.2451123234128258E-002   4.4489037330535532E-002
   2.4574650374986282E-003  -2.1119061546795437E-002   4.8405821797717213E-002
   8.2520818642397853E-003  -2.0335463108498986E-003   5.2800551108926341E-002
   6.8435124136253661E-003  -2.9432101675758993E-003   5.2126503797341683E-002
   5.4349429630109330E-003  -6.9061198881537750E-003   5.2377717186907896E-002
   4.0263735123964722E-003  -1.3922275472583890E-002   5.3554191277625132E-002
   2.6178040617820808E-003  -2.3991676920865679E-002   5.5655926069493544E-002
   4.7941274410860490E-002  -1.6723572316263813E-002   4.5311440606265352E-002
   4.4654939322671755E-002  -1.4071754546660403E-002   4.6835457996061897E-002
   4.1368604234483033E-002  -1.2112926337909585E-002   4.8344503332746952E-002
   3.8082269146294291E-002  -1.0847087690011172E-002   4.9838576616320657E-002
   3.4795934058105563E-002  -1.0274238602965335E-002   5.1317677846782928E-002
   3.8390714099968248E-002  -1.2542679237152049E-002   5.4238171554923109E-002
   3.5298545914958471E-002  -1.0553815909956257E-002   5.3741789840704851E-002
   3.2206377729948707E-002  -9.0846947533991737E-003   5.3648713985955859E-002
   2.9114209544938936E-002  -8.1353157674809631E-003   5.3958943990676370E-002
   2.6022041359929145E-002  -7.7056789522014363E-003   5.4672479854866035E-002
   2.7216981594516472E-002  -8.3617861580402575E-003   6.2415324366066463E-002
   2.4737258225266415E-002  -7.0358772732519864E-003   6.0071790938047216E-002
   2.2257534856016347E-002  -6.0564631688888176E-003   5.8549841282077880E-002
   1.9777811486766279E-002  -5.4235438449506575E-003   5.7849475398158802E-002
   1.7298088117516226E-002  -5.1371193014375649E-003   5.7970693286289690E-002
   1.4420076894505191E-002  -4.1808930789284937E-003   6.9842899039695400E-002
   1.2971076253595580E-002  -3.5179386365477780E-003   6.5825461288088735E-002
   1.1522075612685975E-002  -3.0282315843784338E-003   6.3047885221112945E-002
   1.0073074971776364E-002  -2.7117719224203727E-003   6.1510170838767961E-002
   8.6240743308667461E-003  -2.5685596506736519E-003   6.1212318141053809E-002
  -6.5634997437058473E-014   1.8329782136561334E-013   7.6520895575809933E-002
  -5.4033166829725587E-014   1.5644430195749237E-013   7.1002800890829665E-002
  -4.2431336222392702E-014   1.3196388426450767E-013   6.7142845803060958E-002
  -3.0829505615059816E-014   1.0986697662751510E-013   6.4941030312503881E-002
  -1.9227675007726930E-014   9.0205620750793969E-014   6.4397354419158337E-002
   3.4795934058105563E-002  -1.0274238602965335E-002   5.1317677846782928E-002
   3.2170533462035286E-002  -9.8713640369083311E-003   5.0265970066217733E-002
   2.9545132865964975E-002  -9.1154489519763987E-003   4.9749703455943012E-002
   2.6919732269894681E-002  -8.0064933481696042E-003   4.9768878015959042E-002
   2.4294331673824388E-002  -6.5444972254879996E-003   5.0323493746265602E-002
   2.6022041359929145E-002  -7.7056789522014363E-003   5.4672479854866035E-002
   2.3962309178831534E-002  -7.4035230276631031E-003   5.4009849228762064E-002
   2.1902576997733906E-002  -6.8365867139681853E-003   5.3943114262312755E-002
   1.9842844816636306E-002  -6.0048700111167809E-003   5.4472274955518353E-002
   1.7783112635538667E-002  -4.9083729191087833E-003   5.5597331308378517E-002
   1.7298088117516226E-002  -5.1371193014375649E-003   5.7970693286289690E-002
   1.5864478840755401E-002  -4.9356820184178890E-003   5.7608879684928616E-002
   1.4430869563994595E-002  -4.5577244759599997E-003   5.7903416232586387E-002
   1.2997260287233782E-002  -4.0032466740639299E-003   5.8854302929263122E-002
   1.1563651010472978E-002  -3.2722486127296224E-003   6.0461539774958620E-002
   8.6240743308667461E-003  -2.5685596506736519E-003   6.1212318141053809E-002
   7.8770424478068861E-003  -2.4678410091726957E-003   6.1063061434717306E-002
   7.1300105647470208E-003  -2.2788622379518557E-003   6.1630609366763858E-002
   6.3829786816871625E-003  -2.0016233370111205E-003   6.2914961937193398E-002
   5.6359467986272956E-003  -1.6361243063504061E-003   6.4916119146005938E-002
  -1.9227675007726930E-014   9.0205620750793969E-014   6.4397354419158337E-002
  -1.4009626791988694E-014   7.2539196871446165E-014   6.4372394478128162E-002
  -8.7915785762504584E-015   5.6302185136303251E-014   6.5124693664845079E-002
  -3.5717956370362458E-015   4.1761732960665654E-014   6.6654251979309173E-002
   1.6445178552260131E-015   2.8754776337791554E-014   6.8961069421520416E-002
   2.4294331673824388E-002  -6.5444972254879996E-003   5.0323493746265602E-002
   2.0283769221428244E-002  -5.0336755067338923E-003   4.9574227433657136E-002
   1.6273206769032086E-002  -3.7782431147094647E-003   4.9737314889897799E-002
   1.2262644316635929E-002  -2.7782000494148522E-003   5.0812756114987465E-002
   8.2520818642397853E-003  -2.0335463108498986E-003   5.2800551108926341E-002
   1.7783112635538667E-002  -4.9083729191087833E-003   5.5597331308378517E-002
   1.4707475663054193E-002  -3.7752566300459645E-003   5.4938928459164288E-002
   1.1631838690569718E-002  -2.8336823360298746E-003   5.5238022800924436E-002
   8.5562017180852365E-003  -2.0836500370604444E-003   5.6494614333658905E-002
   5.4805647456007828E-003  -1.5251597331378264E-003   5.8708703057367445E-002
   1.1563651010472978E-002  -3.2722486127296224E-003   6.0461539774958620E-002
   9.4680829400252964E-003  -2.5168377533580644E-003   5.9957847720821800E-002
   7.3725148695776184E-003  -1.8891215573502360E-003   6.0456796279784362E-002
   5.2769467991299474E-003  -1.3891000247060938E-003   6.1958385451846301E-002
   3.1813787286822728E-003  -1.0167731554257264E-003   6.4462615237007651E-002
   5.6359467986272956E-003  -1.6361243063504061E-003   6.4916119146005938E-002
   4.5655910523415433E-003  -1.2584188766702337E-003   6.4630985218629505E-002
   3.4952353060557937E-003  -9.4456077867053831E-004   6.5393635326477587E-002
   2.4248795597700424E-003  -6.9455001235171464E-004   6.7204069469550140E-002
   1.3545238134842919E-003  -5.0838657771364038E-004   7.0062287647847138E-002
   1.6445178552260131E-015   2.8754776337791554E-014   6.8961069421520416E-002
   2.9351521213527576E-015   1.7735812818386876E-014   6.8958340952587377E-002
   4.2257863874795021E-015   9.0205620750793969E-015   7.0048539941003962E-002
   5.5094817597023393E-015   2.5882074261573962E-015   7.2231666386770171E-002
   6.8070549197329910E-015  -1.5543122344752192E-015   7.5507720289886004E-002
   8.2520818642397853E-003  -2.0335463108498986E-003   5.2800551108926341E-002
   6.8435124136253661E-003  -2.9432101675758993E-003   5.2126503797341683E-002
   5.4349429630109330E-003  -6.9061198881537750E-003   5.2377717186907896E-002
   4.0263735123964722E-003  -1.3922275472583890E-002   5.3554191277625132E-002
   2.6178040617820808E-003  -2.3991676920865679E-002   5.5655926069493544E-002
   5.4805647456007828E-003  -1.5251597331378264E-003   5.8708703057367445E-002
   4.8539764115130002E-003  -2.2074076256830000E-003   5.5692117132008112E-002
   4.2273880774252384E-003  -5.1795899161175829E-003   5.3314232738551140E-002
   3.6007997433374871E-003  -1.0441706604441332E-002   5.1575049876996286E-002
   2.9742114092496941E-003  -1.7993757690654255E-002   5.0474568547344001E-002
   3.1813787286822728E-003  -1.0167731554257264E-003   6.4462615237007651E-002
   3.0502123418723569E-003  -1.4716050837903366E-003   5.9866802163836719E-002
   2.9190459550624513E-003  -3.4530599440814394E-003   5.5623131453319312E-002
   2.7878795682525319E-003  -6.9611377362988284E-003   5.1731603105455187E-002
   2.6567131814426437E-003  -1.1995838460442720E-002   4.8192217120244685E-002
   1.3545238134842919E-003  -5.0838657771364038E-004   7.0062287647847138E-002
   1.4322202047034232E-003  -7.3580254189752753E-004   6.4650558892827337E-002
   1.5099165959225691E-003  -1.7265299720451051E-003   5.9304413331212190E-002
   1.5876129871417134E-003  -3.4805688681562976E-003   5.4023850963001462E-002
   1.6653093783608325E-003  -5.9979192302311857E-003   4.8808871788195637E-002
   6.8070549197329910E-015  -1.5543122344752192E-015   7.5507720289886004E-002
   6.1894933622852477E-015  -4.7462034302725442E-015   7.0043387318980077E-002
   5.5754012517894580E-015  -9.0760732263106547E-015   6.4358078372229899E-002
   4.9474313534858538E-015  -1.3843093338294921E-014   5.8451793449635719E-002
   4.3437475838459250E-015  -1.9761969838327786E-014   5.2324532551197178E-002
  -6.5634997437058473E-014   1.8329782136561334E-013   7.6520895575809933E-002
  -5.4033166829725587E-014   1.5644430195749237E-013   7.1002800890829665E-002
  -4.2431336222392702E-014   1.3196388426450767E-013   6.7142845803060958E-002
  -3.0829505615059816E-014   1.0986697662751510E-013   6.4941030312503881E-002
  -1.9227675007726930E-014   9.0205620750793969E-014   6.4397354419158337E-002
  -1.4420076894633937E-002   4.1808930792940902E-003   6.9842899039642817E-002
  -1.2971076253701610E-002   3.5179386368538595E-003   6.5825461288046491E-002
  -1.1522075612769273E-002   3.0282315846318075E-003   6.3047885221080152E-002
  -1.0073074971836956E-002   2.7117719226280104E-003   6.1510170838743619E-002
  -8.6240743309046151E-003   2.5685596508423086E-003   6.1212318141036906E-002
  -2.7216981594637729E-002   8.3617861584049102E-003   6.2415324365954553E-002
  -2.4737258225366363E-002   7.0358772735512817E-003   6.0071790937957947E-002
  -2.2257534856095010E-002   6.0564631691316304E-003   5.8549841282009678E-002
  -1.9777811486823657E-002   5.4235438451460168E-003   5.7849475398109501E-002
  -1.7298088117552290E-002   5.1371193015944117E-003   5.7970693286257466E-002
  -3.8390714100076946E-002   1.2542679237515716E-002   5.4238171554744793E-002
  -3.5298545915048281E-002   1.0553815910248687E-002   5.3741789840563846E-002
  -3.2206377730019609E-002   9.0846947536314775E-003   5.3648713985849437E-002
  -2.9114209544990933E-002   8.1353157676641343E-003   5.3958943990601541E-002
  -2.6022041359962264E-002   7.7056789523465286E-003   5.4672479854819961E-002
  -4.7941274410951654E-002   1.6723572316626523E-002   4.5311440606013831E-002
  -4.4654939322747375E-002   1.4071754546946133E-002   4.6835457995864332E-002
  -4.1368604234543090E-002   1.2112926338131366E-002   4.8344503332599598E-002
  -3.8082269146338818E-002   1.0847087690182156E-002   4.9838576616219613E-002
  -3.4795934058134526E-002   1.0274238603098645E-002   5.1317677846724391E-002
  -1.9227675007726930E-014   9.0205620750793969E-014   6.4397354419158337E-002
  -1.4009626791988694E-014   7.2539196871446165E-014   6.4372394478128162E-002
  -8.7915785762504584E-015   5.6302185136303251E-014   6.5124693664845079E-002
  -3.5717956370362458E-015   4.1761732960665654E-014   6.6654251979309173E-002
   1.6445178552260131E-015   2.8754776337791554E-014   6.8961069421520416E-002
  -8.6240743309046151E-003   2.5685596508423086E-003   6.1212318141036906E-002
  -7.8770424478345896E-003   2.4678410093074699E-003   6.1063061434704635E-002
  -7.1300105647645658E-003   2.2788622380560640E-003   6.1630609366754747E-002
  -6.3829786816945421E-003   2.0016233370881561E-003   6.2914961937187278E-002
  -5.6359467986245165E-003   1.6361243064035580E-003   6.4916119146002343E-002
  -1.7298088117552290E-002   5.1371193015944117E-003   5.7970693286257466E-002
  -1.5864478840782154E-002   4.9356820185424630E-003   5.7608879684904898E-002
  -1.4430869564012010E-002   4.5577244760557425E-003   5.7903416232570039E-002
  -1.2997260287241873E-002   4.0032466741343840E-003   5.8854302929252936E-002
  -1.1563651010471729E-002   3.2722486127784167E-003   6.0461539774953665E-002
  -2.6022041359962264E-002   7.7056789523465286E-003   5.4672479854819961E-002
  -2.3962309178856684E-002   7.4035230277775359E-003   5.4009849228728923E-002
  -2.1902576997751118E-002   6.8365867140555182E-003   5.3943114262291009E-002
  -1.9842844816645548E-002   6.0048700111807506E-003   5.4472274955506106E-002
  -1.7783112635539972E-002   4.9083729191531644E-003   5.5597331308374430E-002
  -3.4795934058134526E-002   1.0274238603098645E-002   5.1317677846724391E-002
  -3.2170533462058198E-002   9.8713640370124145E-003   5.0265970066176835E-002
  -2.9545132865981899E-002   9.1154489520551760E-003   4.9749703455917685E-002
  -2.6919732269905586E-002   8.0064933482269906E-003   4.9768878015946948E-002
  -2.4294331673829272E-002   6.5444972255280787E-003   5.0323493746264603E-002
   1.6445178552260131E-015   2.8754776337791554E-014   6.8961069421520416E-002
   2.9351521213527576E-015   1.7735812818386876E-014   6.8958340952587377E-002
   4.2257863874795021E-015   9.0205620750793969E-015   7.0048539941003962E-002
   5.5094817597023393E-015   2.5882074261573962E-015   7.2231666386770171E-002
   6.8070549197329910E-015  -1.5543122344752192E-015   7.5507720289886004E-002
  -5.6359467986245165E-003   1.6361243064035580E-003   6.4916119146002343E-002
  -4.5655910523361883E-003   1.2584188767031795E-003   6.4630985218629242E-002
  -3.4952353060478548E-003   9.4456077868753513E-004   6.5393635326480667E-002
  -2.4248795597595326E-003   6.9455001235679652E-004   6.7204069469556649E-002
  -1.3545238134711930E-003   5.0838657771101747E-004   7.0062287647857074E-002
  -1.1563651010471729E-002   3.2722486127784167E-003   6.0461539774953665E-002
  -9.4680829400214800E-003   2.5168377533886649E-003   5.9957847720823070E-002
  -7.3725148695712459E-003   1.8891215573662162E-003   6.0456796279791877E-002
  -5.2769467991210014E-003   1.3891000247111158E-003   6.1958385451859881E-002
  -3.1813787286707629E-003   1.0167731554233672E-003   6.4462615237027399E-002
  -1.7783112635539972E-002   4.9083729191531644E-003   5.5597331308374430E-002
  -1.4707475663052961E-002   3.7752566300740739E-003   5.4938928459168715E-002
  -1.1631838690565936E-002   2.8336823360447308E-003   5.5238022800937425E-002
  -8.5562017180789221E-003   2.0836500370653242E-003   5.6494614333680214E-002
  -5.4805647455919010E-003   1.5251597331358557E-003   5.8708703057397248E-002
  -2.4294331673829272E-002   6.5444972255280787E-003   5.0323493746264603E-002
  -2.0283769221430596E-002   5.0336755067595940E-003   4.9574227433666407E-002
  -1.6273206769031920E-002   3.7782431147234535E-003   4.9737314889917367E-002
  -1.2262644316633254E-002   2.7782000494196817E-003   5.0812756115017427E-002
  -8.2520818642345811E-003   2.0335463108482332E-003   5.2800551108966476E-002
   6.8070549197329910E-015  -1.5543122344752192E-015   7.5507720289886004E-002
   6.1894933622852477E-015  -4.7462034302725442E-015   7.0043387318980077E-002
   5.5754012517894580E-015  -9.0760732263106547E-015   6.4358078372229899E-002
   4.9474313534858538E-015  -1.3843093338294921E-014   5.8451793449635719E-002
   4.3437475838459250E-015  -1.9761969838327786E-014   5.2324532551197178E-002
  -1.3545238134711930E-003   5.0838657771101747E-004   7.0062287647857074E-002
  -1.4322202046915047E-003   7.3580254188873595E-004   6.4650558892834747E-002
  -1.5099165959118113E-003   1.7265299720287675E-003   5.9304413331217123E-002
  -1.5876129871321169E-003   3.4805688681313479E-003   5.4023850963004737E-002
  -1.6653093783524156E-003   5.9979192301963247E-003   4.8808871788196484E-002
  -3.1813787286707629E-003   1.0167731554233672E-003   6.4462615237027399E-002
  -3.0502123418618254E-003   1.4716050837821487E-003   5.9866802163852123E-002
  -2.9190459550528730E-003   3.4530599440665416E-003   5.5623131453330601E-002
  -2.7878795682439467E-003   6.9611377362766742E-003   5.1731603105462605E-002
  -2.6567131814349970E-003   1.1995838460412411E-002   4.8192217120248737E-002
  -5.4805647455919010E-003   1.5251597331358557E-003   5.8708703057397248E-002
  -4.8539764115047542E-003   2.2074076256755129E-003   5.5692117132032190E-002
  -4.2273880774176421E-003   5.1795899161042949E-003   5.3314232738569778E-002
  -3.6007997433305165E-003   1.0441706604422044E-002   5.1575049877010219E-002
  -2.9742114092433693E-003   1.7993757690628498E-002   5.0474568547352688E-002
  -8.2520818642345811E-003   2.0335463108482332E-003   5.2800551108966476E-002
  -6.8435124136203215E-003   2.9432101675690714E-003   5.2126503797374824E-002
  -5.4349429630060758E-003   6.9061198881422009E-003   5.2377717186934847E-002
  -4.0263735123918318E-003   1.3922275472567313E-002   5.3554191277646671E-002
  -2.6178040617775705E-003   2.3991676920844585E-002   5.5655926069509754E-002
  -4.7941274410951654E-002   1.6723572316626523E-002   4.5311440606013831E-002
  -4.4654939322747375E-002   1.4071754546946133E-002   4.6835457995864332E-002
  -4.1368604234543090E-002   1.2112926338131366E-002   4.8344503332599598E-002
  -3.8082269146338818E-002   1.0847087690182156E-002   4.9838576616219613E-002
  -3.4795934058134526E-002   1.0274238603098645E-002   5.1317677846724391E-002
  -5.9891601331560379E-002   2.1835638938039637E-002   4.8735995026920123E-002
  -5.5928006809760858E-002   1.8562545207925982E-002   4.5247676458965033E-002
  -5.1964412287961281E-002   1.6032737855979778E-002   4.3128848811315783E-002
  -4.8000817766161719E-002   1.4246216882201061E-002   4.2379512083972309E-002
  -4.4037223244362184E-002   1.3202982286589809E-002   4.2999666276934606E-002
  -7.8264633666201788E-002   2.6947705559452723E-002   5.1514125078742215E-002
  -7.2239316737385942E-002   2.3053335868905837E-002   4.3063767370283473E-002
  -6.6213999808570026E-002   1.9952549373828309E-002   3.7367363555551474E-002
  -6.0188682879754159E-002   1.7645346074219935E-002   3.4424913634546306E-002
  -5.4163365950938305E-002   1.6131725970080987E-002   3.4236417607268109E-002
 -0.10306037141487590        3.2059772180865823E-002   5.3645830761480232E-002
  -9.3588869105622655E-002   2.7544126529885703E-002   4.0283730729819563E-002
  -8.4117366796369386E-002   2.3872360891676696E-002   3.1060047565306712E-002
  -7.4645864487116118E-002   2.1044475266238909E-002   2.5974781267941820E-002
  -6.5174362177862891E-002   1.9060469653572144E-002   2.5027931837724768E-002
 -0.13427881457758256        3.7171838802278923E-002   5.5131112075134048E-002
 -0.11997666391447093        3.2034917190865542E-002   3.6907566537573350E-002
 -0.10567451325135926        2.7792172409525195E-002   2.4206900840581441E-002
  -9.1372362588247588E-002   2.4443604458257676E-002   1.7029114984158565E-002
  -7.7070211925135967E-002   2.1989213337063385E-002   1.5374208968304603E-002
  -3.4795934058134526E-002   1.0274238603098645E-002   5.1317677846724391E-002
  -3.2170533462058198E-002   9.8713640370124145E-003   5.0265970066176835E-002
  -2.9545132865981899E-002   9.1154489520551760E-003   4.9749703455917685E-002
  -2.6919732269905586E-002   8.0064933482269906E-003   4.9768878015946948E-002
  -2.4294331673829272E-002   6.5444972255280787E-003   5.0323493746264603E-002
  -4.4037223244362184E-002   1.3202982286589809E-002   4.2999666276934606E-002
  -4.0774008954207741E-002   1.2425377520850142E-002   4.0882943881180675E-002
  -3.7510794664053292E-002   1.1435746036686074E-002   3.9506407703294624E-002
  -3.4247580373898849E-002   1.0234087834097823E-002   3.8870057743276294E-002
  -3.0984366083744400E-002   8.8204029130851680E-003   3.8973894001125914E-002
  -5.4163365950938305E-002   1.6131725970080987E-002   3.4236417607268109E-002
  -5.0057592919126259E-002   1.4979391004687884E-002   3.1195694396754341E-002
  -4.5951819887314262E-002   1.3756043121317004E-002   2.9099902451687993E-002
  -4.1846046855502250E-002   1.2461682319968630E-002   2.7949041772068868E-002
  -3.7740273823690225E-002   1.1096308600642313E-002   2.7743112357897046E-002
  -6.5174362177862891E-002   1.9060469653572144E-002   2.5027931837724768E-002
  -6.0021285356813836E-002   1.7533404488525743E-002   2.1204221612897894E-002
  -5.4868208535764802E-002   1.6076340205947878E-002   1.8530187701097812E-002
  -4.9715131714715775E-002   1.4689276805839476E-002   1.7005830102324506E-002
  -4.4562054893666721E-002   1.3372214288199652E-002   1.6631148816578057E-002
  -7.7070211925135967E-002   2.1989213337063385E-002   1.5374208968304603E-002
  -7.0665086267270416E-002   2.0087417972363353E-002   1.0908525529611385E-002
  -6.4259960609404920E-002   1.8396637290578693E-002   7.7972634515242195E-003
  -5.7854834951539369E-002   1.6916871291710094E-002   6.0404227340434304E-003
  -5.1449709293673873E-002   1.5648119975756658E-002   5.6380033771687432E-003
  -2.4294331673829272E-002   6.5444972255280787E-003   5.0323493746264603E-002
  -2.0283769221430596E-002   5.0336755067595940E-003   4.9574227433666407E-002
  -1.6273206769031920E-002   3.7782431147234535E-003   4.9737314889917367E-002
  -1.2262644316633254E-002   2.7782000494196817E-003   5.0812756115017427E-002
  -8.2520818642345811E-003   2.0335463108482332E-003   5.2800551108966476E-002
  -3.0984366083744400E-002   8.8204029130851680E-003   3.8973894001125914E-002
  -2.6242370265911821E-002   7.3400869821018538E-003   3.8144910967689669E-002
  -2.1500374448079215E-002   5.9385357496016811E-003   3.7866440896272127E-002
  -1.6758378630246637E-002   4.6157492155845248E-003   3.8138483786873359E-002
  -1.2016382812414055E-002   3.3717273800503711E-003   3.8961039639493406E-002
  -3.7740273823690225E-002   1.1096308600642313E-002   2.7743112357897046E-002
  -3.2628685447254037E-002   9.6464984574441970E-003   2.6657787975373382E-002
  -2.7517097070817825E-002   8.0988283844800266E-003   2.5761135748038129E-002
  -2.2405508694381633E-002   6.4532983817493141E-003   2.5053155675891319E-002
  -1.7293920317945424E-002   4.7099084492525367E-003   2.4533847758932928E-002
  -4.4562054893666721E-002   1.3372214288199652E-002   1.6631148816578057E-002
  -3.9442714765457243E-002   1.1952909932786554E-002   1.5112858456717573E-002
  -3.4323374637247751E-002   1.0259121019358147E-002   1.3421399445215384E-002
  -2.9204034509038232E-002   8.2908475479141867E-003   1.1556771782071255E-002
  -2.4084694380828778E-002   6.0480895184548550E-003   9.5189754672852893E-003
  -5.1449709293673873E-002   1.5648119975756658E-002   5.6380033771687432E-003
  -4.6684458220521474E-002   1.4259321408128911E-002   3.5101224117223828E-003
  -4.1919207147368964E-002   1.2419413654236516E-002   8.4723198780400910E-004
  -3.7153956074216538E-002   1.0128396714078870E-002  -2.3506678945869885E-003
  -3.2388705001064055E-002   7.3862705876568402E-003  -6.0835772354498885E-003
  -8.2520818642345811E-003   2.0335463108482332E-003   5.2800551108966476E-002
  -6.8435124136203215E-003   2.9432101675690714E-003   5.2126503797374824E-002
  -5.4349429630060758E-003   6.9061198881422009E-003   5.2377717186934847E-002
  -4.0263735123918318E-003   1.3922275472567313E-002   5.3554191277646671E-002
  -2.6178040617775705E-003   2.3991676920844585E-002   5.5655926069509754E-002
  -1.2016382812414055E-002   3.3717273800503711E-003   3.8961039639493406E-002
  -9.6266533686843944E-003   3.5774561507513902E-003   3.9766646251433446E-002
  -7.2369239249547353E-003   6.6039214354401687E-003   4.1609312148452607E-002
  -4.8471944812250685E-003   1.2451123234116172E-002   4.4489037330551172E-002
  -2.4574650374954432E-003   2.1119061546779672E-002   4.8405821797728787E-002
  -1.7293920317945424E-002   4.7099084492525367E-003   2.4533847758932928E-002
  -1.3811232297172781E-002   4.2117021339339172E-003   2.6586598944539921E-002
  -1.0328544276400134E-002   6.3017229827383656E-003   2.9788207999153889E-002
  -6.8458562556275079E-003   1.0979970995665228E-002   3.4138674922774490E-002
  -3.3631682348548401E-003   1.8246446172714870E-002   3.9637999715402050E-002
  -2.4084694380828778E-002   6.0480895184548550E-003   9.5189754672852893E-003
  -1.9397249199085538E-002   4.8459481171166732E-003   1.2586361876694409E-002
  -1.4709804017342263E-002   5.9995245300361148E-003   1.6914404739038220E-002
  -1.0022358835598997E-002   9.5088187572142970E-003   2.2503104054316318E-002
  -5.3349136538557744E-003   1.5373830798649901E-002   2.9352459822528737E-002
  -3.2388705001064055E-002   7.3862705876568402E-003  -6.0835772354498885E-003
  -2.6384704074422616E-002   5.4801941002986521E-003  -2.2340649521031264E-003
  -2.0380703147781176E-002   5.6973260773346412E-003   2.9879023681057132E-003
  -1.4376702221139764E-002   8.0376665187632257E-003   9.5823247251766198E-003
  -8.3727012944982970E-003   1.2501215424585155E-002   1.7549202119109375E-002
 </DataArray>
 </PointData>
 </Piece>
 </UnstructuredGrid>
 </VTKFile>
