 <VTKFile type="UnstructuredGrid"  version="0.1"   >
 <UnstructuredGrid>
 <Piece  NumberOfPoints="          1600 "  NumberOfCells="         1024 ">
 <Points>
 <DataArray  type="Float64" NumberOfComponents="3"  format="ascii" >
   0.0000000000000000        0.0000000000000000        0.0000000000000000     
   3.1250000000000000E-002   0.0000000000000000        0.0000000000000000     
   6.2500000000000000E-002   0.0000000000000000        0.0000000000000000     
   9.3750000000000000E-002   0.0000000000000000        0.0000000000000000     
  0.12500000000000000        0.0000000000000000        0.0000000000000000     
   0.0000000000000000        3.1250000000000000E-002   0.0000000000000000     
   3.1250000000000000E-002   3.1250000000000000E-002   0.0000000000000000     
   6.2500000000000000E-002   3.1250000000000000E-002   0.0000000000000000     
   9.3750000000000000E-002   3.1250000000000000E-002   0.0000000000000000     
  0.12500000000000000        3.1250000000000000E-002   0.0000000000000000     
   0.0000000000000000        6.2500000000000000E-002   0.0000000000000000     
   3.1250000000000000E-002   6.2500000000000000E-002   0.0000000000000000     
   6.2500000000000000E-002   6.2500000000000000E-002   0.0000000000000000     
   9.3750000000000000E-002   6.2500000000000000E-002   0.0000000000000000     
  0.12500000000000000        6.2500000000000000E-002   0.0000000000000000     
   0.0000000000000000        9.3750000000000000E-002   0.0000000000000000     
   3.1250000000000000E-002   9.3750000000000000E-002   0.0000000000000000     
   6.2500000000000000E-002   9.3750000000000000E-002   0.0000000000000000     
   9.3750000000000000E-002   9.3750000000000000E-002   0.0000000000000000     
  0.12500000000000000        9.3750000000000000E-002   0.0000000000000000     
   0.0000000000000000       0.12500000000000000        0.0000000000000000     
   3.1250000000000000E-002  0.12500000000000000        0.0000000000000000     
   6.2500000000000000E-002  0.12500000000000000        0.0000000000000000     
   9.3750000000000000E-002  0.12500000000000000        0.0000000000000000     
  0.12500000000000000       0.12500000000000000        0.0000000000000000     
  0.12500000000000000        0.0000000000000000        0.0000000000000000     
  0.15625000000000000        0.0000000000000000        0.0000000000000000     
  0.18750000000000000        0.0000000000000000        0.0000000000000000     
  0.21875000000000000        0.0000000000000000        0.0000000000000000     
  0.25000000000000000        0.0000000000000000        0.0000000000000000     
  0.12500000000000000        3.1250000000000000E-002   0.0000000000000000     
  0.15625000000000000        3.1250000000000000E-002   0.0000000000000000     
  0.18750000000000000        3.1250000000000000E-002   0.0000000000000000     
  0.21875000000000000        3.1250000000000000E-002   0.0000000000000000     
  0.25000000000000000        3.1250000000000000E-002   0.0000000000000000     
  0.12500000000000000        6.2500000000000000E-002   0.0000000000000000     
  0.15625000000000000        6.2500000000000000E-002   0.0000000000000000     
  0.18750000000000000        6.2500000000000000E-002   0.0000000000000000     
  0.21875000000000000        6.2500000000000000E-002   0.0000000000000000     
  0.25000000000000000        6.2500000000000000E-002   0.0000000000000000     
  0.12500000000000000        9.3750000000000000E-002   0.0000000000000000     
  0.15625000000000000        9.3750000000000000E-002   0.0000000000000000     
  0.18750000000000000        9.3750000000000000E-002   0.0000000000000000     
  0.21875000000000000        9.3750000000000000E-002   0.0000000000000000     
  0.25000000000000000        9.3750000000000000E-002   0.0000000000000000     
  0.12500000000000000       0.12500000000000000        0.0000000000000000     
  0.15625000000000000       0.12500000000000000        0.0000000000000000     
  0.18750000000000000       0.12500000000000000        0.0000000000000000     
  0.21875000000000000       0.12500000000000000        0.0000000000000000     
  0.25000000000000000       0.12500000000000000        0.0000000000000000     
  0.25000000000000000        0.0000000000000000        0.0000000000000000     
  0.28125000000000000        0.0000000000000000        0.0000000000000000     
  0.31250000000000000        0.0000000000000000        0.0000000000000000     
  0.34375000000000000        0.0000000000000000        0.0000000000000000     
  0.37500000000000000        0.0000000000000000        0.0000000000000000     
  0.25000000000000000        3.1250000000000000E-002   0.0000000000000000     
  0.28125000000000000        3.1250000000000000E-002   0.0000000000000000     
  0.31250000000000000        3.1250000000000000E-002   0.0000000000000000     
  0.34375000000000000        3.1250000000000000E-002   0.0000000000000000     
  0.37500000000000000        3.1250000000000000E-002   0.0000000000000000     
  0.25000000000000000        6.2500000000000000E-002   0.0000000000000000     
  0.28125000000000000        6.2500000000000000E-002   0.0000000000000000     
  0.31250000000000000        6.2500000000000000E-002   0.0000000000000000     
  0.34375000000000000        6.2500000000000000E-002   0.0000000000000000     
  0.37500000000000000        6.2500000000000000E-002   0.0000000000000000     
  0.25000000000000000        9.3750000000000000E-002   0.0000000000000000     
  0.28125000000000000        9.3750000000000000E-002   0.0000000000000000     
  0.31250000000000000        9.3750000000000000E-002   0.0000000000000000     
  0.34375000000000000        9.3750000000000000E-002   0.0000000000000000     
  0.37500000000000000        9.3750000000000000E-002   0.0000000000000000     
  0.25000000000000000       0.12500000000000000        0.0000000000000000     
  0.28125000000000000       0.12500000000000000        0.0000000000000000     
  0.31250000000000000       0.12500000000000000        0.0000000000000000     
  0.34375000000000000       0.12500000000000000        0.0000000000000000     
  0.37500000000000000       0.12500000000000000        0.0000000000000000     
  0.37500000000000000        0.0000000000000000        0.0000000000000000     
  0.40625000000000000        0.0000000000000000        0.0000000000000000     
  0.43750000000000000        0.0000000000000000        0.0000000000000000     
  0.46875000000000000        0.0000000000000000        0.0000000000000000     
  0.50000000000000000        0.0000000000000000        0.0000000000000000     
  0.37500000000000000        3.1250000000000000E-002   0.0000000000000000     
  0.40625000000000000        3.1250000000000000E-002   0.0000000000000000     
  0.43750000000000000        3.1250000000000000E-002   0.0000000000000000     
  0.46875000000000000        3.1250000000000000E-002   0.0000000000000000     
  0.50000000000000000        3.1250000000000000E-002   0.0000000000000000     
  0.37500000000000000        6.2500000000000000E-002   0.0000000000000000     
  0.40625000000000000        6.2500000000000000E-002   0.0000000000000000     
  0.43750000000000000        6.2500000000000000E-002   0.0000000000000000     
  0.46875000000000000        6.2500000000000000E-002   0.0000000000000000     
  0.50000000000000000        6.2500000000000000E-002   0.0000000000000000     
  0.37500000000000000        9.3750000000000000E-002   0.0000000000000000     
  0.40625000000000000        9.3750000000000000E-002   0.0000000000000000     
  0.43750000000000000        9.3750000000000000E-002   0.0000000000000000     
  0.46875000000000000        9.3750000000000000E-002   0.0000000000000000     
  0.50000000000000000        9.3750000000000000E-002   0.0000000000000000     
  0.37500000000000000       0.12500000000000000        0.0000000000000000     
  0.40625000000000000       0.12500000000000000        0.0000000000000000     
  0.43750000000000000       0.12500000000000000        0.0000000000000000     
  0.46875000000000000       0.12500000000000000        0.0000000000000000     
  0.50000000000000000       0.12500000000000000        0.0000000000000000     
  0.50000000000000000        0.0000000000000000        0.0000000000000000     
  0.53125000000000000        0.0000000000000000        0.0000000000000000     
  0.56250000000000000        0.0000000000000000        0.0000000000000000     
  0.59375000000000000        0.0000000000000000        0.0000000000000000     
  0.62500000000000000        0.0000000000000000        0.0000000000000000     
  0.50000000000000000        3.1250000000000000E-002   0.0000000000000000     
  0.53125000000000000        3.1250000000000000E-002   0.0000000000000000     
  0.56250000000000000        3.1250000000000000E-002   0.0000000000000000     
  0.59375000000000000        3.1250000000000000E-002   0.0000000000000000     
  0.62500000000000000        3.1250000000000000E-002   0.0000000000000000     
  0.50000000000000000        6.2500000000000000E-002   0.0000000000000000     
  0.53125000000000000        6.2500000000000000E-002   0.0000000000000000     
  0.56250000000000000        6.2500000000000000E-002   0.0000000000000000     
  0.59375000000000000        6.2500000000000000E-002   0.0000000000000000     
  0.62500000000000000        6.2500000000000000E-002   0.0000000000000000     
  0.50000000000000000        9.3750000000000000E-002   0.0000000000000000     
  0.53125000000000000        9.3750000000000000E-002   0.0000000000000000     
  0.56250000000000000        9.3750000000000000E-002   0.0000000000000000     
  0.59375000000000000        9.3750000000000000E-002   0.0000000000000000     
  0.62500000000000000        9.3750000000000000E-002   0.0000000000000000     
  0.50000000000000000       0.12500000000000000        0.0000000000000000     
  0.53125000000000000       0.12500000000000000        0.0000000000000000     
  0.56250000000000000       0.12500000000000000        0.0000000000000000     
  0.59375000000000000       0.12500000000000000        0.0000000000000000     
  0.62500000000000000       0.12500000000000000        0.0000000000000000     
  0.62500000000000000        0.0000000000000000        0.0000000000000000     
  0.65625000000000000        0.0000000000000000        0.0000000000000000     
  0.68750000000000000        0.0000000000000000        0.0000000000000000     
  0.71875000000000000        0.0000000000000000        0.0000000000000000     
  0.75000000000000000        0.0000000000000000        0.0000000000000000     
  0.62500000000000000        3.1250000000000000E-002   0.0000000000000000     
  0.65625000000000000        3.1250000000000000E-002   0.0000000000000000     
  0.68750000000000000        3.1250000000000000E-002   0.0000000000000000     
  0.71875000000000000        3.1250000000000000E-002   0.0000000000000000     
  0.75000000000000000        3.1250000000000000E-002   0.0000000000000000     
  0.62500000000000000        6.2500000000000000E-002   0.0000000000000000     
  0.65625000000000000        6.2500000000000000E-002   0.0000000000000000     
  0.68750000000000000        6.2500000000000000E-002   0.0000000000000000     
  0.71875000000000000        6.2500000000000000E-002   0.0000000000000000     
  0.75000000000000000        6.2500000000000000E-002   0.0000000000000000     
  0.62500000000000000        9.3750000000000000E-002   0.0000000000000000     
  0.65625000000000000        9.3750000000000000E-002   0.0000000000000000     
  0.68750000000000000        9.3750000000000000E-002   0.0000000000000000     
  0.71875000000000000        9.3750000000000000E-002   0.0000000000000000     
  0.75000000000000000        9.3750000000000000E-002   0.0000000000000000     
  0.62500000000000000       0.12500000000000000        0.0000000000000000     
  0.65625000000000000       0.12500000000000000        0.0000000000000000     
  0.68750000000000000       0.12500000000000000        0.0000000000000000     
  0.71875000000000000       0.12500000000000000        0.0000000000000000     
  0.75000000000000000       0.12500000000000000        0.0000000000000000     
  0.75000000000000000        0.0000000000000000        0.0000000000000000     
  0.78125000000000000        0.0000000000000000        0.0000000000000000     
  0.81250000000000000        0.0000000000000000        0.0000000000000000     
  0.84375000000000000        0.0000000000000000        0.0000000000000000     
  0.87500000000000000        0.0000000000000000        0.0000000000000000     
  0.75000000000000000        3.1250000000000000E-002   0.0000000000000000     
  0.78125000000000000        3.1250000000000000E-002   0.0000000000000000     
  0.81250000000000000        3.1250000000000000E-002   0.0000000000000000     
  0.84375000000000000        3.1250000000000000E-002   0.0000000000000000     
  0.87500000000000000        3.1250000000000000E-002   0.0000000000000000     
  0.75000000000000000        6.2500000000000000E-002   0.0000000000000000     
  0.78125000000000000        6.2500000000000000E-002   0.0000000000000000     
  0.81250000000000000        6.2500000000000000E-002   0.0000000000000000     
  0.84375000000000000        6.2500000000000000E-002   0.0000000000000000     
  0.87500000000000000        6.2500000000000000E-002   0.0000000000000000     
  0.75000000000000000        9.3750000000000000E-002   0.0000000000000000     
  0.78125000000000000        9.3750000000000000E-002   0.0000000000000000     
  0.81250000000000000        9.3750000000000000E-002   0.0000000000000000     
  0.84375000000000000        9.3750000000000000E-002   0.0000000000000000     
  0.87500000000000000        9.3750000000000000E-002   0.0000000000000000     
  0.75000000000000000       0.12500000000000000        0.0000000000000000     
  0.78125000000000000       0.12500000000000000        0.0000000000000000     
  0.81250000000000000       0.12500000000000000        0.0000000000000000     
  0.84375000000000000       0.12500000000000000        0.0000000000000000     
  0.87500000000000000       0.12500000000000000        0.0000000000000000     
  0.87500000000000000        0.0000000000000000        0.0000000000000000     
  0.90625000000000000        0.0000000000000000        0.0000000000000000     
  0.93750000000000000        0.0000000000000000        0.0000000000000000     
  0.96875000000000000        0.0000000000000000        0.0000000000000000     
   1.0000000000000000        0.0000000000000000        0.0000000000000000     
  0.87500000000000000        3.1250000000000000E-002   0.0000000000000000     
  0.90625000000000000        3.1250000000000000E-002   0.0000000000000000     
  0.93750000000000000        3.1250000000000000E-002   0.0000000000000000     
  0.96875000000000000        3.1250000000000000E-002   0.0000000000000000     
   1.0000000000000000        3.1250000000000000E-002   0.0000000000000000     
  0.87500000000000000        6.2500000000000000E-002   0.0000000000000000     
  0.90625000000000000        6.2500000000000000E-002   0.0000000000000000     
  0.93750000000000000        6.2500000000000000E-002   0.0000000000000000     
  0.96875000000000000        6.2500000000000000E-002   0.0000000000000000     
   1.0000000000000000        6.2500000000000000E-002   0.0000000000000000     
  0.87500000000000000        9.3750000000000000E-002   0.0000000000000000     
  0.90625000000000000        9.3750000000000000E-002   0.0000000000000000     
  0.93750000000000000        9.3750000000000000E-002   0.0000000000000000     
  0.96875000000000000        9.3750000000000000E-002   0.0000000000000000     
   1.0000000000000000        9.3750000000000000E-002   0.0000000000000000     
  0.87500000000000000       0.12500000000000000        0.0000000000000000     
  0.90625000000000000       0.12500000000000000        0.0000000000000000     
  0.93750000000000000       0.12500000000000000        0.0000000000000000     
  0.96875000000000000       0.12500000000000000        0.0000000000000000     
   1.0000000000000000       0.12500000000000000        0.0000000000000000     
   0.0000000000000000       0.12500000000000000        0.0000000000000000     
   3.1250000000000000E-002  0.12500000000000000        0.0000000000000000     
   6.2500000000000000E-002  0.12500000000000000        0.0000000000000000     
   9.3750000000000000E-002  0.12500000000000000        0.0000000000000000     
  0.12500000000000000       0.12500000000000000        0.0000000000000000     
   0.0000000000000000       0.15625000000000000        0.0000000000000000     
   3.1250000000000000E-002  0.15625000000000000        0.0000000000000000     
   6.2500000000000000E-002  0.15625000000000000        0.0000000000000000     
   9.3750000000000000E-002  0.15625000000000000        0.0000000000000000     
  0.12500000000000000       0.15625000000000000        0.0000000000000000     
   0.0000000000000000       0.18750000000000000        0.0000000000000000     
   3.1250000000000000E-002  0.18750000000000000        0.0000000000000000     
   6.2500000000000000E-002  0.18750000000000000        0.0000000000000000     
   9.3750000000000000E-002  0.18750000000000000        0.0000000000000000     
  0.12500000000000000       0.18750000000000000        0.0000000000000000     
   0.0000000000000000       0.21875000000000000        0.0000000000000000     
   3.1250000000000000E-002  0.21875000000000000        0.0000000000000000     
   6.2500000000000000E-002  0.21875000000000000        0.0000000000000000     
   9.3750000000000000E-002  0.21875000000000000        0.0000000000000000     
  0.12500000000000000       0.21875000000000000        0.0000000000000000     
   0.0000000000000000       0.25000000000000000        0.0000000000000000     
   3.1250000000000000E-002  0.25000000000000000        0.0000000000000000     
   6.2500000000000000E-002  0.25000000000000000        0.0000000000000000     
   9.3750000000000000E-002  0.25000000000000000        0.0000000000000000     
  0.12500000000000000       0.25000000000000000        0.0000000000000000     
  0.12500000000000000       0.12500000000000000        0.0000000000000000     
  0.15625000000000000       0.12500000000000000        0.0000000000000000     
  0.18750000000000000       0.12500000000000000        0.0000000000000000     
  0.21875000000000000       0.12500000000000000        0.0000000000000000     
  0.25000000000000000       0.12500000000000000        0.0000000000000000     
  0.12500000000000000       0.15625000000000000        0.0000000000000000     
  0.15625000000000000       0.15625000000000000        0.0000000000000000     
  0.18750000000000000       0.15625000000000000        0.0000000000000000     
  0.21875000000000000       0.15625000000000000        0.0000000000000000     
  0.25000000000000000       0.15625000000000000        0.0000000000000000     
  0.12500000000000000       0.18750000000000000        0.0000000000000000     
  0.15625000000000000       0.18750000000000000        0.0000000000000000     
  0.18750000000000000       0.18750000000000000        0.0000000000000000     
  0.21875000000000000       0.18750000000000000        0.0000000000000000     
  0.25000000000000000       0.18750000000000000        0.0000000000000000     
  0.12500000000000000       0.21875000000000000        0.0000000000000000     
  0.15625000000000000       0.21875000000000000        0.0000000000000000     
  0.18750000000000000       0.21875000000000000        0.0000000000000000     
  0.21875000000000000       0.21875000000000000        0.0000000000000000     
  0.25000000000000000       0.21875000000000000        0.0000000000000000     
  0.12500000000000000       0.25000000000000000        0.0000000000000000     
  0.15625000000000000       0.25000000000000000        0.0000000000000000     
  0.18750000000000000       0.25000000000000000        0.0000000000000000     
  0.21875000000000000       0.25000000000000000        0.0000000000000000     
  0.25000000000000000       0.25000000000000000        0.0000000000000000     
  0.25000000000000000       0.12500000000000000        0.0000000000000000     
  0.28125000000000000       0.12500000000000000        0.0000000000000000     
  0.31250000000000000       0.12500000000000000        0.0000000000000000     
  0.34375000000000000       0.12500000000000000        0.0000000000000000     
  0.37500000000000000       0.12500000000000000        0.0000000000000000     
  0.25000000000000000       0.15625000000000000        0.0000000000000000     
  0.28125000000000000       0.15625000000000000        0.0000000000000000     
  0.31250000000000000       0.15625000000000000        0.0000000000000000     
  0.34375000000000000       0.15625000000000000        0.0000000000000000     
  0.37500000000000000       0.15625000000000000        0.0000000000000000     
  0.25000000000000000       0.18750000000000000        0.0000000000000000     
  0.28125000000000000       0.18750000000000000        0.0000000000000000     
  0.31250000000000000       0.18750000000000000        0.0000000000000000     
  0.34375000000000000       0.18750000000000000        0.0000000000000000     
  0.37500000000000000       0.18750000000000000        0.0000000000000000     
  0.25000000000000000       0.21875000000000000        0.0000000000000000     
  0.28125000000000000       0.21875000000000000        0.0000000000000000     
  0.31250000000000000       0.21875000000000000        0.0000000000000000     
  0.34375000000000000       0.21875000000000000        0.0000000000000000     
  0.37500000000000000       0.21875000000000000        0.0000000000000000     
  0.25000000000000000       0.25000000000000000        0.0000000000000000     
  0.28125000000000000       0.25000000000000000        0.0000000000000000     
  0.31250000000000000       0.25000000000000000        0.0000000000000000     
  0.34375000000000000       0.25000000000000000        0.0000000000000000     
  0.37500000000000000       0.25000000000000000        0.0000000000000000     
  0.37500000000000000       0.12500000000000000        0.0000000000000000     
  0.40625000000000000       0.12500000000000000        0.0000000000000000     
  0.43750000000000000       0.12500000000000000        0.0000000000000000     
  0.46875000000000000       0.12500000000000000        0.0000000000000000     
  0.50000000000000000       0.12500000000000000        0.0000000000000000     
  0.37500000000000000       0.15625000000000000        0.0000000000000000     
  0.40625000000000000       0.15625000000000000        0.0000000000000000     
  0.43750000000000000       0.15625000000000000        0.0000000000000000     
  0.46875000000000000       0.15625000000000000        0.0000000000000000     
  0.50000000000000000       0.15625000000000000        0.0000000000000000     
  0.37500000000000000       0.18750000000000000        0.0000000000000000     
  0.40625000000000000       0.18750000000000000        0.0000000000000000     
  0.43750000000000000       0.18750000000000000        0.0000000000000000     
  0.46875000000000000       0.18750000000000000        0.0000000000000000     
  0.50000000000000000       0.18750000000000000        0.0000000000000000     
  0.37500000000000000       0.21875000000000000        0.0000000000000000     
  0.40625000000000000       0.21875000000000000        0.0000000000000000     
  0.43750000000000000       0.21875000000000000        0.0000000000000000     
  0.46875000000000000       0.21875000000000000        0.0000000000000000     
  0.50000000000000000       0.21875000000000000        0.0000000000000000     
  0.37500000000000000       0.25000000000000000        0.0000000000000000     
  0.40625000000000000       0.25000000000000000        0.0000000000000000     
  0.43750000000000000       0.25000000000000000        0.0000000000000000     
  0.46875000000000000       0.25000000000000000        0.0000000000000000     
  0.50000000000000000       0.25000000000000000        0.0000000000000000     
  0.50000000000000000       0.12500000000000000        0.0000000000000000     
  0.53125000000000000       0.12500000000000000        0.0000000000000000     
  0.56250000000000000       0.12500000000000000        0.0000000000000000     
  0.59375000000000000       0.12500000000000000        0.0000000000000000     
  0.62500000000000000       0.12500000000000000        0.0000000000000000     
  0.50000000000000000       0.15625000000000000        0.0000000000000000     
  0.53125000000000000       0.15625000000000000        0.0000000000000000     
  0.56250000000000000       0.15625000000000000        0.0000000000000000     
  0.59375000000000000       0.15625000000000000        0.0000000000000000     
  0.62500000000000000       0.15625000000000000        0.0000000000000000     
  0.50000000000000000       0.18750000000000000        0.0000000000000000     
  0.53125000000000000       0.18750000000000000        0.0000000000000000     
  0.56250000000000000       0.18750000000000000        0.0000000000000000     
  0.59375000000000000       0.18750000000000000        0.0000000000000000     
  0.62500000000000000       0.18750000000000000        0.0000000000000000     
  0.50000000000000000       0.21875000000000000        0.0000000000000000     
  0.53125000000000000       0.21875000000000000        0.0000000000000000     
  0.56250000000000000       0.21875000000000000        0.0000000000000000     
  0.59375000000000000       0.21875000000000000        0.0000000000000000     
  0.62500000000000000       0.21875000000000000        0.0000000000000000     
  0.50000000000000000       0.25000000000000000        0.0000000000000000     
  0.53125000000000000       0.25000000000000000        0.0000000000000000     
  0.56250000000000000       0.25000000000000000        0.0000000000000000     
  0.59375000000000000       0.25000000000000000        0.0000000000000000     
  0.62500000000000000       0.25000000000000000        0.0000000000000000     
  0.62500000000000000       0.12500000000000000        0.0000000000000000     
  0.65625000000000000       0.12500000000000000        0.0000000000000000     
  0.68750000000000000       0.12500000000000000        0.0000000000000000     
  0.71875000000000000       0.12500000000000000        0.0000000000000000     
  0.75000000000000000       0.12500000000000000        0.0000000000000000     
  0.62500000000000000       0.15625000000000000        0.0000000000000000     
  0.65625000000000000       0.15625000000000000        0.0000000000000000     
  0.68750000000000000       0.15625000000000000        0.0000000000000000     
  0.71875000000000000       0.15625000000000000        0.0000000000000000     
  0.75000000000000000       0.15625000000000000        0.0000000000000000     
  0.62500000000000000       0.18750000000000000        0.0000000000000000     
  0.65625000000000000       0.18750000000000000        0.0000000000000000     
  0.68750000000000000       0.18750000000000000        0.0000000000000000     
  0.71875000000000000       0.18750000000000000        0.0000000000000000     
  0.75000000000000000       0.18750000000000000        0.0000000000000000     
  0.62500000000000000       0.21875000000000000        0.0000000000000000     
  0.65625000000000000       0.21875000000000000        0.0000000000000000     
  0.68750000000000000       0.21875000000000000        0.0000000000000000     
  0.71875000000000000       0.21875000000000000        0.0000000000000000     
  0.75000000000000000       0.21875000000000000        0.0000000000000000     
  0.62500000000000000       0.25000000000000000        0.0000000000000000     
  0.65625000000000000       0.25000000000000000        0.0000000000000000     
  0.68750000000000000       0.25000000000000000        0.0000000000000000     
  0.71875000000000000       0.25000000000000000        0.0000000000000000     
  0.75000000000000000       0.25000000000000000        0.0000000000000000     
  0.75000000000000000       0.12500000000000000        0.0000000000000000     
  0.78125000000000000       0.12500000000000000        0.0000000000000000     
  0.81250000000000000       0.12500000000000000        0.0000000000000000     
  0.84375000000000000       0.12500000000000000        0.0000000000000000     
  0.87500000000000000       0.12500000000000000        0.0000000000000000     
  0.75000000000000000       0.15625000000000000        0.0000000000000000     
  0.78125000000000000       0.15625000000000000        0.0000000000000000     
  0.81250000000000000       0.15625000000000000        0.0000000000000000     
  0.84375000000000000       0.15625000000000000        0.0000000000000000     
  0.87500000000000000       0.15625000000000000        0.0000000000000000     
  0.75000000000000000       0.18750000000000000        0.0000000000000000     
  0.78125000000000000       0.18750000000000000        0.0000000000000000     
  0.81250000000000000       0.18750000000000000        0.0000000000000000     
  0.84375000000000000       0.18750000000000000        0.0000000000000000     
  0.87500000000000000       0.18750000000000000        0.0000000000000000     
  0.75000000000000000       0.21875000000000000        0.0000000000000000     
  0.78125000000000000       0.21875000000000000        0.0000000000000000     
  0.81250000000000000       0.21875000000000000        0.0000000000000000     
  0.84375000000000000       0.21875000000000000        0.0000000000000000     
  0.87500000000000000       0.21875000000000000        0.0000000000000000     
  0.75000000000000000       0.25000000000000000        0.0000000000000000     
  0.78125000000000000       0.25000000000000000        0.0000000000000000     
  0.81250000000000000       0.25000000000000000        0.0000000000000000     
  0.84375000000000000       0.25000000000000000        0.0000000000000000     
  0.87500000000000000       0.25000000000000000        0.0000000000000000     
  0.87500000000000000       0.12500000000000000        0.0000000000000000     
  0.90625000000000000       0.12500000000000000        0.0000000000000000     
  0.93750000000000000       0.12500000000000000        0.0000000000000000     
  0.96875000000000000       0.12500000000000000        0.0000000000000000     
   1.0000000000000000       0.12500000000000000        0.0000000000000000     
  0.87500000000000000       0.15625000000000000        0.0000000000000000     
  0.90625000000000000       0.15625000000000000        0.0000000000000000     
  0.93750000000000000       0.15625000000000000        0.0000000000000000     
  0.96875000000000000       0.15625000000000000        0.0000000000000000     
   1.0000000000000000       0.15625000000000000        0.0000000000000000     
  0.87500000000000000       0.18750000000000000        0.0000000000000000     
  0.90625000000000000       0.18750000000000000        0.0000000000000000     
  0.93750000000000000       0.18750000000000000        0.0000000000000000     
  0.96875000000000000       0.18750000000000000        0.0000000000000000     
   1.0000000000000000       0.18750000000000000        0.0000000000000000     
  0.87500000000000000       0.21875000000000000        0.0000000000000000     
  0.90625000000000000       0.21875000000000000        0.0000000000000000     
  0.93750000000000000       0.21875000000000000        0.0000000000000000     
  0.96875000000000000       0.21875000000000000        0.0000000000000000     
   1.0000000000000000       0.21875000000000000        0.0000000000000000     
  0.87500000000000000       0.25000000000000000        0.0000000000000000     
  0.90625000000000000       0.25000000000000000        0.0000000000000000     
  0.93750000000000000       0.25000000000000000        0.0000000000000000     
  0.96875000000000000       0.25000000000000000        0.0000000000000000     
   1.0000000000000000       0.25000000000000000        0.0000000000000000     
   0.0000000000000000       0.25000000000000000        0.0000000000000000     
   3.1250000000000000E-002  0.25000000000000000        0.0000000000000000     
   6.2500000000000000E-002  0.25000000000000000        0.0000000000000000     
   9.3750000000000000E-002  0.25000000000000000        0.0000000000000000     
  0.12500000000000000       0.25000000000000000        0.0000000000000000     
   0.0000000000000000       0.28125000000000000        0.0000000000000000     
   3.1250000000000000E-002  0.28125000000000000        0.0000000000000000     
   6.2500000000000000E-002  0.28125000000000000        0.0000000000000000     
   9.3750000000000000E-002  0.28125000000000000        0.0000000000000000     
  0.12500000000000000       0.28125000000000000        0.0000000000000000     
   0.0000000000000000       0.31250000000000000        0.0000000000000000     
   3.1250000000000000E-002  0.31250000000000000        0.0000000000000000     
   6.2500000000000000E-002  0.31250000000000000        0.0000000000000000     
   9.3750000000000000E-002  0.31250000000000000        0.0000000000000000     
  0.12500000000000000       0.31250000000000000        0.0000000000000000     
   0.0000000000000000       0.34375000000000000        0.0000000000000000     
   3.1250000000000000E-002  0.34375000000000000        0.0000000000000000     
   6.2500000000000000E-002  0.34375000000000000        0.0000000000000000     
   9.3750000000000000E-002  0.34375000000000000        0.0000000000000000     
  0.12500000000000000       0.34375000000000000        0.0000000000000000     
   0.0000000000000000       0.37500000000000000        0.0000000000000000     
   3.1250000000000000E-002  0.37500000000000000        0.0000000000000000     
   6.2500000000000000E-002  0.37500000000000000        0.0000000000000000     
   9.3750000000000000E-002  0.37500000000000000        0.0000000000000000     
  0.12500000000000000       0.37500000000000000        0.0000000000000000     
  0.12500000000000000       0.25000000000000000        0.0000000000000000     
  0.15625000000000000       0.25000000000000000        0.0000000000000000     
  0.18750000000000000       0.25000000000000000        0.0000000000000000     
  0.21875000000000000       0.25000000000000000        0.0000000000000000     
  0.25000000000000000       0.25000000000000000        0.0000000000000000     
  0.12500000000000000       0.28125000000000000        0.0000000000000000     
  0.15625000000000000       0.28125000000000000        0.0000000000000000     
  0.18750000000000000       0.28125000000000000        0.0000000000000000     
  0.21875000000000000       0.28125000000000000        0.0000000000000000     
  0.25000000000000000       0.28125000000000000        0.0000000000000000     
  0.12500000000000000       0.31250000000000000        0.0000000000000000     
  0.15625000000000000       0.31250000000000000        0.0000000000000000     
  0.18750000000000000       0.31250000000000000        0.0000000000000000     
  0.21875000000000000       0.31250000000000000        0.0000000000000000     
  0.25000000000000000       0.31250000000000000        0.0000000000000000     
  0.12500000000000000       0.34375000000000000        0.0000000000000000     
  0.15625000000000000       0.34375000000000000        0.0000000000000000     
  0.18750000000000000       0.34375000000000000        0.0000000000000000     
  0.21875000000000000       0.34375000000000000        0.0000000000000000     
  0.25000000000000000       0.34375000000000000        0.0000000000000000     
  0.12500000000000000       0.37500000000000000        0.0000000000000000     
  0.15625000000000000       0.37500000000000000        0.0000000000000000     
  0.18750000000000000       0.37500000000000000        0.0000000000000000     
  0.21875000000000000       0.37500000000000000        0.0000000000000000     
  0.25000000000000000       0.37500000000000000        0.0000000000000000     
  0.25000000000000000       0.25000000000000000        0.0000000000000000     
  0.28125000000000000       0.25000000000000000        0.0000000000000000     
  0.31250000000000000       0.25000000000000000        0.0000000000000000     
  0.34375000000000000       0.25000000000000000        0.0000000000000000     
  0.37500000000000000       0.25000000000000000        0.0000000000000000     
  0.25000000000000000       0.28125000000000000        0.0000000000000000     
  0.28125000000000000       0.28125000000000000        0.0000000000000000     
  0.31250000000000000       0.28125000000000000        0.0000000000000000     
  0.34375000000000000       0.28125000000000000        0.0000000000000000     
  0.37500000000000000       0.28125000000000000        0.0000000000000000     
  0.25000000000000000       0.31250000000000000        0.0000000000000000     
  0.28125000000000000       0.31250000000000000        0.0000000000000000     
  0.31250000000000000       0.31250000000000000        0.0000000000000000     
  0.34375000000000000       0.31250000000000000        0.0000000000000000     
  0.37500000000000000       0.31250000000000000        0.0000000000000000     
  0.25000000000000000       0.34375000000000000        0.0000000000000000     
  0.28125000000000000       0.34375000000000000        0.0000000000000000     
  0.31250000000000000       0.34375000000000000        0.0000000000000000     
  0.34375000000000000       0.34375000000000000        0.0000000000000000     
  0.37500000000000000       0.34375000000000000        0.0000000000000000     
  0.25000000000000000       0.37500000000000000        0.0000000000000000     
  0.28125000000000000       0.37500000000000000        0.0000000000000000     
  0.31250000000000000       0.37500000000000000        0.0000000000000000     
  0.34375000000000000       0.37500000000000000        0.0000000000000000     
  0.37500000000000000       0.37500000000000000        0.0000000000000000     
  0.37500000000000000       0.25000000000000000        0.0000000000000000     
  0.40625000000000000       0.25000000000000000        0.0000000000000000     
  0.43750000000000000       0.25000000000000000        0.0000000000000000     
  0.46875000000000000       0.25000000000000000        0.0000000000000000     
  0.50000000000000000       0.25000000000000000        0.0000000000000000     
  0.37500000000000000       0.28125000000000000        0.0000000000000000     
  0.40625000000000000       0.28125000000000000        0.0000000000000000     
  0.43750000000000000       0.28125000000000000        0.0000000000000000     
  0.46875000000000000       0.28125000000000000        0.0000000000000000     
  0.50000000000000000       0.28125000000000000        0.0000000000000000     
  0.37500000000000000       0.31250000000000000        0.0000000000000000     
  0.40625000000000000       0.31250000000000000        0.0000000000000000     
  0.43750000000000000       0.31250000000000000        0.0000000000000000     
  0.46875000000000000       0.31250000000000000        0.0000000000000000     
  0.50000000000000000       0.31250000000000000        0.0000000000000000     
  0.37500000000000000       0.34375000000000000        0.0000000000000000     
  0.40625000000000000       0.34375000000000000        0.0000000000000000     
  0.43750000000000000       0.34375000000000000        0.0000000000000000     
  0.46875000000000000       0.34375000000000000        0.0000000000000000     
  0.50000000000000000       0.34375000000000000        0.0000000000000000     
  0.37500000000000000       0.37500000000000000        0.0000000000000000     
  0.40625000000000000       0.37500000000000000        0.0000000000000000     
  0.43750000000000000       0.37500000000000000        0.0000000000000000     
  0.46875000000000000       0.37500000000000000        0.0000000000000000     
  0.50000000000000000       0.37500000000000000        0.0000000000000000     
  0.50000000000000000       0.25000000000000000        0.0000000000000000     
  0.53125000000000000       0.25000000000000000        0.0000000000000000     
  0.56250000000000000       0.25000000000000000        0.0000000000000000     
  0.59375000000000000       0.25000000000000000        0.0000000000000000     
  0.62500000000000000       0.25000000000000000        0.0000000000000000     
  0.50000000000000000       0.28125000000000000        0.0000000000000000     
  0.53125000000000000       0.28125000000000000        0.0000000000000000     
  0.56250000000000000       0.28125000000000000        0.0000000000000000     
  0.59375000000000000       0.28125000000000000        0.0000000000000000     
  0.62500000000000000       0.28125000000000000        0.0000000000000000     
  0.50000000000000000       0.31250000000000000        0.0000000000000000     
  0.53125000000000000       0.31250000000000000        0.0000000000000000     
  0.56250000000000000       0.31250000000000000        0.0000000000000000     
  0.59375000000000000       0.31250000000000000        0.0000000000000000     
  0.62500000000000000       0.31250000000000000        0.0000000000000000     
  0.50000000000000000       0.34375000000000000        0.0000000000000000     
  0.53125000000000000       0.34375000000000000        0.0000000000000000     
  0.56250000000000000       0.34375000000000000        0.0000000000000000     
  0.59375000000000000       0.34375000000000000        0.0000000000000000     
  0.62500000000000000       0.34375000000000000        0.0000000000000000     
  0.50000000000000000       0.37500000000000000        0.0000000000000000     
  0.53125000000000000       0.37500000000000000        0.0000000000000000     
  0.56250000000000000       0.37500000000000000        0.0000000000000000     
  0.59375000000000000       0.37500000000000000        0.0000000000000000     
  0.62500000000000000       0.37500000000000000        0.0000000000000000     
  0.62500000000000000       0.25000000000000000        0.0000000000000000     
  0.65625000000000000       0.25000000000000000        0.0000000000000000     
  0.68750000000000000       0.25000000000000000        0.0000000000000000     
  0.71875000000000000       0.25000000000000000        0.0000000000000000     
  0.75000000000000000       0.25000000000000000        0.0000000000000000     
  0.62500000000000000       0.28125000000000000        0.0000000000000000     
  0.65625000000000000       0.28125000000000000        0.0000000000000000     
  0.68750000000000000       0.28125000000000000        0.0000000000000000     
  0.71875000000000000       0.28125000000000000        0.0000000000000000     
  0.75000000000000000       0.28125000000000000        0.0000000000000000     
  0.62500000000000000       0.31250000000000000        0.0000000000000000     
  0.65625000000000000       0.31250000000000000        0.0000000000000000     
  0.68750000000000000       0.31250000000000000        0.0000000000000000     
  0.71875000000000000       0.31250000000000000        0.0000000000000000     
  0.75000000000000000       0.31250000000000000        0.0000000000000000     
  0.62500000000000000       0.34375000000000000        0.0000000000000000     
  0.65625000000000000       0.34375000000000000        0.0000000000000000     
  0.68750000000000000       0.34375000000000000        0.0000000000000000     
  0.71875000000000000       0.34375000000000000        0.0000000000000000     
  0.75000000000000000       0.34375000000000000        0.0000000000000000     
  0.62500000000000000       0.37500000000000000        0.0000000000000000     
  0.65625000000000000       0.37500000000000000        0.0000000000000000     
  0.68750000000000000       0.37500000000000000        0.0000000000000000     
  0.71875000000000000       0.37500000000000000        0.0000000000000000     
  0.75000000000000000       0.37500000000000000        0.0000000000000000     
  0.75000000000000000       0.25000000000000000        0.0000000000000000     
  0.78125000000000000       0.25000000000000000        0.0000000000000000     
  0.81250000000000000       0.25000000000000000        0.0000000000000000     
  0.84375000000000000       0.25000000000000000        0.0000000000000000     
  0.87500000000000000       0.25000000000000000        0.0000000000000000     
  0.75000000000000000       0.28125000000000000        0.0000000000000000     
  0.78125000000000000       0.28125000000000000        0.0000000000000000     
  0.81250000000000000       0.28125000000000000        0.0000000000000000     
  0.84375000000000000       0.28125000000000000        0.0000000000000000     
  0.87500000000000000       0.28125000000000000        0.0000000000000000     
  0.75000000000000000       0.31250000000000000        0.0000000000000000     
  0.78125000000000000       0.31250000000000000        0.0000000000000000     
  0.81250000000000000       0.31250000000000000        0.0000000000000000     
  0.84375000000000000       0.31250000000000000        0.0000000000000000     
  0.87500000000000000       0.31250000000000000        0.0000000000000000     
  0.75000000000000000       0.34375000000000000        0.0000000000000000     
  0.78125000000000000       0.34375000000000000        0.0000000000000000     
  0.81250000000000000       0.34375000000000000        0.0000000000000000     
  0.84375000000000000       0.34375000000000000        0.0000000000000000     
  0.87500000000000000       0.34375000000000000        0.0000000000000000     
  0.75000000000000000       0.37500000000000000        0.0000000000000000     
  0.78125000000000000       0.37500000000000000        0.0000000000000000     
  0.81250000000000000       0.37500000000000000        0.0000000000000000     
  0.84375000000000000       0.37500000000000000        0.0000000000000000     
  0.87500000000000000       0.37500000000000000        0.0000000000000000     
  0.87500000000000000       0.25000000000000000        0.0000000000000000     
  0.90625000000000000       0.25000000000000000        0.0000000000000000     
  0.93750000000000000       0.25000000000000000        0.0000000000000000     
  0.96875000000000000       0.25000000000000000        0.0000000000000000     
   1.0000000000000000       0.25000000000000000        0.0000000000000000     
  0.87500000000000000       0.28125000000000000        0.0000000000000000     
  0.90625000000000000       0.28125000000000000        0.0000000000000000     
  0.93750000000000000       0.28125000000000000        0.0000000000000000     
  0.96875000000000000       0.28125000000000000        0.0000000000000000     
   1.0000000000000000       0.28125000000000000        0.0000000000000000     
  0.87500000000000000       0.31250000000000000        0.0000000000000000     
  0.90625000000000000       0.31250000000000000        0.0000000000000000     
  0.93750000000000000       0.31250000000000000        0.0000000000000000     
  0.96875000000000000       0.31250000000000000        0.0000000000000000     
   1.0000000000000000       0.31250000000000000        0.0000000000000000     
  0.87500000000000000       0.34375000000000000        0.0000000000000000     
  0.90625000000000000       0.34375000000000000        0.0000000000000000     
  0.93750000000000000       0.34375000000000000        0.0000000000000000     
  0.96875000000000000       0.34375000000000000        0.0000000000000000     
   1.0000000000000000       0.34375000000000000        0.0000000000000000     
  0.87500000000000000       0.37500000000000000        0.0000000000000000     
  0.90625000000000000       0.37500000000000000        0.0000000000000000     
  0.93750000000000000       0.37500000000000000        0.0000000000000000     
  0.96875000000000000       0.37500000000000000        0.0000000000000000     
   1.0000000000000000       0.37500000000000000        0.0000000000000000     
   0.0000000000000000       0.37500000000000000        0.0000000000000000     
   3.1250000000000000E-002  0.37500000000000000        0.0000000000000000     
   6.2500000000000000E-002  0.37500000000000000        0.0000000000000000     
   9.3750000000000000E-002  0.37500000000000000        0.0000000000000000     
  0.12500000000000000       0.37500000000000000        0.0000000000000000     
   0.0000000000000000       0.40625000000000000        0.0000000000000000     
   3.1250000000000000E-002  0.40625000000000000        0.0000000000000000     
   6.2500000000000000E-002  0.40625000000000000        0.0000000000000000     
   9.3750000000000000E-002  0.40625000000000000        0.0000000000000000     
  0.12500000000000000       0.40625000000000000        0.0000000000000000     
   0.0000000000000000       0.43750000000000000        0.0000000000000000     
   3.1250000000000000E-002  0.43750000000000000        0.0000000000000000     
   6.2500000000000000E-002  0.43750000000000000        0.0000000000000000     
   9.3750000000000000E-002  0.43750000000000000        0.0000000000000000     
  0.12500000000000000       0.43750000000000000        0.0000000000000000     
   0.0000000000000000       0.46875000000000000        0.0000000000000000     
   3.1250000000000000E-002  0.46875000000000000        0.0000000000000000     
   6.2500000000000000E-002  0.46875000000000000        0.0000000000000000     
   9.3750000000000000E-002  0.46875000000000000        0.0000000000000000     
  0.12500000000000000       0.46875000000000000        0.0000000000000000     
   0.0000000000000000       0.50000000000000000        0.0000000000000000     
   3.1250000000000000E-002  0.50000000000000000        0.0000000000000000     
   6.2500000000000000E-002  0.50000000000000000        0.0000000000000000     
   9.3750000000000000E-002  0.50000000000000000        0.0000000000000000     
  0.12500000000000000       0.50000000000000000        0.0000000000000000     
  0.12500000000000000       0.37500000000000000        0.0000000000000000     
  0.15625000000000000       0.37500000000000000        0.0000000000000000     
  0.18750000000000000       0.37500000000000000        0.0000000000000000     
  0.21875000000000000       0.37500000000000000        0.0000000000000000     
  0.25000000000000000       0.37500000000000000        0.0000000000000000     
  0.12500000000000000       0.40625000000000000        0.0000000000000000     
  0.15625000000000000       0.40625000000000000        0.0000000000000000     
  0.18750000000000000       0.40625000000000000        0.0000000000000000     
  0.21875000000000000       0.40625000000000000        0.0000000000000000     
  0.25000000000000000       0.40625000000000000        0.0000000000000000     
  0.12500000000000000       0.43750000000000000        0.0000000000000000     
  0.15625000000000000       0.43750000000000000        0.0000000000000000     
  0.18750000000000000       0.43750000000000000        0.0000000000000000     
  0.21875000000000000       0.43750000000000000        0.0000000000000000     
  0.25000000000000000       0.43750000000000000        0.0000000000000000     
  0.12500000000000000       0.46875000000000000        0.0000000000000000     
  0.15625000000000000       0.46875000000000000        0.0000000000000000     
  0.18750000000000000       0.46875000000000000        0.0000000000000000     
  0.21875000000000000       0.46875000000000000        0.0000000000000000     
  0.25000000000000000       0.46875000000000000        0.0000000000000000     
  0.12500000000000000       0.50000000000000000        0.0000000000000000     
  0.15625000000000000       0.50000000000000000        0.0000000000000000     
  0.18750000000000000       0.50000000000000000        0.0000000000000000     
  0.21875000000000000       0.50000000000000000        0.0000000000000000     
  0.25000000000000000       0.50000000000000000        0.0000000000000000     
  0.25000000000000000       0.37500000000000000        0.0000000000000000     
  0.28125000000000000       0.37500000000000000        0.0000000000000000     
  0.31250000000000000       0.37500000000000000        0.0000000000000000     
  0.34375000000000000       0.37500000000000000        0.0000000000000000     
  0.37500000000000000       0.37500000000000000        0.0000000000000000     
  0.25000000000000000       0.40625000000000000        0.0000000000000000     
  0.28125000000000000       0.40625000000000000        0.0000000000000000     
  0.31250000000000000       0.40625000000000000        0.0000000000000000     
  0.34375000000000000       0.40625000000000000        0.0000000000000000     
  0.37500000000000000       0.40625000000000000        0.0000000000000000     
  0.25000000000000000       0.43750000000000000        0.0000000000000000     
  0.28125000000000000       0.43750000000000000        0.0000000000000000     
  0.31250000000000000       0.43750000000000000        0.0000000000000000     
  0.34375000000000000       0.43750000000000000        0.0000000000000000     
  0.37500000000000000       0.43750000000000000        0.0000000000000000     
  0.25000000000000000       0.46875000000000000        0.0000000000000000     
  0.28125000000000000       0.46875000000000000        0.0000000000000000     
  0.31250000000000000       0.46875000000000000        0.0000000000000000     
  0.34375000000000000       0.46875000000000000        0.0000000000000000     
  0.37500000000000000       0.46875000000000000        0.0000000000000000     
  0.25000000000000000       0.50000000000000000        0.0000000000000000     
  0.28125000000000000       0.50000000000000000        0.0000000000000000     
  0.31250000000000000       0.50000000000000000        0.0000000000000000     
  0.34375000000000000       0.50000000000000000        0.0000000000000000     
  0.37500000000000000       0.50000000000000000        0.0000000000000000     
  0.37500000000000000       0.37500000000000000        0.0000000000000000     
  0.40625000000000000       0.37500000000000000        0.0000000000000000     
  0.43750000000000000       0.37500000000000000        0.0000000000000000     
  0.46875000000000000       0.37500000000000000        0.0000000000000000     
  0.50000000000000000       0.37500000000000000        0.0000000000000000     
  0.37500000000000000       0.40625000000000000        0.0000000000000000     
  0.40625000000000000       0.40625000000000000        0.0000000000000000     
  0.43750000000000000       0.40625000000000000        0.0000000000000000     
  0.46875000000000000       0.40625000000000000        0.0000000000000000     
  0.50000000000000000       0.40625000000000000        0.0000000000000000     
  0.37500000000000000       0.43750000000000000        0.0000000000000000     
  0.40625000000000000       0.43750000000000000        0.0000000000000000     
  0.43750000000000000       0.43750000000000000        0.0000000000000000     
  0.46875000000000000       0.43750000000000000        0.0000000000000000     
  0.50000000000000000       0.43750000000000000        0.0000000000000000     
  0.37500000000000000       0.46875000000000000        0.0000000000000000     
  0.40625000000000000       0.46875000000000000        0.0000000000000000     
  0.43750000000000000       0.46875000000000000        0.0000000000000000     
  0.46875000000000000       0.46875000000000000        0.0000000000000000     
  0.50000000000000000       0.46875000000000000        0.0000000000000000     
  0.37500000000000000       0.50000000000000000        0.0000000000000000     
  0.40625000000000000       0.50000000000000000        0.0000000000000000     
  0.43750000000000000       0.50000000000000000        0.0000000000000000     
  0.46875000000000000       0.50000000000000000        0.0000000000000000     
  0.50000000000000000       0.50000000000000000        0.0000000000000000     
  0.50000000000000000       0.37500000000000000        0.0000000000000000     
  0.53125000000000000       0.37500000000000000        0.0000000000000000     
  0.56250000000000000       0.37500000000000000        0.0000000000000000     
  0.59375000000000000       0.37500000000000000        0.0000000000000000     
  0.62500000000000000       0.37500000000000000        0.0000000000000000     
  0.50000000000000000       0.40625000000000000        0.0000000000000000     
  0.53125000000000000       0.40625000000000000        0.0000000000000000     
  0.56250000000000000       0.40625000000000000        0.0000000000000000     
  0.59375000000000000       0.40625000000000000        0.0000000000000000     
  0.62500000000000000       0.40625000000000000        0.0000000000000000     
  0.50000000000000000       0.43750000000000000        0.0000000000000000     
  0.53125000000000000       0.43750000000000000        0.0000000000000000     
  0.56250000000000000       0.43750000000000000        0.0000000000000000     
  0.59375000000000000       0.43750000000000000        0.0000000000000000     
  0.62500000000000000       0.43750000000000000        0.0000000000000000     
  0.50000000000000000       0.46875000000000000        0.0000000000000000     
  0.53125000000000000       0.46875000000000000        0.0000000000000000     
  0.56250000000000000       0.46875000000000000        0.0000000000000000     
  0.59375000000000000       0.46875000000000000        0.0000000000000000     
  0.62500000000000000       0.46875000000000000        0.0000000000000000     
  0.50000000000000000       0.50000000000000000        0.0000000000000000     
  0.53125000000000000       0.50000000000000000        0.0000000000000000     
  0.56250000000000000       0.50000000000000000        0.0000000000000000     
  0.59375000000000000       0.50000000000000000        0.0000000000000000     
  0.62500000000000000       0.50000000000000000        0.0000000000000000     
  0.62500000000000000       0.37500000000000000        0.0000000000000000     
  0.65625000000000000       0.37500000000000000        0.0000000000000000     
  0.68750000000000000       0.37500000000000000        0.0000000000000000     
  0.71875000000000000       0.37500000000000000        0.0000000000000000     
  0.75000000000000000       0.37500000000000000        0.0000000000000000     
  0.62500000000000000       0.40625000000000000        0.0000000000000000     
  0.65625000000000000       0.40625000000000000        0.0000000000000000     
  0.68750000000000000       0.40625000000000000        0.0000000000000000     
  0.71875000000000000       0.40625000000000000        0.0000000000000000     
  0.75000000000000000       0.40625000000000000        0.0000000000000000     
  0.62500000000000000       0.43750000000000000        0.0000000000000000     
  0.65625000000000000       0.43750000000000000        0.0000000000000000     
  0.68750000000000000       0.43750000000000000        0.0000000000000000     
  0.71875000000000000       0.43750000000000000        0.0000000000000000     
  0.75000000000000000       0.43750000000000000        0.0000000000000000     
  0.62500000000000000       0.46875000000000000        0.0000000000000000     
  0.65625000000000000       0.46875000000000000        0.0000000000000000     
  0.68750000000000000       0.46875000000000000        0.0000000000000000     
  0.71875000000000000       0.46875000000000000        0.0000000000000000     
  0.75000000000000000       0.46875000000000000        0.0000000000000000     
  0.62500000000000000       0.50000000000000000        0.0000000000000000     
  0.65625000000000000       0.50000000000000000        0.0000000000000000     
  0.68750000000000000       0.50000000000000000        0.0000000000000000     
  0.71875000000000000       0.50000000000000000        0.0000000000000000     
  0.75000000000000000       0.50000000000000000        0.0000000000000000     
  0.75000000000000000       0.37500000000000000        0.0000000000000000     
  0.78125000000000000       0.37500000000000000        0.0000000000000000     
  0.81250000000000000       0.37500000000000000        0.0000000000000000     
  0.84375000000000000       0.37500000000000000        0.0000000000000000     
  0.87500000000000000       0.37500000000000000        0.0000000000000000     
  0.75000000000000000       0.40625000000000000        0.0000000000000000     
  0.78125000000000000       0.40625000000000000        0.0000000000000000     
  0.81250000000000000       0.40625000000000000        0.0000000000000000     
  0.84375000000000000       0.40625000000000000        0.0000000000000000     
  0.87500000000000000       0.40625000000000000        0.0000000000000000     
  0.75000000000000000       0.43750000000000000        0.0000000000000000     
  0.78125000000000000       0.43750000000000000        0.0000000000000000     
  0.81250000000000000       0.43750000000000000        0.0000000000000000     
  0.84375000000000000       0.43750000000000000        0.0000000000000000     
  0.87500000000000000       0.43750000000000000        0.0000000000000000     
  0.75000000000000000       0.46875000000000000        0.0000000000000000     
  0.78125000000000000       0.46875000000000000        0.0000000000000000     
  0.81250000000000000       0.46875000000000000        0.0000000000000000     
  0.84375000000000000       0.46875000000000000        0.0000000000000000     
  0.87500000000000000       0.46875000000000000        0.0000000000000000     
  0.75000000000000000       0.50000000000000000        0.0000000000000000     
  0.78125000000000000       0.50000000000000000        0.0000000000000000     
  0.81250000000000000       0.50000000000000000        0.0000000000000000     
  0.84375000000000000       0.50000000000000000        0.0000000000000000     
  0.87500000000000000       0.50000000000000000        0.0000000000000000     
  0.87500000000000000       0.37500000000000000        0.0000000000000000     
  0.90625000000000000       0.37500000000000000        0.0000000000000000     
  0.93750000000000000       0.37500000000000000        0.0000000000000000     
  0.96875000000000000       0.37500000000000000        0.0000000000000000     
   1.0000000000000000       0.37500000000000000        0.0000000000000000     
  0.87500000000000000       0.40625000000000000        0.0000000000000000     
  0.90625000000000000       0.40625000000000000        0.0000000000000000     
  0.93750000000000000       0.40625000000000000        0.0000000000000000     
  0.96875000000000000       0.40625000000000000        0.0000000000000000     
   1.0000000000000000       0.40625000000000000        0.0000000000000000     
  0.87500000000000000       0.43750000000000000        0.0000000000000000     
  0.90625000000000000       0.43750000000000000        0.0000000000000000     
  0.93750000000000000       0.43750000000000000        0.0000000000000000     
  0.96875000000000000       0.43750000000000000        0.0000000000000000     
   1.0000000000000000       0.43750000000000000        0.0000000000000000     
  0.87500000000000000       0.46875000000000000        0.0000000000000000     
  0.90625000000000000       0.46875000000000000        0.0000000000000000     
  0.93750000000000000       0.46875000000000000        0.0000000000000000     
  0.96875000000000000       0.46875000000000000        0.0000000000000000     
   1.0000000000000000       0.46875000000000000        0.0000000000000000     
  0.87500000000000000       0.50000000000000000        0.0000000000000000     
  0.90625000000000000       0.50000000000000000        0.0000000000000000     
  0.93750000000000000       0.50000000000000000        0.0000000000000000     
  0.96875000000000000       0.50000000000000000        0.0000000000000000     
   1.0000000000000000       0.50000000000000000        0.0000000000000000     
   0.0000000000000000       0.50000000000000000        0.0000000000000000     
   3.1250000000000000E-002  0.50000000000000000        0.0000000000000000     
   6.2500000000000000E-002  0.50000000000000000        0.0000000000000000     
   9.3750000000000000E-002  0.50000000000000000        0.0000000000000000     
  0.12500000000000000       0.50000000000000000        0.0000000000000000     
   0.0000000000000000       0.53125000000000000        0.0000000000000000     
   3.1250000000000000E-002  0.53125000000000000        0.0000000000000000     
   6.2500000000000000E-002  0.53125000000000000        0.0000000000000000     
   9.3750000000000000E-002  0.53125000000000000        0.0000000000000000     
  0.12500000000000000       0.53125000000000000        0.0000000000000000     
   0.0000000000000000       0.56250000000000000        0.0000000000000000     
   3.1250000000000000E-002  0.56250000000000000        0.0000000000000000     
   6.2500000000000000E-002  0.56250000000000000        0.0000000000000000     
   9.3750000000000000E-002  0.56250000000000000        0.0000000000000000     
  0.12500000000000000       0.56250000000000000        0.0000000000000000     
   0.0000000000000000       0.59375000000000000        0.0000000000000000     
   3.1250000000000000E-002  0.59375000000000000        0.0000000000000000     
   6.2500000000000000E-002  0.59375000000000000        0.0000000000000000     
   9.3750000000000000E-002  0.59375000000000000        0.0000000000000000     
  0.12500000000000000       0.59375000000000000        0.0000000000000000     
   0.0000000000000000       0.62500000000000000        0.0000000000000000     
   3.1250000000000000E-002  0.62500000000000000        0.0000000000000000     
   6.2500000000000000E-002  0.62500000000000000        0.0000000000000000     
   9.3750000000000000E-002  0.62500000000000000        0.0000000000000000     
  0.12500000000000000       0.62500000000000000        0.0000000000000000     
  0.12500000000000000       0.50000000000000000        0.0000000000000000     
  0.15625000000000000       0.50000000000000000        0.0000000000000000     
  0.18750000000000000       0.50000000000000000        0.0000000000000000     
  0.21875000000000000       0.50000000000000000        0.0000000000000000     
  0.25000000000000000       0.50000000000000000        0.0000000000000000     
  0.12500000000000000       0.53125000000000000        0.0000000000000000     
  0.15625000000000000       0.53125000000000000        0.0000000000000000     
  0.18750000000000000       0.53125000000000000        0.0000000000000000     
  0.21875000000000000       0.53125000000000000        0.0000000000000000     
  0.25000000000000000       0.53125000000000000        0.0000000000000000     
  0.12500000000000000       0.56250000000000000        0.0000000000000000     
  0.15625000000000000       0.56250000000000000        0.0000000000000000     
  0.18750000000000000       0.56250000000000000        0.0000000000000000     
  0.21875000000000000       0.56250000000000000        0.0000000000000000     
  0.25000000000000000       0.56250000000000000        0.0000000000000000     
  0.12500000000000000       0.59375000000000000        0.0000000000000000     
  0.15625000000000000       0.59375000000000000        0.0000000000000000     
  0.18750000000000000       0.59375000000000000        0.0000000000000000     
  0.21875000000000000       0.59375000000000000        0.0000000000000000     
  0.25000000000000000       0.59375000000000000        0.0000000000000000     
  0.12500000000000000       0.62500000000000000        0.0000000000000000     
  0.15625000000000000       0.62500000000000000        0.0000000000000000     
  0.18750000000000000       0.62500000000000000        0.0000000000000000     
  0.21875000000000000       0.62500000000000000        0.0000000000000000     
  0.25000000000000000       0.62500000000000000        0.0000000000000000     
  0.25000000000000000       0.50000000000000000        0.0000000000000000     
  0.28125000000000000       0.50000000000000000        0.0000000000000000     
  0.31250000000000000       0.50000000000000000        0.0000000000000000     
  0.34375000000000000       0.50000000000000000        0.0000000000000000     
  0.37500000000000000       0.50000000000000000        0.0000000000000000     
  0.25000000000000000       0.53125000000000000        0.0000000000000000     
  0.28125000000000000       0.53125000000000000        0.0000000000000000     
  0.31250000000000000       0.53125000000000000        0.0000000000000000     
  0.34375000000000000       0.53125000000000000        0.0000000000000000     
  0.37500000000000000       0.53125000000000000        0.0000000000000000     
  0.25000000000000000       0.56250000000000000        0.0000000000000000     
  0.28125000000000000       0.56250000000000000        0.0000000000000000     
  0.31250000000000000       0.56250000000000000        0.0000000000000000     
  0.34375000000000000       0.56250000000000000        0.0000000000000000     
  0.37500000000000000       0.56250000000000000        0.0000000000000000     
  0.25000000000000000       0.59375000000000000        0.0000000000000000     
  0.28125000000000000       0.59375000000000000        0.0000000000000000     
  0.31250000000000000       0.59375000000000000        0.0000000000000000     
  0.34375000000000000       0.59375000000000000        0.0000000000000000     
  0.37500000000000000       0.59375000000000000        0.0000000000000000     
  0.25000000000000000       0.62500000000000000        0.0000000000000000     
  0.28125000000000000       0.62500000000000000        0.0000000000000000     
  0.31250000000000000       0.62500000000000000        0.0000000000000000     
  0.34375000000000000       0.62500000000000000        0.0000000000000000     
  0.37500000000000000       0.62500000000000000        0.0000000000000000     
  0.37500000000000000       0.50000000000000000        0.0000000000000000     
  0.40625000000000000       0.50000000000000000        0.0000000000000000     
  0.43750000000000000       0.50000000000000000        0.0000000000000000     
  0.46875000000000000       0.50000000000000000        0.0000000000000000     
  0.50000000000000000       0.50000000000000000        0.0000000000000000     
  0.37500000000000000       0.53125000000000000        0.0000000000000000     
  0.40625000000000000       0.53125000000000000        0.0000000000000000     
  0.43750000000000000       0.53125000000000000        0.0000000000000000     
  0.46875000000000000       0.53125000000000000        0.0000000000000000     
  0.50000000000000000       0.53125000000000000        0.0000000000000000     
  0.37500000000000000       0.56250000000000000        0.0000000000000000     
  0.40625000000000000       0.56250000000000000        0.0000000000000000     
  0.43750000000000000       0.56250000000000000        0.0000000000000000     
  0.46875000000000000       0.56250000000000000        0.0000000000000000     
  0.50000000000000000       0.56250000000000000        0.0000000000000000     
  0.37500000000000000       0.59375000000000000        0.0000000000000000     
  0.40625000000000000       0.59375000000000000        0.0000000000000000     
  0.43750000000000000       0.59375000000000000        0.0000000000000000     
  0.46875000000000000       0.59375000000000000        0.0000000000000000     
  0.50000000000000000       0.59375000000000000        0.0000000000000000     
  0.37500000000000000       0.62500000000000000        0.0000000000000000     
  0.40625000000000000       0.62500000000000000        0.0000000000000000     
  0.43750000000000000       0.62500000000000000        0.0000000000000000     
  0.46875000000000000       0.62500000000000000        0.0000000000000000     
  0.50000000000000000       0.62500000000000000        0.0000000000000000     
  0.50000000000000000       0.50000000000000000        0.0000000000000000     
  0.53125000000000000       0.50000000000000000        0.0000000000000000     
  0.56250000000000000       0.50000000000000000        0.0000000000000000     
  0.59375000000000000       0.50000000000000000        0.0000000000000000     
  0.62500000000000000       0.50000000000000000        0.0000000000000000     
  0.50000000000000000       0.53125000000000000        0.0000000000000000     
  0.53125000000000000       0.53125000000000000        0.0000000000000000     
  0.56250000000000000       0.53125000000000000        0.0000000000000000     
  0.59375000000000000       0.53125000000000000        0.0000000000000000     
  0.62500000000000000       0.53125000000000000        0.0000000000000000     
  0.50000000000000000       0.56250000000000000        0.0000000000000000     
  0.53125000000000000       0.56250000000000000        0.0000000000000000     
  0.56250000000000000       0.56250000000000000        0.0000000000000000     
  0.59375000000000000       0.56250000000000000        0.0000000000000000     
  0.62500000000000000       0.56250000000000000        0.0000000000000000     
  0.50000000000000000       0.59375000000000000        0.0000000000000000     
  0.53125000000000000       0.59375000000000000        0.0000000000000000     
  0.56250000000000000       0.59375000000000000        0.0000000000000000     
  0.59375000000000000       0.59375000000000000        0.0000000000000000     
  0.62500000000000000       0.59375000000000000        0.0000000000000000     
  0.50000000000000000       0.62500000000000000        0.0000000000000000     
  0.53125000000000000       0.62500000000000000        0.0000000000000000     
  0.56250000000000000       0.62500000000000000        0.0000000000000000     
  0.59375000000000000       0.62500000000000000        0.0000000000000000     
  0.62500000000000000       0.62500000000000000        0.0000000000000000     
  0.62500000000000000       0.50000000000000000        0.0000000000000000     
  0.65625000000000000       0.50000000000000000        0.0000000000000000     
  0.68750000000000000       0.50000000000000000        0.0000000000000000     
  0.71875000000000000       0.50000000000000000        0.0000000000000000     
  0.75000000000000000       0.50000000000000000        0.0000000000000000     
  0.62500000000000000       0.53125000000000000        0.0000000000000000     
  0.65625000000000000       0.53125000000000000        0.0000000000000000     
  0.68750000000000000       0.53125000000000000        0.0000000000000000     
  0.71875000000000000       0.53125000000000000        0.0000000000000000     
  0.75000000000000000       0.53125000000000000        0.0000000000000000     
  0.62500000000000000       0.56250000000000000        0.0000000000000000     
  0.65625000000000000       0.56250000000000000        0.0000000000000000     
  0.68750000000000000       0.56250000000000000        0.0000000000000000     
  0.71875000000000000       0.56250000000000000        0.0000000000000000     
  0.75000000000000000       0.56250000000000000        0.0000000000000000     
  0.62500000000000000       0.59375000000000000        0.0000000000000000     
  0.65625000000000000       0.59375000000000000        0.0000000000000000     
  0.68750000000000000       0.59375000000000000        0.0000000000000000     
  0.71875000000000000       0.59375000000000000        0.0000000000000000     
  0.75000000000000000       0.59375000000000000        0.0000000000000000     
  0.62500000000000000       0.62500000000000000        0.0000000000000000     
  0.65625000000000000       0.62500000000000000        0.0000000000000000     
  0.68750000000000000       0.62500000000000000        0.0000000000000000     
  0.71875000000000000       0.62500000000000000        0.0000000000000000     
  0.75000000000000000       0.62500000000000000        0.0000000000000000     
  0.75000000000000000       0.50000000000000000        0.0000000000000000     
  0.78125000000000000       0.50000000000000000        0.0000000000000000     
  0.81250000000000000       0.50000000000000000        0.0000000000000000     
  0.84375000000000000       0.50000000000000000        0.0000000000000000     
  0.87500000000000000       0.50000000000000000        0.0000000000000000     
  0.75000000000000000       0.53125000000000000        0.0000000000000000     
  0.78125000000000000       0.53125000000000000        0.0000000000000000     
  0.81250000000000000       0.53125000000000000        0.0000000000000000     
  0.84375000000000000       0.53125000000000000        0.0000000000000000     
  0.87500000000000000       0.53125000000000000        0.0000000000000000     
  0.75000000000000000       0.56250000000000000        0.0000000000000000     
  0.78125000000000000       0.56250000000000000        0.0000000000000000     
  0.81250000000000000       0.56250000000000000        0.0000000000000000     
  0.84375000000000000       0.56250000000000000        0.0000000000000000     
  0.87500000000000000       0.56250000000000000        0.0000000000000000     
  0.75000000000000000       0.59375000000000000        0.0000000000000000     
  0.78125000000000000       0.59375000000000000        0.0000000000000000     
  0.81250000000000000       0.59375000000000000        0.0000000000000000     
  0.84375000000000000       0.59375000000000000        0.0000000000000000     
  0.87500000000000000       0.59375000000000000        0.0000000000000000     
  0.75000000000000000       0.62500000000000000        0.0000000000000000     
  0.78125000000000000       0.62500000000000000        0.0000000000000000     
  0.81250000000000000       0.62500000000000000        0.0000000000000000     
  0.84375000000000000       0.62500000000000000        0.0000000000000000     
  0.87500000000000000       0.62500000000000000        0.0000000000000000     
  0.87500000000000000       0.50000000000000000        0.0000000000000000     
  0.90625000000000000       0.50000000000000000        0.0000000000000000     
  0.93750000000000000       0.50000000000000000        0.0000000000000000     
  0.96875000000000000       0.50000000000000000        0.0000000000000000     
   1.0000000000000000       0.50000000000000000        0.0000000000000000     
  0.87500000000000000       0.53125000000000000        0.0000000000000000     
  0.90625000000000000       0.53125000000000000        0.0000000000000000     
  0.93750000000000000       0.53125000000000000        0.0000000000000000     
  0.96875000000000000       0.53125000000000000        0.0000000000000000     
   1.0000000000000000       0.53125000000000000        0.0000000000000000     
  0.87500000000000000       0.56250000000000000        0.0000000000000000     
  0.90625000000000000       0.56250000000000000        0.0000000000000000     
  0.93750000000000000       0.56250000000000000        0.0000000000000000     
  0.96875000000000000       0.56250000000000000        0.0000000000000000     
   1.0000000000000000       0.56250000000000000        0.0000000000000000     
  0.87500000000000000       0.59375000000000000        0.0000000000000000     
  0.90625000000000000       0.59375000000000000        0.0000000000000000     
  0.93750000000000000       0.59375000000000000        0.0000000000000000     
  0.96875000000000000       0.59375000000000000        0.0000000000000000     
   1.0000000000000000       0.59375000000000000        0.0000000000000000     
  0.87500000000000000       0.62500000000000000        0.0000000000000000     
  0.90625000000000000       0.62500000000000000        0.0000000000000000     
  0.93750000000000000       0.62500000000000000        0.0000000000000000     
  0.96875000000000000       0.62500000000000000        0.0000000000000000     
   1.0000000000000000       0.62500000000000000        0.0000000000000000     
   0.0000000000000000       0.62500000000000000        0.0000000000000000     
   3.1250000000000000E-002  0.62500000000000000        0.0000000000000000     
   6.2500000000000000E-002  0.62500000000000000        0.0000000000000000     
   9.3750000000000000E-002  0.62500000000000000        0.0000000000000000     
  0.12500000000000000       0.62500000000000000        0.0000000000000000     
   0.0000000000000000       0.65625000000000000        0.0000000000000000     
   3.1250000000000000E-002  0.65625000000000000        0.0000000000000000     
   6.2500000000000000E-002  0.65625000000000000        0.0000000000000000     
   9.3750000000000000E-002  0.65625000000000000        0.0000000000000000     
  0.12500000000000000       0.65625000000000000        0.0000000000000000     
   0.0000000000000000       0.68750000000000000        0.0000000000000000     
   3.1250000000000000E-002  0.68750000000000000        0.0000000000000000     
   6.2500000000000000E-002  0.68750000000000000        0.0000000000000000     
   9.3750000000000000E-002  0.68750000000000000        0.0000000000000000     
  0.12500000000000000       0.68750000000000000        0.0000000000000000     
   0.0000000000000000       0.71875000000000000        0.0000000000000000     
   3.1250000000000000E-002  0.71875000000000000        0.0000000000000000     
   6.2500000000000000E-002  0.71875000000000000        0.0000000000000000     
   9.3750000000000000E-002  0.71875000000000000        0.0000000000000000     
  0.12500000000000000       0.71875000000000000        0.0000000000000000     
   0.0000000000000000       0.75000000000000000        0.0000000000000000     
   3.1250000000000000E-002  0.75000000000000000        0.0000000000000000     
   6.2500000000000000E-002  0.75000000000000000        0.0000000000000000     
   9.3750000000000000E-002  0.75000000000000000        0.0000000000000000     
  0.12500000000000000       0.75000000000000000        0.0000000000000000     
  0.12500000000000000       0.62500000000000000        0.0000000000000000     
  0.15625000000000000       0.62500000000000000        0.0000000000000000     
  0.18750000000000000       0.62500000000000000        0.0000000000000000     
  0.21875000000000000       0.62500000000000000        0.0000000000000000     
  0.25000000000000000       0.62500000000000000        0.0000000000000000     
  0.12500000000000000       0.65625000000000000        0.0000000000000000     
  0.15625000000000000       0.65625000000000000        0.0000000000000000     
  0.18750000000000000       0.65625000000000000        0.0000000000000000     
  0.21875000000000000       0.65625000000000000        0.0000000000000000     
  0.25000000000000000       0.65625000000000000        0.0000000000000000     
  0.12500000000000000       0.68750000000000000        0.0000000000000000     
  0.15625000000000000       0.68750000000000000        0.0000000000000000     
  0.18750000000000000       0.68750000000000000        0.0000000000000000     
  0.21875000000000000       0.68750000000000000        0.0000000000000000     
  0.25000000000000000       0.68750000000000000        0.0000000000000000     
  0.12500000000000000       0.71875000000000000        0.0000000000000000     
  0.15625000000000000       0.71875000000000000        0.0000000000000000     
  0.18750000000000000       0.71875000000000000        0.0000000000000000     
  0.21875000000000000       0.71875000000000000        0.0000000000000000     
  0.25000000000000000       0.71875000000000000        0.0000000000000000     
  0.12500000000000000       0.75000000000000000        0.0000000000000000     
  0.15625000000000000       0.75000000000000000        0.0000000000000000     
  0.18750000000000000       0.75000000000000000        0.0000000000000000     
  0.21875000000000000       0.75000000000000000        0.0000000000000000     
  0.25000000000000000       0.75000000000000000        0.0000000000000000     
  0.25000000000000000       0.62500000000000000        0.0000000000000000     
  0.28125000000000000       0.62500000000000000        0.0000000000000000     
  0.31250000000000000       0.62500000000000000        0.0000000000000000     
  0.34375000000000000       0.62500000000000000        0.0000000000000000     
  0.37500000000000000       0.62500000000000000        0.0000000000000000     
  0.25000000000000000       0.65625000000000000        0.0000000000000000     
  0.28125000000000000       0.65625000000000000        0.0000000000000000     
  0.31250000000000000       0.65625000000000000        0.0000000000000000     
  0.34375000000000000       0.65625000000000000        0.0000000000000000     
  0.37500000000000000       0.65625000000000000        0.0000000000000000     
  0.25000000000000000       0.68750000000000000        0.0000000000000000     
  0.28125000000000000       0.68750000000000000        0.0000000000000000     
  0.31250000000000000       0.68750000000000000        0.0000000000000000     
  0.34375000000000000       0.68750000000000000        0.0000000000000000     
  0.37500000000000000       0.68750000000000000        0.0000000000000000     
  0.25000000000000000       0.71875000000000000        0.0000000000000000     
  0.28125000000000000       0.71875000000000000        0.0000000000000000     
  0.31250000000000000       0.71875000000000000        0.0000000000000000     
  0.34375000000000000       0.71875000000000000        0.0000000000000000     
  0.37500000000000000       0.71875000000000000        0.0000000000000000     
  0.25000000000000000       0.75000000000000000        0.0000000000000000     
  0.28125000000000000       0.75000000000000000        0.0000000000000000     
  0.31250000000000000       0.75000000000000000        0.0000000000000000     
  0.34375000000000000       0.75000000000000000        0.0000000000000000     
  0.37500000000000000       0.75000000000000000        0.0000000000000000     
  0.37500000000000000       0.62500000000000000        0.0000000000000000     
  0.40625000000000000       0.62500000000000000        0.0000000000000000     
  0.43750000000000000       0.62500000000000000        0.0000000000000000     
  0.46875000000000000       0.62500000000000000        0.0000000000000000     
  0.50000000000000000       0.62500000000000000        0.0000000000000000     
  0.37500000000000000       0.65625000000000000        0.0000000000000000     
  0.40625000000000000       0.65625000000000000        0.0000000000000000     
  0.43750000000000000       0.65625000000000000        0.0000000000000000     
  0.46875000000000000       0.65625000000000000        0.0000000000000000     
  0.50000000000000000       0.65625000000000000        0.0000000000000000     
  0.37500000000000000       0.68750000000000000        0.0000000000000000     
  0.40625000000000000       0.68750000000000000        0.0000000000000000     
  0.43750000000000000       0.68750000000000000        0.0000000000000000     
  0.46875000000000000       0.68750000000000000        0.0000000000000000     
  0.50000000000000000       0.68750000000000000        0.0000000000000000     
  0.37500000000000000       0.71875000000000000        0.0000000000000000     
  0.40625000000000000       0.71875000000000000        0.0000000000000000     
  0.43750000000000000       0.71875000000000000        0.0000000000000000     
  0.46875000000000000       0.71875000000000000        0.0000000000000000     
  0.50000000000000000       0.71875000000000000        0.0000000000000000     
  0.37500000000000000       0.75000000000000000        0.0000000000000000     
  0.40625000000000000       0.75000000000000000        0.0000000000000000     
  0.43750000000000000       0.75000000000000000        0.0000000000000000     
  0.46875000000000000       0.75000000000000000        0.0000000000000000     
  0.50000000000000000       0.75000000000000000        0.0000000000000000     
  0.50000000000000000       0.62500000000000000        0.0000000000000000     
  0.53125000000000000       0.62500000000000000        0.0000000000000000     
  0.56250000000000000       0.62500000000000000        0.0000000000000000     
  0.59375000000000000       0.62500000000000000        0.0000000000000000     
  0.62500000000000000       0.62500000000000000        0.0000000000000000     
  0.50000000000000000       0.65625000000000000        0.0000000000000000     
  0.53125000000000000       0.65625000000000000        0.0000000000000000     
  0.56250000000000000       0.65625000000000000        0.0000000000000000     
  0.59375000000000000       0.65625000000000000        0.0000000000000000     
  0.62500000000000000       0.65625000000000000        0.0000000000000000     
  0.50000000000000000       0.68750000000000000        0.0000000000000000     
  0.53125000000000000       0.68750000000000000        0.0000000000000000     
  0.56250000000000000       0.68750000000000000        0.0000000000000000     
  0.59375000000000000       0.68750000000000000        0.0000000000000000     
  0.62500000000000000       0.68750000000000000        0.0000000000000000     
  0.50000000000000000       0.71875000000000000        0.0000000000000000     
  0.53125000000000000       0.71875000000000000        0.0000000000000000     
  0.56250000000000000       0.71875000000000000        0.0000000000000000     
  0.59375000000000000       0.71875000000000000        0.0000000000000000     
  0.62500000000000000       0.71875000000000000        0.0000000000000000     
  0.50000000000000000       0.75000000000000000        0.0000000000000000     
  0.53125000000000000       0.75000000000000000        0.0000000000000000     
  0.56250000000000000       0.75000000000000000        0.0000000000000000     
  0.59375000000000000       0.75000000000000000        0.0000000000000000     
  0.62500000000000000       0.75000000000000000        0.0000000000000000     
  0.62500000000000000       0.62500000000000000        0.0000000000000000     
  0.65625000000000000       0.62500000000000000        0.0000000000000000     
  0.68750000000000000       0.62500000000000000        0.0000000000000000     
  0.71875000000000000       0.62500000000000000        0.0000000000000000     
  0.75000000000000000       0.62500000000000000        0.0000000000000000     
  0.62500000000000000       0.65625000000000000        0.0000000000000000     
  0.65625000000000000       0.65625000000000000        0.0000000000000000     
  0.68750000000000000       0.65625000000000000        0.0000000000000000     
  0.71875000000000000       0.65625000000000000        0.0000000000000000     
  0.75000000000000000       0.65625000000000000        0.0000000000000000     
  0.62500000000000000       0.68750000000000000        0.0000000000000000     
  0.65625000000000000       0.68750000000000000        0.0000000000000000     
  0.68750000000000000       0.68750000000000000        0.0000000000000000     
  0.71875000000000000       0.68750000000000000        0.0000000000000000     
  0.75000000000000000       0.68750000000000000        0.0000000000000000     
  0.62500000000000000       0.71875000000000000        0.0000000000000000     
  0.65625000000000000       0.71875000000000000        0.0000000000000000     
  0.68750000000000000       0.71875000000000000        0.0000000000000000     
  0.71875000000000000       0.71875000000000000        0.0000000000000000     
  0.75000000000000000       0.71875000000000000        0.0000000000000000     
  0.62500000000000000       0.75000000000000000        0.0000000000000000     
  0.65625000000000000       0.75000000000000000        0.0000000000000000     
  0.68750000000000000       0.75000000000000000        0.0000000000000000     
  0.71875000000000000       0.75000000000000000        0.0000000000000000     
  0.75000000000000000       0.75000000000000000        0.0000000000000000     
  0.75000000000000000       0.62500000000000000        0.0000000000000000     
  0.78125000000000000       0.62500000000000000        0.0000000000000000     
  0.81250000000000000       0.62500000000000000        0.0000000000000000     
  0.84375000000000000       0.62500000000000000        0.0000000000000000     
  0.87500000000000000       0.62500000000000000        0.0000000000000000     
  0.75000000000000000       0.65625000000000000        0.0000000000000000     
  0.78125000000000000       0.65625000000000000        0.0000000000000000     
  0.81250000000000000       0.65625000000000000        0.0000000000000000     
  0.84375000000000000       0.65625000000000000        0.0000000000000000     
  0.87500000000000000       0.65625000000000000        0.0000000000000000     
  0.75000000000000000       0.68750000000000000        0.0000000000000000     
  0.78125000000000000       0.68750000000000000        0.0000000000000000     
  0.81250000000000000       0.68750000000000000        0.0000000000000000     
  0.84375000000000000       0.68750000000000000        0.0000000000000000     
  0.87500000000000000       0.68750000000000000        0.0000000000000000     
  0.75000000000000000       0.71875000000000000        0.0000000000000000     
  0.78125000000000000       0.71875000000000000        0.0000000000000000     
  0.81250000000000000       0.71875000000000000        0.0000000000000000     
  0.84375000000000000       0.71875000000000000        0.0000000000000000     
  0.87500000000000000       0.71875000000000000        0.0000000000000000     
  0.75000000000000000       0.75000000000000000        0.0000000000000000     
  0.78125000000000000       0.75000000000000000        0.0000000000000000     
  0.81250000000000000       0.75000000000000000        0.0000000000000000     
  0.84375000000000000       0.75000000000000000        0.0000000000000000     
  0.87500000000000000       0.75000000000000000        0.0000000000000000     
  0.87500000000000000       0.62500000000000000        0.0000000000000000     
  0.90625000000000000       0.62500000000000000        0.0000000000000000     
  0.93750000000000000       0.62500000000000000        0.0000000000000000     
  0.96875000000000000       0.62500000000000000        0.0000000000000000     
   1.0000000000000000       0.62500000000000000        0.0000000000000000     
  0.87500000000000000       0.65625000000000000        0.0000000000000000     
  0.90625000000000000       0.65625000000000000        0.0000000000000000     
  0.93750000000000000       0.65625000000000000        0.0000000000000000     
  0.96875000000000000       0.65625000000000000        0.0000000000000000     
   1.0000000000000000       0.65625000000000000        0.0000000000000000     
  0.87500000000000000       0.68750000000000000        0.0000000000000000     
  0.90625000000000000       0.68750000000000000        0.0000000000000000     
  0.93750000000000000       0.68750000000000000        0.0000000000000000     
  0.96875000000000000       0.68750000000000000        0.0000000000000000     
   1.0000000000000000       0.68750000000000000        0.0000000000000000     
  0.87500000000000000       0.71875000000000000        0.0000000000000000     
  0.90625000000000000       0.71875000000000000        0.0000000000000000     
  0.93750000000000000       0.71875000000000000        0.0000000000000000     
  0.96875000000000000       0.71875000000000000        0.0000000000000000     
   1.0000000000000000       0.71875000000000000        0.0000000000000000     
  0.87500000000000000       0.75000000000000000        0.0000000000000000     
  0.90625000000000000       0.75000000000000000        0.0000000000000000     
  0.93750000000000000       0.75000000000000000        0.0000000000000000     
  0.96875000000000000       0.75000000000000000        0.0000000000000000     
   1.0000000000000000       0.75000000000000000        0.0000000000000000     
   0.0000000000000000       0.75000000000000000        0.0000000000000000     
   3.1250000000000000E-002  0.75000000000000000        0.0000000000000000     
   6.2500000000000000E-002  0.75000000000000000        0.0000000000000000     
   9.3750000000000000E-002  0.75000000000000000        0.0000000000000000     
  0.12500000000000000       0.75000000000000000        0.0000000000000000     
   0.0000000000000000       0.78125000000000000        0.0000000000000000     
   3.1250000000000000E-002  0.78125000000000000        0.0000000000000000     
   6.2500000000000000E-002  0.78125000000000000        0.0000000000000000     
   9.3750000000000000E-002  0.78125000000000000        0.0000000000000000     
  0.12500000000000000       0.78125000000000000        0.0000000000000000     
   0.0000000000000000       0.81250000000000000        0.0000000000000000     
   3.1250000000000000E-002  0.81250000000000000        0.0000000000000000     
   6.2500000000000000E-002  0.81250000000000000        0.0000000000000000     
   9.3750000000000000E-002  0.81250000000000000        0.0000000000000000     
  0.12500000000000000       0.81250000000000000        0.0000000000000000     
   0.0000000000000000       0.84375000000000000        0.0000000000000000     
   3.1250000000000000E-002  0.84375000000000000        0.0000000000000000     
   6.2500000000000000E-002  0.84375000000000000        0.0000000000000000     
   9.3750000000000000E-002  0.84375000000000000        0.0000000000000000     
  0.12500000000000000       0.84375000000000000        0.0000000000000000     
   0.0000000000000000       0.87500000000000000        0.0000000000000000     
   3.1250000000000000E-002  0.87500000000000000        0.0000000000000000     
   6.2500000000000000E-002  0.87500000000000000        0.0000000000000000     
   9.3750000000000000E-002  0.87500000000000000        0.0000000000000000     
  0.12500000000000000       0.87500000000000000        0.0000000000000000     
  0.12500000000000000       0.75000000000000000        0.0000000000000000     
  0.15625000000000000       0.75000000000000000        0.0000000000000000     
  0.18750000000000000       0.75000000000000000        0.0000000000000000     
  0.21875000000000000       0.75000000000000000        0.0000000000000000     
  0.25000000000000000       0.75000000000000000        0.0000000000000000     
  0.12500000000000000       0.78125000000000000        0.0000000000000000     
  0.15625000000000000       0.78125000000000000        0.0000000000000000     
  0.18750000000000000       0.78125000000000000        0.0000000000000000     
  0.21875000000000000       0.78125000000000000        0.0000000000000000     
  0.25000000000000000       0.78125000000000000        0.0000000000000000     
  0.12500000000000000       0.81250000000000000        0.0000000000000000     
  0.15625000000000000       0.81250000000000000        0.0000000000000000     
  0.18750000000000000       0.81250000000000000        0.0000000000000000     
  0.21875000000000000       0.81250000000000000        0.0000000000000000     
  0.25000000000000000       0.81250000000000000        0.0000000000000000     
  0.12500000000000000       0.84375000000000000        0.0000000000000000     
  0.15625000000000000       0.84375000000000000        0.0000000000000000     
  0.18750000000000000       0.84375000000000000        0.0000000000000000     
  0.21875000000000000       0.84375000000000000        0.0000000000000000     
  0.25000000000000000       0.84375000000000000        0.0000000000000000     
  0.12500000000000000       0.87500000000000000        0.0000000000000000     
  0.15625000000000000       0.87500000000000000        0.0000000000000000     
  0.18750000000000000       0.87500000000000000        0.0000000000000000     
  0.21875000000000000       0.87500000000000000        0.0000000000000000     
  0.25000000000000000       0.87500000000000000        0.0000000000000000     
  0.25000000000000000       0.75000000000000000        0.0000000000000000     
  0.28125000000000000       0.75000000000000000        0.0000000000000000     
  0.31250000000000000       0.75000000000000000        0.0000000000000000     
  0.34375000000000000       0.75000000000000000        0.0000000000000000     
  0.37500000000000000       0.75000000000000000        0.0000000000000000     
  0.25000000000000000       0.78125000000000000        0.0000000000000000     
  0.28125000000000000       0.78125000000000000        0.0000000000000000     
  0.31250000000000000       0.78125000000000000        0.0000000000000000     
  0.34375000000000000       0.78125000000000000        0.0000000000000000     
  0.37500000000000000       0.78125000000000000        0.0000000000000000     
  0.25000000000000000       0.81250000000000000        0.0000000000000000     
  0.28125000000000000       0.81250000000000000        0.0000000000000000     
  0.31250000000000000       0.81250000000000000        0.0000000000000000     
  0.34375000000000000       0.81250000000000000        0.0000000000000000     
  0.37500000000000000       0.81250000000000000        0.0000000000000000     
  0.25000000000000000       0.84375000000000000        0.0000000000000000     
  0.28125000000000000       0.84375000000000000        0.0000000000000000     
  0.31250000000000000       0.84375000000000000        0.0000000000000000     
  0.34375000000000000       0.84375000000000000        0.0000000000000000     
  0.37500000000000000       0.84375000000000000        0.0000000000000000     
  0.25000000000000000       0.87500000000000000        0.0000000000000000     
  0.28125000000000000       0.87500000000000000        0.0000000000000000     
  0.31250000000000000       0.87500000000000000        0.0000000000000000     
  0.34375000000000000       0.87500000000000000        0.0000000000000000     
  0.37500000000000000       0.87500000000000000        0.0000000000000000     
  0.37500000000000000       0.75000000000000000        0.0000000000000000     
  0.40625000000000000       0.75000000000000000        0.0000000000000000     
  0.43750000000000000       0.75000000000000000        0.0000000000000000     
  0.46875000000000000       0.75000000000000000        0.0000000000000000     
  0.50000000000000000       0.75000000000000000        0.0000000000000000     
  0.37500000000000000       0.78125000000000000        0.0000000000000000     
  0.40625000000000000       0.78125000000000000        0.0000000000000000     
  0.43750000000000000       0.78125000000000000        0.0000000000000000     
  0.46875000000000000       0.78125000000000000        0.0000000000000000     
  0.50000000000000000       0.78125000000000000        0.0000000000000000     
  0.37500000000000000       0.81250000000000000        0.0000000000000000     
  0.40625000000000000       0.81250000000000000        0.0000000000000000     
  0.43750000000000000       0.81250000000000000        0.0000000000000000     
  0.46875000000000000       0.81250000000000000        0.0000000000000000     
  0.50000000000000000       0.81250000000000000        0.0000000000000000     
  0.37500000000000000       0.84375000000000000        0.0000000000000000     
  0.40625000000000000       0.84375000000000000        0.0000000000000000     
  0.43750000000000000       0.84375000000000000        0.0000000000000000     
  0.46875000000000000       0.84375000000000000        0.0000000000000000     
  0.50000000000000000       0.84375000000000000        0.0000000000000000     
  0.37500000000000000       0.87500000000000000        0.0000000000000000     
  0.40625000000000000       0.87500000000000000        0.0000000000000000     
  0.43750000000000000       0.87500000000000000        0.0000000000000000     
  0.46875000000000000       0.87500000000000000        0.0000000000000000     
  0.50000000000000000       0.87500000000000000        0.0000000000000000     
  0.50000000000000000       0.75000000000000000        0.0000000000000000     
  0.53125000000000000       0.75000000000000000        0.0000000000000000     
  0.56250000000000000       0.75000000000000000        0.0000000000000000     
  0.59375000000000000       0.75000000000000000        0.0000000000000000     
  0.62500000000000000       0.75000000000000000        0.0000000000000000     
  0.50000000000000000       0.78125000000000000        0.0000000000000000     
  0.53125000000000000       0.78125000000000000        0.0000000000000000     
  0.56250000000000000       0.78125000000000000        0.0000000000000000     
  0.59375000000000000       0.78125000000000000        0.0000000000000000     
  0.62500000000000000       0.78125000000000000        0.0000000000000000     
  0.50000000000000000       0.81250000000000000        0.0000000000000000     
  0.53125000000000000       0.81250000000000000        0.0000000000000000     
  0.56250000000000000       0.81250000000000000        0.0000000000000000     
  0.59375000000000000       0.81250000000000000        0.0000000000000000     
  0.62500000000000000       0.81250000000000000        0.0000000000000000     
  0.50000000000000000       0.84375000000000000        0.0000000000000000     
  0.53125000000000000       0.84375000000000000        0.0000000000000000     
  0.56250000000000000       0.84375000000000000        0.0000000000000000     
  0.59375000000000000       0.84375000000000000        0.0000000000000000     
  0.62500000000000000       0.84375000000000000        0.0000000000000000     
  0.50000000000000000       0.87500000000000000        0.0000000000000000     
  0.53125000000000000       0.87500000000000000        0.0000000000000000     
  0.56250000000000000       0.87500000000000000        0.0000000000000000     
  0.59375000000000000       0.87500000000000000        0.0000000000000000     
  0.62500000000000000       0.87500000000000000        0.0000000000000000     
  0.62500000000000000       0.75000000000000000        0.0000000000000000     
  0.65625000000000000       0.75000000000000000        0.0000000000000000     
  0.68750000000000000       0.75000000000000000        0.0000000000000000     
  0.71875000000000000       0.75000000000000000        0.0000000000000000     
  0.75000000000000000       0.75000000000000000        0.0000000000000000     
  0.62500000000000000       0.78125000000000000        0.0000000000000000     
  0.65625000000000000       0.78125000000000000        0.0000000000000000     
  0.68750000000000000       0.78125000000000000        0.0000000000000000     
  0.71875000000000000       0.78125000000000000        0.0000000000000000     
  0.75000000000000000       0.78125000000000000        0.0000000000000000     
  0.62500000000000000       0.81250000000000000        0.0000000000000000     
  0.65625000000000000       0.81250000000000000        0.0000000000000000     
  0.68750000000000000       0.81250000000000000        0.0000000000000000     
  0.71875000000000000       0.81250000000000000        0.0000000000000000     
  0.75000000000000000       0.81250000000000000        0.0000000000000000     
  0.62500000000000000       0.84375000000000000        0.0000000000000000     
  0.65625000000000000       0.84375000000000000        0.0000000000000000     
  0.68750000000000000       0.84375000000000000        0.0000000000000000     
  0.71875000000000000       0.84375000000000000        0.0000000000000000     
  0.75000000000000000       0.84375000000000000        0.0000000000000000     
  0.62500000000000000       0.87500000000000000        0.0000000000000000     
  0.65625000000000000       0.87500000000000000        0.0000000000000000     
  0.68750000000000000       0.87500000000000000        0.0000000000000000     
  0.71875000000000000       0.87500000000000000        0.0000000000000000     
  0.75000000000000000       0.87500000000000000        0.0000000000000000     
  0.75000000000000000       0.75000000000000000        0.0000000000000000     
  0.78125000000000000       0.75000000000000000        0.0000000000000000     
  0.81250000000000000       0.75000000000000000        0.0000000000000000     
  0.84375000000000000       0.75000000000000000        0.0000000000000000     
  0.87500000000000000       0.75000000000000000        0.0000000000000000     
  0.75000000000000000       0.78125000000000000        0.0000000000000000     
  0.78125000000000000       0.78125000000000000        0.0000000000000000     
  0.81250000000000000       0.78125000000000000        0.0000000000000000     
  0.84375000000000000       0.78125000000000000        0.0000000000000000     
  0.87500000000000000       0.78125000000000000        0.0000000000000000     
  0.75000000000000000       0.81250000000000000        0.0000000000000000     
  0.78125000000000000       0.81250000000000000        0.0000000000000000     
  0.81250000000000000       0.81250000000000000        0.0000000000000000     
  0.84375000000000000       0.81250000000000000        0.0000000000000000     
  0.87500000000000000       0.81250000000000000        0.0000000000000000     
  0.75000000000000000       0.84375000000000000        0.0000000000000000     
  0.78125000000000000       0.84375000000000000        0.0000000000000000     
  0.81250000000000000       0.84375000000000000        0.0000000000000000     
  0.84375000000000000       0.84375000000000000        0.0000000000000000     
  0.87500000000000000       0.84375000000000000        0.0000000000000000     
  0.75000000000000000       0.87500000000000000        0.0000000000000000     
  0.78125000000000000       0.87500000000000000        0.0000000000000000     
  0.81250000000000000       0.87500000000000000        0.0000000000000000     
  0.84375000000000000       0.87500000000000000        0.0000000000000000     
  0.87500000000000000       0.87500000000000000        0.0000000000000000     
  0.87500000000000000       0.75000000000000000        0.0000000000000000     
  0.90625000000000000       0.75000000000000000        0.0000000000000000     
  0.93750000000000000       0.75000000000000000        0.0000000000000000     
  0.96875000000000000       0.75000000000000000        0.0000000000000000     
   1.0000000000000000       0.75000000000000000        0.0000000000000000     
  0.87500000000000000       0.78125000000000000        0.0000000000000000     
  0.90625000000000000       0.78125000000000000        0.0000000000000000     
  0.93750000000000000       0.78125000000000000        0.0000000000000000     
  0.96875000000000000       0.78125000000000000        0.0000000000000000     
   1.0000000000000000       0.78125000000000000        0.0000000000000000     
  0.87500000000000000       0.81250000000000000        0.0000000000000000     
  0.90625000000000000       0.81250000000000000        0.0000000000000000     
  0.93750000000000000       0.81250000000000000        0.0000000000000000     
  0.96875000000000000       0.81250000000000000        0.0000000000000000     
   1.0000000000000000       0.81250000000000000        0.0000000000000000     
  0.87500000000000000       0.84375000000000000        0.0000000000000000     
  0.90625000000000000       0.84375000000000000        0.0000000000000000     
  0.93750000000000000       0.84375000000000000        0.0000000000000000     
  0.96875000000000000       0.84375000000000000        0.0000000000000000     
   1.0000000000000000       0.84375000000000000        0.0000000000000000     
  0.87500000000000000       0.87500000000000000        0.0000000000000000     
  0.90625000000000000       0.87500000000000000        0.0000000000000000     
  0.93750000000000000       0.87500000000000000        0.0000000000000000     
  0.96875000000000000       0.87500000000000000        0.0000000000000000     
   1.0000000000000000       0.87500000000000000        0.0000000000000000     
   0.0000000000000000       0.87500000000000000        0.0000000000000000     
   3.1250000000000000E-002  0.87500000000000000        0.0000000000000000     
   6.2500000000000000E-002  0.87500000000000000        0.0000000000000000     
   9.3750000000000000E-002  0.87500000000000000        0.0000000000000000     
  0.12500000000000000       0.87500000000000000        0.0000000000000000     
   0.0000000000000000       0.90625000000000000        0.0000000000000000     
   3.1250000000000000E-002  0.90625000000000000        0.0000000000000000     
   6.2500000000000000E-002  0.90625000000000000        0.0000000000000000     
   9.3750000000000000E-002  0.90625000000000000        0.0000000000000000     
  0.12500000000000000       0.90625000000000000        0.0000000000000000     
   0.0000000000000000       0.93750000000000000        0.0000000000000000     
   3.1250000000000000E-002  0.93750000000000000        0.0000000000000000     
   6.2500000000000000E-002  0.93750000000000000        0.0000000000000000     
   9.3750000000000000E-002  0.93750000000000000        0.0000000000000000     
  0.12500000000000000       0.93750000000000000        0.0000000000000000     
   0.0000000000000000       0.96875000000000000        0.0000000000000000     
   3.1250000000000000E-002  0.96875000000000000        0.0000000000000000     
   6.2500000000000000E-002  0.96875000000000000        0.0000000000000000     
   9.3750000000000000E-002  0.96875000000000000        0.0000000000000000     
  0.12500000000000000       0.96875000000000000        0.0000000000000000     
   0.0000000000000000        1.0000000000000000        0.0000000000000000     
   3.1250000000000000E-002   1.0000000000000000        0.0000000000000000     
   6.2500000000000000E-002   1.0000000000000000        0.0000000000000000     
   9.3750000000000000E-002   1.0000000000000000        0.0000000000000000     
  0.12500000000000000        1.0000000000000000        0.0000000000000000     
  0.12500000000000000       0.87500000000000000        0.0000000000000000     
  0.15625000000000000       0.87500000000000000        0.0000000000000000     
  0.18750000000000000       0.87500000000000000        0.0000000000000000     
  0.21875000000000000       0.87500000000000000        0.0000000000000000     
  0.25000000000000000       0.87500000000000000        0.0000000000000000     
  0.12500000000000000       0.90625000000000000        0.0000000000000000     
  0.15625000000000000       0.90625000000000000        0.0000000000000000     
  0.18750000000000000       0.90625000000000000        0.0000000000000000     
  0.21875000000000000       0.90625000000000000        0.0000000000000000     
  0.25000000000000000       0.90625000000000000        0.0000000000000000     
  0.12500000000000000       0.93750000000000000        0.0000000000000000     
  0.15625000000000000       0.93750000000000000        0.0000000000000000     
  0.18750000000000000       0.93750000000000000        0.0000000000000000     
  0.21875000000000000       0.93750000000000000        0.0000000000000000     
  0.25000000000000000       0.93750000000000000        0.0000000000000000     
  0.12500000000000000       0.96875000000000000        0.0000000000000000     
  0.15625000000000000       0.96875000000000000        0.0000000000000000     
  0.18750000000000000       0.96875000000000000        0.0000000000000000     
  0.21875000000000000       0.96875000000000000        0.0000000000000000     
  0.25000000000000000       0.96875000000000000        0.0000000000000000     
  0.12500000000000000        1.0000000000000000        0.0000000000000000     
  0.15625000000000000        1.0000000000000000        0.0000000000000000     
  0.18750000000000000        1.0000000000000000        0.0000000000000000     
  0.21875000000000000        1.0000000000000000        0.0000000000000000     
  0.25000000000000000        1.0000000000000000        0.0000000000000000     
  0.25000000000000000       0.87500000000000000        0.0000000000000000     
  0.28125000000000000       0.87500000000000000        0.0000000000000000     
  0.31250000000000000       0.87500000000000000        0.0000000000000000     
  0.34375000000000000       0.87500000000000000        0.0000000000000000     
  0.37500000000000000       0.87500000000000000        0.0000000000000000     
  0.25000000000000000       0.90625000000000000        0.0000000000000000     
  0.28125000000000000       0.90625000000000000        0.0000000000000000     
  0.31250000000000000       0.90625000000000000        0.0000000000000000     
  0.34375000000000000       0.90625000000000000        0.0000000000000000     
  0.37500000000000000       0.90625000000000000        0.0000000000000000     
  0.25000000000000000       0.93750000000000000        0.0000000000000000     
  0.28125000000000000       0.93750000000000000        0.0000000000000000     
  0.31250000000000000       0.93750000000000000        0.0000000000000000     
  0.34375000000000000       0.93750000000000000        0.0000000000000000     
  0.37500000000000000       0.93750000000000000        0.0000000000000000     
  0.25000000000000000       0.96875000000000000        0.0000000000000000     
  0.28125000000000000       0.96875000000000000        0.0000000000000000     
  0.31250000000000000       0.96875000000000000        0.0000000000000000     
  0.34375000000000000       0.96875000000000000        0.0000000000000000     
  0.37500000000000000       0.96875000000000000        0.0000000000000000     
  0.25000000000000000        1.0000000000000000        0.0000000000000000     
  0.28125000000000000        1.0000000000000000        0.0000000000000000     
  0.31250000000000000        1.0000000000000000        0.0000000000000000     
  0.34375000000000000        1.0000000000000000        0.0000000000000000     
  0.37500000000000000        1.0000000000000000        0.0000000000000000     
  0.37500000000000000       0.87500000000000000        0.0000000000000000     
  0.40625000000000000       0.87500000000000000        0.0000000000000000     
  0.43750000000000000       0.87500000000000000        0.0000000000000000     
  0.46875000000000000       0.87500000000000000        0.0000000000000000     
  0.50000000000000000       0.87500000000000000        0.0000000000000000     
  0.37500000000000000       0.90625000000000000        0.0000000000000000     
  0.40625000000000000       0.90625000000000000        0.0000000000000000     
  0.43750000000000000       0.90625000000000000        0.0000000000000000     
  0.46875000000000000       0.90625000000000000        0.0000000000000000     
  0.50000000000000000       0.90625000000000000        0.0000000000000000     
  0.37500000000000000       0.93750000000000000        0.0000000000000000     
  0.40625000000000000       0.93750000000000000        0.0000000000000000     
  0.43750000000000000       0.93750000000000000        0.0000000000000000     
  0.46875000000000000       0.93750000000000000        0.0000000000000000     
  0.50000000000000000       0.93750000000000000        0.0000000000000000     
  0.37500000000000000       0.96875000000000000        0.0000000000000000     
  0.40625000000000000       0.96875000000000000        0.0000000000000000     
  0.43750000000000000       0.96875000000000000        0.0000000000000000     
  0.46875000000000000       0.96875000000000000        0.0000000000000000     
  0.50000000000000000       0.96875000000000000        0.0000000000000000     
  0.37500000000000000        1.0000000000000000        0.0000000000000000     
  0.40625000000000000        1.0000000000000000        0.0000000000000000     
  0.43750000000000000        1.0000000000000000        0.0000000000000000     
  0.46875000000000000        1.0000000000000000        0.0000000000000000     
  0.50000000000000000        1.0000000000000000        0.0000000000000000     
  0.50000000000000000       0.87500000000000000        0.0000000000000000     
  0.53125000000000000       0.87500000000000000        0.0000000000000000     
  0.56250000000000000       0.87500000000000000        0.0000000000000000     
  0.59375000000000000       0.87500000000000000        0.0000000000000000     
  0.62500000000000000       0.87500000000000000        0.0000000000000000     
  0.50000000000000000       0.90625000000000000        0.0000000000000000     
  0.53125000000000000       0.90625000000000000        0.0000000000000000     
  0.56250000000000000       0.90625000000000000        0.0000000000000000     
  0.59375000000000000       0.90625000000000000        0.0000000000000000     
  0.62500000000000000       0.90625000000000000        0.0000000000000000     
  0.50000000000000000       0.93750000000000000        0.0000000000000000     
  0.53125000000000000       0.93750000000000000        0.0000000000000000     
  0.56250000000000000       0.93750000000000000        0.0000000000000000     
  0.59375000000000000       0.93750000000000000        0.0000000000000000     
  0.62500000000000000       0.93750000000000000        0.0000000000000000     
  0.50000000000000000       0.96875000000000000        0.0000000000000000     
  0.53125000000000000       0.96875000000000000        0.0000000000000000     
  0.56250000000000000       0.96875000000000000        0.0000000000000000     
  0.59375000000000000       0.96875000000000000        0.0000000000000000     
  0.62500000000000000       0.96875000000000000        0.0000000000000000     
  0.50000000000000000        1.0000000000000000        0.0000000000000000     
  0.53125000000000000        1.0000000000000000        0.0000000000000000     
  0.56250000000000000        1.0000000000000000        0.0000000000000000     
  0.59375000000000000        1.0000000000000000        0.0000000000000000     
  0.62500000000000000        1.0000000000000000        0.0000000000000000     
  0.62500000000000000       0.87500000000000000        0.0000000000000000     
  0.65625000000000000       0.87500000000000000        0.0000000000000000     
  0.68750000000000000       0.87500000000000000        0.0000000000000000     
  0.71875000000000000       0.87500000000000000        0.0000000000000000     
  0.75000000000000000       0.87500000000000000        0.0000000000000000     
  0.62500000000000000       0.90625000000000000        0.0000000000000000     
  0.65625000000000000       0.90625000000000000        0.0000000000000000     
  0.68750000000000000       0.90625000000000000        0.0000000000000000     
  0.71875000000000000       0.90625000000000000        0.0000000000000000     
  0.75000000000000000       0.90625000000000000        0.0000000000000000     
  0.62500000000000000       0.93750000000000000        0.0000000000000000     
  0.65625000000000000       0.93750000000000000        0.0000000000000000     
  0.68750000000000000       0.93750000000000000        0.0000000000000000     
  0.71875000000000000       0.93750000000000000        0.0000000000000000     
  0.75000000000000000       0.93750000000000000        0.0000000000000000     
  0.62500000000000000       0.96875000000000000        0.0000000000000000     
  0.65625000000000000       0.96875000000000000        0.0000000000000000     
  0.68750000000000000       0.96875000000000000        0.0000000000000000     
  0.71875000000000000       0.96875000000000000        0.0000000000000000     
  0.75000000000000000       0.96875000000000000        0.0000000000000000     
  0.62500000000000000        1.0000000000000000        0.0000000000000000     
  0.65625000000000000        1.0000000000000000        0.0000000000000000     
  0.68750000000000000        1.0000000000000000        0.0000000000000000     
  0.71875000000000000        1.0000000000000000        0.0000000000000000     
  0.75000000000000000        1.0000000000000000        0.0000000000000000     
  0.75000000000000000       0.87500000000000000        0.0000000000000000     
  0.78125000000000000       0.87500000000000000        0.0000000000000000     
  0.81250000000000000       0.87500000000000000        0.0000000000000000     
  0.84375000000000000       0.87500000000000000        0.0000000000000000     
  0.87500000000000000       0.87500000000000000        0.0000000000000000     
  0.75000000000000000       0.90625000000000000        0.0000000000000000     
  0.78125000000000000       0.90625000000000000        0.0000000000000000     
  0.81250000000000000       0.90625000000000000        0.0000000000000000     
  0.84375000000000000       0.90625000000000000        0.0000000000000000     
  0.87500000000000000       0.90625000000000000        0.0000000000000000     
  0.75000000000000000       0.93750000000000000        0.0000000000000000     
  0.78125000000000000       0.93750000000000000        0.0000000000000000     
  0.81250000000000000       0.93750000000000000        0.0000000000000000     
  0.84375000000000000       0.93750000000000000        0.0000000000000000     
  0.87500000000000000       0.93750000000000000        0.0000000000000000     
  0.75000000000000000       0.96875000000000000        0.0000000000000000     
  0.78125000000000000       0.96875000000000000        0.0000000000000000     
  0.81250000000000000       0.96875000000000000        0.0000000000000000     
  0.84375000000000000       0.96875000000000000        0.0000000000000000     
  0.87500000000000000       0.96875000000000000        0.0000000000000000     
  0.75000000000000000        1.0000000000000000        0.0000000000000000     
  0.78125000000000000        1.0000000000000000        0.0000000000000000     
  0.81250000000000000        1.0000000000000000        0.0000000000000000     
  0.84375000000000000        1.0000000000000000        0.0000000000000000     
  0.87500000000000000        1.0000000000000000        0.0000000000000000     
  0.87500000000000000       0.87500000000000000        0.0000000000000000     
  0.90625000000000000       0.87500000000000000        0.0000000000000000     
  0.93750000000000000       0.87500000000000000        0.0000000000000000     
  0.96875000000000000       0.87500000000000000        0.0000000000000000     
   1.0000000000000000       0.87500000000000000        0.0000000000000000     
  0.87500000000000000       0.90625000000000000        0.0000000000000000     
  0.90625000000000000       0.90625000000000000        0.0000000000000000     
  0.93750000000000000       0.90625000000000000        0.0000000000000000     
  0.96875000000000000       0.90625000000000000        0.0000000000000000     
   1.0000000000000000       0.90625000000000000        0.0000000000000000     
  0.87500000000000000       0.93750000000000000        0.0000000000000000     
  0.90625000000000000       0.93750000000000000        0.0000000000000000     
  0.93750000000000000       0.93750000000000000        0.0000000000000000     
  0.96875000000000000       0.93750000000000000        0.0000000000000000     
   1.0000000000000000       0.93750000000000000        0.0000000000000000     
  0.87500000000000000       0.96875000000000000        0.0000000000000000     
  0.90625000000000000       0.96875000000000000        0.0000000000000000     
  0.93750000000000000       0.96875000000000000        0.0000000000000000     
  0.96875000000000000       0.96875000000000000        0.0000000000000000     
   1.0000000000000000       0.96875000000000000        0.0000000000000000     
  0.87500000000000000        1.0000000000000000        0.0000000000000000     
  0.90625000000000000        1.0000000000000000        0.0000000000000000     
  0.93750000000000000        1.0000000000000000        0.0000000000000000     
  0.96875000000000000        1.0000000000000000        0.0000000000000000     
   1.0000000000000000        1.0000000000000000        0.0000000000000000     
 </DataArray>
 </Points>
 <Cells>
 <DataArray  type="Int32"  Name="connectivity"  format="ascii">
           0           1           6           5
           1           2           7           6
           2           3           8           7
           3           4           9           8
           5           6          11          10
           6           7          12          11
           7           8          13          12
           8           9          14          13
          10          11          16          15
          11          12          17          16
          12          13          18          17
          13          14          19          18
          15          16          21          20
          16          17          22          21
          17          18          23          22
          18          19          24          23
          25          26          31          30
          26          27          32          31
          27          28          33          32
          28          29          34          33
          30          31          36          35
          31          32          37          36
          32          33          38          37
          33          34          39          38
          35          36          41          40
          36          37          42          41
          37          38          43          42
          38          39          44          43
          40          41          46          45
          41          42          47          46
          42          43          48          47
          43          44          49          48
          50          51          56          55
          51          52          57          56
          52          53          58          57
          53          54          59          58
          55          56          61          60
          56          57          62          61
          57          58          63          62
          58          59          64          63
          60          61          66          65
          61          62          67          66
          62          63          68          67
          63          64          69          68
          65          66          71          70
          66          67          72          71
          67          68          73          72
          68          69          74          73
          75          76          81          80
          76          77          82          81
          77          78          83          82
          78          79          84          83
          80          81          86          85
          81          82          87          86
          82          83          88          87
          83          84          89          88
          85          86          91          90
          86          87          92          91
          87          88          93          92
          88          89          94          93
          90          91          96          95
          91          92          97          96
          92          93          98          97
          93          94          99          98
         100         101         106         105
         101         102         107         106
         102         103         108         107
         103         104         109         108
         105         106         111         110
         106         107         112         111
         107         108         113         112
         108         109         114         113
         110         111         116         115
         111         112         117         116
         112         113         118         117
         113         114         119         118
         115         116         121         120
         116         117         122         121
         117         118         123         122
         118         119         124         123
         125         126         131         130
         126         127         132         131
         127         128         133         132
         128         129         134         133
         130         131         136         135
         131         132         137         136
         132         133         138         137
         133         134         139         138
         135         136         141         140
         136         137         142         141
         137         138         143         142
         138         139         144         143
         140         141         146         145
         141         142         147         146
         142         143         148         147
         143         144         149         148
         150         151         156         155
         151         152         157         156
         152         153         158         157
         153         154         159         158
         155         156         161         160
         156         157         162         161
         157         158         163         162
         158         159         164         163
         160         161         166         165
         161         162         167         166
         162         163         168         167
         163         164         169         168
         165         166         171         170
         166         167         172         171
         167         168         173         172
         168         169         174         173
         175         176         181         180
         176         177         182         181
         177         178         183         182
         178         179         184         183
         180         181         186         185
         181         182         187         186
         182         183         188         187
         183         184         189         188
         185         186         191         190
         186         187         192         191
         187         188         193         192
         188         189         194         193
         190         191         196         195
         191         192         197         196
         192         193         198         197
         193         194         199         198
         200         201         206         205
         201         202         207         206
         202         203         208         207
         203         204         209         208
         205         206         211         210
         206         207         212         211
         207         208         213         212
         208         209         214         213
         210         211         216         215
         211         212         217         216
         212         213         218         217
         213         214         219         218
         215         216         221         220
         216         217         222         221
         217         218         223         222
         218         219         224         223
         225         226         231         230
         226         227         232         231
         227         228         233         232
         228         229         234         233
         230         231         236         235
         231         232         237         236
         232         233         238         237
         233         234         239         238
         235         236         241         240
         236         237         242         241
         237         238         243         242
         238         239         244         243
         240         241         246         245
         241         242         247         246
         242         243         248         247
         243         244         249         248
         250         251         256         255
         251         252         257         256
         252         253         258         257
         253         254         259         258
         255         256         261         260
         256         257         262         261
         257         258         263         262
         258         259         264         263
         260         261         266         265
         261         262         267         266
         262         263         268         267
         263         264         269         268
         265         266         271         270
         266         267         272         271
         267         268         273         272
         268         269         274         273
         275         276         281         280
         276         277         282         281
         277         278         283         282
         278         279         284         283
         280         281         286         285
         281         282         287         286
         282         283         288         287
         283         284         289         288
         285         286         291         290
         286         287         292         291
         287         288         293         292
         288         289         294         293
         290         291         296         295
         291         292         297         296
         292         293         298         297
         293         294         299         298
         300         301         306         305
         301         302         307         306
         302         303         308         307
         303         304         309         308
         305         306         311         310
         306         307         312         311
         307         308         313         312
         308         309         314         313
         310         311         316         315
         311         312         317         316
         312         313         318         317
         313         314         319         318
         315         316         321         320
         316         317         322         321
         317         318         323         322
         318         319         324         323
         325         326         331         330
         326         327         332         331
         327         328         333         332
         328         329         334         333
         330         331         336         335
         331         332         337         336
         332         333         338         337
         333         334         339         338
         335         336         341         340
         336         337         342         341
         337         338         343         342
         338         339         344         343
         340         341         346         345
         341         342         347         346
         342         343         348         347
         343         344         349         348
         350         351         356         355
         351         352         357         356
         352         353         358         357
         353         354         359         358
         355         356         361         360
         356         357         362         361
         357         358         363         362
         358         359         364         363
         360         361         366         365
         361         362         367         366
         362         363         368         367
         363         364         369         368
         365         366         371         370
         366         367         372         371
         367         368         373         372
         368         369         374         373
         375         376         381         380
         376         377         382         381
         377         378         383         382
         378         379         384         383
         380         381         386         385
         381         382         387         386
         382         383         388         387
         383         384         389         388
         385         386         391         390
         386         387         392         391
         387         388         393         392
         388         389         394         393
         390         391         396         395
         391         392         397         396
         392         393         398         397
         393         394         399         398
         400         401         406         405
         401         402         407         406
         402         403         408         407
         403         404         409         408
         405         406         411         410
         406         407         412         411
         407         408         413         412
         408         409         414         413
         410         411         416         415
         411         412         417         416
         412         413         418         417
         413         414         419         418
         415         416         421         420
         416         417         422         421
         417         418         423         422
         418         419         424         423
         425         426         431         430
         426         427         432         431
         427         428         433         432
         428         429         434         433
         430         431         436         435
         431         432         437         436
         432         433         438         437
         433         434         439         438
         435         436         441         440
         436         437         442         441
         437         438         443         442
         438         439         444         443
         440         441         446         445
         441         442         447         446
         442         443         448         447
         443         444         449         448
         450         451         456         455
         451         452         457         456
         452         453         458         457
         453         454         459         458
         455         456         461         460
         456         457         462         461
         457         458         463         462
         458         459         464         463
         460         461         466         465
         461         462         467         466
         462         463         468         467
         463         464         469         468
         465         466         471         470
         466         467         472         471
         467         468         473         472
         468         469         474         473
         475         476         481         480
         476         477         482         481
         477         478         483         482
         478         479         484         483
         480         481         486         485
         481         482         487         486
         482         483         488         487
         483         484         489         488
         485         486         491         490
         486         487         492         491
         487         488         493         492
         488         489         494         493
         490         491         496         495
         491         492         497         496
         492         493         498         497
         493         494         499         498
         500         501         506         505
         501         502         507         506
         502         503         508         507
         503         504         509         508
         505         506         511         510
         506         507         512         511
         507         508         513         512
         508         509         514         513
         510         511         516         515
         511         512         517         516
         512         513         518         517
         513         514         519         518
         515         516         521         520
         516         517         522         521
         517         518         523         522
         518         519         524         523
         525         526         531         530
         526         527         532         531
         527         528         533         532
         528         529         534         533
         530         531         536         535
         531         532         537         536
         532         533         538         537
         533         534         539         538
         535         536         541         540
         536         537         542         541
         537         538         543         542
         538         539         544         543
         540         541         546         545
         541         542         547         546
         542         543         548         547
         543         544         549         548
         550         551         556         555
         551         552         557         556
         552         553         558         557
         553         554         559         558
         555         556         561         560
         556         557         562         561
         557         558         563         562
         558         559         564         563
         560         561         566         565
         561         562         567         566
         562         563         568         567
         563         564         569         568
         565         566         571         570
         566         567         572         571
         567         568         573         572
         568         569         574         573
         575         576         581         580
         576         577         582         581
         577         578         583         582
         578         579         584         583
         580         581         586         585
         581         582         587         586
         582         583         588         587
         583         584         589         588
         585         586         591         590
         586         587         592         591
         587         588         593         592
         588         589         594         593
         590         591         596         595
         591         592         597         596
         592         593         598         597
         593         594         599         598
         600         601         606         605
         601         602         607         606
         602         603         608         607
         603         604         609         608
         605         606         611         610
         606         607         612         611
         607         608         613         612
         608         609         614         613
         610         611         616         615
         611         612         617         616
         612         613         618         617
         613         614         619         618
         615         616         621         620
         616         617         622         621
         617         618         623         622
         618         619         624         623
         625         626         631         630
         626         627         632         631
         627         628         633         632
         628         629         634         633
         630         631         636         635
         631         632         637         636
         632         633         638         637
         633         634         639         638
         635         636         641         640
         636         637         642         641
         637         638         643         642
         638         639         644         643
         640         641         646         645
         641         642         647         646
         642         643         648         647
         643         644         649         648
         650         651         656         655
         651         652         657         656
         652         653         658         657
         653         654         659         658
         655         656         661         660
         656         657         662         661
         657         658         663         662
         658         659         664         663
         660         661         666         665
         661         662         667         666
         662         663         668         667
         663         664         669         668
         665         666         671         670
         666         667         672         671
         667         668         673         672
         668         669         674         673
         675         676         681         680
         676         677         682         681
         677         678         683         682
         678         679         684         683
         680         681         686         685
         681         682         687         686
         682         683         688         687
         683         684         689         688
         685         686         691         690
         686         687         692         691
         687         688         693         692
         688         689         694         693
         690         691         696         695
         691         692         697         696
         692         693         698         697
         693         694         699         698
         700         701         706         705
         701         702         707         706
         702         703         708         707
         703         704         709         708
         705         706         711         710
         706         707         712         711
         707         708         713         712
         708         709         714         713
         710         711         716         715
         711         712         717         716
         712         713         718         717
         713         714         719         718
         715         716         721         720
         716         717         722         721
         717         718         723         722
         718         719         724         723
         725         726         731         730
         726         727         732         731
         727         728         733         732
         728         729         734         733
         730         731         736         735
         731         732         737         736
         732         733         738         737
         733         734         739         738
         735         736         741         740
         736         737         742         741
         737         738         743         742
         738         739         744         743
         740         741         746         745
         741         742         747         746
         742         743         748         747
         743         744         749         748
         750         751         756         755
         751         752         757         756
         752         753         758         757
         753         754         759         758
         755         756         761         760
         756         757         762         761
         757         758         763         762
         758         759         764         763
         760         761         766         765
         761         762         767         766
         762         763         768         767
         763         764         769         768
         765         766         771         770
         766         767         772         771
         767         768         773         772
         768         769         774         773
         775         776         781         780
         776         777         782         781
         777         778         783         782
         778         779         784         783
         780         781         786         785
         781         782         787         786
         782         783         788         787
         783         784         789         788
         785         786         791         790
         786         787         792         791
         787         788         793         792
         788         789         794         793
         790         791         796         795
         791         792         797         796
         792         793         798         797
         793         794         799         798
         800         801         806         805
         801         802         807         806
         802         803         808         807
         803         804         809         808
         805         806         811         810
         806         807         812         811
         807         808         813         812
         808         809         814         813
         810         811         816         815
         811         812         817         816
         812         813         818         817
         813         814         819         818
         815         816         821         820
         816         817         822         821
         817         818         823         822
         818         819         824         823
         825         826         831         830
         826         827         832         831
         827         828         833         832
         828         829         834         833
         830         831         836         835
         831         832         837         836
         832         833         838         837
         833         834         839         838
         835         836         841         840
         836         837         842         841
         837         838         843         842
         838         839         844         843
         840         841         846         845
         841         842         847         846
         842         843         848         847
         843         844         849         848
         850         851         856         855
         851         852         857         856
         852         853         858         857
         853         854         859         858
         855         856         861         860
         856         857         862         861
         857         858         863         862
         858         859         864         863
         860         861         866         865
         861         862         867         866
         862         863         868         867
         863         864         869         868
         865         866         871         870
         866         867         872         871
         867         868         873         872
         868         869         874         873
         875         876         881         880
         876         877         882         881
         877         878         883         882
         878         879         884         883
         880         881         886         885
         881         882         887         886
         882         883         888         887
         883         884         889         888
         885         886         891         890
         886         887         892         891
         887         888         893         892
         888         889         894         893
         890         891         896         895
         891         892         897         896
         892         893         898         897
         893         894         899         898
         900         901         906         905
         901         902         907         906
         902         903         908         907
         903         904         909         908
         905         906         911         910
         906         907         912         911
         907         908         913         912
         908         909         914         913
         910         911         916         915
         911         912         917         916
         912         913         918         917
         913         914         919         918
         915         916         921         920
         916         917         922         921
         917         918         923         922
         918         919         924         923
         925         926         931         930
         926         927         932         931
         927         928         933         932
         928         929         934         933
         930         931         936         935
         931         932         937         936
         932         933         938         937
         933         934         939         938
         935         936         941         940
         936         937         942         941
         937         938         943         942
         938         939         944         943
         940         941         946         945
         941         942         947         946
         942         943         948         947
         943         944         949         948
         950         951         956         955
         951         952         957         956
         952         953         958         957
         953         954         959         958
         955         956         961         960
         956         957         962         961
         957         958         963         962
         958         959         964         963
         960         961         966         965
         961         962         967         966
         962         963         968         967
         963         964         969         968
         965         966         971         970
         966         967         972         971
         967         968         973         972
         968         969         974         973
         975         976         981         980
         976         977         982         981
         977         978         983         982
         978         979         984         983
         980         981         986         985
         981         982         987         986
         982         983         988         987
         983         984         989         988
         985         986         991         990
         986         987         992         991
         987         988         993         992
         988         989         994         993
         990         991         996         995
         991         992         997         996
         992         993         998         997
         993         994         999         998
        1000        1001        1006        1005
        1001        1002        1007        1006
        1002        1003        1008        1007
        1003        1004        1009        1008
        1005        1006        1011        1010
        1006        1007        1012        1011
        1007        1008        1013        1012
        1008        1009        1014        1013
        1010        1011        1016        1015
        1011        1012        1017        1016
        1012        1013        1018        1017
        1013        1014        1019        1018
        1015        1016        1021        1020
        1016        1017        1022        1021
        1017        1018        1023        1022
        1018        1019        1024        1023
        1025        1026        1031        1030
        1026        1027        1032        1031
        1027        1028        1033        1032
        1028        1029        1034        1033
        1030        1031        1036        1035
        1031        1032        1037        1036
        1032        1033        1038        1037
        1033        1034        1039        1038
        1035        1036        1041        1040
        1036        1037        1042        1041
        1037        1038        1043        1042
        1038        1039        1044        1043
        1040        1041        1046        1045
        1041        1042        1047        1046
        1042        1043        1048        1047
        1043        1044        1049        1048
        1050        1051        1056        1055
        1051        1052        1057        1056
        1052        1053        1058        1057
        1053        1054        1059        1058
        1055        1056        1061        1060
        1056        1057        1062        1061
        1057        1058        1063        1062
        1058        1059        1064        1063
        1060        1061        1066        1065
        1061        1062        1067        1066
        1062        1063        1068        1067
        1063        1064        1069        1068
        1065        1066        1071        1070
        1066        1067        1072        1071
        1067        1068        1073        1072
        1068        1069        1074        1073
        1075        1076        1081        1080
        1076        1077        1082        1081
        1077        1078        1083        1082
        1078        1079        1084        1083
        1080        1081        1086        1085
        1081        1082        1087        1086
        1082        1083        1088        1087
        1083        1084        1089        1088
        1085        1086        1091        1090
        1086        1087        1092        1091
        1087        1088        1093        1092
        1088        1089        1094        1093
        1090        1091        1096        1095
        1091        1092        1097        1096
        1092        1093        1098        1097
        1093        1094        1099        1098
        1100        1101        1106        1105
        1101        1102        1107        1106
        1102        1103        1108        1107
        1103        1104        1109        1108
        1105        1106        1111        1110
        1106        1107        1112        1111
        1107        1108        1113        1112
        1108        1109        1114        1113
        1110        1111        1116        1115
        1111        1112        1117        1116
        1112        1113        1118        1117
        1113        1114        1119        1118
        1115        1116        1121        1120
        1116        1117        1122        1121
        1117        1118        1123        1122
        1118        1119        1124        1123
        1125        1126        1131        1130
        1126        1127        1132        1131
        1127        1128        1133        1132
        1128        1129        1134        1133
        1130        1131        1136        1135
        1131        1132        1137        1136
        1132        1133        1138        1137
        1133        1134        1139        1138
        1135        1136        1141        1140
        1136        1137        1142        1141
        1137        1138        1143        1142
        1138        1139        1144        1143
        1140        1141        1146        1145
        1141        1142        1147        1146
        1142        1143        1148        1147
        1143        1144        1149        1148
        1150        1151        1156        1155
        1151        1152        1157        1156
        1152        1153        1158        1157
        1153        1154        1159        1158
        1155        1156        1161        1160
        1156        1157        1162        1161
        1157        1158        1163        1162
        1158        1159        1164        1163
        1160        1161        1166        1165
        1161        1162        1167        1166
        1162        1163        1168        1167
        1163        1164        1169        1168
        1165        1166        1171        1170
        1166        1167        1172        1171
        1167        1168        1173        1172
        1168        1169        1174        1173
        1175        1176        1181        1180
        1176        1177        1182        1181
        1177        1178        1183        1182
        1178        1179        1184        1183
        1180        1181        1186        1185
        1181        1182        1187        1186
        1182        1183        1188        1187
        1183        1184        1189        1188
        1185        1186        1191        1190
        1186        1187        1192        1191
        1187        1188        1193        1192
        1188        1189        1194        1193
        1190        1191        1196        1195
        1191        1192        1197        1196
        1192        1193        1198        1197
        1193        1194        1199        1198
        1200        1201        1206        1205
        1201        1202        1207        1206
        1202        1203        1208        1207
        1203        1204        1209        1208
        1205        1206        1211        1210
        1206        1207        1212        1211
        1207        1208        1213        1212
        1208        1209        1214        1213
        1210        1211        1216        1215
        1211        1212        1217        1216
        1212        1213        1218        1217
        1213        1214        1219        1218
        1215        1216        1221        1220
        1216        1217        1222        1221
        1217        1218        1223        1222
        1218        1219        1224        1223
        1225        1226        1231        1230
        1226        1227        1232        1231
        1227        1228        1233        1232
        1228        1229        1234        1233
        1230        1231        1236        1235
        1231        1232        1237        1236
        1232        1233        1238        1237
        1233        1234        1239        1238
        1235        1236        1241        1240
        1236        1237        1242        1241
        1237        1238        1243        1242
        1238        1239        1244        1243
        1240        1241        1246        1245
        1241        1242        1247        1246
        1242        1243        1248        1247
        1243        1244        1249        1248
        1250        1251        1256        1255
        1251        1252        1257        1256
        1252        1253        1258        1257
        1253        1254        1259        1258
        1255        1256        1261        1260
        1256        1257        1262        1261
        1257        1258        1263        1262
        1258        1259        1264        1263
        1260        1261        1266        1265
        1261        1262        1267        1266
        1262        1263        1268        1267
        1263        1264        1269        1268
        1265        1266        1271        1270
        1266        1267        1272        1271
        1267        1268        1273        1272
        1268        1269        1274        1273
        1275        1276        1281        1280
        1276        1277        1282        1281
        1277        1278        1283        1282
        1278        1279        1284        1283
        1280        1281        1286        1285
        1281        1282        1287        1286
        1282        1283        1288        1287
        1283        1284        1289        1288
        1285        1286        1291        1290
        1286        1287        1292        1291
        1287        1288        1293        1292
        1288        1289        1294        1293
        1290        1291        1296        1295
        1291        1292        1297        1296
        1292        1293        1298        1297
        1293        1294        1299        1298
        1300        1301        1306        1305
        1301        1302        1307        1306
        1302        1303        1308        1307
        1303        1304        1309        1308
        1305        1306        1311        1310
        1306        1307        1312        1311
        1307        1308        1313        1312
        1308        1309        1314        1313
        1310        1311        1316        1315
        1311        1312        1317        1316
        1312        1313        1318        1317
        1313        1314        1319        1318
        1315        1316        1321        1320
        1316        1317        1322        1321
        1317        1318        1323        1322
        1318        1319        1324        1323
        1325        1326        1331        1330
        1326        1327        1332        1331
        1327        1328        1333        1332
        1328        1329        1334        1333
        1330        1331        1336        1335
        1331        1332        1337        1336
        1332        1333        1338        1337
        1333        1334        1339        1338
        1335        1336        1341        1340
        1336        1337        1342        1341
        1337        1338        1343        1342
        1338        1339        1344        1343
        1340        1341        1346        1345
        1341        1342        1347        1346
        1342        1343        1348        1347
        1343        1344        1349        1348
        1350        1351        1356        1355
        1351        1352        1357        1356
        1352        1353        1358        1357
        1353        1354        1359        1358
        1355        1356        1361        1360
        1356        1357        1362        1361
        1357        1358        1363        1362
        1358        1359        1364        1363
        1360        1361        1366        1365
        1361        1362        1367        1366
        1362        1363        1368        1367
        1363        1364        1369        1368
        1365        1366        1371        1370
        1366        1367        1372        1371
        1367        1368        1373        1372
        1368        1369        1374        1373
        1375        1376        1381        1380
        1376        1377        1382        1381
        1377        1378        1383        1382
        1378        1379        1384        1383
        1380        1381        1386        1385
        1381        1382        1387        1386
        1382        1383        1388        1387
        1383        1384        1389        1388
        1385        1386        1391        1390
        1386        1387        1392        1391
        1387        1388        1393        1392
        1388        1389        1394        1393
        1390        1391        1396        1395
        1391        1392        1397        1396
        1392        1393        1398        1397
        1393        1394        1399        1398
        1400        1401        1406        1405
        1401        1402        1407        1406
        1402        1403        1408        1407
        1403        1404        1409        1408
        1405        1406        1411        1410
        1406        1407        1412        1411
        1407        1408        1413        1412
        1408        1409        1414        1413
        1410        1411        1416        1415
        1411        1412        1417        1416
        1412        1413        1418        1417
        1413        1414        1419        1418
        1415        1416        1421        1420
        1416        1417        1422        1421
        1417        1418        1423        1422
        1418        1419        1424        1423
        1425        1426        1431        1430
        1426        1427        1432        1431
        1427        1428        1433        1432
        1428        1429        1434        1433
        1430        1431        1436        1435
        1431        1432        1437        1436
        1432        1433        1438        1437
        1433        1434        1439        1438
        1435        1436        1441        1440
        1436        1437        1442        1441
        1437        1438        1443        1442
        1438        1439        1444        1443
        1440        1441        1446        1445
        1441        1442        1447        1446
        1442        1443        1448        1447
        1443        1444        1449        1448
        1450        1451        1456        1455
        1451        1452        1457        1456
        1452        1453        1458        1457
        1453        1454        1459        1458
        1455        1456        1461        1460
        1456        1457        1462        1461
        1457        1458        1463        1462
        1458        1459        1464        1463
        1460        1461        1466        1465
        1461        1462        1467        1466
        1462        1463        1468        1467
        1463        1464        1469        1468
        1465        1466        1471        1470
        1466        1467        1472        1471
        1467        1468        1473        1472
        1468        1469        1474        1473
        1475        1476        1481        1480
        1476        1477        1482        1481
        1477        1478        1483        1482
        1478        1479        1484        1483
        1480        1481        1486        1485
        1481        1482        1487        1486
        1482        1483        1488        1487
        1483        1484        1489        1488
        1485        1486        1491        1490
        1486        1487        1492        1491
        1487        1488        1493        1492
        1488        1489        1494        1493
        1490        1491        1496        1495
        1491        1492        1497        1496
        1492        1493        1498        1497
        1493        1494        1499        1498
        1500        1501        1506        1505
        1501        1502        1507        1506
        1502        1503        1508        1507
        1503        1504        1509        1508
        1505        1506        1511        1510
        1506        1507        1512        1511
        1507        1508        1513        1512
        1508        1509        1514        1513
        1510        1511        1516        1515
        1511        1512        1517        1516
        1512        1513        1518        1517
        1513        1514        1519        1518
        1515        1516        1521        1520
        1516        1517        1522        1521
        1517        1518        1523        1522
        1518        1519        1524        1523
        1525        1526        1531        1530
        1526        1527        1532        1531
        1527        1528        1533        1532
        1528        1529        1534        1533
        1530        1531        1536        1535
        1531        1532        1537        1536
        1532        1533        1538        1537
        1533        1534        1539        1538
        1535        1536        1541        1540
        1536        1537        1542        1541
        1537        1538        1543        1542
        1538        1539        1544        1543
        1540        1541        1546        1545
        1541        1542        1547        1546
        1542        1543        1548        1547
        1543        1544        1549        1548
        1550        1551        1556        1555
        1551        1552        1557        1556
        1552        1553        1558        1557
        1553        1554        1559        1558
        1555        1556        1561        1560
        1556        1557        1562        1561
        1557        1558        1563        1562
        1558        1559        1564        1563
        1560        1561        1566        1565
        1561        1562        1567        1566
        1562        1563        1568        1567
        1563        1564        1569        1568
        1565        1566        1571        1570
        1566        1567        1572        1571
        1567        1568        1573        1572
        1568        1569        1574        1573
        1575        1576        1581        1580
        1576        1577        1582        1581
        1577        1578        1583        1582
        1578        1579        1584        1583
        1580        1581        1586        1585
        1581        1582        1587        1586
        1582        1583        1588        1587
        1583        1584        1589        1588
        1585        1586        1591        1590
        1586        1587        1592        1591
        1587        1588        1593        1592
        1588        1589        1594        1593
        1590        1591        1596        1595
        1591        1592        1597        1596
        1592        1593        1598        1597
        1593        1594        1599        1598
 </DataArray>
 <DataArray  type="Int32"  Name="offsets"  format="ascii"> 
           4
           8
          12
          16
          20
          24
          28
          32
          36
          40
          44
          48
          52
          56
          60
          64
          68
          72
          76
          80
          84
          88
          92
          96
         100
         104
         108
         112
         116
         120
         124
         128
         132
         136
         140
         144
         148
         152
         156
         160
         164
         168
         172
         176
         180
         184
         188
         192
         196
         200
         204
         208
         212
         216
         220
         224
         228
         232
         236
         240
         244
         248
         252
         256
         260
         264
         268
         272
         276
         280
         284
         288
         292
         296
         300
         304
         308
         312
         316
         320
         324
         328
         332
         336
         340
         344
         348
         352
         356
         360
         364
         368
         372
         376
         380
         384
         388
         392
         396
         400
         404
         408
         412
         416
         420
         424
         428
         432
         436
         440
         444
         448
         452
         456
         460
         464
         468
         472
         476
         480
         484
         488
         492
         496
         500
         504
         508
         512
         516
         520
         524
         528
         532
         536
         540
         544
         548
         552
         556
         560
         564
         568
         572
         576
         580
         584
         588
         592
         596
         600
         604
         608
         612
         616
         620
         624
         628
         632
         636
         640
         644
         648
         652
         656
         660
         664
         668
         672
         676
         680
         684
         688
         692
         696
         700
         704
         708
         712
         716
         720
         724
         728
         732
         736
         740
         744
         748
         752
         756
         760
         764
         768
         772
         776
         780
         784
         788
         792
         796
         800
         804
         808
         812
         816
         820
         824
         828
         832
         836
         840
         844
         848
         852
         856
         860
         864
         868
         872
         876
         880
         884
         888
         892
         896
         900
         904
         908
         912
         916
         920
         924
         928
         932
         936
         940
         944
         948
         952
         956
         960
         964
         968
         972
         976
         980
         984
         988
         992
         996
        1000
        1004
        1008
        1012
        1016
        1020
        1024
        1028
        1032
        1036
        1040
        1044
        1048
        1052
        1056
        1060
        1064
        1068
        1072
        1076
        1080
        1084
        1088
        1092
        1096
        1100
        1104
        1108
        1112
        1116
        1120
        1124
        1128
        1132
        1136
        1140
        1144
        1148
        1152
        1156
        1160
        1164
        1168
        1172
        1176
        1180
        1184
        1188
        1192
        1196
        1200
        1204
        1208
        1212
        1216
        1220
        1224
        1228
        1232
        1236
        1240
        1244
        1248
        1252
        1256
        1260
        1264
        1268
        1272
        1276
        1280
        1284
        1288
        1292
        1296
        1300
        1304
        1308
        1312
        1316
        1320
        1324
        1328
        1332
        1336
        1340
        1344
        1348
        1352
        1356
        1360
        1364
        1368
        1372
        1376
        1380
        1384
        1388
        1392
        1396
        1400
        1404
        1408
        1412
        1416
        1420
        1424
        1428
        1432
        1436
        1440
        1444
        1448
        1452
        1456
        1460
        1464
        1468
        1472
        1476
        1480
        1484
        1488
        1492
        1496
        1500
        1504
        1508
        1512
        1516
        1520
        1524
        1528
        1532
        1536
        1540
        1544
        1548
        1552
        1556
        1560
        1564
        1568
        1572
        1576
        1580
        1584
        1588
        1592
        1596
        1600
        1604
        1608
        1612
        1616
        1620
        1624
        1628
        1632
        1636
        1640
        1644
        1648
        1652
        1656
        1660
        1664
        1668
        1672
        1676
        1680
        1684
        1688
        1692
        1696
        1700
        1704
        1708
        1712
        1716
        1720
        1724
        1728
        1732
        1736
        1740
        1744
        1748
        1752
        1756
        1760
        1764
        1768
        1772
        1776
        1780
        1784
        1788
        1792
        1796
        1800
        1804
        1808
        1812
        1816
        1820
        1824
        1828
        1832
        1836
        1840
        1844
        1848
        1852
        1856
        1860
        1864
        1868
        1872
        1876
        1880
        1884
        1888
        1892
        1896
        1900
        1904
        1908
        1912
        1916
        1920
        1924
        1928
        1932
        1936
        1940
        1944
        1948
        1952
        1956
        1960
        1964
        1968
        1972
        1976
        1980
        1984
        1988
        1992
        1996
        2000
        2004
        2008
        2012
        2016
        2020
        2024
        2028
        2032
        2036
        2040
        2044
        2048
        2052
        2056
        2060
        2064
        2068
        2072
        2076
        2080
        2084
        2088
        2092
        2096
        2100
        2104
        2108
        2112
        2116
        2120
        2124
        2128
        2132
        2136
        2140
        2144
        2148
        2152
        2156
        2160
        2164
        2168
        2172
        2176
        2180
        2184
        2188
        2192
        2196
        2200
        2204
        2208
        2212
        2216
        2220
        2224
        2228
        2232
        2236
        2240
        2244
        2248
        2252
        2256
        2260
        2264
        2268
        2272
        2276
        2280
        2284
        2288
        2292
        2296
        2300
        2304
        2308
        2312
        2316
        2320
        2324
        2328
        2332
        2336
        2340
        2344
        2348
        2352
        2356
        2360
        2364
        2368
        2372
        2376
        2380
        2384
        2388
        2392
        2396
        2400
        2404
        2408
        2412
        2416
        2420
        2424
        2428
        2432
        2436
        2440
        2444
        2448
        2452
        2456
        2460
        2464
        2468
        2472
        2476
        2480
        2484
        2488
        2492
        2496
        2500
        2504
        2508
        2512
        2516
        2520
        2524
        2528
        2532
        2536
        2540
        2544
        2548
        2552
        2556
        2560
        2564
        2568
        2572
        2576
        2580
        2584
        2588
        2592
        2596
        2600
        2604
        2608
        2612
        2616
        2620
        2624
        2628
        2632
        2636
        2640
        2644
        2648
        2652
        2656
        2660
        2664
        2668
        2672
        2676
        2680
        2684
        2688
        2692
        2696
        2700
        2704
        2708
        2712
        2716
        2720
        2724
        2728
        2732
        2736
        2740
        2744
        2748
        2752
        2756
        2760
        2764
        2768
        2772
        2776
        2780
        2784
        2788
        2792
        2796
        2800
        2804
        2808
        2812
        2816
        2820
        2824
        2828
        2832
        2836
        2840
        2844
        2848
        2852
        2856
        2860
        2864
        2868
        2872
        2876
        2880
        2884
        2888
        2892
        2896
        2900
        2904
        2908
        2912
        2916
        2920
        2924
        2928
        2932
        2936
        2940
        2944
        2948
        2952
        2956
        2960
        2964
        2968
        2972
        2976
        2980
        2984
        2988
        2992
        2996
        3000
        3004
        3008
        3012
        3016
        3020
        3024
        3028
        3032
        3036
        3040
        3044
        3048
        3052
        3056
        3060
        3064
        3068
        3072
        3076
        3080
        3084
        3088
        3092
        3096
        3100
        3104
        3108
        3112
        3116
        3120
        3124
        3128
        3132
        3136
        3140
        3144
        3148
        3152
        3156
        3160
        3164
        3168
        3172
        3176
        3180
        3184
        3188
        3192
        3196
        3200
        3204
        3208
        3212
        3216
        3220
        3224
        3228
        3232
        3236
        3240
        3244
        3248
        3252
        3256
        3260
        3264
        3268
        3272
        3276
        3280
        3284
        3288
        3292
        3296
        3300
        3304
        3308
        3312
        3316
        3320
        3324
        3328
        3332
        3336
        3340
        3344
        3348
        3352
        3356
        3360
        3364
        3368
        3372
        3376
        3380
        3384
        3388
        3392
        3396
        3400
        3404
        3408
        3412
        3416
        3420
        3424
        3428
        3432
        3436
        3440
        3444
        3448
        3452
        3456
        3460
        3464
        3468
        3472
        3476
        3480
        3484
        3488
        3492
        3496
        3500
        3504
        3508
        3512
        3516
        3520
        3524
        3528
        3532
        3536
        3540
        3544
        3548
        3552
        3556
        3560
        3564
        3568
        3572
        3576
        3580
        3584
        3588
        3592
        3596
        3600
        3604
        3608
        3612
        3616
        3620
        3624
        3628
        3632
        3636
        3640
        3644
        3648
        3652
        3656
        3660
        3664
        3668
        3672
        3676
        3680
        3684
        3688
        3692
        3696
        3700
        3704
        3708
        3712
        3716
        3720
        3724
        3728
        3732
        3736
        3740
        3744
        3748
        3752
        3756
        3760
        3764
        3768
        3772
        3776
        3780
        3784
        3788
        3792
        3796
        3800
        3804
        3808
        3812
        3816
        3820
        3824
        3828
        3832
        3836
        3840
        3844
        3848
        3852
        3856
        3860
        3864
        3868
        3872
        3876
        3880
        3884
        3888
        3892
        3896
        3900
        3904
        3908
        3912
        3916
        3920
        3924
        3928
        3932
        3936
        3940
        3944
        3948
        3952
        3956
        3960
        3964
        3968
        3972
        3976
        3980
        3984
        3988
        3992
        3996
        4000
        4004
        4008
        4012
        4016
        4020
        4024
        4028
        4032
        4036
        4040
        4044
        4048
        4052
        4056
        4060
        4064
        4068
        4072
        4076
        4080
        4084
        4088
        4092
        4096
 </DataArray>
 <DataArray  type="UInt8"  Name="types"  format="ascii">
 9
 9
 9
 9
 9
 9
 9
 9
 9
 9
 9
 9
 9
 9
 9
 9
 9
 9
 9
 9
 9
 9
 9
 9
 9
 9
 9
 9
 9
 9
 9
 9
 9
 9
 9
 9
 9
 9
 9
 9
 9
 9
 9
 9
 9
 9
 9
 9
 9
 9
 9
 9
 9
 9
 9
 9
 9
 9
 9
 9
 9
 9
 9
 9
 9
 9
 9
 9
 9
 9
 9
 9
 9
 9
 9
 9
 9
 9
 9
 9
 9
 9
 9
 9
 9
 9
 9
 9
 9
 9
 9
 9
 9
 9
 9
 9
 9
 9
 9
 9
 9
 9
 9
 9
 9
 9
 9
 9
 9
 9
 9
 9
 9
 9
 9
 9
 9
 9
 9
 9
 9
 9
 9
 9
 9
 9
 9
 9
 9
 9
 9
 9
 9
 9
 9
 9
 9
 9
 9
 9
 9
 9
 9
 9
 9
 9
 9
 9
 9
 9
 9
 9
 9
 9
 9
 9
 9
 9
 9
 9
 9
 9
 9
 9
 9
 9
 9
 9
 9
 9
 9
 9
 9
 9
 9
 9
 9
 9
 9
 9
 9
 9
 9
 9
 9
 9
 9
 9
 9
 9
 9
 9
 9
 9
 9
 9
 9
 9
 9
 9
 9
 9
 9
 9
 9
 9
 9
 9
 9
 9
 9
 9
 9
 9
 9
 9
 9
 9
 9
 9
 9
 9
 9
 9
 9
 9
 9
 9
 9
 9
 9
 9
 9
 9
 9
 9
 9
 9
 9
 9
 9
 9
 9
 9
 9
 9
 9
 9
 9
 9
 9
 9
 9
 9
 9
 9
 9
 9
 9
 9
 9
 9
 9
 9
 9
 9
 9
 9
 9
 9
 9
 9
 9
 9
 9
 9
 9
 9
 9
 9
 9
 9
 9
 9
 9
 9
 9
 9
 9
 9
 9
 9
 9
 9
 9
 9
 9
 9
 9
 9
 9
 9
 9
 9
 9
 9
 9
 9
 9
 9
 9
 9
 9
 9
 9
 9
 9
 9
 9
 9
 9
 9
 9
 9
 9
 9
 9
 9
 9
 9
 9
 9
 9
 9
 9
 9
 9
 9
 9
 9
 9
 9
 9
 9
 9
 9
 9
 9
 9
 9
 9
 9
 9
 9
 9
 9
 9
 9
 9
 9
 9
 9
 9
 9
 9
 9
 9
 9
 9
 9
 9
 9
 9
 9
 9
 9
 9
 9
 9
 9
 9
 9
 9
 9
 9
 9
 9
 9
 9
 9
 9
 9
 9
 9
 9
 9
 9
 9
 9
 9
 9
 9
 9
 9
 9
 9
 9
 9
 9
 9
 9
 9
 9
 9
 9
 9
 9
 9
 9
 9
 9
 9
 9
 9
 9
 9
 9
 9
 9
 9
 9
 9
 9
 9
 9
 9
 9
 9
 9
 9
 9
 9
 9
 9
 9
 9
 9
 9
 9
 9
 9
 9
 9
 9
 9
 9
 9
 9
 9
 9
 9
 9
 9
 9
 9
 9
 9
 9
 9
 9
 9
 9
 9
 9
 9
 9
 9
 9
 9
 9
 9
 9
 9
 9
 9
 9
 9
 9
 9
 9
 9
 9
 9
 9
 9
 9
 9
 9
 9
 9
 9
 9
 9
 9
 9
 9
 9
 9
 9
 9
 9
 9
 9
 9
 9
 9
 9
 9
 9
 9
 9
 9
 9
 9
 9
 9
 9
 9
 9
 9
 9
 9
 9
 9
 9
 9
 9
 9
 9
 9
 9
 9
 9
 9
 9
 9
 9
 9
 9
 9
 9
 9
 9
 9
 9
 9
 9
 9
 9
 9
 9
 9
 9
 9
 9
 9
 9
 9
 9
 9
 9
 9
 9
 9
 9
 9
 9
 9
 9
 9
 9
 9
 9
 9
 9
 9
 9
 9
 9
 9
 9
 9
 9
 9
 9
 9
 9
 9
 9
 9
 9
 9
 9
 9
 9
 9
 9
 9
 9
 9
 9
 9
 9
 9
 9
 9
 9
 9
 9
 9
 9
 9
 9
 9
 9
 9
 9
 9
 9
 9
 9
 9
 9
 9
 9
 9
 9
 9
 9
 9
 9
 9
 9
 9
 9
 9
 9
 9
 9
 9
 9
 9
 9
 9
 9
 9
 9
 9
 9
 9
 9
 9
 9
 9
 9
 9
 9
 9
 9
 9
 9
 9
 9
 9
 9
 9
 9
 9
 9
 9
 9
 9
 9
 9
 9
 9
 9
 9
 9
 9
 9
 9
 9
 9
 9
 9
 9
 9
 9
 9
 9
 9
 9
 9
 9
 9
 9
 9
 9
 9
 9
 9
 9
 9
 9
 9
 9
 9
 9
 9
 9
 9
 9
 9
 9
 9
 9
 9
 9
 9
 9
 9
 9
 9
 9
 9
 9
 9
 9
 9
 9
 9
 9
 9
 9
 9
 9
 9
 9
 9
 9
 9
 9
 9
 9
 9
 9
 9
 9
 9
 9
 9
 9
 9
 9
 9
 9
 9
 9
 9
 9
 9
 9
 9
 9
 9
 9
 9
 9
 9
 9
 9
 9
 9
 9
 9
 9
 9
 9
 9
 9
 9
 9
 9
 9
 9
 9
 9
 9
 9
 9
 9
 9
 9
 9
 9
 9
 9
 9
 9
 9
 9
 9
 9
 9
 9
 9
 9
 9
 9
 9
 9
 9
 9
 9
 9
 9
 9
 9
 9
 9
 9
 9
 9
 9
 9
 9
 9
 9
 9
 9
 9
 9
 9
 9
 9
 9
 9
 9
 9
 9
 9
 9
 9
 9
 9
 9
 9
 9
 9
 9
 9
 9
 9
 9
 9
 9
 9
 9
 9
 9
 9
 9
 9
 9
 9
 9
 9
 9
 9
 9
 9
 9
 9
 9
 9
 9
 9
 9
 9
 9
 9
 9
 9
 9
 9
 9
 9
 9
 9
 9
 9
 9
 9
 9
 9
 9
 9
 9
 9
 9
 9
 9
 9
 9
 9
 9
 9
 9
 9
 9
 9
 9
 9
 9
 9
 9
 9
 9
 9
 9
 9
 9
 9
 9
 9
 9
 9
 9
 9
 9
 9
 9
 9
 9
 9
 9
 9
 9
 9
 9
 9
 9
 9
 9
 9
 9
 9
 9
 9
 9
 9
 9
 9
 9
 9
 9
 9
 9
 9
 9
 9
 9
 9
 9
 9
 9
 9
 9
 9
 9
 9
 9
 9
 9
 9
 9
 9
 9
 9
 9
 9
 9
 9
 9
 9
 9
 9
 9
 9
 9
 9
 9
 9
 9
 9
 9
 9
 9
 9
 9
 9
 9
 9
 9
 9
 9
 9
 9
 9
 9
 9
 9
 9
 </DataArray>
 </Cells> 
 <PointData>
 <DataArray  type="Float64" Name="disp" NumberOfComponents="3" format="ascii">
   0.0000000000000000        0.0000000000000000        0.0000000000000000     
   6.0968362163388665E-003   3.7895934597591413E-003   0.0000000000000000     
   1.1668131798523832E-002   7.3220604576402478E-003   0.0000000000000000     
   1.6713886746554898E-002   1.0597400993643320E-002   0.0000000000000000     
   2.1234101060432060E-002   1.3615615067768358E-002   0.0000000000000000     
   0.0000000000000000        0.0000000000000000        0.0000000000000000     
   4.8922630862466695E-003   3.0209581075659837E-003   0.0000000000000000     
   9.5761653648466748E-003   6.0581638487179068E-003   0.0000000000000000     
   1.4051706835800020E-002   9.1116172234557702E-003   0.0000000000000000     
   1.8318887499106703E-002   1.2181318231779571E-002   0.0000000000000000     
   0.0000000000000000        0.0000000000000000        0.0000000000000000     
   3.9547829580074950E-003   2.4236380405486951E-003   0.0000000000000000     
   7.9132831760820397E-003   5.0600242814476106E-003   0.0000000000000000     
   1.1875500654223634E-002   7.9091587226967474E-003   0.0000000000000000     
   1.5841435392432282E-002   1.0971041364296105E-002   0.0000000000000000     
   0.0000000000000000        0.0000000000000000        0.0000000000000000     
   3.2843958316213411E-003   1.9976332587072747E-003   0.0000000000000000     
   6.6794852322299217E-003   4.3276417558293593E-003   0.0000000000000000     
   1.0185268201825743E-002   6.9900254913662528E-003   0.0000000000000000     
   1.3801744740408801E-002   9.9847844653179578E-003   0.0000000000000000     
   0.0000000000000000        0.0000000000000000        0.0000000000000000     
   2.8811017070882088E-003   1.7429437620417234E-003   0.0000000000000000     
   5.8747715332903225E-003   3.8610162718631532E-003   0.0000000000000000     
   8.9810094786063385E-003   6.3542175294642898E-003   0.0000000000000000     
   1.2199815543036259E-002   9.2225475348451311E-003   0.0000000000000000     
   2.1234101060432060E-002   1.3615615067768358E-002   0.0000000000000000     
   2.5441708649481507E-002   1.6607587755806029E-002   0.0000000000000000     
   2.9549643423029421E-002   1.9804204133546995E-002   0.0000000000000000     
   3.3557905381075802E-002   2.3205464200991257E-002   0.0000000000000000     
   3.7466494523620643E-002   2.6811367958138814E-002   0.0000000000000000     
   1.8318887499106703E-002   1.2181318231779571E-002   0.0000000000000000     
   2.2415921413030664E-002   1.5335805721783287E-002   0.0000000000000000     
   2.6381022635835846E-002   1.8643618541560891E-002   0.0000000000000000     
   3.0214191167522247E-002   2.2104756691112389E-002   0.0000000000000000     
   3.3915427008089874E-002   2.5719220170437773E-002   0.0000000000000000     
   1.5841435392432282E-002   1.0971041364296105E-002   0.0000000000000000     
   1.9739296188694362E-002   1.4204617120375480E-002   0.0000000000000000     
   2.3497291840996248E-002   1.7568830905064670E-002   0.0000000000000000     
   2.7115422349337941E-002   2.1063682718363671E-002   0.0000000000000000     
   3.0593687713719453E-002   2.4689172560272490E-002   0.0000000000000000     
   1.3801744740408801E-002   9.9847844653179578E-003   0.0000000000000000     
   1.7411832976472596E-002   1.3214021951582600E-002   0.0000000000000000     
   2.0898451038510627E-002   1.6579841224058315E-002   0.0000000000000000     
   2.4261598926522892E-002   2.0082242282745102E-002   0.0000000000000000     
   2.7501276640509390E-002   2.3721225127642957E-002   0.0000000000000000     
   1.2199815543036259E-002   9.2225475348451311E-003   0.0000000000000000     
   1.5433531776365379E-002   1.2364020215404658E-002   0.0000000000000000     
   1.8584500228378986E-002   1.5676649498541841E-002   0.0000000000000000     
   2.1652720899077084E-002   1.9160435384256682E-002   0.0000000000000000     
   2.4638193788459675E-002   2.2815377872549183E-002   0.0000000000000000     
   3.7466494523620643E-002   2.6811367958138814E-002   0.0000000000000000     
   4.1279483951510904E-002   3.0617364786560804E-002   0.0000000000000000     
   4.5000946765593526E-002   3.4618904067828360E-002   0.0000000000000000     
   4.8630882965868510E-002   3.8815985801941483E-002   0.0000000000000000     
   5.2169292552335857E-002   4.3208609988900186E-002   0.0000000000000000     
   3.3915427008089874E-002   2.5719220170437773E-002   0.0000000000000000     
   3.7507811176082581E-002   2.9516042557788842E-002   0.0000000000000000     
   4.1014424690044231E-002   3.3524257431417390E-002   0.0000000000000000     
   4.4435267549974823E-002   3.7743864791323418E-002   0.0000000000000000     
   4.7770339755874358E-002   4.2174864637506929E-002   0.0000000000000000     
   3.0593687713719453E-002   2.4689172560272490E-002   0.0000000000000000     
   3.3961516925504684E-002   2.8490103889019906E-002   0.0000000000000000     
   3.7248338976057553E-002   3.2511280162834721E-002   0.0000000000000000     
   4.0454153865378047E-002   3.6752701381716942E-002   0.0000000000000000     
   4.3578961593466178E-002   4.1214367545666555E-002   0.0000000000000000     
   2.7501276640509390E-002   2.3721225127642957E-002   0.0000000000000000     
   3.0640601199777216E-002   2.7539548780254008E-002   0.0000000000000000     
   3.3702689623633479E-002   3.1579972262080369E-002   0.0000000000000000     
   3.6687541912078188E-002   3.5842495573122052E-002   0.0000000000000000     
   3.9595158065111317E-002   4.0327118713379038E-002   0.0000000000000000     
   2.4638193788459675E-002   2.2815377872549183E-002   0.0000000000000000     
   2.7545063998900179E-002   2.6664377231491135E-002   0.0000000000000000     
   3.0377476632772030E-002   3.0730333729154315E-002   0.0000000000000000     
   3.3135431690075226E-002   3.5013247365538736E-002   0.0000000000000000     
   3.5818929170809762E-002   3.9513118140644399E-002   0.0000000000000000     
   5.2169292552335857E-002   4.3208609988900186E-002   0.0000000000000000     
   5.5613959763745530E-002   4.7801175248795361E-002   0.0000000000000000     
   5.8962668838847487E-002   5.2598080201717919E-002   0.0000000000000000     
   6.2215419777641751E-002   5.7599324847667867E-002   0.0000000000000000     
   6.5372212580128292E-002   6.2804909186645191E-002   0.0000000000000000     
   4.7770339755874358E-002   4.2174864637506929E-002   0.0000000000000000     
   5.1015694891892262E-002   4.6810483153058767E-002   0.0000000000000000     
   5.4167386542177925E-002   5.1643946521069767E-002   0.0000000000000000     
   5.7225414706731363E-002   5.6675254741539935E-002   0.0000000000000000     
   6.0189779385552547E-002   6.1904407814469278E-002   0.0000000000000000     
   4.3578961593466178E-002   4.1214367545666555E-002   0.0000000000000000     
   4.6618631313591279E-002   4.5883464359385340E-002   0.0000000000000000     
   4.9569032179022643E-002   5.0747177527575127E-002   0.0000000000000000     
   5.2430164189760299E-002   5.5805507050235889E-002   0.0000000000000000     
   5.5202027345804226E-002   6.1058452927367619E-002   0.0000000000000000     
   3.9595158065111317E-002   4.0327118713379038E-002   0.0000000000000000     
   4.2422769028842587E-002   4.5020118867775100E-002   0.0000000000000000     
   4.5167605749381667E-002   4.9907773221233978E-002   0.0000000000000000     
   4.7829668226728586E-002   5.4990081773755702E-002   0.0000000000000000     
   5.0408956460883322E-002   6.0267044525340249E-002   0.0000000000000000     
   3.5818929170809762E-002   3.9513118140644399E-002   0.0000000000000000     
   3.8428108037646173E-002   4.4220446678228026E-002   0.0000000000000000     
   4.0963107253254999E-002   4.9125733602046355E-002   0.0000000000000000     
   4.3423926817636210E-002   5.4228978912099400E-002   0.0000000000000000     
   4.5810566730789835E-002   5.9530182608387154E-002   0.0000000000000000     
   6.5372212580128292E-002   6.2804909186645191E-002   0.0000000000000000     
   6.8434796407034412E-002   6.8201706505837123E-002   0.0000000000000000     
   7.1404920419087359E-002   7.3776590092430830E-002   0.0000000000000000     
   7.4282584616287159E-002   7.9529559946426312E-002   0.0000000000000000     
   7.7067788998633813E-002   8.5460616067823597E-002   0.0000000000000000     
   6.0189779385552547E-002   6.1904407814469278E-002   0.0000000000000000     
   6.3064176659329868E-002   6.7323072915382337E-002   0.0000000000000000     
   6.5852302608751662E-002   7.2922917219803679E-002   0.0000000000000000     
   6.8554157233817900E-002   7.8703940727733304E-002   0.0000000000000000     
   7.1169740534528625E-002   8.4666143439171226E-002   0.0000000000000000     
   5.5202027345804226E-002   6.1058452927367619E-002   0.0000000000000000     
   5.7888766790222854E-002   6.6500104690258105E-002   0.0000000000000000     
   6.0494527666084569E-002   7.2124551870195078E-002   0.0000000000000000     
   6.3019309973389379E-002   7.7931794467178545E-002   0.0000000000000000     
   6.5463113712137311E-002   8.3921832481208505E-002   0.0000000000000000     
   5.0408956460883322E-002   6.0267044525340249E-002   0.0000000000000000     
   5.2908566799713348E-002   6.5732801830464399E-002   0.0000000000000000     
   5.5331595591086101E-002   7.1381494043605012E-002   0.0000000000000000     
   5.7678042835001622E-002   7.7213121164761991E-002   0.0000000000000000     
   5.9947908531459877E-002   8.3227683193935406E-002   0.0000000000000000     
   4.5810566730789835E-002   5.9530182608387154E-002   0.0000000000000000     
   4.8123576687801366E-002   6.5021164336001289E-002   0.0000000000000000     
   5.0363506383756279E-002   7.0693743740033482E-002   0.0000000000000000     
   5.2530355818654582E-002   7.6547920820483700E-002   0.0000000000000000     
   5.4624124992496303E-002   8.2583695577351970E-002   0.0000000000000000     
   7.7067788998633813E-002   8.5460616067823597E-002   0.0000000000000000     
   7.9755301504071771E-002   9.1559990263524516E-002   0.0000000000000000     
   8.2339890070545554E-002   9.7817914340430953E-002   0.0000000000000000     
   8.4821554698055149E-002  0.10423438829854290        0.0000000000000000     
   8.7200295386600568E-002  0.11080941213786033        0.0000000000000000     
   7.1169740534528625E-002   8.4666143439171226E-002   0.0000000000000000     
   7.3692991085960891E-002   9.0797193417614400E-002   0.0000000000000000     
   7.6117847463191779E-002   9.7084758726559806E-002   0.0000000000000000     
   7.8444309666221318E-002  0.10352883936600743        0.0000000000000000     
   8.0672377695049494E-002  0.11012943533595730        0.0000000000000000     
   6.5463113712137311E-002   8.3921832481208505E-002   0.0000000000000000     
   6.7820158416301346E-002   9.0080992653765860E-002   0.0000000000000000     
   7.0084663619854506E-002   9.6395601726331465E-002   0.0000000000000000     
   7.2256629322796820E-002  0.10286565969890540        0.0000000000000000     
   7.4336055525128245E-002  0.10949116657148758        0.0000000000000000     
   5.9947908531459877E-002   8.3227683193935406E-002   0.0000000000000000     
   6.2136803495093137E-002   8.9411387971978881E-002   0.0000000000000000     
   6.4240338540533737E-002   9.5750443339746000E-002   0.0000000000000000     
   6.6258513667781627E-002  0.10224484929723675        0.0000000000000000     
   6.8191328876836849E-002  0.10889460584445117        0.0000000000000000     
   5.4624124992496303E-002   8.2583695577351970E-002   0.0000000000000000     
   5.6642926322336279E-002   8.8788379372253451E-002   0.0000000000000000     
   5.8584872225229435E-002   9.5149283566803300E-002   0.0000000000000000     
   6.0449962701175766E-002  0.10166640816100150        0.0000000000000000     
   6.2238197750175250E-002  0.10833975315484805        0.0000000000000000     
   8.7200295386600568E-002  0.11080941213786033        0.0000000000000000     
   8.9485931108282263E-002  0.11753038236723039        0.0000000000000000     
   9.1688280835200697E-002  0.12438469549550017        0.0000000000000000     
   9.3807344567355885E-002  0.13137235152266968        0.0000000000000000     
   9.5843122304747827E-002  0.13849335044873892        0.0000000000000000     
   8.0672377695049494E-002  0.11012943533595730        0.0000000000000000     
   8.2813729462483249E-002  0.11687594434952521        0.0000000000000000     
   8.4880042881329512E-002  0.12375776411982699        0.0000000000000000     
   8.6871317951588312E-002  0.13077489464686262        0.0000000000000000     
   8.8787554673259633E-002  0.13792733593063208        0.0000000000000000     
   7.4336055525128245E-002  0.10949116657148758        0.0000000000000000     
   7.6334597692290534E-002  0.11626256500056671        0.0000000000000000     
   7.8263911289725416E-002  0.12317029764263147        0.0000000000000000     
   8.0123996317432861E-002  0.13021436449768184        0.0000000000000000     
   8.1914852775412897E-002  0.13739476556571786        0.0000000000000000     
   6.8191328876836849E-002  0.10889460584445117        0.0000000000000000     
   7.0048535797704162E-002  0.11569024432035492        0.0000000000000000     
   7.1839886060388394E-002  0.12262229606391367        0.0000000000000000     
   7.3565379664889560E-002  0.12969076107512750        0.0000000000000000     
   7.5225016611207646E-002  0.13689563935399626        0.0000000000000000     
   6.2238197750175250E-002  0.10833975315484805        0.0000000000000000     
   6.3955543778724089E-002  0.11515898230888980        0.0000000000000000     
   6.5607967193318475E-002  0.12211375938367360        0.0000000000000000     
   6.7195467993958369E-002  0.12920408437919942        0.0000000000000000     
   6.8718046180643810E-002  0.13642995729546731        0.0000000000000000     
   9.5843122304747827E-002  0.13849335044873892        0.0000000000000000     
   9.7783761258855698E-002  0.14573668001086054        0.0000000000000000     
   9.9617408641158728E-002  0.15309132794618727        0.0000000000000000     
  0.10134406445165690       0.16055729425471901        0.0000000000000000     
  0.10296372869035020       0.16813457893645584        0.0000000000000000     
   8.8787554673259633E-002  0.13792733593063208        0.0000000000000000     
   9.0612453261375445E-002  0.14520044690106168        0.0000000000000000     
   9.2329713930967713E-002  0.15257958648807768        0.0000000000000000     
   9.3939336682036398E-002  0.16006475469168005        0.0000000000000000     
   9.5441321514581567E-002  0.16765595151186885        0.0000000000000000     
   8.1914852775412897E-002  0.13739476556571786        0.0000000000000000     
   8.3619785964186275E-002  0.14469545386369159        0.0000000000000000     
   8.5222101184273730E-002  0.15210038240855520        0.0000000000000000     
   8.6721798435675249E-002  0.15960955120030862        0.0000000000000000     
   8.8118877718390859E-002  0.16722296023895200        0.0000000000000000     
   7.5225016611207646E-002  0.13689563935399626        0.0000000000000000     
   7.6805759367288201E-002  0.14422170089875030        0.0000000000000000     
   7.8294570401076777E-002  0.15165371570761982        0.0000000000000000     
   7.9691449712573387E-002  0.15919168378060480        0.0000000000000000     
   8.0996397301778073E-002  0.16683560511770526        0.0000000000000000     
   6.8718046180643810E-002  0.13642995729546731        0.0000000000000000     
   7.0170373470681183E-002  0.14377918800623782        0.0000000000000000     
   7.1547121581376869E-002  0.15123958638527157        0.0000000000000000     
   7.2848290512730896E-002  0.15881115243256852        0.0000000000000000     
   7.4073880264743208E-002  0.16649388614812866        0.0000000000000000     
   0.0000000000000000        0.0000000000000000        0.0000000000000000     
   2.8811017070882088E-003   1.7429437620417234E-003   0.0000000000000000     
   5.8747715332903225E-003   3.8610162718631532E-003   0.0000000000000000     
   8.9810094786063385E-003   6.3542175294642898E-003   0.0000000000000000     
   1.2199815543036259E-002   9.2225475348451311E-003   0.0000000000000000     
   0.0000000000000000        0.0000000000000000        0.0000000000000000     
   2.6111007534529527E-003   1.5869127606822743E-003   0.0000000000000000     
   5.2912642182836311E-003   3.5528571057430215E-003   0.0000000000000000     
   8.0404903944920354E-003   5.8978330351822416E-003   0.0000000000000000     
   1.0858779282078169E-002   8.6218405489999345E-003   0.0000000000000000     
   0.0000000000000000        0.0000000000000000        0.0000000000000000     
   2.3405931397604243E-003   1.4568834647591612E-003   0.0000000000000000     
   4.7210854262302402E-003   3.2958735336629944E-003   0.0000000000000000     
   7.1414768594094454E-003   5.5169702067114981E-003   0.0000000000000000     
   9.6017674392980430E-003   8.1201734839046712E-003   0.0000000000000000     
   0.0000000000000000        0.0000000000000000        0.0000000000000000     
   2.0695788660106259E-003   1.3528558742723841E-003   0.0000000000000000     
   4.1642351571301488E-003   3.0900655556230696E-003   0.0000000000000000     
   6.2839688733585669E-003   5.2116290440520569E-003   0.0000000000000000     
   8.4287800146958837E-003   7.7175463395593455E-003   0.0000000000000000     
   0.0000000000000000        0.0000000000000000        0.0000000000000000     
   1.7980579322035557E-003   1.2748299892219430E-003   0.0000000000000000     
   3.6207134109833561E-003   2.9354331716232493E-003   0.0000000000000000     
   5.4679664363393998E-003   4.9818095472039196E-003   0.0000000000000000     
   7.3398170082716882E-003   7.4139591159639532E-003   0.0000000000000000     
   1.2199815543036259E-002   9.2225475348451311E-003   0.0000000000000000     
   1.5433531776365379E-002   1.2364020215404658E-002   0.0000000000000000     
   1.8584500228378986E-002   1.5676649498541841E-002   0.0000000000000000     
   2.1652720899077084E-002   1.9160435384256682E-002   0.0000000000000000     
   2.4638193788459675E-002   2.2815377872549183E-002   0.0000000000000000     
   1.0858779282078169E-002   8.6218405489999345E-003   0.0000000000000000     
   1.3692934087621596E-002   1.1642700569162745E-002   0.0000000000000000     
   1.6489758017701892E-002   1.4878234017637326E-002   0.0000000000000000     
   1.9249251072319049E-002   1.8328440894423668E-002   0.0000000000000000     
   2.1971413251473070E-002   2.1993321199521784E-002   0.0000000000000000     
   9.6017674392980430E-003   8.1201734839046712E-003   0.0000000000000000     
   1.2078581409490157E-002   1.1038151670177973E-002   0.0000000000000000     
   1.4548543013579909E-002   1.4203573070466859E-002   0.0000000000000000     
   1.7011652251567304E-002   1.7616437684771325E-002   0.0000000000000000     
   1.9467909123452337E-002   2.1276745513091378E-002   0.0000000000000000     
   8.4287800146958837E-003   7.7175463395593455E-003   0.0000000000000000     
   1.0590473741971055E-002   1.0550373518450338E-002   0.0000000000000000     
   1.2760855216013047E-002   1.3652666657030436E-002   0.0000000000000000     
   1.4939924436821850E-002   1.7024425755299645E-002   0.0000000000000000     
   1.7127681404397473E-002   2.0665650813257962E-002   0.0000000000000000     
   7.3398170082716882E-003   7.4139591159639532E-003   0.0000000000000000     
   9.2286110850642953E-003   1.0179366113979838E-002   0.0000000000000000     
   1.1126694625001297E-002   1.3225514777328064E-002   0.0000000000000000     
   1.3034067628082690E-002   1.6552405106008628E-002   0.0000000000000000     
   1.4950730094308475E-002   2.0160037100021535E-002   0.0000000000000000     
   2.4638193788459675E-002   2.2815377872549183E-002   0.0000000000000000     
   2.7545063998900179E-002   2.6664377231491135E-002   0.0000000000000000     
   3.0377476632772030E-002   3.0730333729154315E-002   0.0000000000000000     
   3.3135431690075226E-002   3.5013247365538736E-002   0.0000000000000000     
   3.5818929170809762E-002   3.9513118140644399E-002   0.0000000000000000     
   2.1971413251473070E-002   2.1993321199521784E-002   0.0000000000000000     
   2.4639588377090044E-002   2.5870996914128676E-002   0.0000000000000000     
   2.7237120271096045E-002   2.9959590019441349E-002   0.0000000000000000     
   2.9764008933491071E-002   3.4259100515459814E-002   0.0000000000000000     
   3.2220254364275128E-002   3.8769528402184068E-002   0.0000000000000000     
   1.9467909123452337E-002   2.1276745513091378E-002   0.0000000000000000     
   2.1888857388563273E-002   2.5165815499564013E-002   0.0000000000000000     
   2.4246040806228365E-002   2.9264966588326249E-002   0.0000000000000000     
   2.6539459376447611E-002   3.3574198779378076E-002   0.0000000000000000     
   2.8769113099221016E-002   3.8093512072719493E-002   0.0000000000000000     
   1.7127681404397473E-002   2.0665650813257962E-002   0.0000000000000000     
   1.9292871033319864E-002   2.4548832987797153E-002   0.0000000000000000     
   2.1404238238168994E-002   2.8646463435809011E-002   0.0000000000000000     
   2.3461783018944842E-002   3.2958542157293526E-002   0.0000000000000000     
   2.5465505375647422E-002   3.7485069152250701E-002   0.0000000000000000     
   1.4950730094308475E-002   2.0160037100021535E-002   0.0000000000000000     
   1.6851629311359830E-002   2.4020049378828096E-002   0.0000000000000000     
   1.8711712566917928E-002   2.8104080561889636E-002   0.0000000000000000     
   2.0530979860982766E-002   3.2412130649206165E-002   0.0000000000000000     
   2.2309431193554347E-002   3.6944199640777657E-002   0.0000000000000000     
   3.5818929170809762E-002   3.9513118140644399E-002   0.0000000000000000     
   3.8428108037646173E-002   4.4220446678228026E-002   0.0000000000000000     
   4.0963107253254999E-002   4.9125733602046355E-002   0.0000000000000000     
   4.3423926817636210E-002   5.4228978912099400E-002   0.0000000000000000     
   4.5810566730789835E-002   5.9530182608387154E-002   0.0000000000000000     
   3.2220254364275128E-002   3.8769528402184068E-002   0.0000000000000000     
   3.4608579557747633E-002   4.3486534177313574E-002   0.0000000000000000     
   3.6931707508207998E-002   4.8405778338547804E-002   0.0000000000000000     
   3.9189638215656228E-002   5.3527260885886746E-002   0.0000000000000000     
   4.1382371680092324E-002   5.8850981819330433E-002   0.0000000000000000     
   2.8769113099221016E-002   3.8093512072719493E-002   0.0000000000000000     
   3.0938114806892517E-002   4.2820467751601206E-002   0.0000000000000000     
   3.3049577331806079E-002   4.7752627099273894E-002   0.0000000000000000     
   3.5103500673961688E-002   5.2889990115737549E-002   0.0000000000000000     
   3.7099884833359340E-002   5.8232556800992187E-002   0.0000000000000000     
   2.5465505375647422E-002   3.7485069152250701E-002   0.0000000000000000     
   2.7416713785080846E-002   4.2222247401090922E-002   0.0000000000000000     
   2.9316716724049226E-002   4.7166279884224629E-002   0.0000000000000000     
   3.1165514192552573E-002   5.2317166601651796E-002   0.0000000000000000     
   3.2963106190590875E-002   5.7674907553372422E-002   0.0000000000000000     
   2.2309431193554347E-002   3.6944199640777657E-002   0.0000000000000000     
   2.4044376492312603E-002   4.1691873125782750E-002   0.0000000000000000     
   2.5733125684937453E-002   4.6646736693400012E-002   0.0000000000000000     
   2.7375678771428893E-002   5.1808790343629479E-002   0.0000000000000000     
   2.8972035751786935E-002   5.7178034076471124E-002   0.0000000000000000     
   4.5810566730789835E-002   5.9530182608387154E-002   0.0000000000000000     
   4.8123576687801366E-002   6.5021164336001289E-002   0.0000000000000000     
   5.0363506383756279E-002   7.0693743740033482E-002   0.0000000000000000     
   5.2530355818654582E-002   7.6547920820483700E-002   0.0000000000000000     
   5.4624124992496303E-002   8.2583695577351970E-002   0.0000000000000000     
   4.1382371680092324E-002   5.8850981819330433E-002   0.0000000000000000     
   4.3507878508595443E-002   6.4365864018280372E-002   0.0000000000000000     
   4.5564129308244751E-002   7.0060830362138088E-002   0.0000000000000000     
   4.7551124079040240E-002   7.5935880850903581E-002   0.0000000000000000     
   4.9468862820981910E-002   8.1991015484576851E-002   0.0000000000000000     
   3.7099884833359340E-002   5.8232556800992187E-002   0.0000000000000000     
   3.9035554316204139E-002   6.3767572688713317E-002   0.0000000000000000     
   4.0907333628701185E-002   6.9482283312576443E-002   0.0000000000000000     
   4.2715222770850492E-002   7.5376688672581585E-002   0.0000000000000000     
   4.4459221742652044E-002   8.1450788768728716E-002   0.0000000000000000     
   3.2963106190590875E-002   5.7674907553372422E-002   0.0000000000000000     
   3.4706604110627447E-002   6.3226290347300124E-002   0.0000000000000000     
   3.6393119345125603E-002   6.8958102591348547E-002   0.0000000000000000     
   3.8022651894085352E-002   7.4870344285517712E-002   0.0000000000000000     
   3.9595201757506679E-002   8.0963015429807550E-002   0.0000000000000000     
   2.8972035751786935E-002   5.7178034076471124E-002   0.0000000000000000     
   3.0521027891865372E-002   6.2742016994040833E-002   0.0000000000000000     
   3.2021486457517997E-002   6.8488288198454428E-002   0.0000000000000000     
   3.3473411448744821E-002   7.4416847689711949E-002   0.0000000000000000     
   3.4876802865545821E-002   8.0527695467813382E-002   0.0000000000000000     
   5.4624124992496303E-002   8.2583695577351970E-002   0.0000000000000000     
   5.6642926322336279E-002   8.8788379372253451E-002   0.0000000000000000     
   5.8584872225229435E-002   9.5149283566803300E-002   0.0000000000000000     
   6.0449962701175766E-002  0.10166640816100150        0.0000000000000000     
   6.2238197750175250E-002  0.10833975315484805        0.0000000000000000     
   4.9468862820981910E-002   8.1991015484576851E-002   0.0000000000000000     
   5.1317727088338816E-002   8.8214789507007590E-002   0.0000000000000000     
   5.3098098435379958E-002   9.4595758162045449E-002   0.0000000000000000     
   5.4809976862105370E-002  0.10113392144969041        0.0000000000000000     
   5.6453362368515024E-002  0.10782927936994251        0.0000000000000000     
   4.4459221742652044E-002   8.1450788768728716E-002   0.0000000000000000     
   4.6140405983408773E-002   8.7693441028659211E-002   0.0000000000000000     
   4.7759850932423631E-002   9.4093502880014362E-002   0.0000000000000000     
   4.9317556589696603E-002  0.10065097432279425        0.0000000000000000     
   5.0813522955227695E-002  0.10736585535699880        0.0000000000000000     
   3.9595201757506679E-002   8.0963015429807550E-002   0.0000000000000000     
   4.1110963007546179E-002   8.7224333937208270E-002   0.0000000000000000     
   4.2570129716360434E-002   9.3642517720710111E-002   0.0000000000000000     
   4.3972701883949465E-002  0.10021756678031297        0.0000000000000000     
   4.5318679510313237E-002  0.10694948111601693        0.0000000000000000     
   3.4876802865545821E-002   8.0527695467813382E-002   0.0000000000000000     
   3.6229398160751013E-002   8.6807468232654852E-002   0.0000000000000000     
   3.7528934787190382E-002   9.3242802684132625E-002   0.0000000000000000     
   3.8775412744863937E-002   9.9833698822246630E-002   0.0000000000000000     
   3.9968832033771676E-002  0.10658015664699690        0.0000000000000000     
   6.2238197750175250E-002  0.10833975315484805        0.0000000000000000     
   6.3955543778724089E-002  0.11515898230888980        0.0000000000000000     
   6.5607967193318475E-002  0.12211375938367360        0.0000000000000000     
   6.7195467993958369E-002  0.12920408437919942        0.0000000000000000     
   6.8718046180643810E-002  0.13642995729546731        0.0000000000000000     
   5.6453362368515024E-002  0.10782927936994251        0.0000000000000000     
   5.8030632711399875E-002  0.11467063504775894        0.0000000000000000     
   5.9544165647550849E-002  0.12164679160809701        0.0000000000000000     
   6.0993961176967940E-002  0.12875774905095666        0.0000000000000000     
   6.2380019299651132E-002  0.13600350737633793        0.0000000000000000     
   5.0813522955227695E-002  0.10736585535699880        0.0000000000000000     
   5.2248813671781046E-002  0.11422705861855000        0.0000000000000000     
   5.3624492382120741E-002  0.12122349674336978        0.0000000000000000     
   5.4940559086246822E-002  0.12835516973145814        0.0000000000000000     
   5.6197013784159283E-002  0.13562207758281505        0.0000000000000000     
   4.5318679510313237E-002  0.10694948111601693        0.0000000000000000     
   4.6610086659867551E-002  0.11382825302126288        0.0000000000000000     
   4.7848947397028156E-002  0.12084387478949185        0.0000000000000000     
   4.9035261721795037E-002  0.12799634642070382        0.0000000000000000     
   5.0169029634168229E-002  0.13528566791489877        0.0000000000000000     
   3.9968832033771676E-002  0.10658015664699690        0.0000000000000000     
   4.1114451675659441E-002  0.11347421825589768        0.0000000000000000     
   4.2217530692273089E-002  0.12050792574646328        0.0000000000000000     
   4.3278069083612598E-002  0.12768127911869370        0.0000000000000000     
   4.4296066849678004E-002  0.13499427837258898        0.0000000000000000     
   6.8718046180643810E-002  0.13642995729546731        0.0000000000000000     
   7.0170373470681183E-002  0.14377918800623782        0.0000000000000000     
   7.1547121581376869E-002  0.15123958638527157        0.0000000000000000     
   7.2848290512730896E-002  0.15881115243256852        0.0000000000000000     
   7.4073880264743208E-002  0.16649388614812866        0.0000000000000000     
   6.2380019299651132E-002  0.13600350737633793        0.0000000000000000     
   6.3704072163841732E-002  0.14337468899785830        0.0000000000000000     
   6.4967851917780997E-002  0.15086191632913531        0.0000000000000000     
   6.6171358561468913E-002  0.15846518937016890        0.0000000000000000     
   6.7314592094905507E-002  0.16618450812095914        0.0000000000000000     
   5.6197013784159283E-002  0.13562207758281505        0.0000000000000000     
   5.7397299336246314E-002  0.14301497768531593        0.0000000000000000     
   5.8544858602896141E-002  0.15052462742683598        0.0000000000000000     
   5.9639691584108770E-002  0.15815102680737514        0.0000000000000000     
   6.0681798279884180E-002  0.16589417582693364        0.0000000000000000     
   5.0169029634168229E-002  0.13528566791489877        0.0000000000000000     
   5.1250054987894915E-002  0.14270005406861064        0.0000000000000000     
   5.2278141636722307E-002  0.15022771967837351        0.0000000000000000     
   5.3253289580650419E-002  0.15786866474418731        0.0000000000000000     
   5.4175498819679237E-002  0.16562288926605209        0.0000000000000000     
   4.4296066849678004E-002  0.13499427837258898        0.0000000000000000     
   4.5262339118787534E-002  0.14242991814774253        0.0000000000000000     
   4.6167701019259502E-002  0.14997119308374796        0.0000000000000000     
   4.7012152551093873E-002  0.15761810318060532        0.0000000000000000     
   4.7795693714290668E-002  0.16537064843831453        0.0000000000000000     
   0.0000000000000000        0.0000000000000000        0.0000000000000000     
   1.7980579322035557E-003   1.2748299892219430E-003   0.0000000000000000     
   3.6207134109833561E-003   2.9354331716232493E-003   0.0000000000000000     
   5.4679664363393998E-003   4.9818095472039196E-003   0.0000000000000000     
   7.3398170082716882E-003   7.4139591159639532E-003   0.0000000000000000     
   0.0000000000000000        0.0000000000000000        0.0000000000000000     
   1.5343739631545833E-003   1.2157230572201461E-003   0.0000000000000000     
   3.0979795249708722E-003   2.8175022088080285E-003   0.0000000000000000     
   4.6908166854488656E-003   4.8053374547636493E-003   0.0000000000000000     
   6.3128854445885655E-003   7.1792287950870051E-003   0.0000000000000000     
   0.0000000000000000        0.0000000000000000        0.0000000000000000     
   1.2868705836790763E-003   1.1684523258793024E-003   0.0000000000000000     
   2.6034928362737055E-003   2.7217984943219047E-003   0.0000000000000000     
   3.9498667577838866E-003   4.6600385053278065E-003   0.0000000000000000     
   5.3259923482096216E-003   6.9831723588970086E-003   0.0000000000000000     
   0.0000000000000000        0.0000000000000000        0.0000000000000000     
   1.0555477937770348E-003   1.1330177951994122E-003   0.0000000000000000     
   2.1372533448918559E-003   2.6483220281648774E-003   0.0000000000000000     
   3.2451166533444629E-003   4.5459126988963957E-003   0.0000000000000000     
   4.3791377191348567E-003   6.8257898073939656E-003   0.0000000000000000     
   0.0000000000000000        0.0000000000000000        0.0000000000000000     
   8.4040559344845901E-004   1.1094194651804752E-003   0.0000000000000000     
   1.6992610508253236E-003   2.5970728103369457E-003   0.0000000000000000     
   2.5765663721305935E-003   4.4629600354694123E-003   0.0000000000000000     
   3.4723215573642693E-003   6.7070811405778741E-003   0.0000000000000000     
   7.3398170082716882E-003   7.4139591159639532E-003   0.0000000000000000     
   9.2286110850642953E-003   1.0179366113979838E-002   0.0000000000000000     
   1.1126694625001297E-002   1.3225514777328064E-002   0.0000000000000000     
   1.3034067628082690E-002   1.6552405106008628E-002   0.0000000000000000     
   1.4950730094308475E-002   2.0160037100021535E-002   0.0000000000000000     
   6.3128854445885655E-003   7.1792287950870051E-003   0.0000000000000000     
   7.9514087306860846E-003   9.8894449897993768E-003   0.0000000000000000     
   9.5936094720375353E-003   1.2886254798922041E-002   0.0000000000000000     
   1.1239487668642916E-002   1.6169658222455002E-002   0.0000000000000000     
   1.2889043320502232E-002   1.9739655260398253E-002   0.0000000000000000     
   5.3259923482096216E-003   6.9831723588970086E-003   0.0000000000000000     
   6.7172819707526296E-003   9.6449256789418528E-003   0.0000000000000000     
   8.1091479886146334E-003   1.2599024089374678E-002   0.0000000000000000     
   9.5015904017956305E-003   1.5845467590195485E-002   0.0000000000000000     
   1.0894609210295624E-002   1.9384256181404276E-002   0.0000000000000000     
   4.3791377191348567E-003   6.8257898073939656E-003   0.0000000000000000     
   5.5262308052639328E-003   9.4458081814072625E-003   0.0000000000000000     
   6.6733101747325895E-003   1.2363822648685970E-002   0.0000000000000000     
   7.8203758275408285E-003   1.5579833209230077E-002   0.0000000000000000     
   8.9674277636886471E-003   1.9093839863039593E-002   0.0000000000000000     
   3.4723215573642693E-003   6.7070811405778741E-003   0.0000000000000000     
   4.3782552342199925E-003   9.2920924971956146E-003   0.0000000000000000     
   5.2860960303914061E-003   1.2180650476855917E-002   0.0000000000000000     
   6.1958439458785113E-003   1.5372755079558782E-002   0.0000000000000000     
   7.1074989806813073E-003   1.8868406305304210E-002   0.0000000000000000     
   1.4950730094308475E-002   2.0160037100021535E-002   0.0000000000000000     
   1.6851629311359830E-002   2.4020049378828096E-002   0.0000000000000000     
   1.8711712566917928E-002   2.8104080561889636E-002   0.0000000000000000     
   2.0530979860982766E-002   3.2412130649206165E-002   0.0000000000000000     
   2.2309431193554347E-002   3.6944199640777657E-002   0.0000000000000000     
   1.2889043320502232E-002   1.9739655260398253E-002   0.0000000000000000     
   1.4526395020451574E-002   2.3570371383434489E-002   0.0000000000000000     
   1.6135661361327037E-002   2.7635932062246401E-002   0.0000000000000000     
   1.7716842343128619E-002   3.1936337296833976E-002   0.0000000000000000     
   1.9269937965856326E-002   3.6471587087197228E-002   0.0000000000000000     
   1.0894609210295624E-002   1.9384256181404276E-002   0.0000000000000000     
   1.2278430958363505E-002   2.3190705712393987E-002   0.0000000000000000     
   1.3643282190248173E-002   2.7240132032557540E-002   0.0000000000000000     
   1.4989162905949626E-002   3.1532535141894968E-002   0.0000000000000000     
   1.6316073105467867E-002   3.6067915040406233E-002   0.0000000000000000     
   8.9674277636886471E-003   1.9093839863039593E-002   0.0000000000000000     
   1.0107737125095627E-002   2.2881052365706572E-002   0.0000000000000000     
   1.1234575053681339E-002   2.6916680472823085E-002   0.0000000000000000     
   1.2347941549445792E-002   3.1200724184389121E-002   0.0000000000000000     
   1.3447836612388981E-002   3.5733183500404692E-002   0.0000000000000000     
   7.1074989806813073E-003   1.8868406305304210E-002   0.0000000000000000     
   8.0143135206479331E-003   2.2641411343372261E-002   0.0000000000000000     
   8.9095399516265356E-003   2.6665577383043013E-002   0.0000000000000000     
   9.7931782736171112E-003   3.0940904424316459E-002   0.0000000000000000     
   1.0665228486619662E-002   3.5467392467192597E-002   0.0000000000000000     
   2.2309431193554347E-002   3.6944199640777657E-002   0.0000000000000000     
   2.4044376492312603E-002   4.1691873125782750E-002   0.0000000000000000     
   2.5733125684937453E-002   4.6646736693400012E-002   0.0000000000000000     
   2.7375678771428893E-002   5.1808790343629479E-002   0.0000000000000000     
   2.8972035751786935E-002   5.7178034076471124E-002   0.0000000000000000     
   1.9269937965856326E-002   3.6471587087197228E-002   0.0000000000000000     
   2.0788302278674307E-002   4.1227916779746430E-002   0.0000000000000000     
   2.2265289330746715E-002   4.6191561720891887E-002   0.0000000000000000     
   2.3700899122073554E-002   5.1362521910633584E-002   0.0000000000000000     
   2.5095131652654812E-002   5.6740797348971528E-002   0.0000000000000000     
   1.6316073105467867E-002   3.6067915040406233E-002   0.0000000000000000     
   1.7615690494252465E-002   4.0828950217051803E-002   0.0000000000000000     
   1.8879692777752980E-002   4.5798319160792092E-002   0.0000000000000000     
   2.0108079955969426E-002   5.0976021871627114E-002   0.0000000000000000     
   2.1300852028901789E-002   5.6362058349556848E-002   0.0000000000000000     
   1.3447836612388981E-002   3.5733183500404692E-002   0.0000000000000000     
   1.4526541139047080E-002   4.0494973437698839E-002   0.0000000000000000     
   1.5576336025956261E-002   4.5467009013100627E-002   0.0000000000000000     
   1.6597221273116525E-002   5.0649290226610036E-002   0.0000000000000000     
   1.7589196880527871E-002   5.6041817078227085E-002   0.0000000000000000     
   1.0665228486619662E-002   3.5467392467192597E-002   0.0000000000000000     
   1.1520854213058151E-002   4.0225986441687560E-002   0.0000000000000000     
   1.2355219075356548E-002   4.5197631277817500E-002   0.0000000000000000     
   1.3168323073514848E-002   5.0382326975582384E-002   0.0000000000000000     
   1.3960166207533055E-002   5.5780073534982239E-002   0.0000000000000000     
   2.8972035751786935E-002   5.7178034076471124E-002   0.0000000000000000     
   3.0521027891865372E-002   6.2742016994040833E-002   0.0000000000000000     
   3.2021486457517997E-002   6.8488288198454428E-002   0.0000000000000000     
   3.3473411448744821E-002   7.4416847689711949E-002   0.0000000000000000     
   3.4876802865545821E-002   8.0527695467813382E-002   0.0000000000000000     
   2.5095131652654812E-002   5.6740797348971528E-002   0.0000000000000000     
   2.6448651060310253E-002   6.2314806824451077E-002   0.0000000000000000     
   2.7762121482859614E-002   6.8072969125617583E-002   0.0000000000000000     
   2.9035542920302901E-002   7.4015284252471031E-002   0.0000000000000000     
   3.0268915372640107E-002   8.0141752205011449E-002   0.0000000000000000     
   2.1300852028901789E-002   5.6362058349556848E-002   0.0000000000000000     
   2.2459299016354434E-002   6.1944714034046562E-002   0.0000000000000000     
   2.3584710938131716E-002   6.7712274364561523E-002   0.0000000000000000     
   2.4677087794233631E-002   7.3664739341101682E-002   0.0000000000000000     
   2.5736429584660180E-002   7.9802108963667073E-002   0.0000000000000000     
   1.7589196880527871E-002   5.6041817078227085E-002   0.0000000000000000     
   1.8552971759997924E-002   6.1631738622827302E-002   0.0000000000000000     
   1.9489254823334301E-002   6.7406203915286247E-002   0.0000000000000000     
   2.0398046070537003E-002   7.3365212955603887E-002   0.0000000000000000     
   2.1279345501606036E-002   7.9508765743780241E-002   0.0000000000000000     
   1.3960166207533055E-002   5.5780073534982239E-002   0.0000000000000000     
   1.4729669291240713E-002   6.1375880590793283E-002   0.0000000000000000     
   1.5475753138467370E-002   6.7154757777791743E-002   0.0000000000000000     
   1.6198417749213025E-002   7.3116705095977633E-002   0.0000000000000000     
   1.6897663123477680E-002   7.9261722545350979E-002   0.0000000000000000     
   3.4876802865545821E-002   8.0527695467813382E-002   0.0000000000000000     
   3.6229398160751013E-002   8.6807468232654852E-002   0.0000000000000000     
   3.7528934787190382E-002   9.3242802684132625E-002   0.0000000000000000     
   3.8775412744863937E-002   9.9833698822246630E-002   0.0000000000000000     
   3.9968832033771676E-002  0.10658015664699690        0.0000000000000000     
   3.0268915372640107E-002   8.0141752205011449E-002   0.0000000000000000     
   3.1457527300603000E-002   8.6437527604459122E-002   0.0000000000000000     
   3.2596667164923356E-002   9.2887765072034362E-002   0.0000000000000000     
   3.3686334965601153E-002   9.9492464607737155E-002   0.0000000000000000     
   3.4726530702636413E-002  0.10625162621156750        0.0000000000000000     
   2.5736429584660180E-002   7.9802108963667073E-002   0.0000000000000000     
   2.6757166284681867E-002   8.6109195742081229E-002   0.0000000000000000     
   2.7733727869569215E-002   9.2570812186167709E-002   0.0000000000000000     
   2.8666114339322212E-002   9.9186958295926511E-002   0.0000000000000000     
   2.9554325693940862E-002  0.10595763407135761        0.0000000000000000     
   2.1279345501606036E-002   7.9508765743780241E-002   0.0000000000000000     
   2.2128315112987618E-002   8.5822472645521231E-002   0.0000000000000000     
   2.2940116901127974E-002   9.2291944026532707E-002   0.0000000000000000     
   2.3714750866027111E-002   9.8917179886814671E-002   0.0000000000000000     
   2.4452217007685018E-002  0.10569818022636716        0.0000000000000000     
   1.6897663123477680E-002   7.9261722545350979E-002   0.0000000000000000     
   1.7570973785520243E-002   8.5577358314779070E-002   0.0000000000000000     
   1.8215834259599634E-002   9.2051160593129316E-002   0.0000000000000000     
   1.8832244545715849E-002   9.8683129380401691E-002   0.0000000000000000     
   1.9420204643868892E-002  0.10547326467659619        0.0000000000000000     
   3.9968832033771676E-002  0.10658015664699690        0.0000000000000000     
   4.1114451675659441E-002  0.11347421825589768        0.0000000000000000     
   4.2217530692273089E-002  0.12050792574646328        0.0000000000000000     
   4.3278069083612598E-002  0.12768127911869370        0.0000000000000000     
   4.4296066849678004E-002  0.13499427837258898        0.0000000000000000     
   3.4726530702636413E-002  0.10625162621156750        0.0000000000000000     
   3.5725834837087717E-002  0.11315909083994376        0.0000000000000000     
   3.6692827830013673E-002  0.12020869944928421        0.0000000000000000     
   3.7627509681414269E-002  0.12740045203958889        0.0000000000000000     
   3.8529880391289517E-002  0.13473434861085776        0.0000000000000000     
   2.9554325693940862E-002  0.10595763407135761        0.0000000000000000     
   3.0408162262083389E-002  0.11287700729089052        0.0000000000000000     
   3.1237424372408045E-002  0.11993924573295477        0.0000000000000000     
   3.2042112024914825E-002  0.12714434939755034        0.0000000000000000     
   3.2822225219603721E-002  0.13449231828467725        0.0000000000000000     
   2.4452217007685018E-002  0.10569818022636716        0.0000000000000000     
   2.5161433950646465E-002  0.11262796760873797        0.0000000000000000     
   2.5851320319456212E-002  0.11969956459747498        0.0000000000000000     
   2.6521876114114263E-002  0.12691297119257811        0.0000000000000000     
   2.7173101334620611E-002  0.13426818739404742        0.0000000000000000     
   1.9420204643868892E-002  0.10547326467659619        0.0000000000000000     
   1.9985649902776934E-002  0.11241197179348612        0.0000000000000000     
   2.0534515671158167E-002  0.11948965604284480        0.0000000000000000     
   2.1066801949012583E-002  0.12670631742467217        0.0000000000000000     
   2.1582508736340184E-002  0.13406195593896827        0.0000000000000000     
   4.4296066849678004E-002  0.13499427837258898        0.0000000000000000     
   4.5262339118787534E-002  0.14242991814774253        0.0000000000000000     
   4.6167701019259502E-002  0.14997119308374796        0.0000000000000000     
   4.7012152551093873E-002  0.15761810318060532        0.0000000000000000     
   4.7795693714290668E-002  0.16537064843831453        0.0000000000000000     
   3.8529880391289517E-002  0.13473434861085776        0.0000000000000000     
   3.9382804659140104E-002  0.14218961749190223        0.0000000000000000     
   4.0169147184466736E-002  0.14974548701153373        0.0000000000000000     
   4.0888907967269413E-002  0.15740195716975219        0.0000000000000000     
   4.1542087007548113E-002  0.16515902796655768        0.0000000000000000     
   3.2822225219603721E-002  0.13449231828467725        0.0000000000000000     
   3.3560104539168530E-002  0.14196419967028048        0.0000000000000000     
   3.4238090566303052E-002  0.14954104083030506        0.0000000000000000     
   3.4856183301007274E-002  0.15722284176475099        0.0000000000000000     
   3.5414382743281202E-002  0.16500960247361823        0.0000000000000000     
   2.7173101334620611E-002  0.13426818739404742        0.0000000000000000     
   2.7794238758872821E-002  0.14175366468287726        0.0000000000000000     
   2.8374531164768436E-002  0.14935785454006201        0.0000000000000000     
   2.8913978552307474E-002  0.15708075696560167        0.0000000000000000     
   2.9412580921489923E-002  0.16492237195949619        0.0000000000000000     
   2.1582508736340184E-002  0.13406195593896827        0.0000000000000000     
   2.2085207318252961E-002  0.14155801252969258        0.0000000000000000     
   2.2578468979862907E-002  0.14919592814080454        0.0000000000000000     
   2.3062293721170017E-002  0.15697570277230422        0.0000000000000000     
   2.3536681542174288E-002  0.16489733642419152        0.0000000000000000     
   0.0000000000000000        0.0000000000000000        0.0000000000000000     
   8.4040559344845901E-004   1.1094194651804752E-003   0.0000000000000000     
   1.6992610508253236E-003   2.5970728103369457E-003   0.0000000000000000     
   2.5765663721305935E-003   4.4629600354694123E-003   0.0000000000000000     
   3.4723215573642693E-003   6.7070811405778741E-003   0.0000000000000000     
   0.0000000000000000        0.0000000000000000        0.0000000000000000     
   6.3251782256105418E-004   1.0939897803449281E-003   0.0000000000000000     
   1.2749887237377688E-003   2.5620487297817393E-003   0.0000000000000000     
   1.9274127035301442E-003   4.4041768483104341E-003   0.0000000000000000     
   2.5897897619381800E-003   6.6203741359310130E-003   0.0000000000000000     
   0.0000000000000000        0.0000000000000000        0.0000000000000000     
   4.2295832098252525E-004   1.0830611852152079E-003   0.0000000000000000     
   8.4990913329285184E-004   2.5372476754428868E-003   0.0000000000000000     
   1.2808524369309798E-003   4.3625594706830362E-003   0.0000000000000000     
   1.7157882318969090E-003   6.5589965709356574E-003   0.0000000000000000     
   0.0000000000000000        0.0000000000000000        0.0000000000000000     
   2.1172708871287240E-004   1.0766336797913146E-003   0.0000000000000000     
   4.2402227949057248E-004   2.5226696473203873E-003   0.0000000000000000     
   6.3688557233310020E-004   4.3381079025872175E-003   0.0000000000000000     
   8.5031696724045564E-004   6.5229484455918063E-003   0.0000000000000000     
   0.0000000000000000        0.0000000000000000        0.0000000000000000     
  -1.1758742479043910E-006   1.0747072640732481E-003   0.0000000000000000     
  -2.6718376690692430E-006   2.5183146454142409E-003   0.0000000000000000     
  -4.4878902634944476E-006   4.3308221440229791E-003   0.0000000000000000     
  -6.6240320311801405E-006   6.5122297598994607E-003   0.0000000000000000     
   3.4723215573642693E-003   6.7070811405778741E-003   0.0000000000000000     
   4.3782552342199925E-003   9.2920924971956146E-003   0.0000000000000000     
   5.2860960303914061E-003   1.2180650476855917E-002   0.0000000000000000     
   6.1958439458785113E-003   1.5372755079558782E-002   0.0000000000000000     
   7.1074989806813073E-003   1.8868406305304210E-002   0.0000000000000000     
   2.5897897619381800E-003   6.6203741359310130E-003   0.0000000000000000     
   3.2592125349516672E-003   9.1777736435132099E-003   0.0000000000000000     
   3.9327736585603960E-003   1.2043508421926759E-002   0.0000000000000000     
   4.6104731327643676E-003   1.5217578471171667E-002   0.0000000000000000     
   5.2923109575635802E-003   1.8699983791247925E-002   0.0000000000000000     
   1.7157882318969090E-003   6.5589965709356574E-003   0.0000000000000000     
   2.1549599847898149E-003   9.0968466375663526E-003   0.0000000000000000     
   2.5986111622088729E-003   1.1946397331940735E-002   0.0000000000000000     
   3.0467417641540841E-003   1.5107648654058793E-002   0.0000000000000000     
   3.4993517906254466E-003   1.8580600603920541E-002   0.0000000000000000     
   8.5031696724045564E-004   6.5229484455918063E-003   0.0000000000000000     
   1.0654975837344357E-003   9.0493114793550461E-003   0.0000000000000000     
   1.2836085413368377E-003   1.1889317206897834E-002   0.0000000000000000     
   1.5046498400476615E-003   1.5042965628220170E-002   0.0000000000000000     
   1.7286214798669076E-003   1.8510256743322056E-002   0.0000000000000000     
  -6.6240320311801405E-006   6.5122297598994607E-003   0.0000000000000000     
  -9.1746682144705765E-006   9.0351681688792904E-003   0.0000000000000000     
  -1.2234204055710370E-005   1.1872268046798067E-002   0.0000000000000000     
  -1.5802639554899426E-005   1.5023529393655793E-002   0.0000000000000000     
  -1.9879974712037961E-005   1.8488952209452465E-002   0.0000000000000000     
   7.1074989806813073E-003   1.8868406305304210E-002   0.0000000000000000     
   8.0143135206479331E-003   2.2641411343372261E-002   0.0000000000000000     
   8.9095399516265356E-003   2.6665577383043013E-002   0.0000000000000000     
   9.7931782736171112E-003   3.0940904424316459E-002   0.0000000000000000     
   1.0665228486619662E-002   3.5467392467192597E-002   0.0000000000000000     
   5.2923109575635802E-003   1.8699983791247925E-002   0.0000000000000000     
   5.9707625931534371E-003   2.2462822270510188E-002   0.0000000000000000     
   6.6383034997293429E-003   2.6478191797313092E-002   0.0000000000000000     
   7.2949336772912977E-003   3.0746092371656653E-002   0.0000000000000000     
   7.9406531258392997E-003   3.5266523993540862E-002   0.0000000000000000     
   3.4993517906254466E-003   1.8580600603920541E-002   0.0000000000000000     
   3.9496867907451404E-003   2.2336324772239468E-002   0.0000000000000000     
   4.3909923136353441E-003   2.6345892749729091E-002   0.0000000000000000     
   4.8232683592960585E-003   3.0609304536389395E-002   0.0000000000000000     
   5.2465149277272803E-003   3.5126560132220395E-002   0.0000000000000000     
   1.7286214798669076E-003   1.8510256743322056E-002   0.0000000000000000     
   1.9510861134230438E-003   2.2261918848560120E-002   0.0000000000000000     
   2.1676063933445387E-003   2.6268680240290995E-002   0.0000000000000000     
   2.3781823196313934E-003   3.0530540918514693E-002   0.0000000000000000     
   2.5828138922836062E-003   3.5047500883231192E-002   0.0000000000000000     
  -1.9879974712037961E-005   1.8488952209452465E-002   0.0000000000000000     
  -2.5039438812853216E-005   2.2239604499472126E-002   0.0000000000000000     
  -3.1854261143072793E-005   2.6246554268998815E-002   0.0000000000000000     
  -4.0324441702696536E-005   3.0509801518032533E-002   0.0000000000000000     
  -5.0449980491724857E-005   3.5029346246573272E-002   0.0000000000000000     
   1.0665228486619662E-002   3.5467392467192597E-002   0.0000000000000000     
   1.1520854213058151E-002   4.0225986441687560E-002   0.0000000000000000     
   1.2355219075356548E-002   4.5197631277817500E-002   0.0000000000000000     
   1.3168323073514848E-002   5.0382326975582384E-002   0.0000000000000000     
   1.3960166207533055E-002   5.5780073534982239E-002   0.0000000000000000     
   7.9406531258392997E-003   3.5266523993540862E-002   0.0000000000000000     
   8.5738395225581580E-003   4.0020928778511843E-002   0.0000000000000000     
   9.1928705446326781E-003   4.4990748842115715E-002   0.0000000000000000     
   9.7977461920628652E-003   5.0175984184352485E-002   0.0000000000000000     
   1.0388466464848714E-002   5.5576634805222139E-002   0.0000000000000000     
   5.2465149277272803E-003   3.5126560132220395E-002   0.0000000000000000     
   5.6607068738195728E-003   3.9878739997665537E-002   0.0000000000000000     
   6.0658190524634937E-003   4.4846924593168296E-002   0.0000000000000000     
   6.4618514636590437E-003   5.0031113918728665E-002   0.0000000000000000     
   6.8488041074062245E-003   5.5431307974346644E-002   0.0000000000000000     
   2.5828138922836062E-003   3.5047500883231192E-002   0.0000000000000000     
   2.7814562668423992E-003   3.9799420099148664E-002   0.0000000000000000     
   2.9740645988489923E-003   4.4766158530975250E-002   0.0000000000000000     
   3.1606388883033873E-003   4.9947716178710938E-002   0.0000000000000000     
   3.3411791352055825E-003   5.5344093042355727E-002   0.0000000000000000     
  -5.0449980491724857E-005   3.5029346246573272E-002   0.0000000000000000     
  -6.3912298373364923E-005   3.9782969082961230E-002   0.0000000000000000     
  -8.2392816210826391E-005   4.4748450655536565E-002   0.0000000000000000     
  -1.0589153400410674E-004   4.9925790964299284E-002   0.0000000000000000     
  -1.3440845175320833E-004   5.5314990009249415E-002   0.0000000000000000     
   1.3960166207533055E-002   5.5780073534982239E-002   0.0000000000000000     
   1.4729669291240713E-002   6.1375880590793283E-002   0.0000000000000000     
   1.5475753138467370E-002   6.7154757777791743E-002   0.0000000000000000     
   1.6198417749213025E-002   7.3116705095977633E-002   0.0000000000000000     
   1.6897663123477680E-002   7.9261722545350979E-002   0.0000000000000000     
   1.0388466464848714E-002   5.5576634805222139E-002   0.0000000000000000     
   1.0962422710257018E-002   6.1175888872334820E-002   0.0000000000000000     
   1.1517006275554560E-002   6.6956934553300651E-002   0.0000000000000000     
   1.2052217160741346E-002   7.2919771848119611E-002   0.0000000000000000     
   1.2568055365817373E-002   7.9064400756791706E-002   0.0000000000000000     
   6.8488041074062245E-003   5.5431307974346644E-002   0.0000000000000000     
   7.2242631172210418E-003   6.1030512401842249E-002   0.0000000000000000     
   7.5858146266195078E-003   6.6811732843035487E-002   0.0000000000000000     
   7.9334586356016243E-003   7.2774969297926387E-002   0.0000000000000000     
   8.2671951441673878E-003   7.8920221766514920E-002   0.0000000000000000     
   3.3411791352055825E-003   5.5344093042355727E-002   0.0000000000000000     
   3.5151905121327885E-003   6.0939751179315549E-002   0.0000000000000000     
   3.6821781916622129E-003   6.6719152646996294E-002   0.0000000000000000     
   3.8421421737938584E-003   7.2682297445397975E-002   0.0000000000000000     
   3.9950824585277215E-003   7.8829185574520608E-002   0.0000000000000000     
  -1.3440845175320833E-004   5.5314990009249415E-002   0.0000000000000000     
  -1.6479510500774222E-004   6.0903605204754727E-002   0.0000000000000000     
  -1.9390302931732270E-004   6.6679193965183070E-002   0.0000000000000000     
  -2.2173222468195060E-004   7.2641756290534418E-002   0.0000000000000000     
  -2.4828269110162434E-004   7.8791292180808770E-002   0.0000000000000000     
   1.6897663123477680E-002   7.9261722545350979E-002   0.0000000000000000     
   1.7570973785520243E-002   8.5577358314779070E-002   0.0000000000000000     
   1.8215834259599634E-002   9.2051160593129316E-002   0.0000000000000000     
   1.8832244545715849E-002   9.8683129380401691E-002   0.0000000000000000     
   1.9420204643868892E-002  0.10547326467659619        0.0000000000000000     
   1.2568055365817373E-002   7.9064400756791706E-002   0.0000000000000000     
   1.3064331759368277E-002   8.5380147832361711E-002   0.0000000000000000     
   1.3540857209979688E-002   9.1856339627874414E-002   0.0000000000000000     
   1.3997631717651610E-002   9.8492976143329788E-002   0.0000000000000000     
   1.4434655282384037E-002  0.10529005737872783        0.0000000000000000     
   8.2671951441673878E-003   7.8920221766514920E-002   0.0000000000000000     
   8.5875784916202447E-003   8.5237136280776088E-002   0.0000000000000000     
   8.8951630172636360E-003   9.1715358872684824E-002   0.0000000000000000     
   9.1899487210975652E-003   9.8354889542241225E-002   0.0000000000000000     
   9.4719356031220288E-003  0.10515572828944518        0.0000000000000000     
   3.9950824585277215E-003   7.8829185574520608E-002   0.0000000000000000     
   4.1407139822761474E-003   8.5148323660022146E-002   0.0000000000000000     
   4.2787516814514811E-003   9.1628218327560601E-002   0.0000000000000000     
   4.4091955560537181E-003   9.8268869577135973E-002   0.0000000000000000     
   4.5320456060828612E-003  0.10507027740874825        0.0000000000000000     
  -2.4828269110162434E-004   7.8791292180808770E-002   0.0000000000000000     
  -2.7626176866401187E-004   8.5113709970099927E-002   0.0000000000000000     
  -3.0837679745678107E-004   9.1594917992501690E-002   0.0000000000000000     
  -3.4462777747993299E-004   9.8234916248014059E-002   0.0000000000000000     
  -3.8501470873346594E-004  0.10503370473663706        0.0000000000000000     
   1.9420204643868892E-002  0.10547326467659619        0.0000000000000000     
   1.9985649902776934E-002  0.11241197179348612        0.0000000000000000     
   2.0534515671158167E-002  0.11948965604284480        0.0000000000000000     
   2.1066801949012583E-002  0.12670631742467217        0.0000000000000000     
   2.1582508736340184E-002  0.13406195593896827        0.0000000000000000     
   1.4434655282384037E-002  0.10529005737872783        0.0000000000000000     
   1.4854158252634458E-002  0.11223507193338940        0.0000000000000000     
   1.5258370976860338E-002  0.11931550840663530        0.0000000000000000     
   1.5647293455061686E-002  0.12653136679846555        0.0000000000000000     
   1.6020925687238501E-002  0.13388264710888012        0.0000000000000000     
   9.4719356031220288E-003  0.10515572828944518        0.0000000000000000     
   9.7403071343786767E-003  0.11210332011670215        0.0000000000000000     
   9.9942467859091538E-003  0.11918311002641747        0.0000000000000000     
   1.0233754557713465E-002  0.12639509801859122        0.0000000000000000     
   1.0458830449791607E-002  0.13373928409322333        0.0000000000000000     
   4.5320456060828612E-003  0.10507027740874825        0.0000000000000000     
   4.6440965480095990E-003  0.11201671634342440        0.0000000000000000     
   4.7421430983046195E-003  0.11909246090219140        0.0000000000000000     
   4.8261852569679220E-003  0.12629751108504919        0.0000000000000000     
   4.8962230239995080E-003  0.13363186689199785        0.0000000000000000     
  -3.8501470873346594E-004  0.10503370473663706        0.0000000000000000     
  -4.3447350647277854E-004  0.11197526061355617        0.0000000000000000     
  -4.9794008595327281E-004  0.11904356103395698        0.0000000000000000     
  -5.7541444717494400E-004  0.12623860599783948        0.0000000000000000     
  -6.6689659013779642E-004  0.13356039550520368        0.0000000000000000     
   2.1582508736340184E-002  0.13406195593896827        0.0000000000000000     
   2.2085207318252961E-002  0.14155801252969258        0.0000000000000000     
   2.2578468979862907E-002  0.14919592814080454        0.0000000000000000     
   2.3062293721170017E-002  0.15697570277230422        0.0000000000000000     
   2.3536681542174288E-002  0.16489733642419152        0.0000000000000000     
   1.6020925687238501E-002  0.13388264710888012        0.0000000000000000     
   1.6396515496785887E-002  0.14138185761939645        0.0000000000000000     
   1.6791310707098960E-002  0.14904150661153179        0.0000000000000000     
   1.7205311318177718E-002  0.15686159408528624        0.0000000000000000     
   1.7638517330022165E-002  0.16484212004065976        0.0000000000000000     
   1.0458830449791607E-002  0.13373928409322333        0.0000000000000000     
   1.0691668573948513E-002  0.14122981436065885        0.0000000000000000     
   1.0954463041989120E-002  0.14888083493124288        0.0000000000000000     
   1.1247213853913427E-002  0.15669234580497535        0.0000000000000000     
   1.1569921009721429E-002  0.16466434698185634        0.0000000000000000     
   4.8962230239995080E-003  0.13363186689199785        0.0000000000000000     
   4.9706665497408400E-003  0.14110188275347985        0.0000000000000000     
   5.0679259845333785E-003  0.14871391309993773        0.0000000000000000     
   5.1880013283771252E-003  0.15646795793137155        0.0000000000000000     
   5.3308925812720811E-003  0.16436401724778121        0.0000000000000000     
  -6.6689659013779642E-004  0.13356039550520368        0.0000000000000000     
  -7.6649057583713176E-004  0.14099806279785937        0.0000000000000000     
  -8.6830046526825829E-004  0.14854074111761642        0.0000000000000000     
  -9.7232625843117373E-004  0.15618843046447475        0.0000000000000000     
  -1.0785679553258791E-003  0.16394113083843448        0.0000000000000000     
   0.0000000000000000        0.0000000000000000        0.0000000000000000     
  -1.1758742479043910E-006   1.0747072640732481E-003   0.0000000000000000     
  -2.6718376690692430E-006   2.5183146454142409E-003   0.0000000000000000     
  -4.4878902634944476E-006   4.3308221440229791E-003   0.0000000000000000     
  -6.6240320311801405E-006   6.5122297598994607E-003   0.0000000000000000     
   0.0000000000000000        0.0000000000000000        0.0000000000000000     
  -2.1402495485950000E-004   1.0772857697887552E-003   0.0000000000000000     
  -4.2923015632971009E-004   2.5241281209648666E-003   0.0000000000000000     
  -6.4561560441063004E-004   4.3405270535283348E-003   0.0000000000000000     
  -8.6318129910226008E-004   6.5264825674791584E-003   0.0000000000000000     
   0.0000000000000000        0.0000000000000000        0.0000000000000000     
  -4.2509454008160920E-004   1.0843730286655834E-003   0.0000000000000000     
  -8.5470961463498672E-004   2.5400555252126839E-003   0.0000000000000000     
  -1.2888452236601323E-003   4.3670474896413021E-003   0.0000000000000000     
  -1.7275013671570465E-003   6.5653489219514383E-003   0.0000000000000000     
   0.0000000000000000        0.0000000000000000        0.0000000000000000     
  -6.3438462991423188E-004   1.0959690407037316E-003   0.0000000000000000     
  -1.2791102125848993E-003   2.5660968581576915E-003   0.0000000000000000     
  -1.9341767480120021E-003   4.4103834523618810E-003   0.0000000000000000     
  -2.5995842361955391E-003   6.6288288233162978E-003   0.0000000000000000     
   0.0000000000000000        0.0000000000000000        0.0000000000000000     
  -8.4189522435736846E-004   1.1120738059032008E-003   0.0000000000000000     
  -1.7024319501794476E-003   2.6022521197998907E-003   0.0000000000000000     
  -2.5816101774662377E-003   4.4705349416900696E-003   0.0000000000000000     
  -3.4794299062177385E-003   6.7169222715737385E-003   0.0000000000000000     
  -6.6240320311801405E-006   6.5122297598994607E-003   0.0000000000000000     
  -9.1746682144705765E-006   9.0351681688792904E-003   0.0000000000000000     
  -1.2234204055710370E-005   1.1872268046798067E-002   0.0000000000000000     
  -1.5802639554899426E-005   1.5023529393655793E-002   0.0000000000000000     
  -1.9879974712037961E-005   1.8488952209452465E-002   0.0000000000000000     
  -8.6318129910226008E-004   6.5264825674791584E-003   0.0000000000000000     
  -1.0832906420292004E-003   9.0538943205009468E-003   0.0000000000000000     
  -1.3073070348160502E-003   1.1894661970277302E-002   0.0000000000000000     
  -1.5352304774628109E-003   1.5048785516808228E-002   0.0000000000000000     
  -1.7670609699694808E-003   1.8516264960093721E-002   0.0000000000000000     
  -1.7275013671570465E-003   6.5653489219514383E-003   0.0000000000000000     
  -2.1710842086820493E-003   9.1049675485818781E-003   0.0000000000000000     
  -2.6199999117914609E-003   1.1955911095971414E-002   0.0000000000000000     
  -3.0742484764852821E-003   1.5118179564120047E-002   0.0000000000000000     
  -3.5338299027635116E-003   1.8591772953027767E-002   0.0000000000000000     
  -2.5995842361955391E-003   6.6288288233162978E-003   0.0000000000000000     
  -3.2725553681730176E-003   9.1883878531220896E-003   0.0000000000000000     
  -3.9503128349819413E-003   1.2056015423880406E-002   0.0000000000000000     
  -4.6328566366223125E-003   1.5231711535591243E-002   0.0000000000000000     
  -5.3201867730941297E-003   1.8715476188254605E-002   0.0000000000000000     
  -3.4794299062177385E-003   6.7169222715737385E-003   0.0000000000000000     
  -4.3877041205021049E-003   9.3041552341215777E-003   0.0000000000000000     
  -5.2982458043874942E-003   1.2194974954004272E-002   0.0000000000000000     
  -6.2110549578739049E-003   1.5389381431221823E-002   0.0000000000000000     
  -7.1261315809613372E-003   1.8887374665774229E-002   0.0000000000000000     
  -1.9879974712037961E-005   1.8488952209452465E-002   0.0000000000000000     
  -2.5039438812853216E-005   2.2239604499472126E-002   0.0000000000000000     
  -3.1854261143072793E-005   2.6246554268998815E-002   0.0000000000000000     
  -4.0324441702696536E-005   3.0509801518032533E-002   0.0000000000000000     
  -5.0449980491724857E-005   3.5029346246573272E-002   0.0000000000000000     
  -1.7670609699694808E-003   1.8516264960093721E-002   0.0000000000000000     
  -1.9994100161194088E-003   2.2268892339928979E-002   0.0000000000000000     
  -2.2288891196959428E-003   2.6278459696109192E-002   0.0000000000000000     
  -2.4554982806990829E-003   3.0544967028634351E-002   0.0000000000000000     
  -2.6792374991288291E-003   3.5068414337504475E-002   0.0000000000000000     
  -3.5338299027635116E-003   1.8591772953027767E-002   0.0000000000000000     
  -3.9927457686534801E-003   2.2349292984884153E-002   0.0000000000000000     
  -4.4449976521825250E-003   2.6363341381878767E-002   0.0000000000000000     
  -4.8905855533506373E-003   3.0633918144011601E-002   0.0000000000000000     
  -5.3295094721578255E-003   3.5161023271282663E-002   0.0000000000000000     
  -5.3201867730941297E-003   1.8715476188254605E-002   0.0000000000000000     
  -6.0050466964150732E-003   2.2480806434337648E-002   0.0000000000000000     
  -6.6801798586028143E-003   2.6501199326307536E-002   0.0000000000000000     
  -7.3455862596573628E-003   3.0776654864164261E-002   0.0000000000000000     
  -8.0012658995787106E-003   3.5307173047907835E-002   0.0000000000000000     
  -7.1261315809613372E-003   1.8887374665774229E-002   0.0000000000000000     
  -8.0363127994041786E-003   2.2663432688289461E-002   0.0000000000000000     
  -8.9344357389568169E-003   2.6692033529395504E-002   0.0000000000000000     
  -9.8205003996192537E-003   3.0973177189092347E-002   0.0000000000000000     
  -1.0694506781391489E-002   3.5506863667379998E-002   0.0000000000000000     
  -5.0449980491724857E-005   3.5029346246573272E-002   0.0000000000000000     
  -6.3912298373364923E-005   3.9782969082961230E-002   0.0000000000000000     
  -8.2392816210826391E-005   4.4748450655536565E-002   0.0000000000000000     
  -1.0589153400410674E-004   4.9925790964299284E-002   0.0000000000000000     
  -1.3440845175320833E-004   5.5314990009249415E-002   0.0000000000000000     
  -2.6792374991288291E-003   3.5068414337504475E-002   0.0000000000000000     
  -2.9031728259275992E-003   3.9824725878408004E-002   0.0000000000000000     
  -3.1303703120378109E-003   4.4789825907033419E-002   0.0000000000000000     
  -3.3608299574594638E-003   4.9963714423380698E-002   0.0000000000000000     
  -3.5945517621925574E-003   5.5346391427449848E-002   0.0000000000000000     
  -5.3295094721578255E-003   3.5161023271282663E-002   0.0000000000000000     
  -5.7640993199201823E-003   3.9920029414793827E-002   0.0000000000000000     
  -6.1966850079538090E-003   4.4886309225646980E-002   0.0000000000000000     
  -6.6272665362587099E-003   5.0059862703842092E-002   0.0000000000000000     
  -7.0558439048348763E-003   5.5440689849379200E-002   0.0000000000000000     
  -8.0012658995787106E-003   3.5307173047907835E-002   0.0000000000000000     
  -8.6466917803511151E-003   4.0068879692118690E-002   0.0000000000000000     
  -9.2813369039588239E-003   4.5037900611377246E-002   0.0000000000000000     
  -9.9052012704018422E-003   5.0214235805683495E-002   0.0000000000000000     
  -1.0518284879680165E-002   5.5597885275037472E-002   0.0000000000000000     
  -1.0694506781391489E-002   3.5506863667379998E-002   0.0000000000000000     
  -1.1550950207220396E-002   4.0271276710382574E-002   0.0000000000000000     
  -1.2384326000052853E-002   4.5244600064224212E-002   0.0000000000000000     
  -1.3194634159888863E-002   5.0426833728904906E-002   0.0000000000000000     
  -1.3981874686728421E-002   5.5817977704424655E-002   0.0000000000000000     
  -1.3440845175320833E-004   5.5314990009249415E-002   0.0000000000000000     
  -1.6479510500774222E-004   6.0903605204754727E-002   0.0000000000000000     
  -1.9390302931732270E-004   6.6679193965183070E-002   0.0000000000000000     
  -2.2173222468195060E-004   7.2641756290534418E-002   0.0000000000000000     
  -2.4828269110162434E-004   7.8791292180808770E-002   0.0000000000000000     
  -3.5945517621925574E-003   5.5346391427449848E-002   0.0000000000000000     
  -3.8251542735901587E-003   6.0928529905629102E-002   0.0000000000000000     
  -4.0462560390053318E-003   6.6700802844306697E-002   0.0000000000000000     
  -4.2578570584380759E-003   7.2663210243482629E-002   0.0000000000000000     
  -4.4599573318883905E-003   7.8815752103156889E-002   0.0000000000000000     
  -7.0558439048348763E-003   5.5440689849379200E-002   0.0000000000000000     
  -7.4753475330040699E-003   6.1020980709407979E-002   0.0000000000000000     
  -7.8787078400880377E-003   6.6792925331078112E-002   0.0000000000000000     
  -8.2659248260867919E-003   7.2756523714389593E-002   0.0000000000000000     
  -8.6369984910003202E-003   7.8911775859342476E-002   0.0000000000000000     
  -1.0518284879680165E-002   5.5597885275037472E-002   0.0000000000000000     
  -1.1115374883249474E-002   6.1180957616091339E-002   0.0000000000000000     
  -1.1691258432565452E-002   6.6955561425497301E-002   0.0000000000000000     
  -1.2245935527628097E-002   7.2921696703255365E-002   0.0000000000000000     
  -1.2779406168437412E-002   7.9079363449365503E-002   0.0000000000000000     
  -1.3981874686728421E-002   5.5817977704424655E-002   0.0000000000000000     
  -1.4745236324326371E-002   6.1408460625679201E-002   0.0000000000000000     
  -1.5483907816437562E-002   6.7188711127564277E-002   0.0000000000000000     
  -1.6197889163061994E-002   7.3158729210079862E-002   0.0000000000000000     
  -1.6887180364199662E-002   7.9318514873225984E-002   0.0000000000000000     
  -2.4828269110162434E-004   7.8791292180808770E-002   0.0000000000000000     
  -2.7626176866401187E-004   8.5113709970099927E-002   0.0000000000000000     
  -3.0837679745678107E-004   9.1594917992501690E-002   0.0000000000000000     
  -3.4462777747993299E-004   9.8234916248014059E-002   0.0000000000000000     
  -3.8501470873346594E-004  0.10503370473663706        0.0000000000000000     
  -4.4599573318883905E-003   7.8815752103156889E-002   0.0000000000000000     
  -4.6574615227794542E-003   8.5141594140347776E-002   0.0000000000000000     
  -4.8552742945344408E-003   9.1623902072073632E-002   0.0000000000000000     
  -5.0533956471533496E-003   9.8262675898334373E-002   0.0000000000000000     
  -5.2518255806361797E-003  0.10505791561913005        0.0000000000000000     
  -8.6369984910003202E-003   7.8911775859342476E-002   0.0000000000000000     
  -8.9969980416493948E-003   8.5240275100104096E-002   0.0000000000000000     
  -9.3509926848547881E-003   9.1723614770841844E-002   0.0000000000000000     
  -9.6989824206164931E-003   9.8361794871555761E-002   0.0000000000000000     
  -1.0040967248934513E-002  0.10515481540224579        0.0000000000000000     
  -1.2779406168437412E-002   7.9079363449365503E-002   0.0000000000000000     
  -1.3294871325273839E-002   8.5409752849368817E-002   0.0000000000000000     
  -1.3795531968417821E-002   9.1894056088806395E-002   0.0000000000000000     
  -1.4281388097869363E-002   9.8532273167678180E-002   0.0000000000000000     
  -1.4752439713628463E-002  0.10532440408598423        0.0000000000000000     
  -1.6887180364199662E-002   7.9318514873225984E-002   0.0000000000000000     
  -1.7551081373652778E-002   8.5650027388141994E-002   0.0000000000000000     
  -1.8188892145223547E-002   9.2135226025967215E-002   0.0000000000000000     
  -1.8800612678911963E-002   9.8774110786701674E-002   0.0000000000000000     
  -1.9386242974718030E-002  0.10556668167034539        0.0000000000000000     
  -3.8501470873346594E-004  0.10503370473663706        0.0000000000000000     
  -4.3447350647277854E-004  0.11197526061355617        0.0000000000000000     
  -4.9794008595327281E-004  0.11904356103395698        0.0000000000000000     
  -5.7541444717494400E-004  0.12623860599783948        0.0000000000000000     
  -6.6689659013779642E-004  0.13356039550520368        0.0000000000000000     
  -5.2518255806361797E-003  0.10505791561913005        0.0000000000000000     
  -5.4563291143081821E-003  0.11199436075937039        0.0000000000000000     
  -5.6726712674946009E-003  0.11905675084396504        0.0000000000000000     
  -5.9008520401954388E-003  0.12624508587291403        0.0000000000000000     
  -6.1408714324106949E-003  0.13355936584621739        0.0000000000000000     
  -1.0040967248934513E-002  0.10515481540224579        0.0000000000000000     
  -1.0382396360736339E-002  0.11208942461313998        0.0000000000000000     
  -1.0728718946949458E-002  0.11915237075446633        0.0000000000000000     
  -1.1079935007573873E-002  0.12634365382622487        0.0000000000000000     
  -1.1436044542609585E-002  0.13366327382841550        0.0000000000000000     
  -1.4752439713628463E-002  0.10532440408598423        0.0000000000000000     
  -1.5212675245757248E-002  0.11226045217486497        0.0000000000000000     
  -1.5666083124317842E-002  0.11933042076546087        0.0000000000000000     
  -1.6112663349310243E-002  0.12653430985777189        0.0000000000000000     
  -1.6552415920734458E-002  0.13387211945179806        0.0000000000000000     
  -1.9386242974718030E-002  0.10556668167034539        0.0000000000000000     
  -1.9947165769370910E-002  0.11250744344454534        0.0000000000000000     
  -2.0484763799599751E-002  0.11959090087694861        0.0000000000000000     
  -2.0999037065404548E-002  0.12681705396755516        0.0000000000000000     
  -2.1489985566785313E-002  0.13418590271636499        0.0000000000000000     
  -6.6689659013779642E-004  0.13356039550520368        0.0000000000000000     
  -7.6649057583713176E-004  0.14099806279785937        0.0000000000000000     
  -8.6830046526825829E-004  0.14854074111761642        0.0000000000000000     
  -9.7232625843117373E-004  0.15618843046447475        0.0000000000000000     
  -1.0785679553258791E-003  0.16394113083843448        0.0000000000000000     
  -6.1408714324106949E-003  0.13355936584621739        0.0000000000000000     
  -6.3998735297571691E-003  0.14097152902568499        0.0000000000000000     
  -6.6850024178516567E-003  0.14845351367312684        0.0000000000000000     
  -6.9962580966941640E-003  0.15600531978854290        0.0000000000000000     
  -7.3336405662846830E-003  0.16362694737193312        0.0000000000000000     
  -1.1436044542609585E-002  0.13366327382841550        0.0000000000000000     
  -1.1809553038991037E-002  0.14107545596884424        0.0000000000000000     
  -1.2212965983652685E-002  0.14854442545531699        0.0000000000000000     
  -1.2646283376594528E-002  0.15607018228783365        0.0000000000000000     
  -1.3109505217816564E-002  0.16365272646639434        0.0000000000000000     
  -1.6552415920734458E-002  0.13387211945179806        0.0000000000000000     
  -1.6995529103538735E-002  0.14130984362733712        0.0000000000000000     
  -1.7452191162671337E-002  0.14881347646418677        0.0000000000000000     
  -1.7922402098132267E-002  0.15638301796234710        0.0000000000000000     
  -1.8406161909921521E-002  0.16401846812181806        0.0000000000000000     
  -2.1489985566785313E-002  0.13418590271636499        0.0000000000000000     
  -2.1957801723400262E-002  0.14167469200116356        0.0000000000000000     
  -2.2402677954907618E-002  0.14926066669973631        0.0000000000000000     
  -2.2824614261307379E-002  0.15694382681208324        0.0000000000000000     
  -2.3223610642599549E-002  0.16472417233820430        0.0000000000000000     
   0.0000000000000000        0.0000000000000000        0.0000000000000000     
  -8.4189522435736846E-004   1.1120738059032008E-003   0.0000000000000000     
  -1.7024319501794476E-003   2.6022521197998907E-003   0.0000000000000000     
  -2.5816101774662377E-003   4.4705349416900696E-003   0.0000000000000000     
  -3.4794299062177385E-003   6.7169222715737385E-003   0.0000000000000000     
   0.0000000000000000        0.0000000000000000        0.0000000000000000     
  -1.0565980341959212E-003   1.1362288558885551E-003   0.0000000000000000     
  -2.1393570647739247E-003   2.6543813547704183E-003   0.0000000000000000     
  -3.2482770917340118E-003   4.5544574966455897E-003   0.0000000000000000     
  -4.3833581150761799E-003   6.8364572815140679E-003   0.0000000000000000     
   0.0000000000000000        0.0000000000000000        0.0000000000000000     
  -1.2874647702147933E-003   1.1719757222843586E-003   0.0000000000000000     
  -2.6045677937236245E-003   2.7283446077004114E-003   0.0000000000000000     
  -3.9513090705264944E-003   4.6691066562481575E-003   0.0000000000000000     
  -5.3276886006234005E-003   6.9942618679275986E-003   0.0000000000000000     
   0.0000000000000000        0.0000000000000000        0.0000000000000000     
  -1.5344954324139845E-003   1.2193144050906119E-003   0.0000000000000000     
  -3.0980641370285458E-003   2.8241418785898706E-003   0.0000000000000000     
  -4.6907061138436847E-003   4.8144824204977756E-003   0.0000000000000000     
  -6.3124213628594017E-003   7.1903360308143288E-003   0.0000000000000000     
   0.0000000000000000        0.0000000000000000        0.0000000000000000     
  -1.7976900207934948E-003   1.2782449043073144E-003   0.0000000000000000     
  -3.6198460946886895E-003   2.9417731674387954E-003   0.0000000000000000     
  -5.4664682216855852E-003   4.9905847893944441E-003   0.0000000000000000     
  -7.3375564017841809E-003   7.4246797701742594E-003   0.0000000000000000     
  -3.4794299062177385E-003   6.7169222715737385E-003   0.0000000000000000     
  -4.3877041205021049E-003   9.3041552341215777E-003   0.0000000000000000     
  -5.2982458043874942E-003   1.2194974954004272E-002   0.0000000000000000     
  -6.2110549578739049E-003   1.5389381431221823E-002   0.0000000000000000     
  -7.1261315809613372E-003   1.8887374665774229E-002   0.0000000000000000     
  -4.3833581150761799E-003   6.8364572815140679E-003   0.0000000000000000     
  -5.5315445192067733E-003   9.4585918602083738E-003   0.0000000000000000     
  -6.6797806885321321E-003   1.2379072383561018E-002   0.0000000000000000     
  -7.8280666230522572E-003   1.5597898851572005E-002   0.0000000000000000     
  -8.9764023227671477E-003   1.9115071264241328E-002   0.0000000000000000     
  -5.3276886006234005E-003   6.9942618679275986E-003   0.0000000000000000     
  -6.7190906178244813E-003   9.6580199000105022E-003   0.0000000000000000     
  -8.1108993559398726E-003   1.2614590409768634E-002   0.0000000000000000     
  -9.5031148149695710E-003   1.5863973397201997E-002   0.0000000000000000     
  -1.0895736994913582E-002   1.9406168862310589E-002   0.0000000000000000     
  -6.3124213628594017E-003   7.1903360308143288E-003   0.0000000000000000     
  -7.9503424163552324E-003   9.9024393535279663E-003   0.0000000000000000     
  -9.5916018066107157E-003   1.2901529032627127E-002   0.0000000000000000     
  -1.1236199533625851E-002   1.6187605068111812E-002   0.0000000000000000     
  -1.2884135597400637E-002   1.9760667459982017E-002   0.0000000000000000     
  -7.3375564017841809E-003   7.4246797701742594E-003   0.0000000000000000     
  -9.2252999147990223E-003   1.0191850220760766E-002   0.0000000000000000     
  -1.1121888040544658E-002   1.3239888252136496E-002   0.0000000000000000     
  -1.3027320779021089E-002   1.6568793864301441E-002   0.0000000000000000     
  -1.4941598130228311E-002   2.0178567057255604E-002   0.0000000000000000     
  -7.1261315809613372E-003   1.8887374665774229E-002   0.0000000000000000     
  -8.0363127994041786E-003   2.2663432688289461E-002   0.0000000000000000     
  -8.9344357389568169E-003   2.6692033529395504E-002   0.0000000000000000     
  -9.8205003996192537E-003   3.0973177189092347E-002   0.0000000000000000     
  -1.0694506781391489E-002   3.5506863667379998E-002   0.0000000000000000     
  -8.9764023227671477E-003   1.9115071264241328E-002   0.0000000000000000     
  -1.0117042641947122E-002   2.2905603620061540E-002   0.0000000000000000     
  -1.1242242434862489E-002   2.6944509917525162E-002   0.0000000000000000     
  -1.2352001701513252E-002   3.1231790156632210E-002   0.0000000000000000     
  -1.3446320441899412E-002   3.5767444337382680E-002   0.0000000000000000     
  -1.0895736994913582E-002   1.9406168862310589E-002   0.0000000000000000     
  -1.2277734788370215E-002   2.3215751102975801E-002   0.0000000000000000     
  -1.3638077087937782E-002   2.7267294417079008E-002   0.0000000000000000     
  -1.4976763893616291E-002   3.1560798804620205E-002   0.0000000000000000     
  -1.6293795205405737E-002   3.6096264265599420E-002   0.0000000000000000     
  -1.2884135597400637E-002   1.9760667459982017E-002   0.0000000000000000     
  -1.4518389238673459E-002   2.3593875137032257E-002   0.0000000000000000     
  -1.6121939698182704E-002   2.7660387028057034E-002   0.0000000000000000     
  -1.7694786975928377E-002   3.1960203133056350E-002   0.0000000000000000     
  -1.9236931071910466E-002   3.6493323452030213E-002   0.0000000000000000     
  -1.4941598130228311E-002   2.0178567057255604E-002   0.0000000000000000     
  -1.6839005992856856E-002   2.4039975722230902E-002   0.0000000000000000     
  -1.8693830265597254E-002   2.8123787750459241E-002   0.0000000000000000     
  -2.0506070948449497E-002   3.2430003141940639E-002   0.0000000000000000     
  -2.2275728041413596E-002   3.6958621896675072E-002   0.0000000000000000     
  -1.0694506781391489E-002   3.5506863667379998E-002   0.0000000000000000     
  -1.1550950207220396E-002   4.0271276710382574E-002   0.0000000000000000     
  -1.2384326000052853E-002   4.5244600064224212E-002   0.0000000000000000     
  -1.3194634159888863E-002   5.0426833728904906E-002   0.0000000000000000     
  -1.3981874686728421E-002   5.5817977704424655E-002   0.0000000000000000     
  -1.3446320441899412E-002   3.5767444337382680E-002   0.0000000000000000     
  -1.4515262480300117E-002   4.0532690808668503E-002   0.0000000000000000     
  -1.5548891640994517E-002   4.5508747919381642E-002   0.0000000000000000     
  -1.6547207923982614E-002   5.0695615669522090E-002   0.0000000000000000     
  -1.7510211329264405E-002   5.6093294059089846E-002   0.0000000000000000     
  -1.6293795205405737E-002   3.6096264265599420E-002   0.0000000000000000     
  -1.7578016479362368E-002   4.0858592326059484E-002   0.0000000000000000     
  -1.8818273171542436E-002   4.5832684512043288E-002   0.0000000000000000     
  -2.0014565281945937E-002   5.1018540823550826E-002   0.0000000000000000     
  -2.1166892810572876E-002   5.6416161260582104E-002   0.0000000000000000     
  -1.9236931071910466E-002   3.6493323452030213E-002   0.0000000000000000     
  -2.0739212204407151E-002   4.1248981262555523E-002   0.0000000000000000     
  -2.2192470591696614E-002   4.6216409842209143E-002   0.0000000000000000     
  -2.3596706233778835E-002   5.1395609190991121E-002   0.0000000000000000     
  -2.4951919130653838E-002   5.6786579308901429E-002   0.0000000000000000     
  -2.2275728041413596E-002   3.6958621896675072E-002   0.0000000000000000     
  -2.3998849655434466E-002   4.1703857618156585E-002   0.0000000000000000     
  -2.5671483901457039E-002   4.6659923909879227E-002   0.0000000000000000     
  -2.7293630779481316E-002   5.1826820771842974E-002   0.0000000000000000     
  -2.8865290289507291E-002   5.7204548204047821E-002   0.0000000000000000     
  -1.3981874686728421E-002   5.5817977704424655E-002   0.0000000000000000     
  -1.4745236324326371E-002   6.1408460625679201E-002   0.0000000000000000     
  -1.5483907816437562E-002   6.7188711127564277E-002   0.0000000000000000     
  -1.6197889163061994E-002   7.3158729210079862E-002   0.0000000000000000     
  -1.6887180364199662E-002   7.9318514873225984E-002   0.0000000000000000     
  -1.7510211329264405E-002   5.6093294059089846E-002   0.0000000000000000     
  -1.8441388850050183E-002   6.1690053758094478E-002   0.0000000000000000     
  -1.9344227479550235E-002   6.7474165436545608E-002   0.0000000000000000     
  -2.0218727217764566E-002   7.3445629094443216E-002   0.0000000000000000     
  -2.1064888064693178E-002   7.9604444731787294E-002   0.0000000000000000     
  -2.1166892810572876E-002   5.6416161260582104E-002   0.0000000000000000     
  -2.2280289454236313E-002   6.2012301033260123E-002   0.0000000000000000     
  -2.3359788909749320E-002   6.7793715351707903E-002   0.0000000000000000     
  -2.4405391177111904E-002   7.3760404215925460E-002   0.0000000000000000     
  -2.5417096256324049E-002   7.9912367625912806E-002   0.0000000000000000     
  -2.4951919130653838E-002   5.6786579308901429E-002   0.0000000000000000     
  -2.6261938136884776E-002   6.2375202451176094E-002   0.0000000000000000     
  -2.7530592107034828E-002   6.8147360873051149E-002   0.0000000000000000     
  -2.8757881041103994E-002   7.4103054574526608E-002   0.0000000000000000     
  -2.9943804939092281E-002   8.0242283555602506E-002   0.0000000000000000     
  -2.8865290289507291E-002   5.7204548204047821E-002   0.0000000000000000     
  -3.0386334897995564E-002   6.2778758011842420E-002   0.0000000000000000     
  -3.1856637071406756E-002   6.8535102000575387E-002   0.0000000000000000     
  -3.3276196809740852E-002   7.4473580170246717E-002   0.0000000000000000     
  -3.4645014112997877E-002   8.0594192520856409E-002   0.0000000000000000     
  -1.6887180364199662E-002   7.9318514873225984E-002   0.0000000000000000     
  -1.7551081373652778E-002   8.5650027388141994E-002   0.0000000000000000     
  -1.8188892145223547E-002   9.2135226025967215E-002   0.0000000000000000     
  -1.8800612678911963E-002   9.8774110786701674E-002   0.0000000000000000     
  -1.9386242974718030E-002  0.10556668167034539        0.0000000000000000     
  -2.1064888064693178E-002   7.9604444731787294E-002   0.0000000000000000     
  -2.1878221962204028E-002   8.5933891394703421E-002   0.0000000000000000     
  -2.2654240852165091E-002   9.2417248129317231E-002   0.0000000000000000     
  -2.3392944734576364E-002   9.9054514935628682E-002   0.0000000000000000     
  -2.4094333609437843E-002  0.10584569181363780        0.0000000000000000     
  -2.5417096256324049E-002   7.9912367625912806E-002   0.0000000000000000     
  -2.6388886866345402E-002   8.6234137547333028E-002   0.0000000000000000     
  -2.7314745726135597E-002   9.2710245945849312E-002   0.0000000000000000     
  -2.8194672835694639E-002   9.9340692821461643E-002   0.0000000000000000     
  -2.9028668195022519E-002  0.10612547817417001        0.0000000000000000     
  -2.9943804939092281E-002   8.0242283555602506E-002   0.0000000000000000     
  -3.1083076086076897E-002   8.6550765846030761E-002   0.0000000000000000     
  -3.2170406767135062E-002   9.3014219475563431E-002   0.0000000000000000     
  -3.3205796982266785E-002   9.9632644444200516E-002   0.0000000000000000     
  -3.4189246731472070E-002  0.10640604075194202        0.0000000000000000     
  -3.4645014112997877E-002   8.0594192520856409E-002   0.0000000000000000     
  -3.5960789621398516E-002   8.6883776290796647E-002   0.0000000000000000     
  -3.7221223975163489E-002   9.3329168718459629E-002   0.0000000000000000     
  -3.8426317174292811E-002   9.9930369803845370E-002   0.0000000000000000     
  -3.9576069218786473E-002  0.10668737954695381        0.0000000000000000     
  -1.9386242974718030E-002  0.10556668167034539        0.0000000000000000     
  -1.9947165769370910E-002  0.11250744344454534        0.0000000000000000     
  -2.0484763799599751E-002  0.11959090087694861        0.0000000000000000     
  -2.0999037065404548E-002  0.12681705396755516        0.0000000000000000     
  -2.1489985566785313E-002  0.13418590271636499        0.0000000000000000     
  -2.4094333609437843E-002  0.10584569181363780        0.0000000000000000     
  -2.4757534686485012E-002  0.11278923773893407        0.0000000000000000     
  -2.5381675175453353E-002  0.11988361168710700        0.0000000000000000     
  -2.5966755076342857E-002  0.12712881365815665        0.0000000000000000     
  -2.6512774389153528E-002  0.13452484365208295        0.0000000000000000     
  -2.9028668195022519E-002  0.10612547817417001        0.0000000000000000     
  -2.9815448752007246E-002  0.11306467437478408        0.0000000000000000     
  -3.0553731454536819E-002  0.12015835379411351        0.0000000000000000     
  -3.1243516302611230E-002  0.12740651643215833        0.0000000000000000     
  -3.1884803296230481E-002  0.13480916228891848        0.0000000000000000     
  -3.4189246731472070E-002  0.10640604075194202        0.0000000000000000     
  -3.5120907965937607E-002  0.11333375335209538        0.0000000000000000     
  -3.6000932636850148E-002  0.12041512719796811        0.0000000000000000     
  -3.6829320744209665E-002  0.12765016228956022        0.0000000000000000     
  -3.7606072288016171E-002  0.13503885862687165        0.0000000000000000     
  -3.9576069218786473E-002  0.10668737954695381        0.0000000000000000     
  -4.0673912328276107E-002  0.11359647467086799        0.0000000000000000     
  -4.1723278722393335E-002  0.12065393189867081        0.0000000000000000     
  -4.2724168401138171E-002  0.12785975123036228        0.0000000000000000     
  -4.3676581364510601E-002  0.13521393266594237        0.0000000000000000     
  -2.1489985566785313E-002  0.13418590271636499        0.0000000000000000     
  -2.1957801723400262E-002  0.14167469200116356        0.0000000000000000     
  -2.2402677954907618E-002  0.14926066669973631        0.0000000000000000     
  -2.2824614261307379E-002  0.15694382681208324        0.0000000000000000     
  -2.3223610642599549E-002  0.16472417233820430        0.0000000000000000     
  -2.6512774389153528E-002  0.13452484365208295        0.0000000000000000     
  -2.7009872177527129E-002  0.14206011236900926        0.0000000000000000     
  -2.7448187505105408E-002  0.14972303050905891        0.0000000000000000     
  -2.7827720371888368E-002  0.15751359807223189        0.0000000000000000     
  -2.8148470777876002E-002  0.16543181505852822        0.0000000000000000     
  -3.1884803296230481E-002  0.13480916228891848        0.0000000000000000     
  -3.2465241744870844E-002  0.14235621600955978        0.0000000000000000     
  -3.2972480958008595E-002  0.15003760223924795        0.0000000000000000     
  -3.3406520935643717E-002  0.15785332097798302        0.0000000000000000     
  -3.3767361677776220E-002  0.16580337222576494        0.0000000000000000     
  -3.7606072288016171E-002  0.13503885862687165        0.0000000000000000     
  -3.8323910425431429E-002  0.14256300292281515        0.0000000000000000     
  -3.8975558313617188E-002  0.15020438189030347        0.0000000000000000     
  -3.9561015952573442E-002  0.15796299552933657        0.0000000000000000     
  -4.0080283342300196E-002  0.16583884383991446        0.0000000000000000     
  -4.3676581364510601E-002  0.13521393266594237        0.0000000000000000     
  -4.4585878219208869E-002  0.14268047310877532        0.0000000000000000     
  -4.5457419571931168E-002  0.15022336946222539        0.0000000000000000     
  -4.6291205422677534E-002  0.15784262172629257        0.0000000000000000     
  -4.7087235771447938E-002  0.16553822990097677        0.0000000000000000     
   0.0000000000000000        0.0000000000000000        0.0000000000000000     
  -1.7976900207934948E-003   1.2782449043073144E-003   0.0000000000000000     
  -3.6198460946886895E-003   2.9417731674387954E-003   0.0000000000000000     
  -5.4664682216855852E-003   4.9905847893944441E-003   0.0000000000000000     
  -7.3375564017841809E-003   7.4246797701742594E-003   0.0000000000000000     
   0.0000000000000000        0.0000000000000000        0.0000000000000000     
  -2.0687616393969734E-003   1.3559719437799128E-003   0.0000000000000000     
  -4.1625167580385944E-003   3.0959011571725890E-003   0.0000000000000000     
  -6.2812653559248637E-003   5.2197876401780287E-003   0.0000000000000000     
  -8.4250074330557787E-003   7.7276313927962317E-003   0.0000000000000000     
   0.0000000000000000        0.0000000000000000        0.0000000000000000     
  -2.3394233922680694E-003   1.4597002473538527E-003   0.0000000000000000     
  -4.7186792184127991E-003   3.3011885307166521E-003   0.0000000000000000     
  -7.1377674784341870E-003   5.5244648500883979E-003   0.0000000000000000     
  -9.5966881723322343E-003   8.1295292054690896E-003   0.0000000000000000     
   0.0000000000000000        0.0000000000000000        0.0000000000000000     
  -2.6096752794067834E-003   1.5894298150291350E-003   0.0000000000000000     
  -5.2883334758113019E-003   3.5576352880709854E-003   0.0000000000000000     
  -8.0359745892135577E-003   5.9046164191255525E-003   0.0000000000000000     
  -1.0852598619613548E-002   8.6303732081928330E-003   0.0000000000000000     
   0.0000000000000000        0.0000000000000000        0.0000000000000000     
  -2.8795173008131143E-003   1.7451606468057593E-003   0.0000000000000000     
  -5.8714795302341055E-003   3.8652414292355899E-003   0.0000000000000000     
  -8.9758866882629768E-003   6.3602423472894900E-003   0.0000000000000000     
  -1.2192738774899722E-002   9.2301634009674637E-003   0.0000000000000000     
  -7.3375564017841809E-003   7.4246797701742594E-003   0.0000000000000000     
  -9.2252999147990223E-003   1.0191850220760766E-002   0.0000000000000000     
  -1.1121888040544658E-002   1.3239888252136496E-002   0.0000000000000000     
  -1.3027320779021089E-002   1.6568793864301441E-002   0.0000000000000000     
  -1.4941598130228311E-002   2.0178567057255604E-002   0.0000000000000000     
  -8.4250074330557787E-003   7.7276313927962317E-003   0.0000000000000000     
  -1.0585344583450410E-002   1.0562095324247116E-002   0.0000000000000000     
  -1.2753878401127827E-002   1.3665842343750600E-002   0.0000000000000000     
  -1.4930608886088029E-002   1.7038872451306683E-002   0.0000000000000000     
  -1.7115536038331016E-002   2.0681185646915363E-002   0.0000000000000000     
  -9.5966881723322343E-003   8.1295292054690896E-003   0.0000000000000000     
  -1.2071857892603951E-002   1.1049017486525226E-002   0.0000000000000000     
  -1.4539693231746344E-002   1.4215565582923308E-002   0.0000000000000000     
  -1.7000194189759413E-002   1.7629173494663333E-002   0.0000000000000000     
  -1.9453360766643155E-002   2.1289841221745296E-002   0.0000000000000000     
  -1.0852598619613548E-002   8.6303732081928330E-003   0.0000000000000000     
  -1.3684839842259641E-002   1.1652616707595098E-002   0.0000000000000000     
  -1.6479332532400200E-002   1.4889057969654621E-002   0.0000000000000000     
  -1.9236076690035235E-002   1.8339696994371393E-002   0.0000000000000000     
  -2.1955072315164727E-002   2.2004533781745415E-002   0.0000000000000000     
  -1.2192738774899722E-002   9.2301634009674637E-003   0.0000000000000000     
  -1.5424290432417487E-002   1.2372892987456736E-002   0.0000000000000000     
  -1.8572796303089410E-002   1.5686319503944533E-002   0.0000000000000000     
  -2.1638256386915494E-002   1.9170442950430862E-002   0.0000000000000000     
  -2.4620670683895736E-002   2.2825263326915719E-002   0.0000000000000000     
  -1.4941598130228311E-002   2.0178567057255604E-002   0.0000000000000000     
  -1.6839005992856856E-002   2.4039975722230902E-002   0.0000000000000000     
  -1.8693830265597254E-002   2.8123787750459241E-002   0.0000000000000000     
  -2.0506070948449497E-002   3.2430003141940639E-002   0.0000000000000000     
  -2.2275728041413596E-002   3.6958621896675072E-002   0.0000000000000000     
  -1.7115536038331016E-002   2.0681185646915363E-002   0.0000000000000000     
  -1.9277300872957967E-002   2.4564639170578776E-002   0.0000000000000000     
  -2.1384544405070070E-002   2.8661090262299054E-002   0.0000000000000000     
  -2.3437266634667320E-002   3.2970538922076194E-002   0.0000000000000000     
  -2.5435467561749719E-002   3.7492985149910195E-002   0.0000000000000000     
  -1.9453360766643155E-002   2.1289841221745296E-002   0.0000000000000000     
  -2.1870989701014358E-002   2.5178451794082912E-002   0.0000000000000000     
  -2.4224877731489809E-002   2.9275888241589870E-002   0.0000000000000000     
  -2.6515024858069499E-002   3.3582150564266160E-002   0.0000000000000000     
  -2.8741431080753436E-002   3.8097238762111803E-002   0.0000000000000000     
  -2.1955072315164727E-002   2.2004533781745415E-002   0.0000000000000000     
  -2.4620072477026023E-002   2.5881413592743312E-002   0.0000000000000000     
  -2.7214830244856464E-002   2.9968181688331683E-002   0.0000000000000000     
  -2.9739345618656026E-002   3.4264838068510543E-002   0.0000000000000000     
  -3.2193618598424734E-002   3.8771382733279874E-002   0.0000000000000000     
  -2.4620670683895736E-002   2.2825263326915719E-002   0.0000000000000000     
  -2.7524549200992971E-002   2.6673524566559977E-002   0.0000000000000000     
  -3.0354401945170032E-002   3.0737970602524513E-002   0.0000000000000000     
  -3.3110228916426919E-002   3.5018601434809331E-002   0.0000000000000000     
  -3.5792030114763632E-002   3.9515417063414424E-002   0.0000000000000000     
  -2.2275728041413596E-002   3.6958621896675072E-002   0.0000000000000000     
  -2.3998849655434466E-002   4.1703857618156585E-002   0.0000000000000000     
  -2.5671483901457039E-002   4.6659923909879227E-002   0.0000000000000000     
  -2.7293630779481316E-002   5.1826820771842974E-002   0.0000000000000000     
  -2.8865290289507291E-002   5.7204548204047821E-002   0.0000000000000000     
  -2.5435467561749719E-002   3.7492985149910195E-002   0.0000000000000000     
  -2.7380586398108000E-002   4.2226432708628171E-002   0.0000000000000000     
  -2.9274062355532881E-002   4.7168885361057206E-002   0.0000000000000000     
  -3.1115895434024359E-002   5.2320343107197312E-002   0.0000000000000000     
  -3.2906085633582445E-002   5.7680805947048483E-002   0.0000000000000000     
  -2.8741431080753436E-002   3.8097238762111803E-002   0.0000000000000000     
  -3.0908079998091424E-002   4.2819917849735704E-002   0.0000000000000000     
  -3.3018955208633266E-002   4.7748952841746808E-002   0.0000000000000000     
  -3.5074056712378961E-002   5.2884343738145101E-002   0.0000000000000000     
  -3.7073384509328518E-002   5.8226090538930582E-002   0.0000000000000000     
  -3.2193618598424734E-002   3.8771382733279874E-002   0.0000000000000000     
  -3.4581330455384744E-002   4.3484313041479199E-002   0.0000000000000000     
  -3.6906162460758202E-002   4.8400126351948007E-002   0.0000000000000000     
  -3.9168114614545127E-002   5.3518822664686320E-002   0.0000000000000000     
  -4.1367186916745492E-002   5.8840401979694111E-002   0.0000000000000000     
  -3.5792030114763632E-002   3.9515417063414424E-002   0.0000000000000000     
  -3.8400337769987962E-002   4.4219618283858640E-002   0.0000000000000000     
  -4.0935684111907705E-002   4.9122405891660829E-002   0.0000000000000000     
  -4.3398069140522855E-002   5.4223779886820977E-002   0.0000000000000000     
  -4.5787492855833417E-002   5.9523740269339084E-002   0.0000000000000000     
  -2.8865290289507291E-002   5.7204548204047821E-002   0.0000000000000000     
  -3.0386334897995564E-002   6.2778758011842420E-002   0.0000000000000000     
  -3.1856637071406756E-002   6.8535102000575387E-002   0.0000000000000000     
  -3.3276196809740852E-002   7.4473580170246717E-002   0.0000000000000000     
  -3.4645014112997877E-002   8.0594192520856409E-002   0.0000000000000000     
  -3.2906085633582445E-002   5.7680805947048483E-002   0.0000000000000000     
  -3.4640460885579226E-002   6.3236342038862484E-002   0.0000000000000000     
  -3.6314849121386814E-002   6.8973019540891078E-002   0.0000000000000000     
  -3.7929250341005201E-002   7.4890838453134254E-002   0.0000000000000000     
  -3.9483664544434388E-002   8.0989798775592023E-002   0.0000000000000000     
  -3.7073384509328518E-002   5.8226090538930582E-002   0.0000000000000000     
  -3.9011297247646300E-002   6.3761328855839655E-002   0.0000000000000000     
  -4.0882153575496703E-002   6.9477194300608738E-002   0.0000000000000000     
  -4.2685953492879750E-002   7.5373686873237797E-002   0.0000000000000000     
  -4.4422696999795404E-002   8.1450806573726858E-002   0.0000000000000000     
  -4.1367186916745492E-002   5.8840401979694111E-002   0.0000000000000000     
  -4.3498843984196796E-002   6.4353718462773948E-002   0.0000000000000000     
  -4.5558550433736460E-002   7.0047626279728367E-002   0.0000000000000000     
  -4.7546306265364491E-002   7.5922125430557361E-002   0.0000000000000000     
  -4.9462111479080903E-002   8.1977215915260943E-002   0.0000000000000000     
  -4.5787492855833417E-002   5.9523740269339084E-002   0.0000000000000000     
  -4.8103101095230701E-002   6.5013510859665363E-002   0.0000000000000000     
  -5.0344039696106048E-002   7.0684315478249979E-002   0.0000000000000000     
  -5.2510308658459452E-002   7.6536154125092931E-002   0.0000000000000000     
  -5.4601907982290906E-002   8.2569026800194234E-002   0.0000000000000000     
  -3.4645014112997877E-002   8.0594192520856409E-002   0.0000000000000000     
  -3.5960789621398516E-002   8.6883776290796647E-002   0.0000000000000000     
  -3.7221223975163489E-002   9.3329168718459629E-002   0.0000000000000000     
  -3.8426317174292811E-002   9.9930369803845370E-002   0.0000000000000000     
  -3.9576069218786473E-002  0.10668737954695381        0.0000000000000000     
  -3.9483664544434388E-002   8.0989798775592023E-002   0.0000000000000000     
  -4.0979027810529631E-002   8.7257628489630826E-002   0.0000000000000000     
  -4.2416276218146205E-002   9.3682055576617129E-002   0.0000000000000000     
  -4.3795409767284098E-002  0.10026308003655096        0.0000000000000000     
  -4.5116428457943322E-002  0.10700070186943224        0.0000000000000000     
  -4.4422696999795404E-002   8.1450806573726858E-002   0.0000000000000000     
  -4.6094790991689671E-002   8.7696782050533481E-002   0.0000000000000000     
  -4.7704642364008551E-002   9.4099841952115237E-002   0.0000000000000000     
  -4.9252251116752056E-002  0.10065998627847210        0.0000000000000000     
  -5.0737617249920167E-002  0.10737721502960410        0.0000000000000000     
  -4.9462111479080903E-002   8.1977215915260943E-002   0.0000000000000000     
  -5.1308079164878610E-002   8.8201236973504613E-002   0.0000000000000000     
  -5.3086322412750520E-002   9.4582527844953912E-002   0.0000000000000000     
  -5.4796841222696673E-002  0.10112108852960881        0.0000000000000000     
  -5.6439635594717007E-002  0.10781691902746934        0.0000000000000000     
  -5.4601907982290906E-002   8.2569026800194234E-002   0.0000000000000000     
  -5.6618892330096454E-002   8.8770993258544206E-002   0.0000000000000000     
  -5.8561316364372132E-002   9.5130113255133153E-002   0.0000000000000000     
  -6.0429180085117939E-002  0.10164638678996109        0.0000000000000000     
  -6.2222483492333863E-002  0.10831981386302800        0.0000000000000000     
  -3.9576069218786473E-002  0.10668737954695381        0.0000000000000000     
  -4.0673912328276107E-002  0.11359647467086799        0.0000000000000000     
  -4.1723278722393335E-002  0.12065393189867081        0.0000000000000000     
  -4.2724168401138171E-002  0.12785975123036228        0.0000000000000000     
  -4.3676581364510601E-002  0.13521393266594237        0.0000000000000000     
  -4.5116428457943322E-002  0.10700070186943224        0.0000000000000000     
  -4.6386196056094647E-002  0.11388751845299613        0.0000000000000000     
  -4.7611576327708897E-002  0.12091612716497775        0.0000000000000000     
  -4.8792569272786031E-002  0.12808652800537706        0.0000000000000000     
  -4.9929174891326089E-002  0.13539872097419409        0.0000000000000000     
  -5.0737617249920167E-002  0.10737721502960410        0.0000000000000000     
  -5.2169493366465161E-002  0.11424156482037412        0.0000000000000000     
  -5.3556632069339291E-002  0.12124307226564512        0.0000000000000000     
  -5.4899033358542557E-002  0.12838173736541714        0.0000000000000000     
  -5.6196697234074965E-002  0.13565756011969010        0.0000000000000000     
  -5.6439635594717007E-002  0.10781691902746934        0.0000000000000000     
  -5.8023804259387614E-002  0.11465861377300192        0.0000000000000000     
  -5.9558445947284530E-002  0.12163476720067296        0.0000000000000000     
  -6.1043560658407721E-002  0.12874537931048247        0.0000000000000000     
  -6.2479148392757235E-002  0.13599045010243049        0.0000000000000000     
  -6.2222483492333863E-002  0.10831981386302800        0.0000000000000000     
  -6.3949128734862054E-002  0.11513866531087949        0.0000000000000000     
  -6.5617017961544608E-002  0.12209121197006120        0.0000000000000000     
  -6.7226151172381551E-002  0.12917745384057308        0.0000000000000000     
  -6.8776528367372872E-002  0.13639739092241518        0.0000000000000000     
  -4.3676581364510601E-002  0.13521393266594237        0.0000000000000000     
  -4.4585878219208869E-002  0.14268047310877532        0.0000000000000000     
  -4.5457419571931168E-002  0.15022336946222539        0.0000000000000000     
  -4.6291205422677534E-002  0.15784262172629257        0.0000000000000000     
  -4.7087235771447938E-002  0.16553822990097677        0.0000000000000000     
  -4.9929174891326089E-002  0.13539872097419409        0.0000000000000000     
  -5.1039293302407883E-002  0.14279959602597236        0.0000000000000000     
  -5.2140824625110230E-002  0.15023604311525557        0.0000000000000000     
  -5.3233768859433137E-002  0.15770806224204367        0.0000000000000000     
  -5.4318126005376603E-002  0.16521565340633665        0.0000000000000000     
  -5.6196697234074965E-002  0.13565756011969010        0.0000000000000000     
  -5.7472303851233225E-002  0.14301134113293820        0.0000000000000000     
  -5.8748533365314035E-002  0.15038388100963573        0.0000000000000000     
  -6.0025385776317407E-002  0.15777517974978253        0.0000000000000000     
  -6.1302861084243328E-002  0.16518523735337870        0.0000000000000000     
  -6.2479148392757235E-002  0.13599045010243049        0.0000000000000000     
  -6.3884909865684888E-002  0.14331570842967295        0.0000000000000000     
  -6.5280545792542610E-002  0.15066688314536583        0.0000000000000000     
  -6.6666056173330365E-002  0.15804397424950922        0.0000000000000000     
  -6.8041441008048126E-002  0.16544698174210298        0.0000000000000000     
  -6.8776528367372872E-002  0.13639739092241518        0.0000000000000000     
  -7.0277111345762894E-002  0.14371269791617644        0.0000000000000000     
  -7.1736861906795915E-002  0.15108504952244592        0.0000000000000000     
  -7.3155780050471950E-002  0.15851444574122361        0.0000000000000000     
  -7.4533865776790983E-002  0.16600088657250950        0.0000000000000000     
   0.0000000000000000        0.0000000000000000        0.0000000000000000     
  -2.8795173008131143E-003   1.7451606468057593E-003   0.0000000000000000     
  -5.8714795302341055E-003   3.8652414292355899E-003   0.0000000000000000     
  -8.9758866882629768E-003   6.3602423472894900E-003   0.0000000000000000     
  -1.2192738774899722E-002   9.2301634009674637E-003   0.0000000000000000     
   0.0000000000000000        0.0000000000000000        0.0000000000000000     
  -3.2827554629333588E-003   1.9995434839057487E-003   0.0000000000000000     
  -6.6760192772969988E-003   4.3312993979435369E-003   0.0000000000000000     
  -1.0179791443090922E-002   6.9952677421133650E-003   0.0000000000000000     
  -1.3794071960315124E-002   9.9914485164152335E-003   0.0000000000000000     
   0.0000000000000000        0.0000000000000000        0.0000000000000000     
  -3.9531957722138125E-003   2.4252290675511280E-003   0.0000000000000000     
  -7.9098546126157715E-003   5.0631016379279036E-003   0.0000000000000000     
  -1.1869976521205874E-002   7.9136177111303278E-003   0.0000000000000000     
  -1.5833561497984122E-002   1.0976777287158398E-002   0.0000000000000000     
   0.0000000000000000        0.0000000000000000        0.0000000000000000     
  -4.8908382286544753E-003   3.0222173977418974E-003   0.0000000000000000     
  -9.5729855361904211E-003   6.0606481491886884E-003   0.0000000000000000     
  -1.4046441922607837E-002   9.1152922543403774E-003   0.0000000000000000     
  -1.8311207387906724E-002   1.2186149713196958E-002   0.0000000000000000     
   0.0000000000000000        0.0000000000000000        0.0000000000000000     
  -6.0956828322553478E-003   3.7905084744780547E-003   0.0000000000000000     
  -1.1665412048020952E-002   7.3239389317258929E-003   0.0000000000000000     
  -1.6709187647296807E-002   1.0600291371743512E-002   0.0000000000000000     
  -2.1227009630082921E-002   1.3619565794530913E-002   0.0000000000000000     
  -1.2192738774899722E-002   9.2301634009674637E-003   0.0000000000000000     
  -1.5424290432417487E-002   1.2372892987456736E-002   0.0000000000000000     
  -1.8572796303089410E-002   1.5686319503944533E-002   0.0000000000000000     
  -2.1638256386915494E-002   1.9170442950430862E-002   0.0000000000000000     
  -2.4620670683895736E-002   2.2825263326915719E-002   0.0000000000000000     
  -1.3794071960315124E-002   9.9914485164152335E-003   0.0000000000000000     
  -1.7401779978317669E-002   1.3221829104847326E-002   0.0000000000000000     
  -2.0885834646446614E-002   1.6588396891407828E-002   0.0000000000000000     
  -2.4246235964701948E-002   2.0091151876096738E-002   0.0000000000000000     
  -2.7482983933083693E-002   2.3730094058914061E-002   0.0000000000000000     
  -1.5833561497984122E-002   1.0976777287158398E-002   0.0000000000000000     
  -1.9728878795200366E-002   1.4211407838504064E-002   0.0000000000000000     
  -2.3484197665104446E-002   1.7576336837659277E-002   0.0000000000000000     
  -2.7099518107696362E-002   2.1071564284624027E-002   0.0000000000000000     
  -3.0574840122976114E-002   2.4697090179398310E-002   0.0000000000000000     
  -1.8311207387906724E-002   1.2186149713196958E-002   0.0000000000000000     
  -2.2405586883065577E-002   1.5341629188426952E-002   0.0000000000000000     
  -2.6367885359062912E-002   1.8650139342698865E-002   0.0000000000000000     
  -3.0198102815898718E-002   2.2111680176012709E-002   0.0000000000000000     
  -3.3896239253572998E-002   2.5726251688368482E-002   0.0000000000000000     
  -2.1227009630082921E-002   1.3619565794530913E-002   0.0000000000000000     
  -2.5431904241913314E-002   1.6612493154615986E-002   0.0000000000000000     
  -2.9536897728322020E-002   1.9809804406526618E-002   0.0000000000000000     
  -3.3541990089309019E-002   2.3211499550262808E-002   0.0000000000000000     
  -3.7447181324874346E-002   2.6817578585824557E-002   0.0000000000000000     
  -2.4620670683895736E-002   2.2825263326915719E-002   0.0000000000000000     
  -2.7524549200992971E-002   2.6673524566559977E-002   0.0000000000000000     
  -3.0354401945170032E-002   3.0737970602524513E-002   0.0000000000000000     
  -3.3110228916426919E-002   3.5018601434809331E-002   0.0000000000000000     
  -3.5792030114763632E-002   3.9515417063414424E-002   0.0000000000000000     
  -2.7482983933083693E-002   2.3730094058914061E-002   0.0000000000000000     
  -3.0619440938926767E-002   2.7547899297529106E-002   0.0000000000000000     
  -3.3678969369566103E-002   3.1587243449611162E-002   0.0000000000000000     
  -3.6661569225001717E-002   3.5848126515160263E-002   0.0000000000000000     
  -3.9567240505233581E-002   4.0330548494176381E-002   0.0000000000000000     
  -3.0574840122976114E-002   2.4697090179398310E-002   0.0000000000000000     
  -3.3939768756838989E-002   2.8497652367646883E-002   0.0000000000000000     
  -3.7223909055180263E-002   3.2517988695034479E-002   0.0000000000000000     
  -4.0427261017999962E-002   3.6758099161561072E-002   0.0000000000000000     
  -4.3549824645298052E-002   4.1217983767226671E-002   0.0000000000000000     
  -3.3896239253572998E-002   2.5726251688368482E-002   0.0000000000000000     
  -3.7485532654729641E-002   2.9522783776913333E-002   0.0000000000000000     
  -4.0989221002012514E-002   3.3530206338794423E-002   0.0000000000000000     
  -4.4407304295421661E-002   3.7748519374011739E-002   0.0000000000000000     
  -4.7739782534957052E-002   4.2177722882565306E-002   0.0000000000000000     
  -3.7447181324874346E-002   2.6817578585824557E-002   0.0000000000000000     
  -4.1256732632598714E-002   3.0623293525328433E-002   0.0000000000000000     
  -4.4974905210062865E-002   3.4623896380891014E-002   0.0000000000000000     
  -4.8601699057266828E-002   3.8819387152512298E-002   0.0000000000000000     
  -5.2137114174210575E-002   4.3209765840192281E-002   0.0000000000000000     
  -3.5792030114763632E-002   3.9515417063414424E-002   0.0000000000000000     
  -3.8400337769987962E-002   4.4219618283858640E-002   0.0000000000000000     
  -4.0935684111907705E-002   4.9122405891660829E-002   0.0000000000000000     
  -4.3398069140522855E-002   5.4223779886820977E-002   0.0000000000000000     
  -4.5787492855833417E-002   5.9523740269339084E-002   0.0000000000000000     
  -3.9567240505233581E-002   4.0330548494176381E-002   0.0000000000000000     
  -4.2392915525556671E-002   4.5021469533443131E-002   0.0000000000000000     
  -4.5135526601265921E-002   4.9907849779744107E-002   0.0000000000000000     
  -4.7795073732361332E-002   5.4989689233079293E-002   0.0000000000000000     
  -5.0371556918842909E-002   6.0266987893448719E-002   0.0000000000000000     
  -4.3549824645298052E-002   4.1217983767226671E-002   0.0000000000000000     
  -4.6586877305746448E-002   4.5885502746801740E-002   0.0000000000000000     
  -4.9533696368017015E-002   5.0748516335056684E-002   0.0000000000000000     
  -5.2390281832109760E-002   5.5807024531991517E-002   0.0000000000000000     
  -5.5156633698024676E-002   6.1061027337606225E-002   0.0000000000000000     
  -4.7739782534957052E-002   4.2177722882565306E-002   0.0000000000000000     
  -5.0982223110557300E-002   4.6811717923934466E-002   0.0000000000000000     
  -5.4130193412160993E-002   5.1644405557598576E-002   0.0000000000000000     
  -5.7183693439768112E-002   5.6675785783557621E-002   0.0000000000000000     
  -6.0142723193378697E-002   6.1905858601811595E-002   0.0000000000000000     
  -5.2137114174210575E-002   4.3209765840192281E-002   0.0000000000000000     
  -5.5578952939989212E-002   4.7800115064841317E-002   0.0000000000000000     
  -5.8925017733697828E-002   5.2595517447369761E-002   0.0000000000000000     
  -6.2175308555336421E-002   5.7595972987777605E-002   0.0000000000000000     
  -6.5329825404904993E-002   6.2801481686064864E-002   0.0000000000000000     
  -4.5787492855833417E-002   5.9523740269339084E-002   0.0000000000000000     
  -4.8103101095230701E-002   6.5013510859665363E-002   0.0000000000000000     
  -5.0344039696106048E-002   7.0684315478249979E-002   0.0000000000000000     
  -5.2510308658459452E-002   7.6536154125092931E-002   0.0000000000000000     
  -5.4601907982290906E-002   8.2569026800194234E-002   0.0000000000000000     
  -5.0371556918842909E-002   6.0266987893448719E-002   0.0000000000000000     
  -5.2868015609551330E-002   6.5732661362805464E-002   0.0000000000000000     
  -5.5287489253327271E-002   7.1379625243102637E-002   0.0000000000000000     
  -5.7629977850170717E-002   7.7207879534340260E-002   0.0000000000000000     
  -5.9895481400081677E-002   8.3217424236518261E-002   0.0000000000000000     
  -5.5156633698024676E-002   6.1061027337606225E-002   0.0000000000000000     
  -5.7837534555961995E-002   6.6503125288485856E-002   0.0000000000000000     
  -6.0437766996121904E-002   7.2125918921215462E-002   0.0000000000000000     
  -6.2957331018504412E-002   7.7929408235795028E-002   0.0000000000000000     
  -6.5396226623109496E-002   8.3913593232224526E-002   0.0000000000000000     
  -6.0142723193378697E-002   6.1905858601811595E-002   0.0000000000000000     
  -6.3011657934462659E-002   6.7324902636706555E-002   0.0000000000000000     
  -6.5794872924489947E-002   7.2923196512588426E-002   0.0000000000000000     
  -6.8492368163460479E-002   7.8700740229457250E-002   0.0000000000000000     
  -7.1104143651374380E-002   8.4657533787313041E-002   0.0000000000000000     
  -6.5329825404904993E-002   6.2801481686064864E-002   0.0000000000000000     
  -6.8390385745053378E-002   6.8197993407467516E-002   0.0000000000000000     
  -7.1358807038431393E-002   7.3771458017221528E-002   0.0000000000000000     
  -7.4235089285039038E-002   7.9521875515326967E-002   0.0000000000000000     
  -7.7019232484876299E-002   8.5449245901783766E-002   0.0000000000000000     
  -5.4601907982290906E-002   8.2569026800194234E-002   0.0000000000000000     
  -5.6618892330096454E-002   8.8770993258544206E-002   0.0000000000000000     
  -5.8561316364372132E-002   9.5130113255133153E-002   0.0000000000000000     
  -6.0429180085117939E-002  0.10164638678996109        0.0000000000000000     
  -6.2222483492333863E-002  0.10831981386302800        0.0000000000000000     
  -5.9895481400081677E-002   8.3217424236518261E-002   0.0000000000000000     
  -6.2081480306793786E-002   8.9396198067667770E-002   0.0000000000000000     
  -6.4185454974040657E-002   9.5732139745819705E-002   0.0000000000000000     
  -6.6207405401822308E-002  0.10222524927097415        0.0000000000000000     
  -6.8147331590138721E-002  0.10887552664313105        0.0000000000000000     
  -6.5396226623109496E-002   8.3913593232224526E-002   0.0000000000000000     
  -6.7750092914421176E-002   9.0066998562890688E-002   0.0000000000000000     
  -7.0014568996923432E-002   9.6378148880180273E-002   0.0000000000000000     
  -7.2189654870616210E-002  0.10284704418409318        0.0000000000000000     
  -7.4275350535499579E-002  0.10947368447462949        0.0000000000000000     
  -7.1104143651374380E-002   8.4657533787313041E-002   0.0000000000000000     
  -7.3624730152978657E-002   9.0783394744213125E-002   0.0000000000000000     
  -7.6048658433020416E-002   9.7068140658214841E-002   0.0000000000000000     
  -7.8375928491499686E-002  0.10351177152931824        0.0000000000000000     
  -8.0606540328416437E-002  0.11011428735752327        0.0000000000000000     
  -7.7019232484876299E-002   8.5449245901783766E-002   0.0000000000000000     
  -7.9705392022466182E-002   9.1545386611634916E-002   0.0000000000000000     
  -8.2287723282331651E-002   9.7802115079923424E-002   0.0000000000000000     
  -8.4766226264472680E-002  0.10421943130664925        0.0000000000000000     
  -8.7140900968889295E-002  0.11079733529181240        0.0000000000000000     
  -6.2222483492333863E-002  0.10831981386302800        0.0000000000000000     
  -6.3949128734862054E-002  0.11513866531087949        0.0000000000000000     
  -6.5617017961544608E-002  0.12209121197006120        0.0000000000000000     
  -6.7226151172381551E-002  0.12917745384057308        0.0000000000000000     
  -6.8776528367372872E-002  0.13639739092241518        0.0000000000000000     
  -6.8147331590138721E-002  0.10887552664313105        0.0000000000000000     
  -7.0012022084973383E-002  0.11567112573393001        0.0000000000000000     
  -7.1808265432309767E-002  0.12260020041501059        0.0000000000000000     
  -7.3536061632147889E-002  0.12966275068637276        0.0000000000000000     
  -7.5195410684487748E-002  0.13685877654801654        0.0000000000000000     
  -7.4275350535499579E-002  0.10947368447462949        0.0000000000000000     
  -7.6279039601806542E-002  0.11624540134207656        0.0000000000000000     
  -7.8208105679770226E-002  0.12314952637672184        0.0000000000000000     
  -8.0062548769390604E-002  0.13018605957856530        0.0000000000000000     
  -8.1842368870667662E-002  0.13735500094760694        0.0000000000000000     
  -8.0606540328416437E-002  0.11011428735752327        0.0000000000000000     
  -8.2750181285361574E-002  0.11686149213531911        0.0000000000000000     
  -8.4816538703925984E-002  0.12373918985519491        0.0000000000000000     
  -8.6805612584109682E-002  0.13074738051715062        0.0000000000000000     
  -8.8717402925912639E-002  0.13788606412118637        0.0000000000000000     
  -8.7140900968889295E-002  0.11079733529181240        0.0000000000000000     
  -8.9425447135638436E-002  0.11751939811365768        0.0000000000000000     
  -9.1633564504777026E-002  0.12436919085042983        0.0000000000000000     
  -9.3765253076305122E-002  0.13134671350212887        0.0000000000000000     
  -9.5820512850222653E-002  0.13845196606875482        0.0000000000000000     
  -6.8776528367372872E-002  0.13639739092241518        0.0000000000000000     
  -7.0277111345762894E-002  0.14371269791617644        0.0000000000000000     
  -7.1736861906795915E-002  0.15108504952244592        0.0000000000000000     
  -7.3155780050471950E-002  0.15851444574122361        0.0000000000000000     
  -7.4533865776790983E-002  0.16600088657250950        0.0000000000000000     
  -7.5195410684487748E-002  0.13685877654801654        0.0000000000000000     
  -7.6783052587713937E-002  0.14416754012015634        0.0000000000000000     
  -7.8295727340211049E-002  0.15156830352300657        0.0000000000000000     
  -7.9733434941979126E-002  0.15906106675656717        0.0000000000000000     
  -8.1096175393018138E-002  0.16664582982083828        0.0000000000000000     
  -8.1842368870667662E-002  0.13735500094760694        0.0000000000000000     
  -8.3536877887784716E-002  0.14464546556932015        0.0000000000000000     
  -8.5135387724925113E-002  0.15204656852917831        0.0000000000000000     
  -8.6637898382088796E-002  0.15955830982718139        0.0000000000000000     
  -8.8044409859275807E-002  0.16718068946332934        0.0000000000000000     
  -8.8717402925912639E-002  0.13788606412118637        0.0000000000000000     
  -9.0538587245975286E-002  0.14514647426366789        0.0000000000000000     
  -9.2255843060938078E-002  0.15251984454096115        0.0000000000000000     
  -9.3869170370800961E-002  0.16000617495306610        0.0000000000000000     
  -9.5378569175564004E-002  0.16760546549998276        0.0000000000000000     
  -9.5820512850222653E-002  0.13845196606875482        0.0000000000000000     
  -9.7788180662285618E-002  0.14567056620319960        0.0000000000000000     
  -9.9657093348249945E-002  0.15298813155835508        0.0000000000000000     
 -0.10142725090811563       0.16040466213422139        0.0000000000000000     
 -0.10309865334188270       0.16792015793079842        0.0000000000000000     
 </DataArray>
 <DataArray  type="Float64" Name="stress" NumberOfComponents="3" format="ascii">
   13418070927.646557        4025421278.2939672        2893408017.7463322     
   11768498639.108759        1890307041.7529309        1715380133.7610459     
   10316292345.354210        413079454.48940468        810384155.67409825     
   9061452046.3829174       -406261483.49661016        178420083.48548925     
   8003977742.1948776       -567715772.20511723       -180512082.80478054     
   10541946704.323519        3162584011.2970552        2224862245.4939179     
   9670025922.5496693        1589690574.3228724        1445948525.6811821     
   8946812726.1843281        512489088.71036625        862453105.27310586     
   8372307115.2274857       -69020445.540463924        474375984.26968718     
   7946509089.6791468       -154838028.42962027        281717162.67092842     
   8340235944.7362862        2502070783.4208860        1711210294.4297240     
   8024213508.3158789        1424872197.5904033        1274642594.5189962     
   7808240247.9292240        681170865.20576143        955879587.51924801     
   7692316163.5763206        270966786.26696157        754921273.43047893     
   7676441255.2571716        194259960.77400208        671767652.25268924     
   6812938648.8848629        2043881594.6654587        1352452164.5537500     
   6831061396.4073820        1395851911.5555220        1201462340.2744889     
   6900574910.5889025        919124783.97559190        1090663602.4125268     
   7021479191.4294243        613700211.92566800        1020055950.9678650     
   7193774238.9289513        479578195.40575242        989639385.94050288     
   5960054816.7692461        1788016445.0307739        1148587855.8659966     
   6090569586.8241777        1502629716.2182288        1226407762.9476595     
   6223816714.1633615        1226350845.0198560        1266805149.9529421     
   6359796198.7867966        959179831.43565547        1269780016.8818452     
   6498508040.6944828        701116675.46562743        1235332363.7343678     
   8003977742.1948776       -567715772.20511723       -180512082.80478054     
   7922948690.0035896       -199906593.63291931       -78331354.795419991     
   7800375549.6323528        29422291.006111622       -8955737.1898715869     
   7636258321.0811672        120270881.71198177        27614770.011865783     
   7430597004.3500319        72639178.484684467        31380166.809792131     
   7946509089.6791468       -154838028.42962027        281717162.67092842     
   7744608998.0834942        16530889.411720753        280573975.01323384     
   7519287334.6252861        109827901.04455233        264590543.00157374     
   7270544099.3045292        125053006.46887636        233766866.63594833     
   6998379292.1212196        62206205.684693336        188102945.91635808     
   7676441255.2571716        194259960.77400208        671767652.25268924     
   7404998312.9709997        184587074.49864149        588443484.63156915     
   7128256315.1396723        157250669.73942804        508243938.70632881     
   6846215261.7631865        112250746.49636030        431169014.47697228     
   6558875152.8415480        49587304.769442081        357218711.94349474     
   7193774238.9289513        479578195.40575242        989639385.94050288     
   6904116634.6661053        304261961.62784195        845277174.05958486     
   6627282491.1755047        171690597.09073830        722004449.92439425     
   6363271808.4571400        81864101.794434309        619821213.53493416     
   6112084586.5110216        34782475.738934994        538727464.89120257     
   6498508040.6944828        701116675.46562743        1235332363.7343678     
   6241963963.1688156        375555550.79932547        1051075043.2972838     
   6016365862.7327843        153147683.09848213        905872076.65577328     
   5821713739.3863926        33893072.363097191        799723463.80983818     
   5658007593.1296349        17791718.593172550        732629204.75947797     
   7430597004.3500319        72639178.484684467        31380166.809792131     
   7227474816.7477398       -18664451.820754528        14330597.162760912     
   7036599794.8088236       -69144196.581595898        1898031.7733488730     
   6857971938.5332909       -78800055.797826290       -5917529.3584419051     
   6691591247.9211426       -47632029.469453335       -9116086.2326189466     
   6998379292.1212196        62206205.684693336        188102945.91635808     
   6815809490.3125324        2572385.4544982910        179841317.52864036     
   6641057620.1081171       -31001662.761457920        175463794.70718095     
   6474123681.5079784       -38515938.963171721        174970377.45196715     
   6315007674.5121059       -19970443.150655508        178361065.76301423     
   6558875152.8415480        49587304.769442081        357218711.94349474     
   6394763740.5654287        20995095.736187696        352577585.07946253     
   6234041025.8344679        3698545.1867973804        351087665.09032196     
   6076707008.6486712       -2302346.8787207603        352748951.97606635     
   5922761689.0080338        2992419.5396320820        357561445.73670101     
   6112084586.5110216        34782475.738934994        538727464.89120257     
   5964337567.5064240        36603679.024302483        532539399.81522751     
   5815550011.9878759        34956427.263167858        528769642.92277700     
   5665721919.9553814        29840720.455539942        527418194.21384931     
   5514853291.4089317        21256558.601407766        528485053.68844736     
   5658007593.1296349        17791718.593172550        732629204.75947797     
   5524530971.1355190        49398135.318846703        719726761.73593342     
   5385584578.5683403        62771983.467655897        708509728.20454741     
   5241168415.4281025        57913263.039601326        698978104.16531658     
   5091282481.7148046        34821974.034680128        691131889.61824691     
   6691591247.9211426       -47632029.469453335       -9116086.2326189466     
   6519411732.8711061       -7431673.9335641861       -3050150.5628702454     
   6342087454.2712412        15619469.769564390        3934918.8993432503     
   6159618412.1215487        21521401.639931679        11839122.154022500     
   5972004606.4220247        10274121.677530289        20662459.201159500     
   6315007674.5121059       -19970443.150655508        178361065.76301423     
   6141608987.5838795        1480242.4415495396        174924344.64317033     
   5965133024.2773705        12673340.106132269        173957512.11925632     
   5785579784.5925684        13608849.843075752        175460568.19127953     
   5602949268.5294685        4286771.6523647308        179433512.85923520     
   5922761689.0080338        2992419.5396320820        357561445.73670101     
   5752574558.2115459        7022653.5911450386        347034136.19405407     
   5581377638.2083025        7686923.6201410294        340527470.05081362     
   5409170928.9983063        4985229.6266281605        338041447.30697888     
   5235954430.5815563       -1082428.3893940449        339576067.96254581     
   5514853291.4089317        21256558.601407766        528485053.68844736     
   5352308444.7540960        9195559.5151951313        513279224.08979189     
   5190821296.0640402        660220.31159496307        503644792.69401306     
   5030391845.3387671       -4349459.0093958378        499581759.50111127     
   4871020092.5782824       -5833478.4477634430        501090124.51108623     
   5091282481.7148046        34821974.034680128        691131889.61824691     
   4940810647.2115307        7998960.2137098312        673659608.33037829     
   4793463997.8445816       -8406769.8195128441        663309480.04885721     
   4649242533.6139526       -14395216.064997911        660081504.77368593     
   4508146254.5196447       -9966378.5227470398        663975682.50486290     
   5972004606.4220247        10274121.677530289        20662459.201159500     
   5790412035.2566490       -3291633.8135194778        13008565.579945948     
   5611244549.0330448       -8773772.8319973946        10255366.984301748     
   5434502147.7512074       -6172295.3779246807        12402863.414211527     
   5260184831.4111395        4512798.5487265587        19451054.869699627     
   5602949268.5294685        4286771.6523647308        179433512.85923520     
   5435121946.5762444       -3001158.9829807281        174454075.76228079     
   5268784992.8622169       -5321195.4876570702        173713868.06702182     
   5103938407.3873949       -2673337.8616480827        177212889.77345374     
   4940582190.1517811        4942413.8950393200        184951140.88157848     
   5235954430.5815563       -1082428.3893940449        339576067.96254581     
   5080002456.0579863       -2659504.7038011551        336180584.57018888     
   4924606133.0710545       -2384409.2294104099        336362864.95565301     
   4769765461.6207647       -257141.96622776985        340122909.11894506     
   4615480441.7071114        3722297.0857527256        347460717.06006140     
   4871020092.5782824       -5833478.4477634430        501090124.51108623     
   4725053563.7018833       -2266670.9759736061        498188092.00366467     
   4578707969.6595592        36585.942725896835        498202357.65020037     
   4431983310.4513149        1076292.3083522320        501132921.45068789     
   4284879586.0771365        852448.12088418007        506979783.40513349     
   4508146254.5196447       -9966378.5227470398        663975682.50486290     
   4370275269.5079327       -1822657.7995014191        660476598.06271875     
   4231090502.6277323        1941790.0287728310        659232346.15066206     
   4090591953.8790388        1326964.9620745182        660242926.76869023     
   3948779623.2618589       -3667132.9995818138        663508339.91680098     
   5260184831.4111395        4512798.5487265587        19451054.869699627     
   5064204806.7662811        9959259.1033291817        15950654.006486619     
   4866630584.5111313        10091727.623620033        15306113.093292397     
   4667462164.6456776        4910204.1095716953        17517432.130122725     
   4466699547.1699257       -5585311.4388132095        22584611.116947498     
   4940582190.1517811        4942413.8950393200        184951140.88157848     
   4751902571.3254366        5733066.0293014050        178512812.16669789     
   4562241543.0652390        3252353.3840694427        175908737.61304355     
   4371599105.3712053       -2499724.0406324863        177138917.22061482     
   4179975258.2433114       -11523166.244846582        182203350.98940721     
   4615480441.7071114        3722297.0857527256        347460717.06006140     
   4436896640.7313013        695764.40927600861        338799380.03269982     
   4257944218.4981003       -3559505.7918407917        334950691.37777555     
   4078623175.0074997       -9043513.5176126957        335914651.09529132     
   3898933510.2595062       -15756258.768043518        341691259.18523794     
   4284879586.0771365        852448.12088418007        506979783.40513349     
   4119187014.9838939       -5152645.7567191124        496810357.60449088     
   3953738610.8097048       -10343849.904132128        492431974.38749564     
   3788534373.5545697       -14721164.321363926        493844633.75414199     
   3623574303.2184987       -18284589.008398056        501048335.70443416     
   3948779623.2618589       -3667132.9995818138        663508339.91680098     
   3798773694.0832047       -11812164.468707085        652545744.88207066     
   3649624720.0000591       -17100678.952799320        648352586.64219475     
   3501332701.0124221       -19532676.451874018        650928865.19716597     
   3353897637.1202922       -19108156.965915442        660274580.54699850     
   4466699547.1699257       -5585311.4388132095        22584611.116947498     
   4307345973.4713163       -3733523.9493591785        13960685.699248703     
   4149536876.4410434        3266519.1011977196        12327465.389482090     
   3993272256.0790930        15414817.712844372        17684950.187618192     
   3838552112.3854713        32711371.885576725        30033140.093676224     
   4179975258.2433114       -11523166.244846582        182203350.98940721     
   4037612282.6699800       -5820987.1961250305        176121366.60109097     
   3896196008.6974516        3036863.8552768230        175229816.07215711     
   3755726436.3257422        15050386.909406900        179528699.40260726     
   3616203565.5548372        30219581.966228008        189018016.59245452     
   3898933510.2595062       -15756258.768043518        341691259.18523794     
   3768417500.6727829       -7746777.8016490936        337453811.58085799     
   3638250417.6193504        1425791.6090490818        336606526.58733314     
   3508432261.0992093        11761449.464040995        339149404.20466018     
   3378963031.1123543        23260195.763334751        345082444.43283814     
   3623574303.2184987       -18284589.008398056        501048335.70443416     
   3499761627.4797182       -9510895.7659306526        497958020.63855195     
   3375700103.2067161       -1566697.6375548840        496457596.93499595     
   3251389730.3994727        5548005.3767006397        496547064.59375751     
   3126830509.0580106        11833213.276878119        498226423.61483204     
   3353897637.1202922       -19108156.965915442        660274580.54699850     
   3231644663.0907917       -11113341.088981867        657633993.77418447     
   3108545065.4595518       -5940603.8845287561        654783027.11515033     
   2984598844.2265615       -3589945.3525745869        651721680.56990969     
   2859805999.3918138       -4061365.4931343794        648449954.13845336     
   3838552112.3854713        32711371.885576725        30033140.093676224     
   3632359858.0778270        30149917.077851772        28327680.811097026     
   3421711230.9724579        12733886.277732372        24052748.300073661     
   3206606231.0693579       -19536720.514829159        17208342.560598444     
   2987044858.3685350       -66661903.299810171        7794463.5926816212     
   3616203565.5548372        30219581.966228008        189018016.59245452     
   3407252480.2363553        22598642.788694620        180286250.87119946     
   3196061284.6115255        7510669.2566846609        173169353.99385896     
   2982629978.6803474       -15044338.629850030        167667325.96043873     
   2766958562.4428277       -45066380.870833635        163780166.77093694     
   3378963031.1123543        23260195.763334751        345082444.43283814     
   3179208377.8469353        14166351.135169864        331910011.84618282     
   2979429876.7665453        4993013.7904435396        324536790.17579848     
   2779627527.8711782       -4259816.2708817720        322962779.42170417     
   2579801331.1608377       -13592139.048795342        327187979.58389151     
   3126830509.0580106        11833213.276878119        498226423.61483204     
   2948227550.9095550        4853042.1172549725        483198963.73604560     
   2771817007.4374976        5180919.8789651394        478155056.84589386     
   2597598878.6418467        12816846.561999202        483094702.94439381     
   2425573164.5225964        27760822.166407466        498017902.03153318     
   2859805999.3918138       -4061365.4931343794        648449954.13845336     
   2714309999.4242167       -5341284.2650538683        634153106.54080105     
   2573222676.6243944        8074387.5222831964        634024154.00414968     
   2436544030.9923439        36185649.868859053        648063096.52851081     
   2304274062.5280824        78992502.774715424        676269934.11388314     
   5960054816.7692461        1788016445.0307739        1148587855.8659966     
   6090569586.8241777        1502629716.2182288        1226407762.9476595     
   6223816714.1633615        1226350845.0198560        1266805149.9529421     
   6359796198.7867966        959179831.43565547        1269780016.8818452     
   6498508040.6944828        701116675.46562743        1235332363.7343678     
   5436278289.7879686        1630883486.9363906        1031923915.1948589     
   5491459652.6757231        1372820010.4114573        1112251768.0302413     
   5548849392.0833788        1122117788.9528606        1165748000.2854958     
   5608447508.0109358        878776822.56060016        1192412611.9606230     
   5670254000.4583931        642797111.23467684        1192245603.0556219     
   4896302909.3395605        1468890872.8018680        934766889.36873281     
   4906410577.9065733        1247228562.4184775        1016991377.0660926     
   4918202642.2291374        1031180904.5535872        1082975143.6795764     
   4931679102.3072491        820747899.20719743        1132718189.2091854     
   4946839958.1409130        615929546.37930799        1166220513.6549175     
   4340128675.4240227        1302038602.6272068        857116778.38761866     
   4335422362.5167303        1125855372.2392893        940626590.05521262     
   4331876464.6006346        953540191.82203555        1018486580.1351835     
   4329490981.6757393        785093061.37544680        1090696748.6275308     
   4328265913.7420444        620513980.89952278        1157257095.5322547     
   3767755588.0413547        1130326676.4124064        798973582.25151587     
   3778495006.5061893        1008700439.8738919        883157406.99760187     
   3789870859.1978722        889195650.75820589        972282309.65231693     
   3801883146.1164045        771812309.06534934        1066348290.2156606     
   3814531867.2617846        656550414.79532075        1165355348.6876333     
   6498508040.6944828        701116675.46562743        1235332363.7343678     
   6241963963.1688156        375555550.79932547        1051075043.2972838     
   6016365862.7327843        153147683.09848213        905872076.65577328     
   5821713739.3863926        33893072.363097191        799723463.80983818     
   5658007593.1296349        17791718.593172550        732629204.75947797     
   5670254000.4583931        642797111.23467684        1192245603.0556219     
   5520757632.0587788        383393486.20001793        1071302068.3429558     
   5395404718.7076454        204468044.66031075        978381456.17052948     
   5294195260.4050026        106020786.61555862        913483766.53834224     
   5217129257.1508427        88051712.065756798        876608999.44639468     
   4946839958.1409130        615929546.37930799        1166220513.6549175     
   4872872923.8521090        413227908.47171950        1100654488.9519923     
   4816246822.5706339        268329380.58857727        1052079955.5339719     
   4776961654.2964964        181233962.72988248        1020496913.4008559     
   4755017419.0296917        151941654.89563537        1005905362.5526457     
   4328265913.7420444        620513980.89952278        1157257095.5322547     
   4298309838.5488033        465058817.61443138        1139132305.1243930     
   4278892174.3217478        344731690.88328195        1126967574.7461021     
   4270012921.0608716        259532600.70607209        1120762904.3973815     
   4271672078.7661796        209461547.08280516        1120518294.0782301     
   3814531867.2617846        656550414.79532075        1165355348.6876333     
   3797068376.1488690        538886213.62815344        1186735516.8601594     
   3783340773.9609852        433674975.54442215        1203044313.8069205     
   3773349060.6981316        340916700.54412711        1214281739.5279164     
   3767093236.3603077        260611388.62726736        1220447794.0231490     
   5658007593.1296349        17791718.593172550        732629204.75947797     
   5524530971.1355190        49398135.318846703        719726761.73593342     
   5385584578.5683403        62771983.467655897        708509728.20454741     
   5241168415.4281025        57913263.039601326        698978104.16531658     
   5091282481.7148046        34821974.034680128        691131889.61824691     
   5217129257.1508427        88051712.065756798        876608999.44639468     
   5080761494.5527935        85609185.715805769        852946046.61513329     
   4942217579.7653885        75912818.734670639        833231178.38306487     
   4801497512.7886295        58962611.122354984        817464394.75018942     
   4658601293.6225138        34758562.878857374        805645695.71650684     
   4755017419.0296917        151941654.89563537        1005905362.5526457     
   4622223301.8478088        117389621.27608633        975324454.69465685     
   4490546650.8602753        86562474.971038103        950954306.54289532     
   4359987466.0670948        59460215.980493307        932794918.09736085     
   4230545747.4682622        36082844.304446936        920846289.35805547     
   4271672078.7661796        209461547.08280516        1120518294.0782301     
   4148916393.0205636        144739441.99968982        1086861985.9745038     
   4030571791.8530035        94720952.176757574        1061679112.6840379     
   3916638275.2634959        59406077.614011049        1044969674.2068357     
   3807115843.2520480        38794818.311447382        1036733670.5428952     
   3767093236.3603077        260611388.62726736        1220447794.0231490     
   3660840768.0710578        167658647.88661301        1187558640.4546719     
   3562293002.7435679        100388250.35182762        1165405596.8064914     
   3471449940.3778400        58800196.022911072        1153988663.0786092     
   3388311580.9738698        42894484.899859190        1153307839.2710240     
   5091282481.7148046        34821974.034680128        691131889.61824691     
   4940810647.2115307        7998960.2137098312        673659608.33037829     
   4793463997.8445816       -8406769.8195128441        663309480.04885721     
   4649242533.6139526       -14395216.064997911        660081504.77368593     
   4508146254.5196447       -9966378.5227470398        663975682.50486290     
   4658601293.6225138        34758562.878857374        805645695.71650684     
   4527253942.0956440        14196413.066956520        792464014.37910819     
   4398199603.0700922        1277638.2594594955        785426506.01511586     
   4271438276.5458713       -3997761.5436127186        784533170.62453198     
   4146969962.5229688       -1629786.3422760963        789784008.20735097     
   4230545747.4682622        36082844.304446936        920846289.35805547     
   4115528650.2522435        20943289.901940107        910984339.89696181     
   4001972392.9025521        10673201.720521450        906288583.37633455     
   3889876975.4191875        5272579.7601921558        906759019.79617488     
   3779242397.8021479        4741424.0209505558        912395649.15648222     
   3807115843.2520480        38794818.311447382        1036733670.5428952     
   3705634771.6813393        28239590.718674421        1029220584.8839440     
   3604782367.3419580        19779920.563663244        1025895712.1325152     
   3504558630.2339063        13415807.846419811        1026759052.2886170     
   3404963560.3571844        9147252.5669348240        1031810605.3522403     
   3388311580.9738698        42894484.899859190        1153307839.2710240     
   3297572306.3829246        36085315.517158866        1147172749.3400495     
   3206629526.3883090        28597794.788892031        1144247892.2836609     
   3115483240.9900265        20431922.715066552        1144533268.1018560     
   3024133450.1880760        11587699.295675635        1148028876.7946360     
   4508146254.5196447       -9966378.5227470398        663975682.50486290     
   4370275269.5079327       -1822657.7995014191        660476598.06271875     
   4231090502.6277323        1941790.0287728310        659232346.15066206     
   4090591953.8790388        1326964.9620745182        660242926.76869023     
   3948779623.2618589       -3667132.9995818138        663508339.91680098     
   4146969962.5229688       -1629786.3422760963        789784008.20735097     
   4014783438.0300999        987050.01257634163        783443509.37000191     
   3881994664.3070097        1596388.9333612919        780496274.79438376     
   3748603641.3536997        198230.42006921768        780942304.48049903     
   3614610369.1701694       -3207425.5272870064        784781598.42833960     
   3779242397.8021479        4741424.0209505558        912395649.15648222     
   3655992995.9185433        2807174.6345407963        904043857.33523524     
   3532852877.4429865        1237203.2749578953        900223761.50736833     
   3409822042.3754759        31509.942196846008        900935361.67288113     
   3286900490.7160172       -809905.36372756958        906178657.83176625     
   3404963560.3571844        9147252.5669348240        1031810605.3522403     
   3293903943.1732588        3637716.0663866997        1022277641.9584136     
   3183665142.0356536        864233.05356597900        1018414806.2896137     
   3074247156.9443631        826803.52846217155        1020222098.3458364     
   2965649987.8993888        3525427.4910808802        1027699518.1270853     
   3024133450.1880760        11587699.295675635        1148028876.7946360     
   2928516279.7942524        3478674.3081156015        1138144863.2395442     
   2834431458.0850153        477478.26917648315        1135069409.1411216     
   2741878985.0603633        2584111.1788531542        1138802514.4993701     
   2650858860.7203007        9798573.0371613503        1149344179.3142924     
   3948779623.2618589       -3667132.9995818138        663508339.91680098     
   3798773694.0832047       -11812164.468707085        652545744.88207066     
   3649624720.0000591       -17100678.952799320        648352586.64219475     
   3501332701.0124221       -19532676.451874018        650928865.19716597     
   3353897637.1202922       -19108156.965915442        660274580.54699850     
   3614610369.1701694       -3207425.5272870064        784781598.42833960     
   3482114227.3263502       -6506541.6525871754        776205171.15362561     
   3349994445.0776730       -8551125.7940754890        773210086.10843587     
   3218251022.4241500       -9341177.9517216682        775796343.29276013     
   3086883959.3657703       -8876698.1255520582        783963942.70661294     
   3286900490.7160172       -809905.36372756958        906178657.83176625     
   3168519580.3060718       -281472.91550660133        899427703.56665468     
   3050034433.9909182       -100493.48464882374        897069996.96572769     
   2931445051.7705526       -266967.07117009163        899105538.02899075     
   2812751433.6449747       -780893.67506217957        905534326.75643861     
   2965649987.8993888        3525427.4910808802        1027699518.1270853     
   2857989753.0223746        6863041.7425545454        1022213342.1211504     
   2749744686.7397871        8251217.9754548073        1019932319.2140709     
   2640914789.0516305        7689956.1897822618        1020856449.4058470     
   2531500059.9579000        5179256.3855445385        1024985732.6964741     
   2650858860.7203007        9798573.0371613503        1149344179.3142924     
   2550524745.4752607        14927002.321588993        1144562086.8171189     
   2449125203.3242898        16504008.586256862        1141797052.8534634     
   2346660234.2673864        14529591.831146717        1141049077.4233317     
   2243129838.3045502        9003752.0562621355        1142318160.5267181     
   3353897637.1202922       -19108156.965915442        660274580.54699850     
   3231644663.0907917       -11113341.088981867        657633993.77418447     
   3108545065.4595518       -5940603.8845287561        654783027.11515033     
   2984598844.2265615       -3589945.3525745869        651721680.56990969     
   2859805999.3918138       -4061365.4931343794        648449954.13845336     
   3086883959.3657703       -8876698.1255520582        783963942.70661294     
   2965689148.4137554       -4939998.2020950317        779365709.98576295     
   2844395259.9316850       -1333556.7121564150        776728317.04614782     
   2723002293.9195457        1942626.3442145586        776051763.88776577     
   2601510250.3773456        4888550.9670597315        777336050.51061690     
   2812751433.6449747       -780893.67506217957        905534326.75643861     
   2698818270.5345736        958735.72415387630        899850585.17119455     
   2585533575.9658008        4859926.9287979603        898298903.03462827     
   2472897349.9386482        10922679.938852668        900879280.34674323     
   2360909592.4531274        19146994.754328847        907591717.10753047     
   2531500059.9579000        5179256.3855445385        1024985732.6964741     
   2431032029.4532461        6582860.6897696257        1019088619.3304695     
   2331960013.5619001        12639847.038351893        1019494785.0805900     
   2234284012.2838693        23350215.431322932        1026204229.9468322     
   2138004025.6191499        38713965.868670225        1039216953.9292006     
   2243129838.3045502        9003752.0562621355        1142318160.5267181     
   2162330425.1697655        11932376.694710970        1137079812.4635901     
   2083674572.7199848        22006203.616502285        1140315963.1840267     
   2007162280.9552031        39225232.821623087        1152026612.6880424     
   1932793549.8754203        63589464.310079336        1172211760.9756234     
   2859805999.3918138       -4061365.4931343794        648449954.13845336     
   2714309999.4242167       -5341284.2650538683        634153106.54080105     
   2573222676.6243944        8074387.5222831964        634024154.00414968     
   2436544030.9923439        36185649.868859053        648063096.52851081     
   2304274062.5280824        78992502.774715424        676269934.11388314     
   2601510250.3773456        4888550.9670597315        777336050.51061690     
   2488161253.8232436        12806468.061939478        769969779.08769119     
   2376578859.0029020        26613057.602691412        771041499.26026392     
   2266763065.9163246        46308319.589310169        780551211.02833080     
   2158713874.5635071        71892254.021808028        798498914.39190364     
   2360909592.4531274        19146994.754328847        907591717.10753047     
   2263336446.5539198        31351401.888440609        904073600.51964688     
   2164887826.9544582        40637563.355020761        903263572.06175292     
   2065563733.6547427        47005479.154094219        905161631.73384285     
   1965364166.6547685        50455149.285644770        909767779.53592622     
   2138004025.6191499        38713965.868670225        1039216953.9292006     
   2039835577.6162429        50293517.214429259        1036464570.8366718     
   1938149580.4790683        50147904.779282808        1030690372.4086237     
   1832946034.2076168        38277128.563227534        1021894358.6450497     
   1724224938.8018875        14681188.566242218        1010076529.5459522     
   1932793549.8754203        63589464.310079336        1172211760.9756234     
   1817658647.0102105        69632814.039901257        1167142690.0387616     
   1696364119.5767117        55144081.875425041        1153321900.3008718     
   1568909967.5749266        20123267.816662490        1130749391.7619398     
   1435296191.0048478       -35429628.136408091        1099425164.4219820     
   3767755588.0413547        1130326676.4124064        798973582.25151587     
   3778495006.5061893        1008700439.8738919        883157406.99760187     
   3789870859.1978722        889195650.75820589        972282309.65231693     
   3801883146.1164045        771812309.06534934        1066348290.2156606     
   3814531867.2617846        656550414.79532075        1165355348.6876333     
   3206522719.2764421        961956815.78293264        755220930.48832810     
   3234531403.2190738        868236864.15678740        851562409.95084894     
   3262261787.1865101        773589245.94666231        949806949.96942222     
   3289713871.1787534        678013961.15255809        1049954550.5440480     
   3316887655.1958036        581511009.77447474        1152005211.6747258     
   2683769141.2141709        805130742.36425126        720742452.62595892     
   2720367041.0558085        736713060.77683806        828174396.90253150     
   2755771906.7202096        664318598.59863722        934471384.38258016     
   2789983738.2073741        587947355.82964897        1039633415.0661050     
   2823002535.5173030        507599332.46987313        1143660488.9531052     
   2199494853.8545408        659848456.15636230        695538148.66440797     
   2236001920.0163951        614129029.73404419        812993367.85264993     
   2270401217.7989702        561383708.71413076        926275612.89179111     
   2302692747.2022662        501612493.09662110        1035384883.7818321     
   2332876508.2262845        434815382.88151640        1140321180.5227726     
   1753699857.1975520        526109957.15926558        679608018.60367560     
   1781436040.1008325        500484771.02840567        806019322.80120373     
   1806149720.4227920        464784576.29314208        925219635.49705458     
   1827840898.1634297        419009372.95347446        1037208956.6912289     
   1846509573.3227468        363159161.00940341        1141987286.3837261     
   3814531867.2617846        656550414.79532075        1165355348.6876333     
   3797068376.1488690        538886213.62815344        1186735516.8601594     
   3783340773.9609852        433674975.54442215        1203044313.8069205     
   3773349060.6981316        340916700.54412711        1214281739.5279164     
   3767093236.3603077        260611388.62726736        1220447794.0231490     
   3316887655.1958036        581511009.77447474        1152005211.6747258     
   3291842001.1649117        474489782.71300685        1179949620.7470911     
   3270468639.8988843        379709531.53441429        1204676897.0839238     
   3252767571.3977180        297170256.23869598        1226187040.6852257     
   3238738795.6614161        226871956.82585549        1244480051.5509951     
   2823002535.5173030        507599332.46987313        1143660488.9531052     
   2795672542.8262448        412810426.79144645        1178094943.4051139     
   2771951246.7398806        330050509.79533398        1211166503.6118228     
   2751838647.2582107        259319581.48153722        1242875169.5732334     
   2735334744.3812370        200617641.85005534        1273220941.2893453     
   2332876508.2262845        434815382.88151640        1140321180.5227726     
   2308560001.1328664        353848145.86347306        1181171484.8342271     
   2287788594.4839754        284697910.32718462        1222513133.3906167     
   2270562288.2796087        227364676.27264893        1264346126.1919398     
   2256881082.5197706        181848443.69986951        1306670463.2381966     
   1846509573.3227468        363159161.00940341        1141987286.3837261     
   1830504376.0847778        297602939.92908669        1189179245.0344317     
   1817980683.1311669        243651733.12996364        1238716786.4203050     
   1808938494.4619141        201305540.61203438        1290599910.5413449     
   1803377810.0770197        170564362.37529981        1344828617.3975508     
   3767093236.3603077        260611388.62726736        1220447794.0231490     
   3660840768.0710578        167658647.88661301        1187558640.4546719     
   3562293002.7435679        100388250.35182762        1165405596.8064914     
   3471449940.3778400        58800196.022911072        1153988663.0786092     
   3388311580.9738698        42894484.899859190        1153307839.2710240     
   3238738795.6614161        226871956.82585549        1244480051.5509951     
   3162530047.5371265        152589094.48438454        1226982811.8837476     
   3092321157.4970560        98305759.090304136        1217551582.7925162     
   3028112125.5412016        64021950.643611908        1216186364.2773008     
   2969902951.6695609        49737669.144303560        1222887156.3381014     
   2735334744.3812370        200617641.85005534        1273220941.2893453     
   2681540861.1525364        142716001.32696033        1269126629.8328583     
   2632041991.1305094        99131071.492772579        1270428229.6081064     
   2586838134.3151541        69862852.347489357        1277125740.6150882     
   2545929290.7064705        54911343.891111255        1289219162.8538067     
   2256881082.5197706        181848443.69986951        1306670463.2381966     
   2217873208.9172859        138039368.41433716        1313990094.3020015     
   2181455503.6439285        102864187.55922854        1324035537.2532616     
   2147627966.6996994        76322901.134544969        1336806792.0919750     
   2116390598.0845959        58415509.140284896        1352303858.8181415     
   1803377810.0770197        170564362.37529981        1344828617.3975508     
   1771527090.8313749        138559195.74651492        1361573205.2911799     
   1740561695.0373135        109505107.28967541        1378373505.7279813     
   1710481622.6948347        83402097.004778266        1395229518.7079556     
   1681286873.8039377        60250164.891822398        1412141244.2311044     
   3388311580.9738698        42894484.899859190        1153307839.2710240     
   3297572306.3829246        36085315.517158866        1147172749.3400495     
   3206629526.3883090        28597794.788892031        1144247892.2836609     
   3115483240.9900265        20431922.715066552        1144533268.1018560     
   3024133450.1880760        11587699.295675635        1148028876.7946360     
   2969902951.6695609        49737669.144303560        1222887156.3381014     
   2886830233.6046839        37643077.699703813        1215245034.6958239     
   2804119472.8265862        26755010.544371843        1211509744.1363752     
   2721770669.3352690        17073467.678308725        1211681284.6597550     
   2639783823.1307330        8598449.1015139818        1215759656.2659616     
   2545929290.7064705        54911343.891111255        1289219162.8538067     
   2472513409.7626419        38128414.563107371        1280729715.9724169     
   2400024948.7960448        24436885.159206152        1276843698.3820994     
   2328463907.8066750        13836755.679397821        1277561110.0828557     
   2257830286.7945371        6328026.1236945391        1282881951.0746818     
   2116390598.0845959        58415509.140284896        1352303858.8181415     
   2054621834.8568010        37541326.107371569        1343626793.1698291     
   1994345954.2966852        21643418.633391738        1340249755.0208337     
   1935562956.4042473        10721786.718336225        1342172744.3711538     
   1878272841.1794913        4776430.3622177839        1349395761.2207918     
   1681286873.8039377        60250164.891822398        1412141244.2311044     
   1633155508.8871582        35881812.332495630        1403936266.2880623     
   1587082489.3285093        18374610.966935396        1401727914.0525780     
   1543067815.1279862        7728560.7951304317        1405516187.5246556     
   1501111486.2855933        3943661.8170920014        1415301086.7042940     
   3024133450.1880760        11587699.295675635        1148028876.7946360     
   2928516279.7942524        3478674.3081156015        1138144863.2395442     
   2834431458.0850153        477478.26917648315        1135069409.1411216     
   2741878985.0603633        2584111.1788531542        1138802514.4993701     
   2650858860.7203007        9798573.0371613503        1149344179.3142924     
   2639783823.1307330        8598449.1015139818        1215759656.2659616     
   2561194488.4816065        2947504.9499899149        1207548148.1114249     
   2483433188.3865690        56675.978760957718        1205059166.2647436     
   2406499922.8456202       -74037.812172889709        1208292710.7259142     
   2330394691.8587604        2555363.5771903992        1217248781.4949455     
   2257830286.7945371        6328026.1236945391        1282881951.0746818     
   2193165836.0363531        2204277.2520850897        1275521248.5017824     
   2128625105.7017584       -1507070.2075606585        1272797039.0879261     
   2064208095.7907555       -4806016.2552356720        1274709322.8331096     
   1999914806.3033402       -7692560.8909460306        1281258099.7373362     
   1878272841.1794913        4776430.3622177839        1349395761.2207918     
   1824430322.4584916        1248991.2143987417        1342064164.4106183     
   1770007210.0305812       -4213760.2897905111        1338283027.6106710     
   1715003503.8957651       -11611824.150336027        1338052350.8209519     
   1659419204.0540392       -20945200.367245793        1341372134.0414596     
   1501111486.2855933        3943661.8170920014        1415301086.7042940     
   1454987947.7480202        81646.836924493313        1407176895.8379328     
   1407579501.3730388       -8063394.2679365277        1401517131.8329794     
   1358886147.1606541       -20491461.497476041        1398321794.6894403     
   1308907885.1108620       -37202554.851705253        1397590884.4073138     
   2650858860.7203007        9798573.0371613503        1149344179.3142924     
   2550524745.4752607        14927002.321588993        1144562086.8171189     
   2449125203.3242898        16504008.586256862        1141797052.8534634     
   2346660234.2673864        14529591.831146717        1141049077.4233317     
   2243129838.3045502        9003752.0562621355        1142318160.5267181     
   2330394691.8587604        2555363.5771903992        1217248781.4949455     
   2234658509.1282516        55961.787789821625        1208780673.5829291     
   2138595708.7739928       -3532165.4141125679        1203592647.0117643     
   2042206290.7959800       -8209018.0285271406        1201684701.7814522     
   1945490255.1942134       -13974596.055454373        1203056837.8919849     
   1999914806.3033402       -7692560.8909460306        1281258099.7373362     
   1912385192.6797366       -16737202.776458740        1269965920.5730178     
   1825267770.7145586       -24407872.467223048        1263216845.5568821     
   1738562540.4078074       -30704569.963227749        1261010874.6889267     
   1652269501.7594795       -35627295.264491916        1263348007.9691513     
   1659419204.0540392       -20945200.367245793        1341372134.0414596     
   1583704796.1297147       -35452491.371158898        1328117827.7873797     
   1509141389.1459906       -46123112.573067129        1320669648.4888153     
   1435728983.1028731       -52957063.972958565        1319027596.1457586     
   1363467578.0003555       -55954345.570843935        1323191670.7582114     
   1308907885.1108620       -37202554.851705253        1397590884.4073138     
   1248617319.4781818       -56089903.996318936        1383236395.2260182     
   1190216564.0682824       -68677885.731663227        1375951055.8075669     
   1133705618.8811693       -74966500.057715893        1375734866.1519523     
   1079084483.9168339       -74955746.974518597        1382587826.2591758     
   2243129838.3045502        9003752.0562621355        1142318160.5267181     
   2162330425.1697655        11932376.694710970        1137079812.4635901     
   2083674572.7199848        22006203.616502285        1140315963.1840267     
   2007162280.9552031        39225232.821623087        1152026612.6880424     
   1932793549.8754203        63589464.310079336        1172211760.9756234     
   1945490255.1942134       -13974596.055454373        1203056837.8919849     
   1885328004.7913251       -7724124.9694794416        1200289411.9903939     
   1826184622.7066307        1922573.8438025713        1204155647.9188030     
   1768060108.9401300        14965500.384393334        1214655545.6772075     
   1710954463.4918213        31404654.652303040        1231789105.2656081     
   1652269501.7594795       -35627295.264491916        1263348007.9691513     
   1607484879.9354246       -27632837.976920485        1261739363.1344905     
   1562594434.0627580       -19991127.518053353        1264923543.1762595     
   1517598164.1414769       -12702163.887903810        1272900548.0944505     
   1472496070.1715846       -5765947.0864545107        1285670377.8890729     
   1363467578.0003555       -55954345.570843935        1323191670.7582114     
   1328801050.6020701       -47793762.327589750        1321429665.8958805     
   1292904006.7883620       -43734900.469072580        1322619648.9563980     
   1255776446.5592411       -43777759.995270789        1326761619.9397743     
   1217418369.9146976       -47922340.906205416        1333855578.8460038     
   1079084483.9168339       -74955746.974518597        1382587826.2591758     
   1049276516.7912548       -68206898.021502376        1379360320.2745597     
   1017113340.8834518       -69308745.009231985        1377243965.2592247     
   982594956.19342065       -78261287.937726200        1376238761.2131724     
   945721362.72116566       -95064526.806959927        1376344708.1364014     
   1932793549.8754203        63589464.310079336        1172211760.9756234     
   1817658647.0102105        69632814.039901257        1167142690.0387616     
   1696364119.5767117        55144081.875425041        1153321900.3008718     
   1568909967.5749266        20123267.816662490        1130749391.7619398     
   1435296191.0048478       -35429628.136408091        1099425164.4219820     
   1710954463.4918213        31404654.652303040        1231789105.2656081     
   1581944175.7594025        27493514.364249885        1221749103.1594930     
   1452720139.3544631        22869878.501125813        1212084636.8837595     
   1323282354.2770073        17533747.062935829        1202795706.4384048     
   1193630820.5270171        11485120.049651146        1193882311.8234396     
   1472496070.1715846       -5765947.0864545107        1285670377.8890729     
   1355688267.9474280       -11808216.279759586        1277596299.8254240     
   1244612592.9465218        1256605.2711021304        1279025012.2235763     
   1139269045.1688623        33428517.566121578        1289956515.0835314     
   1039657624.6144505        84707520.605296135        1310390808.4052813     
   1217418369.9146976       -47922340.906205416        1333855578.8460038     
   1138890923.5742798       -48272377.892113686        1334684280.0365601     
   1072041480.3528823       -9695737.8146294355        1354143026.3203359     
   1016870040.2505021        67807579.326249331        1392231817.6973193     
   973376603.26713586        184237573.53051677        1448950654.1675317     
   945721362.72116566       -95064526.806959927        1376344708.1364014     
   931552142.63996434       -81898970.472828031        1393013043.7928944     
   935006801.57354963       -9987150.7560664415        1437438679.1740201     
   956085339.52191937        120670932.34330937        1509621614.2797754     
   994787756.48507762        310075278.82530761        1609561849.1101706     
   1753699857.1975520        526109957.15926558        679608018.60367560     
   1781436040.1008325        500484771.02840567        806019322.80120373     
   1806149720.4227920        464784576.29314208        925219635.49705458     
   1827840898.1634297        419009372.95347446        1037208956.6912289     
   1846509573.3227468        363159161.00940341        1141987286.3837261     
   1324043147.0837252        397212944.12511760        669751529.20540535     
   1336701088.0860012        375706377.65914387        791852845.77814364     
   1347109282.2866342        346700655.18769336        908616055.54450512     
   1355267729.6856246        310195776.71076620        1020041158.5044894     
   1361176430.2829721        266191742.22836235        1126128154.6580970     
   888183719.35358155        266455115.80607447        662768147.23124123     
   891114517.58428252        250672498.74381575        781461024.58881414     
   892568324.79301846        229966578.27500716        896688679.83531034     
   892545140.97978938        204337354.39964855        1008451112.9707294     
   891044966.14459527        173784827.11773995        1116748323.9950721     
   446121574.00712150        133836472.20213644        658657872.68118322     
   444676328.59567595        125383134.28242128        774843859.23321497     
   442526847.94194371        114582345.55508323        889437508.36947048     
   439673132.04592431        101434106.02012193        1002438820.0899487     
   436115180.90761817        85938415.677537888        1113847794.3946507     
  -2143288.9556554286       -642986.68669662857        657420705.55523133     
  -2613478.8798182942       -161715.72503940458        772001349.71134639     
  -3015148.2665899657        547957.02792167291        886862541.14698517     
  -3348297.1159705003        1486031.5721866905        1002004279.8621472     
  -3612925.4279599050        2652507.9077551253        1117426565.8568330     
   1846509573.3227468        363159161.00940341        1141987286.3837261     
   1830504376.0847778        297602939.92908669        1189179245.0344317     
   1817980683.1311669        243651733.12996364        1238716786.4203050     
   1808938494.4619141        201305540.61203438        1290599910.5413449     
   1803377810.0770197        170564362.37529981        1344828617.3975508     
   1361176430.2829721        266191742.22836235        1126128154.6580970     
   1354982124.3781319        219058612.06934792        1181479028.8857491     
   1351368426.5545256        180527508.84777981        1237779677.3449564     
   1350335336.8121533        150598432.56365752        1295030100.0357182     
   1351882855.1510155        129271383.21698284        1353230296.9580357     
   891044966.14459527        173784827.11773995        1116748323.9950721     
   890673527.27685153        143878380.59121940        1179207068.2293582     
   891981800.28721738        119570973.65839702        1241219778.1915874     
   894969785.17569232        100862606.31927252        1302786453.8817606     
   899637481.94227707        87753278.573846608        1363907095.2998769     
   436115180.90761817        85938415.677537888        1113847794.3946507     
   437578584.78093684        72062245.494699895        1182363363.0652590     
   439820804.32924044        60782127.561811790        1249037088.9602003     
   442841839.55253005        52098061.878877014        1313868972.0794725     
   446641690.45080388        46010048.445889458        1376859012.4230757     
  -3612925.4279599050        2652507.9077551253        1117426565.8568330     
  -4302703.1096119098        3610206.7797908643        1190947913.3934522     
  -5114561.3194031138        4160970.5580287990        1261231609.6507919     
  -6048500.0573334359        4304799.2424698249        1328277654.6288502     
  -7104519.3234031610        4041692.8331130105        1392086048.3276303     
   1803377810.0770197        170564362.37529981        1344828617.3975508     
   1771527090.8313749        138559195.74651492        1361573205.2911799     
   1740561695.0373135        109505107.28967541        1378373505.7279813     
   1710481622.6948347        83402097.004778266        1395229518.7079556     
   1681286873.8039377        60250164.891822398        1412141244.2311044     
   1351882855.1510155        129271383.21698284        1353230296.9580357     
   1323393305.4866910        104134883.35852689        1371168471.1984165     
   1295752820.1955333        81828598.077293813        1390051371.0111787     
   1268961399.2775426        62352527.373283923        1409878996.3963234     
   1243019042.7327199        45706671.246499598        1430651347.3538518     
   899637481.94227707        87753278.573846608        1363907095.2998769     
   877049139.08558476        70247456.653610408        1382996553.6288571     
   855273601.52364337        55450985.715877354        1403919750.5594296     
   834310869.25645447        43363865.760651559        1426676686.0915940     
   814160942.28401577        33986096.787927896        1451267360.2253494     
   446641690.45080388        46010048.445889458        1376859012.4230757     
   432494591.62805659        36896915.631768167        1397057452.5825055     
   419124039.02164459        30372270.205431253        1419978644.3727338     
   406530032.63156790        26436112.166878894        1445622587.7937632     
   394712572.45782727        25088441.516112402        1473989282.8455963     
  -7104519.3234031610        4041692.8331130105        1392086048.3276303     
  -10270336.885893753        4083260.2929988708        1413351168.0593557     
  -12695867.310465422        6592451.5459476300        1438228052.4510915     
  -14381110.597115841        11569266.591967486        1466716701.5028374     
  -15326066.745847277        19013705.431050256        1498817115.2145941     
   1681286873.8039377        60250164.891822398        1412141244.2311044     
   1633155508.8871582        35881812.332495630        1403936266.2880623     
   1587082489.3285093        18374610.966935396        1401727914.0525780     
   1543067815.1279862        7728560.7951304317        1405516187.5246556     
   1501111486.2855933        3943661.8170920014        1415301086.7042940     
   1243019042.7327199        45706671.246499598        1430651347.3538518     
   1211122797.9816487        29980253.133347154        1426736311.1395476     
   1180161403.8962080        17370003.905631602        1427318910.6268024     
   1150134860.4763966        7875923.5633433461        1432399145.8156164     
   1121043167.7222159        1498012.1064941883        1441977016.7059889     
   814160942.28401577        33986096.787927896        1451267360.2253494     
   794216989.11007857        25616764.544378549        1450331521.9318683     
   774084391.90927207        16618618.877932489        1452394329.3339460     
   753763150.68159771        6991659.7885934412        1457455782.4315825     
   733253265.42705572       -3264112.7236385047        1465515881.2247760     
   394712572.45782727        25088441.516112402        1473989282.8455963     
   382438082.27244842        22791346.565591276        1474721898.6650252     
   368851453.36770284        16120455.883846641        1476954170.1740108     
   353952685.74358976        5075769.4708783031        1480686097.3725529     
   337741779.40011263       -10342712.673305228        1485917680.2606542     
  -15326066.745847277        19013705.431050256        1498817115.2145941     
  -24213922.531241715        21503999.196985152        1499907441.3390169     
  -35537411.728501029        15875514.923369795        1500998433.1469965     
  -49296534.337624721        2128252.6102064606        1502090090.6385319     
  -65491290.358613648       -19737787.742506921        1503182413.8136232     
   1501111486.2855933        3943661.8170920014        1415301086.7042940     
   1454987947.7480202        81646.836924493313        1407176895.8379328     
   1407579501.3730388       -8063394.2679365277        1401517131.8329794     
   1358886147.1606541       -20491461.497476041        1398321794.6894403     
   1308907885.1108620       -37202554.851705253        1397590884.4073138     
   1121043167.7222159        1498012.1064941883        1441977016.7059889     
   1081244153.6919932       -7180215.2853972316        1430729935.0371051     
   1041111528.8518164       -16970478.710467339        1422994878.9920938     
   1000645293.2016895       -27872778.168705046        1418771848.5709515     
   959845446.74160743       -39887113.660128415        1418060843.7736797     
   733253265.42705572       -3264112.7236385047        1465515881.2247760     
   702771915.22549736       -15860610.730852872        1452255755.2853990     
   672908251.24143720       -26398154.679738551        1443555253.7323537     
   643662273.47487700       -34876744.570291728        1439414376.5656378     
   615033981.92581606       -41296380.402514219        1439833123.7852516     
   337741779.40011263       -10342712.673305228        1485917680.2606542     
   319571232.34852970       -25959539.499452591        1471754356.5828128     
   302969668.54189849       -36346422.175761014        1463198256.0537617     
   287937087.98021919       -41503360.702230364        1460249378.6735010     
   274473490.66349161       -41430355.078859091        1462907724.4420273     
  -65491290.358613648       -19737787.742506921        1503182413.8136232     
  -68357894.938909471       -37477001.591195434        1489225738.9293463     
  -68704219.246800065       -46815281.198534295        1481923885.9563184     
  -66530263.282287359       -47752626.564527690        1481276854.8945377     
  -61836027.045366205       -40289037.689160690        1487284645.7440081     
   1308907885.1108620       -37202554.851705253        1397590884.4073138     
   1248617319.4781818       -56089903.996318936        1383236395.2260182     
   1190216564.0682824       -68677885.731663227        1375951055.8075669     
   1133705618.8811693       -74966500.057715893        1375734866.1519523     
   1079084483.9168339       -74955746.974518597        1382587826.2591758     
   959845446.74160743       -39887113.660128415        1418060843.7736797     
   918577829.23401856       -51039803.872678936        1406231474.6520727     
   878304466.44394636       -58878311.693509638        1400181071.4949155     
   839025358.37138295       -63402637.122645617        1399909634.3022015     
   800740505.01633036       -64612780.160076499        1405417163.0739355     
   615033981.92581606       -41296380.402514219        1439833123.7852516     
   589103073.11934388       -45820283.510183990        1429484059.9671853     
   563270863.52511096       -50015189.243722469        1423623778.3151720     
   537537353.14312100       -53881097.603118062        1422252278.8292122     
   511902541.97337186       -57418008.588377714        1425369561.5093083     
   274473490.66349161       -41430355.078859091        1462907724.4420273     
   260193051.13415357       -40431342.908849597        1452994151.1713486     
   245115755.31178412       -42088518.382276043        1446279176.2683330     
   229241603.19638675       -46401881.499128833        1442762799.7329795     
   212570594.78795943       -53371432.259416744        1442445021.5652874     
  -61836027.045366205       -40289037.689160690        1487284645.7440081     
  -68152236.721550211       -34872982.068664253        1476761748.2645717     
  -76160858.196036041       -35098299.109174289        1468147265.3544044     
  -85861891.468818858       -40964988.810672693        1461441197.0135059     
  -97255336.539904922       -52473051.173184656        1456643543.2418756     
   1079084483.9168339       -74955746.974518597        1382587826.2591758     
   1049276516.7912548       -68206898.021502376        1379360320.2745597     
   1017113340.8834518       -69308745.009231985        1377243965.2592247     
   982594956.19342065       -78261287.937726200        1376238761.2131724     
   945721362.72116566       -95064526.806959927        1376344708.1364014     
   800740505.01633036       -64612780.160076499        1405417163.0739355     
   771291630.53127193       -64918120.553250551        1395732280.4341686     
   739697298.46052682       -72374986.232047528        1386840361.7823305     
   705957508.80408657       -86983377.196493149        1378741407.1184204     
   670072261.56195509       -108743293.44657862        1371435416.4424453     
   511902541.97337186       -57418008.588377714        1425369561.5093083     
   481903654.46783167       -65050270.026031733        1409472011.9436767     
   449969060.57313550       -79134886.094206631        1394049239.3846204     
   416098760.28928190       -99671856.792904794        1379101243.8321466     
   380292753.61627412       -126661182.12212017        1364628025.2862489     
   212570594.78795943       -53371432.259416744        1442445021.5652874     
   181112588.60093233       -68603346.439849436        1420579514.8030834     
   147928627.22128150       -89588444.595697671        1398870598.0661039     
   113018710.64900969       -116326726.72694828        1377318271.3543506     
   76382838.884108901       -148818192.83362612        1355922534.6678247     
  -97255336.539904922       -52473051.173184656        1456643543.2418756     
  -131081567.06942677       -75577349.794710055        1429054789.0123870     
  -166424001.59504008       -103735661.73653816        1401304437.8267734     
  -203282640.11673972       -136947986.99865472        1373392489.6850345     
  -241657482.63452342       -175214325.58105221        1345318944.5871723     
   945721362.72116566       -95064526.806959927        1376344708.1364014     
   931552142.63996434       -81898970.472828031        1393013043.7928944     
   935006801.57354963       -9987150.7560664415        1437438679.1740201     
   956085339.52191937        120670932.34330937        1509621614.2797754     
   994787756.48507762        310075278.82530761        1609561849.1101706     
   670072261.56195509       -108743293.44657862        1371435416.4424453     
   708844556.46629858       -102416875.33248433        1390272280.0051291     
   753513345.25537729       -76435477.602605730        1423654348.8059201     
   804078627.92919362       -30799100.256936282        1471581622.8448153     
   860540404.48774683        34492256.704519540        1534054102.1218119     
   380292753.61627412       -126661182.12212017        1364628025.2862489     
   434257722.11608070       -138498554.64510456        1371951467.4367375     
   482391799.37057549       -169772231.31913015        1380608020.3388014     
   524694985.37975502       -220482212.14420572        1390597683.9924428     
   561167280.14362645       -290628497.12030542        1401920458.3976669     
   76382838.884108901       -148818192.83362612        1355922534.6678247     
   107791639.58930387       -190144008.41070658        1338050606.0877259     
   121642163.91913970       -289997411.90565002        1308299693.7726719     
   117934411.87361157       -448378403.31847161        1266669797.7226646     
   96668383.452722639       -665286982.64916539        1213160917.9377153     
  -241657482.63452342       -175214325.58105221        1345318944.5871723     
  -270553691.11401576       -257353236.62924150        1288569695.9580874     
  -328735561.09892404       -437111019.36214656        1206729369.1075253     
  -416203092.58924758       -714487673.77976942        1099797964.0354922     
  -532956285.58497071       -1089483199.8820622        967775480.74197674     
  -2143288.9556554286       -642986.68669662857        657420705.55523133     
  -2613478.8798182942       -161715.72503940458        772001349.71134639     
  -3015148.2665899657        547957.02792167291        886862541.14698517     
  -3348297.1159705003        1486031.5721866905        1002004279.8621472     
  -3612925.4279599050        2652507.9077551253        1117426565.8568330     
  -450324040.20215207       -135097212.06064561        659082446.10098016     
  -449755175.68563646       -125647418.69704920        775461952.66381383     
  -448423791.41443211       -113655892.81782430        890290525.57796764     
  -446329887.38853943       -99122634.422971234        1003568164.8434416     
  -443473463.60795808       -82047643.512489259        1115294870.4602358     
  -892133850.39977145       -267640155.11993146        663668894.56602418     
  -895758734.09458685       -250791680.14999872        782656929.28909004     
  -897927098.81741619       -229088141.94011301        898262549.43527257     
  -898638944.56825984       -202529540.49027413        1010485755.0045720     
  -897894271.34711730       -171115875.80048215        1119326545.9969885     
  -1327572719.5485139       -398271815.86455417        671180050.95036376     
  -1340624154.1066697       -375594500.08388793        793586279.58717489     
  -1351525070.4755421       -345748790.33894390        910778612.71890020     
  -1360275468.6551311       -308734686.62972230        1022757050.3455387     
  -1366875348.6454372       -264552188.95622337        1129521592.4670911     
  -1756640647.6483791       -526992194.29451370        681615915.25399852     
  -1784351435.7218847       -500055878.49871683        808250003.55806923     
  -1809217706.3888099       -463637838.01431781        927838715.42885029     
  -1831239459.6491542       -417738072.84131622        1040382050.8663416     
  -1850416695.5029182       -362356582.97971261        1145880009.8705432     
  -3612925.4279599050        2652507.9077551253        1117426565.8568330     
  -4302703.1096119098        3610206.7797908643        1190947913.3934522     
  -5114561.3194031138        4160970.5580287990        1261231609.6507919     
  -6048500.0573334359        4304799.2424698249        1328277654.6288502     
  -7104519.3234031610        4041692.8331130105        1392086048.3276303     
  -443473463.60795808       -82047643.512489259        1115294870.4602358     
  -446437895.52845371       -66923964.144050211        1183853487.6297469     
  -450300048.19158459       -54792687.251061797        1250630949.6264112     
  -455059921.59734970       -45653812.833522484        1315627256.4502294     
  -460717515.74575126       -39507340.891435415        1378842408.1012003     
  -897894271.34711730       -171115875.80048215        1119326545.9969885     
  -898971940.05950379       -140577790.70155334        1182017519.2158127     
  -901722969.72902155       -115617575.45972779        1244383833.3682239     
  -906147360.35567009       -96235230.075006098        1306425488.4542220     
  -912245111.93945026       -82430754.547388732        1368142484.4738059     
  -1366875348.6454372       -264552188.95622337        1129521592.4670911     
  -1361904836.7027624       -217351272.89271829        1185440008.1516497     
  -1359383325.9317153       -178313694.06797206        1242490260.8762286     
  -1359310816.3322942       -147439452.48197979        1300672350.6408284     
  -1361687307.9045017       -124728548.13474840        1359986277.4454470     
  -1850416695.5029182       -362356582.97971261        1145880009.8705432     
  -1835236585.4582298       -297244410.71754694        1194120954.4372578     
  -1823281116.7996650       -242881043.07579249        1244950232.1504261     
  -1814550289.5272231       -199266480.05444652        1298367843.0100472     
  -1809044103.6409044       -166400721.65351301        1354373787.0161221     
  -7104519.3234031610        4041692.8331130105        1392086048.3276303     
  -10270336.885893753        4083260.2929988708        1413351168.0593557     
  -12695867.310465422        6592451.5459476300        1438228052.4510915     
  -14381110.597115841        11569266.591967486        1466716701.5028374     
  -15326066.745847277        19013705.431050256        1498817115.2145941     
  -460717515.74575126       -39507340.891435415        1378842408.1012003     
  -452488725.20740724       -30445671.566677794        1401041873.0491712     
  -444186863.17259598       -21140430.587029412        1426313094.5228031     
  -435811929.64131796       -11591617.952490732        1454656072.5220964     
  -427363924.61357009       -1799233.6630540192        1486070807.0470502     
  -912245111.93945026       -82430754.547388732        1368142484.4738059     
  -894164593.68412721       -64811847.472916991        1390497876.3896606     
  -876678219.57378840       -49173420.881726623        1415385016.6968277     
  -859785989.60843432       -35515474.773819029        1442803905.3953073     
  -843487903.78806448       -23838009.149191052        1472754542.4850981     
  -1361687307.9045017       -124728548.13474840        1359986277.4454470     
  -1335297942.3160532       -99015267.425717413        1381719178.0808241     
  -1310169936.5140409       -77506519.338141084        1405443818.9731658     
  -1286303290.4984665       -60202303.872023344        1431160200.1224692     
  -1263698004.2693286       -47102621.027360857        1458868321.5287359     
  -1809044103.6409044       -166400721.65351301        1354373787.0161221     
  -1775888771.1031852       -133055931.42507970        1374705778.1226623     
  -1744662013.9933548       -106139725.95627403        1396489501.3518162     
  -1715363832.3114140       -85652105.247101426        1419724956.7035837     
  -1687994226.0573616       -71593069.297556341        1444412144.1779656     
  -15326066.745847277        19013705.431050256        1498817115.2145941     
  -24213922.531241715        21503999.196985152        1499907441.3390169     
  -35537411.728501029        15875514.923369795        1500998433.1469965     
  -49296534.337624721        2128252.6102064606        1502090090.6385319     
  -65491290.358613648       -19737787.742506921        1503182413.8136232     
  -427363924.61357009       -1799233.6630540192        1486070807.0470502     
  -432542994.31300008        1815020.2654060423        1484759833.1010911     
  -439173162.72394538        592278.48881381750        1486041730.4232752     
  -447254429.84640610       -5467458.9928280413        1489916499.0135987     
  -456786795.68038082       -16364192.179518864        1496384138.8720648     
  -843487903.78806448       -23838009.149191052        1472754542.4850981     
  -837551885.73128676       -16877904.557136178        1470190892.2858324     
  -832082431.68567407       -11473013.335630924        1472812318.9392943     
  -827079541.65122521       -7623335.4846722484        1480618822.4454823     
  -822543215.62794197       -5328871.0042648315        1493610402.8043983     
  -1263698004.2693286       -47102621.027360857        1458868321.5287359     
  -1239240596.7860990       -34574775.270633698        1456200618.8932393     
  -1214265218.6136851       -20320360.549958646        1461310198.6950545     
  -1188771869.7520857       -4339376.8653312325        1474197060.9341815     
  -1162760550.2012990        13368175.783251762        1494861205.6106226     
  -1687994226.0573616       -71593069.297556341        1444412144.1779656     
  -1637609127.4774384       -51275591.875091553        1442789012.9233119     
  -1585721523.5079789       -25949763.154172361        1451535369.6905558     
  -1532331414.1489830        4384416.8651992083        1470651214.4796989     
  -1477438799.4004517        39726948.183024526        1500136547.2907374     
  -65491290.358613648       -19737787.742506921        1503182413.8136232     
  -68357894.938909471       -37477001.591195434        1489225738.9293463     
  -68704219.246800065       -46815281.198534295        1481923885.9563184     
  -66530263.282287359       -47752626.564527690        1481276854.8945377     
  -61836027.045366205       -40289037.689160690        1487284645.7440081     
  -456786795.68038082       -16364192.179518864        1496384138.8720648     
  -439375780.65948200       -19132249.730732083        1493117165.1177325     
  -420483560.52332675       -16962956.897756174        1495338656.1536515     
  -400110135.27191204       -9856313.6805812269        1503048611.9798229     
  -378255504.90523988        2187679.9207824767        1516247032.5962493     
  -822543215.62794197       -5328871.0042648315        1493610402.8043983     
  -788187029.92298281        5874493.0668494999        1499820875.8300040     
  -753388714.25991189        18551623.665004194        1510353456.5248668     
  -718148268.63872790        32702520.790199459        1525208144.8889856     
  -682465693.05943286        48327184.442434818        1544384940.9223635     
  -1162760550.2012990        13368175.783251762        1494861205.6106226     
  -1114791642.7294102        37543226.801553905        1509336871.0661650     
  -1067419680.4565558        59728460.489743710        1526968287.0699666     
  -1020644663.3827332        79923876.847825885        1547755453.6220303     
  -974466591.50794804        98129475.875783086        1571698370.7223551     
  -1477438799.4004517        39726948.183024526        1500136547.2907374     
  -1419189619.0787632        75873951.473381519        1521665150.8262107     
  -1362576459.1132555        106567553.57647109        1545183147.7889488     
  -1307599319.5039268        131807754.49229610        1570690538.1789520     
  -1254258200.2507811        151594554.22084594        1598187321.9962187     
  -61836027.045366205       -40289037.689160690        1487284645.7440081     
  -68152236.721550211       -34872982.068664253        1476761748.2645717     
  -76160858.196036041       -35098299.109174289        1468147265.3544044     
  -85861891.468818858       -40964988.810672693        1461441197.0135059     
  -97255336.539904922       -52473051.173184656        1456643543.2418756     
  -378255504.90523988        2187679.9207824767        1516247032.5962493     
  -376981897.47143841        8407955.5625609607        1509198903.1131122     
  -376958337.62305063        10461405.919627458        1505895090.6788595     
  -378184825.36007500        8348030.9919870347        1506335595.2934966     
  -380661360.68251240        2067830.7796356231        1510520416.9570138     
  -682465693.05943286        48327184.442434818        1544384940.9223635     
  -668356832.85959589        56925310.802307874        1541327671.0172265     
  -655055656.03228366        62831159.253763705        1543850620.6405952     
  -642562162.57749486        66044729.796807587        1551953789.7924685     
  -630876352.49523294        66566022.431430370        1565637178.4728429     
  -974466591.50794804        98129475.875783086        1571698370.7223551     
  -942277042.88602185        110679083.65057302        1573148051.9769208     
  -910452813.42373443        122010960.89323795        1582013855.2396088     
  -878993903.12108517        132125107.60377210        1598295780.5104184     
  -847900311.97807288        141021523.78218341        1621993827.7893496     
  -1254258200.2507811        151594554.22084594        1598187321.9962187     
  -1198742527.5507202        169669274.10735476        1604660045.9921918     
  -1143149809.7974043        188000810.83804226        1620384794.4759016     
  -1087480046.9908419        206589164.41288722        1645361567.4473519     
  -1031733239.1310263        225434334.83190912        1679590364.9065409     
  -97255336.539904922       -52473051.173184656        1456643543.2418756     
  -131081567.06942677       -75577349.794710055        1429054789.0123870     
  -166424001.59504008       -103735661.73653816        1401304437.8267734     
  -203282640.11673972       -136947986.99865472        1373392489.6850345     
  -241657482.63452342       -175214325.58105221        1345318944.5871723     
  -380661360.68251240        2067830.7796356231        1510520416.9570138     
  -407838052.20213932       -12753976.060180590        1495721490.6725266     
  -434510779.50007844       -25895902.161035284        1484287847.0944536     
  -460679542.57633764       -37357947.522958085        1476219486.2227995     
  -486344341.43090355       -47140112.145904735        1471516408.0575669     
  -630876352.49523294        66566022.431430370        1565637178.4728429     
  -641326705.96912766        63049747.084068656        1565984943.0540853     
  -649252927.00356114        67947246.534907252        1573224870.0042927     
  -654655015.59852958        81258520.783963621        1587356959.3234615     
  -657532971.75403726        102983569.83122331        1608381211.0115931     
  -847900311.97807288        141021523.78218341        1621993827.7893496     
  -831547528.37038958        151833819.63803953        1639845146.1570661     
  -810650444.10547709        177793784.35132825        1668115506.5562911     
  -785209059.18331802        218901417.92210478        1706804908.9870226     
  -755223373.60392785        275156720.35031772        1755913353.4492629     
  -1031733239.1310263        225434334.83190912        1679590364.9065409     
  -978500519.40593123        253598241.60171980        1717302099.9814701     
  -918703330.80582571        303643711.28822708        1768959756.7504482     
  -852341673.33070350        375570743.89146107        1834563335.2134776     
  -779415546.98056889        469379339.41140020        1914112835.3705602     
  -241657482.63452342       -175214325.58105221        1345318944.5871723     
  -270553691.11401576       -257353236.62924150        1288569695.9580874     
  -328735561.09892404       -437111019.36214656        1206729369.1075253     
  -416203092.58924758       -714487673.77976942        1099797964.0354922     
  -532956285.58497071       -1089483199.8820622        967775480.74197674     
  -486344341.43090355       -47140112.145904735        1471516408.0575669     
  -549534629.42821729       -90562944.682982728        1421939211.2328162     
  -627986917.58434391       -184859111.08276835        1362138551.8055801     
  -721701205.89928102       -330028611.34525633        1292114429.7758555     
  -830677494.37302411       -526071445.47042906        1211866845.1436439     
  -657532971.75403726        102983569.83122331        1608381211.0115931     
  -712538437.50063086        111020486.33582407        1582337004.2288787     
  -768782242.05943334        114929606.79972646        1560936950.4626701     
  -826264385.43044627        114710931.22292233        1544181049.7129571     
  -884984867.61366916        110364459.60542667        1532069301.9797533     
  -755223373.60392785        275156720.35031772        1755913353.4492629     
  -759565115.33125830        347397056.42716086        1769763074.9462829     
  -751121534.52420080        462255134.28529918        1803124565.0787954     
  -729892631.18275011        619730953.92475021        1855997823.8468037     
  -695878405.30690753        819824515.34550095        1928382851.2502947     
  -779415546.98056889        469379339.41140020        1914112835.3705602     
  -690614662.92009974        618566765.59104013        1984217423.3850219     
  -575004794.97863483        857117471.37399852        2088701395.6539609     
  -432585943.15618461        1185031456.7602439        2227564752.1773758     
  -263358107.45273900        1602308721.7498040        2400807492.9552779     
  -1756640647.6483791       -526992194.29451370        681615915.25399852     
  -1784351435.7218847       -500055878.49871683        808250003.55806923     
  -1809217706.3888099       -463637838.01431781        927838715.42885029     
  -1831239459.6491542       -417738072.84131622        1040382050.8663416     
  -1850416695.5029182       -362356582.97971261        1145880009.8705432     
  -2201707328.7135925       -660512198.61407781        698043348.47401929     
  -2237946187.1046090       -613878016.40547109        815561283.29095137     
  -2272194789.8035345       -560609648.55656052        929018878.97090125     
  -2304453136.8103685       -500707095.06734586        1038416135.5138685     
  -2334721228.1251125       -434170355.93782777        1143753052.9198537     
  -2685142456.7583804       -805542737.02751422        723529211.60751641     
  -2721380707.4774585       -736652085.00926304        830934354.27040565     
  -2756482964.2189341       -663974786.39900589        937264195.09261978     
  -2790449226.9828091       -587510841.19674325        1042518734.0741588     
  -2823279495.7690811       -507260249.40247446        1146697971.2150228     
  -3206946031.7827425       -962083809.53482270        758073504.65448987     
  -3234654996.8404312       -868378084.31009209        854369216.49643171     
  -3262082229.6350088       -773733251.54165375        952574663.79400611     
  -3289227730.1664734       -678149311.22950745        1052689846.5472126     
  -3316091498.4348259       -581626263.37365389        1154714764.7560518     
  -3767118053.7866783       -1130135416.1360035        801676227.61493969     
  -3777769055.1935296       -1009056014.3079585        885865869.96902978     
  -3788992586.0517583       -889885043.98450398        974950285.07505965     
  -3800788646.3613629       -772622505.16563964        1068929472.9330293     
  -3813157236.1223469       -657268397.85136664        1167803433.5429392     
  -1850416695.5029182       -362356582.97971261        1145880009.8705432     
  -1835236585.4582298       -297244410.71754694        1194120954.4372578     
  -1823281116.7996650       -242881043.07579249        1244950232.1504261     
  -1814550289.5272231       -199266480.05444652        1298367843.0100472     
  -1809044103.6409044       -166400721.65351301        1354373787.0161221     
  -2334721228.1251125       -434170355.93782777        1143753052.9198537     
  -2310607304.1117630       -353472111.98016274        1185684407.8983033     
  -2289903262.0126686       -284140141.07001328        1228302808.5456929     
  -2272609101.8278289       -226174443.20738113        1271608254.8620229     
  -2258724823.5572443       -179575018.39226353        1315600746.8472924     
  -2823279495.7690811       -507260249.40247446        1146697971.2150228     
  -2795664007.7228231       -412605608.73003614        1182103622.6557207     
  -2771643642.1189523       -329934709.53222001        1216295032.2878449     
  -2751218398.9574666       -259247551.80902410        1249272200.1113968     
  -2734388278.2383690       -200544135.56045079        1281035126.1263742     
  -3316091498.4348259       -581626263.37365389        1154714764.7560518     
  -3290406696.2914114       -474644900.96716881        1183378598.7095108     
  -3268502257.1185155       -380264748.46241021        1208926903.3768830     
  -3250378180.9161367       -298485805.85937631        1231359678.7581694     
  -3236034467.6842756       -229308073.15807176        1250676924.8533688     
  -3813157236.1223469       -657268397.85136664        1167803433.5429392     
  -3794835369.8175263       -539589988.69155860        1189509336.0596724     
  -3780479107.0113578       -435130257.86058378        1206198421.8128061     
  -3770088447.7038369       -343889205.35843956        1217870690.8023393     
  -3763663391.8949671       -265866831.18512821        1224526143.0282738     
  -1809044103.6409044       -166400721.65351301        1354373787.0161221     
  -1775888771.1031852       -133055931.42507970        1374705778.1226623     
  -1744662013.9933548       -106139725.95627403        1396489501.3518162     
  -1715363832.3114140       -85652105.247101426        1419724956.7035837     
  -1687994226.0573616       -71593069.297556341        1444412144.1779656     
  -2258724823.5572443       -179575018.39226353        1315600746.8472924     
  -2215537147.4525952       -134435466.13689518        1324806152.9788797     
  -2175698419.2644386       -100459073.60317099        1337555146.1869693     
  -2139208638.9927709       -77645840.791080117        1353847726.4715600     
  -2106067806.6375983       -65995767.700634122        1373683893.8326535     
  -2734388278.2383690       -200544135.56045079        1281035126.1263742     
  -2675191530.1271081       -141816802.74624300        1277456846.0463052     
  -2620764102.4209414       -98987204.615685940        1279514007.9966264     
  -2571105995.1198707       -72055341.168782473        1287206611.9773366     
  -2526217208.2238975       -61021212.405532360        1300534657.9884377     
  -3236034467.6842756       -229308073.15807176        1250676924.8533688     
  -3154851919.1267238       -155199941.25312042        1232657857.3249390     
  -3079859063.4628692       -101724118.99383163        1222366086.7807875     
  -3011055900.6927133       -68880606.380206466        1219801613.2209129     
  -2948442430.8162570       -56669403.412246227        1224964436.6453197     
  -3763663391.8949671       -265866831.18512821        1224526143.0282738     
  -3654518314.4514427       -174584881.65753007        1190409186.8147800     
  -3552983302.3902187       -108669816.73760533        1166111382.5394521     
  -3459058355.7112975       -68121636.425354958        1151632730.2022908     
  -3372743474.4146795       -52940340.720780373        1146973229.8032954     
  -1687994226.0573616       -71593069.297556341        1444412144.1779656     
  -1637609127.4774384       -51275591.875091553        1442789012.9233119     
  -1585721523.5079789       -25949763.154172361        1451535369.6905558     
  -1532331414.1489830        4384416.8651992083        1470651214.4796989     
  -1477438799.4004517        39726948.183024526        1500136547.2907374     
  -2106067806.6375983       -65995767.700634122        1373683893.8326535     
  -2032221377.8201671       -45843422.296215415        1371410699.0241208     
  -1957471763.6959350       -22680459.202465773        1376853300.6882453     
  -1881818964.2649064        3493121.5806124210        1390011698.8250275     
  -1805262979.5270798        32677320.053013444        1410885893.4344685     
  -2526217208.2238975       -61021212.405532360        1300534657.9884377     
  -2436491425.0239272       -43308591.775651932        1296912192.8628316     
  -2346461776.5998955       -24583087.065562367        1298351832.6606445     
  -2256128262.9518032       -4844698.2752696276        1304853577.3818765     
  -2165490884.0796475        15906574.595226169        1316417427.0265255     
  -2948442430.8162570       -56669403.412246227        1224964436.6453197     
  -2850419269.0887184       -43671100.313392997        1219293494.4394469     
  -2752691562.2198563       -31657646.743460655        1216030965.6077530     
  -2655259310.2096705       -20629042.702448010        1215176850.1502395     
  -2558122513.0581574       -10585288.190346360        1216731148.0669060     
  -3372743474.4146795       -52940340.720780373        1146973229.8032954     
  -3274004910.0145445       -46930947.909451604        1138554603.7539649     
  -3176161120.5558186       -43904138.236155629        1129890699.5295732     
  -3079212106.0385075       -43859911.700908184        1120981517.1301219     
  -2983157866.4626093       -46798268.303701878        1111827056.5556095     
  -1477438799.4004517        39726948.183024526        1500136547.2907374     
  -1419189619.0787632        75873951.473381519        1521665150.8262107     
  -1362576459.1132555        106567553.57647109        1545183147.7889488     
  -1307599319.5039268        131807754.49229610        1570690538.1789520     
  -1254258200.2507811        151594554.22084594        1598187321.9962187     
  -1805262979.5270798        32677320.053013444        1410885893.4344685     
  -1743680732.8473549        56582571.423475862        1419994429.8630741     
  -1683520457.6400473        75747917.885878086        1432502489.7367251     
  -1624782153.9051540        90173359.440232754        1448410073.0554228     
  -1567465821.6426775        99858896.086538672        1467717179.8191700     
  -2165490884.0796475        15906574.595226169        1316417427.0265255     
  -2096546628.1339390        28778756.918164611        1313355620.0459864     
  -2028810294.7768807        37624530.612271190        1315103466.5282767     
  -1962281884.0084746        42443895.677543163        1321660966.4733992     
  -1896961395.8287115        43236852.113990188        1333028119.8813474     
  -2558122513.0581574       -10585288.190346360        1216731148.0669060     
  -2477787304.9385147       -7537492.0425400734        1201748721.3749490     
  -2398445970.5237570       -7802608.2443478107        1192986078.1636076     
  -2320098509.8138819       -11380636.795771599        1190443218.4328761     
  -2242744922.8088913       -18271577.696800351        1194120142.1827590     
  -2983157866.4626093       -46798268.303701878        1111827056.5556095     
  -2887402763.2610826       -52366175.458642602        1085173733.8499644     
  -2792427484.8806744       -60533498.683980823        1066150324.6427139     
  -2698232031.3213859       -71300237.979715824        1054756828.9338597     
  -2604816402.5832109       -84666393.345832944        1050993246.7233990     
  -1254258200.2507811        151594554.22084594        1598187321.9962187     
  -1198742527.5507202        169669274.10735476        1604660045.9921918     
  -1143149809.7974043        188000810.83804226        1620384794.4759016     
  -1087480046.9908419        206589164.41288722        1645361567.4473519     
  -1031733239.1310263        225434334.83190912        1679590364.9065409     
  -1567465821.6426775        99858896.086538672        1467717179.8191700     
  -1491818626.5121055        113200164.86977530        1467691534.0937808     
  -1415964972.0345027        127229631.47645736        1474991985.2356431     
  -1339904858.2098603        141947295.90659887        1489618533.2447572     
  -1263638285.0381882        157353158.16017985        1511571178.1211252     
  -1896961395.8287115        43236852.113990188        1333028119.8813474     
  -1806685328.6118855        50193874.690673232        1326655087.7773461     
  -1716073387.7542386        58270476.070091724        1325682224.9201100     
  -1625125573.2557776        67466656.252227783        1330109531.3096378     
  -1533841885.1164927        77782415.237102866        1339937006.9459329     
  -2242744922.8088913       -18271577.696800351        1194120142.1827590     
  -2143342633.8500600       -19349596.429951668        1181550707.0428941     
  -2043475056.9566183       -18876655.381074071        1172455513.5293026     
  -1943142192.1285789       -16852754.550198674        1166834561.6419916     
  -1842344039.3659351       -13277893.937311292        1164687851.3809574     
  -2604816402.5832109       -84666393.345832944        1050993246.7233990     
  -2501790542.2266192       -95430248.492075443        1032378391.8904167     
  -2398169979.6416383       -104211762.87702596        1015311851.0632230     
  -2293954714.8282747       -111010936.50070131        999793624.24182308     
  -2189144747.7865210       -115827769.36307514        985823711.42621303     
  -1031733239.1310263        225434334.83190912        1679590364.9065409     
  -978500519.40593123        253598241.60171980        1717302099.9814701     
  -918703330.80582571        303643711.28822708        1768959756.7504482     
  -852341673.33070350        375570743.89146107        1834563335.2134776     
  -779415546.98056889        469379339.41140020        1914112835.3705602     
  -1263638285.0381882        157353158.16017985        1511571178.1211252     
  -1181720214.7979500        180425628.58978790        1539558236.6152201     
  -1096071575.9560833        215933327.69148481        1576839974.5054173     
  -1006692368.5125957        263876255.46525955        1623416391.7917192     
  -913582592.46748257        324254411.91111398        1679287488.4741297     
  -1533841885.1164927        77782415.237102866        1339937006.9459329     
  -1436527728.0695198        91776670.214012265        1354893171.8735673     
  -1338316902.6943164        108759819.61835623        1374492773.8993652     
  -1239209408.9908776        128731863.45015079        1398735813.0233200     
  -1139205246.9592068        151692801.70938122        1427622289.2454348     
  -1842344039.3659351       -13277893.937311292        1164687851.3809574     
  -1742923059.2206495       -12348633.525640607        1163306905.7565186     
  -1645439311.0205243       -17876812.931174576        1161918154.9322882     
  -1549892794.7655523       -29862432.153883994        1160521598.9082720     
  -1456283510.4557421       -48305491.193793178        1159117237.6844699     
  -2189144747.7865210       -115827769.36307514        985823711.42621303     
  -2100906208.2513399       -131950282.62916505        964799438.26406682     
  -2017438800.9347084       -163976569.95708990        939116117.60419357     
  -1938742525.8366232       -211906631.34683388        908773749.44658351     
  -1864817382.9570858       -275740466.79840684        873772333.79124117     
  -779415546.98056889        469379339.41140020        1914112835.3705602     
  -690614662.92009974        618566765.59104013        1984217423.3850219     
  -575004794.97863483        857117471.37399852        2088701395.6539609     
  -432585943.15618461        1185031456.7602439        2227564752.1773758     
  -263358107.45273900        1602308721.7498040        2400807492.9552779     
  -913582592.46748257        324254411.91111398        1679287488.4741297     
  -771118326.25900102        422927550.18266469        1731968062.3404438     
  -616897616.71146703        560788832.91773558        1803205920.0449228     
  -450920463.82487369        737838260.11632657        1893001061.5875618     
  -273186867.59922528        954075831.77843904        2001353486.9683774     
  -1139205246.9592068        151692801.70938122        1427622289.2454348     
  -988283599.79218829        186289851.71599352        1445317551.6646743     
  -840658049.82804501        209899911.04635566        1465747997.5057650     
  -696328597.06678438        222522979.70044443        1488913626.7687068     
  -555295241.50840175        224159057.67826721        1514814439.4534981     
  -1456283510.4557421       -48305491.193793178        1159117237.6844699     
  -1342110483.5196517       -91346329.808945477        1124265891.3577156     
  -1246286094.3283775       -195549294.24015069        1076327628.0364978     
  -1168810342.8819146       -360914384.48740435        1015302447.7208093     
  -1109683229.1802747       -587441600.55071378        941190350.41066587     
  -1864817382.9570858       -275740466.79840684        873772333.79124117     
  -1832598977.4413989       -409980994.39218301        768813081.41956532     
  -1833781750.2124565       -655558782.94178677        634944811.63710999     
  -1868365701.2702692       -1012473832.4472237        472167524.44386905     
  -1936350830.6148305       -1480726142.9084995        280481219.83986336     
  -3767118053.7866783       -1130135416.1360035        801676227.61493969     
  -3777769055.1935296       -1009056014.3079585        885865869.96902978     
  -3788992586.0517583       -889885043.98450398        974950285.07505965     
  -3800788646.3613629       -772622505.16563964        1068929472.9330293     
  -3813157236.1223469       -657268397.85136664        1167803433.5429392     
  -4338492975.3487110       -1301547892.6046133        859564289.70353031     
  -4333798844.9666452       -1125942524.1653166        943077336.25772822     
  -4330210926.6403866       -954024529.24537349        1020916642.2180948     
  -4327729220.3699322       -785793907.84478414        1093082207.5846305     
  -4326353726.1552849       -621250659.96354735        1159574032.3573351     
  -4893905249.0473623       -1468171574.7142088        936964600.13492632     
  -4904061739.2928696       -1247098965.3886073        1019178421.1840650     
  -4915858124.1986084       -1031492671.5971217        1085149988.2936013     
  -4929294403.7645845       -821352693.33975303        1134879301.4635358     
  -4944370577.9907942       -616679030.61650038        1168366360.6938682     
  -5433354874.8826342       -1630006462.4647901        1033877158.9091277     
  -5488557738.1721983       -1372525337.9778295        1114169124.7480397     
  -5545934178.7264280       -1122289471.0397487        1167650323.3015785     
  -5605484196.5453205       -879298861.65054667        1194320754.5697453     
  -5667207791.6288786       -643553509.81022596        1194180418.5525386     
  -5956841852.8545246       -1787052555.8563573        1150301966.0261343     
  -6087286841.6046371       -1502221641.9329844        1228049446.9496527     
  -6220439090.2238426       -1226414927.5732543        1268417647.2420275     
  -6356298598.7121410       -959632412.77716696        1271406566.9032583     
  -6494865367.0695324       -701874097.54472160        1237016205.9333460     
  -3813157236.1223469       -657268397.85136664        1167803433.5429392     
  -3794835369.8175263       -539589988.69155860        1189509336.0596724     
  -3780479107.0113578       -435130257.86058378        1206198421.8128061     
  -3770088447.7038369       -343889205.35843956        1217870690.8023393     
  -3763663391.8949671       -265866831.18512821        1224526143.0282738     
  -4326353726.1552849       -621250659.96354735        1159574032.3573351     
  -4295441710.7791233       -465751938.09985447        1141533405.4705625     
  -4275229295.8961649       -345918551.21350813        1129466560.9321415     
  -4265716481.5064125       -261750499.30450630        1123373498.7420707     
  -4266903267.6098619       -213247782.37284899        1123254218.9003513     
  -4944370577.9907942       -616679030.61650038        1168366360.6938682     
  -4869466701.7948599       -413939482.52439332        1102722874.5766101     
  -4811996423.0866833       -269311926.05814528        1054043769.9196539     
  -4771959741.8662653       -182796361.21775675        1022329046.7229993     
  -4749356658.1336050       -154392788.00322747        1007578704.9866459     
  -5667207791.6288786       -643553509.81022596        1194180418.5525386     
  -5516910342.8647394       -384152621.96517444        1073077743.3778147     
  -5390780488.5829144       -205310382.39449644        979930048.77534354     
  -5288818228.7833996       -107026791.09819126        914737334.74512494     
  -5211023563.4661970       -89301848.076259613        877499601.28715932     
  -6494865367.0695324       -701874097.54472160        1237016205.9333460     
  -6237772633.9887609       -376391356.42219782        1052598011.8741770     
  -6011581492.3848534       -153913920.22255993        907125397.49921131     
  -5816291942.2578125       -34441788.945809841        800598362.80844927     
  -5651903983.6076393       -17974962.591945648        733016907.80188954     
  -3763663391.8949671       -265866831.18512821        1224526143.0282738     
  -3654518314.4514427       -174584881.65753007        1190409186.8147800     
  -3552983302.3902187       -108669816.73760533        1166111382.5394521     
  -3459058355.7112975       -68121636.425354958        1151632730.2022908     
  -3372743474.4146795       -52940340.720780373        1146973229.8032954     
  -4266903267.6098619       -213247782.37284899        1123254218.9003513     
  -4143260355.3583679       -150041077.62958145        1088463104.2065921     
  -4023914494.2806168       -101157876.79879355        1061483920.8387196     
  -3908865684.3766112       -66598179.880481482        1042316668.7967315     
  -3798113925.6463461       -46361986.874645233        1030961348.0806284     
  -4749356658.1336050       -154392788.00322747        1007578704.9866459     
  -4616950827.1092281       -120981802.85481238        975978615.05594075     
  -4485529033.0500412       -90850940.923683405        950183235.83884072     
  -4355091275.9560394       -64000202.209838152        930192567.33534503     
  -4225637555.8272200       -40429586.713276148        916006609.54545367     
  -5211023563.4661970       -89301848.076259613        877499601.28715932     
  -5075589729.7040329       -87407057.333227396        852955719.36282599     
  -4937826918.6984940       -77749009.112287521        832209327.53981662     
  -4797735130.4495792       -60327703.413431168        815260425.81813085     
  -4655314364.9572945       -35143140.236666918        802109014.19776833     
  -5651903983.6076393       -17974962.591945648        733016907.80188954     
  -5519177063.1427717       -49316841.064822435        719394417.12724686     
  -5380808151.2259684       -61852081.364592791        707562195.94164717     
  -5236797247.8572369       -55580683.491258383        697520244.24508989     
  -5087144353.0365705       -30502647.444815636        689268562.03757501     
  -3372743474.4146795       -52940340.720780373        1146973229.8032954     
  -3274004910.0145445       -46930947.909451604        1138554603.7539649     
  -3176161120.5558186       -43904138.236155629        1129890699.5295732     
  -3079212106.0385075       -43859911.700908184        1120981517.1301219     
  -2983157866.4626093       -46798268.303701878        1111827056.5556095     
  -3798113925.6463461       -46361986.874645233        1030961348.0806284     
  -3696291928.9418068       -37469756.366593122        1021539643.7501740     
  -3595886090.2218037       -33298052.473662615        1014069818.3604621     
  -3496896409.4863396       -33846875.195856810        1008551871.9114940     
  -3399322886.7354116       -39116224.533181667        1004985804.4032680     
  -4225637555.8272200       -40429586.713276148        916006609.54545367     
  -4114454535.0588369       -26771240.980666637        904973546.71689522     
  -4005209055.3181176       -19571365.340264797        898089519.94488370     
  -3897901116.6050601       -18829959.792075157        895354529.22941804     
  -3792530718.9196692       -24547024.336096048        896768574.57049704     
  -4655314364.9572945       -35143140.236666918        802109014.19776833     
  -4528492728.3656301       -14835401.751666546        788856312.65412712     
  -4404130015.8447561       -2724076.8359677792        781949804.28283477     
  -4282226227.3946714        1190834.5104415417        781389489.08389354     
  -4162781363.0153713       -3090667.7124414444        787175367.05729890     
  -5087144353.0365705       -30502647.444815636        689268562.03757501     
  -4938406508.8621912       -1662238.6796000004        673187941.56187260     
  -4792648971.8017244        17243813.039232731        665650671.37431943     
  -4649871741.8551731        26215507.711691141        666656751.47492182     
  -4510074819.0225325        25252845.337766886        676206181.86367464     
  -2983157866.4626093       -46798268.303701878        1111827056.5556095     
  -2887402763.2610826       -52366175.458642602        1085173733.8499644     
  -2792427484.8806744       -60533498.683980823        1066150324.6427139     
  -2698232031.3213859       -71300237.979715824        1054756828.9338597     
  -2604816402.5832109       -84666393.345832944        1050993246.7233990     
  -3399322886.7354116       -39116224.533181667        1004985804.4032680     
  -3285090709.0340562       -42259202.472871780        984831228.62468457     
  -3171335488.7904758       -46992038.605133772        970700274.52866936     
  -3058057226.0046592       -53314732.929953098        962592942.11522198     
  -2945255920.6766162       -61227285.447339892        960509231.38434482     
  -3792530718.9196692       -24547024.336096048        896768574.57049704     
  -3664410871.9065595       -26641894.616958618        883466090.97621477     
  -3536465114.9878764       -29317065.212563276        874580937.24867475     
  -3408693448.1636076       -32572536.122898102        870113113.38787782     
  -3281095871.4337659       -36408307.347968459        870062619.39382529     
  -4162781363.0153713       -3090667.7124414444        787175367.05729890     
  -4025363251.8785863       -5514251.8909046650        781078320.90455914     
  -3887816363.4728756       -7508578.5062756538        777792312.80273747     
  -3750140697.7982306       -9073647.5585393906        777317342.75182915     
  -3612336254.8546629       -10209459.047717333        779653410.75183797     
  -4510074819.0225325        25252845.337766886        676206181.86367464     
  -4367947848.9501429        21123725.705290794        677667918.40971637     
  -4225389234.2454758        18433421.513736486        680334401.19084883     
  -4082398974.9085321        17181932.763106823        684205630.20707285     
  -3938977070.9393077        17369259.453402996        689281605.45838737     
  -2604816402.5832109       -84666393.345832944        1050993246.7233990     
  -2501790542.2266192       -95430248.492075443        1032378391.8904167     
  -2398169979.6416383       -104211762.87702596        1015311851.0632230     
  -2293954714.8282747       -111010936.50070131        999793624.24182308     
  -2189144747.7865210       -115827769.36307514        985823711.42621303     
  -2945255920.6766162       -61227285.447339892        960509231.38434482     
  -2836441261.4935579       -70446849.100697875        944586620.57869267     
  -2727222843.0675573       -78320548.610896587        931212242.98155546     
  -2617600665.3985991       -84848383.977912307        920386098.59293318     
  -2507574728.4866905       -90030355.201761007        912108187.41282582     
  -3281095871.4337659       -36408307.347968459        870062619.39382529     
  -3163635501.4164658       -43226505.906109333        856609485.79916167     
  -3045962315.1416473       -49335316.939198136        846704504.61573648     
  -2928076312.6093183       -54734740.447244883        840347675.84355128     
  -2809977493.8194714       -59424776.430235267        837538999.48260808     
  -3612336254.8546629       -10209459.047717333        779653410.75183797     
  -3483373261.9953322       -13769218.908309221        768446987.55182230     
  -3354388395.8639231       -17256067.861965656        761788635.96577036     
  -3225381656.4604325       -20670005.908687592        759678355.99368048     
  -3096353043.7848668       -24011033.048493266        762116147.63555419     
  -3938977070.9393077        17369259.453402996        689281605.45838737     
  -3795654543.2301636        17925011.892703056        680099125.83667612     
  -3652501085.2343769        17917198.620815039        676464637.03165293     
  -3509516696.9519463        17345819.637734890        678378139.04331720     
  -3366701378.3828721        16210874.943469286        685839631.87167084     
  -2189144747.7865210       -115827769.36307514        985823711.42621303     
  -2100906208.2513399       -131950282.62916505        964799438.26406682     
  -2017438800.9347084       -163976569.95708990        939116117.60419357     
  -1938742525.8366232       -211906631.34683388        908773749.44658351     
  -1864817382.9570858       -275740466.79840684        873772333.79124117     
  -2507574728.4866905       -90030355.201761007        912108187.41282582     
  -2428083507.6013012       -109138508.75451493        893480956.56238389     
  -2352138310.2583737       -140066740.78214586        873473060.46829665     
  -2279739136.4579258       -182815051.28470588        852084499.13056624     
  -2210885986.1999435       -237383440.26214993        829315272.54918337     
  -2809977493.8194714       -59424776.430235267        837538999.48260808     
  -2729866785.1436191       -78708528.337558627        822738104.39929366     
  -2652076991.3341603       -105728663.13285553        809834926.32641757     
  -2576608112.3910961       -140485180.81613839        798829465.26398230     
  -2503460148.3144221       -182978081.38738108        789721721.21199071     
  -3096353043.7848668       -24011033.048493266        762116147.63555419     
  -3006256040.8783083       -40660341.378316998        752570881.77478838     
  -2917254844.1620631       -60962337.009201169        748201715.17855000     
  -2829349453.6361303       -84917019.941120028        749008647.84684277     
  -2742539869.3005114       -112524390.17409468        754991679.77965474     
  -3366701378.3828721        16210874.943469286        685839631.87167084     
  -3257251274.8053551        5006052.1232089996        682979288.68887603     
  -3147671868.7420759       -5767762.4111675024        688573427.02469957     
  -3037963160.1930351       -16110568.659683108        702622046.87913775     
  -2928125149.1582255       -26022366.622292399        725125148.25218785     
  -1864817382.9570858       -275740466.79840684        873772333.79124117     
  -1832598977.4413989       -409980994.39218301        768813081.41956532     
  -1833781750.2124565       -655558782.94178677        634944811.63710999     
  -1868365701.2702692       -1012473832.4472237        472167524.44386905     
  -1936350830.6148305       -1480726142.9084995        280481219.83986336     
  -2210885986.1999435       -237383440.26214993        829315272.54918337     
  -2228454674.1470942       -350903099.04774535        720331018.72140527     
  -2264251878.1209602       -525184477.92238951        597176279.14649022     
  -2318277598.1215458       -760227576.88607693        459851053.82443613     
  -2390531834.1488390       -1056032395.9388231        308355342.75523478     
  -2503460148.3144221       -182978081.38738108        789721721.21199071     
  -2528705839.2568741       -263143844.22453642        694413905.23148525     
  -2557007383.9660006       -353495786.28395379        599674135.16747713     
  -2588364782.4418111       -454033907.56563717        505502411.01996887     
  -2622778034.6842947       -564758208.06958747        411898732.78896272     
  -2742539869.3005114       -112524390.17409468        754991679.77965474     
  -2733352472.7707233       -146703229.92254651        691061740.94979930     
  -2712048267.7475724       -140492708.02647364        642438379.70007920     
  -2678627254.2310805       -93892824.485900283        609121596.03050137     
  -2633089432.2212119       -6903579.3007804155        591111389.94106150     
  -2928125149.1582255       -26022366.622292399        725125148.25218785     
  -2842394574.6886492       -1581256.1417863369        710274525.87634933     
  -2729374529.4656820        113824756.85004056        725469012.74429333     
  -2589065013.4893236        320195672.35315871        770708608.85601711     
  -2421466026.7595735        617531490.36757994        845993314.21151114     
  -5956841852.8545246       -1787052555.8563573        1150301966.0261343     
  -6087286841.6046371       -1502221641.9329844        1228049446.9496527     
  -6220439090.2238426       -1226414927.5732543        1268417647.2420275     
  -6356298598.7121410       -959632412.77716696        1271406566.9032583     
  -6494865367.0695324       -701874097.54472160        1237016205.9333460     
  -6809673045.5593176       -2042901913.6677952        1353922906.2201078     
  -6827603078.0554419       -1395415239.5010784        1202813880.5696638     
  -6896890989.9427176       -919121496.63819313        1091944311.0741975     
  -7017536781.2211409       -614020685.07913923        1021314197.7337095     
  -7189540451.8907166       -480112804.82391810        990923540.54819953     
  -8337155315.5932961       -2501146594.6779885        1712423864.2252092     
  -8020802572.4465170       -1424473814.4512529        1275699275.8917367     
  -7804458328.2129393       -681162697.26853633        956832880.49936402     
  -7688122582.8925705       -271213243.12984037        755824678.04809082     
  -7671795336.4854078       -194625452.03516722        672674668.53791606     
  -10539288662.956463       -3161786598.8869386        2225804840.0414395     
  -9666885324.7778568       -1589397366.7835069        1446705632.9158721     
  -8943141105.0345116       -512538529.46428442        863083355.51752567     
  -8368056003.7264299        68789913.070726871        474938007.84640062     
  -7941630020.8536129        154587960.82152987        282269589.90249693     
  -13416073087.648817       -4024821926.2946448        2894065833.6687980     
  -11765851335.049467       -1890185896.4978428        1715832951.6420696     
  -10312939320.407434       -413248993.22543716        810695736.12868428     
  -9057337043.7227230        405988783.52256870        178654187.12864184     
  -7999044504.9953270        567527433.74617529       -180291695.35805777     
  -6494865367.0695324       -701874097.54472160        1237016205.9333460     
  -6237772633.9887609       -376391356.42219782        1052598011.8741770     
  -6011581492.3848534       -153913920.22255993        907125397.49921131     
  -5816291942.2578125       -34441788.945809841        800598362.80844927     
  -5651903983.6076393       -17974962.591945648        733016907.80188954     
  -7189540451.8907166       -480112804.82391810        990923540.54819953     
  -6899560331.4116430       -304893842.41805792        846409850.66204917     
  -6622365664.6363392       -172293059.02475381        722924828.02500224     
  -6357956451.5647993       -82310454.644006729        620468472.63705897     
  -6106332692.1970310       -34946029.275814295        539040784.49821782     
  -7671795336.4854078       -194625452.03516722        672674668.53791606     
  -7400119006.9940386       -185027621.86177206        589200976.89340138     
  -7123111993.4333353       -157660844.79059982        508839040.06288785     
  -6840774295.8032999       -112525120.82165527        431588858.04637945     
  -6553105914.1039314       -49620449.954935789        357450430.84387273     
  -7941630020.8536129        154587960.82152987        282269589.90249693     
  -7739448660.7359438       -16792694.753338814        280971390.56823200     
  -7513820478.7758398       -110017277.52009964        264868033.61287063     
  -7264745474.9733086       -125085787.47875881        233959519.03641036     
  -6992223649.3283443       -61998224.629312992        188245846.83885643     
  -7999044504.9953270        567527433.74617529       -180291695.35805777     
  -7917549292.6373587        199810938.90724134       -78278908.313457191     
  -7794491120.6638575       -29362357.213251114       -8988191.3250546623     
  -7629869989.0748272       -119992454.61531544        27580455.607153576     
  -7423685897.8702660       -72079353.298939705        31427032.483163707     
  -5651903983.6076393       -17974962.591945648        733016907.80188954     
  -5519177063.1427717       -49316841.064822435        719394417.12724686     
  -5380808151.2259684       -61852081.364592791        707562195.94164717     
  -5236797247.8572369       -55580683.491258383        697520244.24508989     
  -5087144353.0365705       -30502647.444815636        689268562.03757501     
  -6106332692.1970310       -34946029.275814295        539040784.49821782     
  -5959117815.7253685       -36572655.674175024        532404862.09886390     
  -5810766971.4165688       -34412722.615412712        528265885.89080215     
  -5661280159.2706337       -28466230.099522591        526623855.87403280     
  -5510657379.2875576       -18733178.126504898        527478772.04855770     
  -6553105914.1039314       -49620449.954935789        357450430.84387273     
  -6389384005.3333359       -20926101.391143084        352544049.16921329     
  -6229032152.3403931       -3465272.0861971378        350841290.38809592     
  -6072050355.1251049        2762037.9598925114        352342154.50052398     
  -5918438613.6874752       -2244171.2528715134        357046641.50649697     
  -6992223649.3283443       -61998224.629312992        188245846.83885643     
  -6809975631.9666634       -2377178.2157120705        179811978.33829543     
  -6635603693.9974327        30990270.223050594        175288409.43353075     
  -6469107835.4206514        38104120.686982870        174675140.12456557     
  -6310488056.2363224        18964373.176079512        177972170.41139176     
  -7423685897.8702660       -72079353.298939705        31427032.483163707     
  -7220892695.6253576        19074113.852103233        14208649.606112020     
  -7030481596.3876915        68953904.312337875        1607243.0271057554     
  -6852452600.1572704        77560018.081754208       -6377187.2538538072     
  -6686805706.9340944        44892455.160358429       -9744641.2367615439     
  -5087144353.0365705       -30502647.444815636        689268562.03757501     
  -4938406508.8621912       -1662238.6796000004        673187941.56187260     
  -4792648971.8017244        17243813.039232731        665650671.37431943     
  -4649871741.8551731        26215507.711691141        666656751.47492182     
  -4510074819.0225325        25252845.337766886        676206181.86367464     
  -5510657379.2875576       -18733178.126504898        527478772.04855770     
  -5347010908.6411362       -4854188.1669697762        513512030.69879621     
  -5184342934.9829388        5763145.1651370525        505922748.37914902     
  -5022653458.3129663        13118821.869822502        504710925.08961868     
  -4861942478.6312237        17212841.947082520        509876560.83020419     
  -5918438613.6874752       -2244171.2528715134        357046641.50649697     
  -5746071777.3062534       -5183078.3201947212        347529224.42930841     
  -5572681627.7875719       -4710941.5959815979        342223375.12420088     
  -5398268165.1314335       -827761.08024501801        341129093.59117174     
  -5222831389.3378344        6466463.2270231247        344246379.83022082     
  -6310488056.2363224        18964373.176079512        177972170.41139176     
  -6135589114.8575535       -2648909.1392774582        175239522.75341040     
  -5957665050.2156324       -14178447.244133234        174552551.60947344     
  -5776715862.3105707       -15624241.138523102        175911256.97958508     
  -5592741551.1423626       -6986290.8224155903        179315638.86372933     
  -6686805706.9340944        44892455.160358429       -9744641.2367615439     
  -6515562921.2950220        2748319.3758029938       -3357074.3288970832     
  -6339293202.2671146       -22639371.779312849        2910277.8349717879     
  -6157996549.8503799       -31270618.304993153        9057415.2548456285     
  -5971672964.0448065       -23145420.201225281        15084337.930731084     
  -4510074819.0225325        25252845.337766886        676206181.86367464     
  -4367947848.9501429        21123725.705290794        677667918.40971637     
  -4225389234.2454758        18433421.513736486        680334401.19084883     
  -4082398974.9085321        17181932.763106823        684205630.20707285     
  -3938977070.9393077        17369259.453402996        689281605.45838737     
  -4861942478.6312237        17212841.947082520        509876560.83020419     
  -4714600094.0710697        15649823.446364164        508875282.06374335     
  -4567364790.5720301        13729868.075254917        510088937.17621803     
  -4420236568.1341038        11452975.833773375        513517526.16763741     
  -4273215426.7572947        8819146.7219002247        519161049.03799099     
  -5222831389.3378344        6466463.2270231247        344246379.83022082     
  -5067387339.8789186        8335420.9813647270        340153572.44229871     
  -4912589097.1745148        8051689.5539963245        339285886.57716632     
  -4758436661.2246151        5615268.9449551105        341643322.23481274     
  -4604930032.0292292        1026159.1542050838        347225879.41524845     
  -5592741551.1423626       -6986290.8224155903        179315638.86372933     
  -5426309586.3736992       -819481.68972611427        171502789.54538593     
  -5261062154.0529404        1398885.9499480724        167925249.39368144     
  -5096999254.1800728       -331187.90336036682        168583018.40860680     
  -4934120886.7551146       -6009703.2496864796        173476096.59016305     
  -5971672964.0448065       -23145420.201225281        15084337.930731084     
  -5791366833.5553999       -11814884.566884518        2922933.3730101520     
  -5612783961.2072906       -6228542.7368721962       -3992974.3742280882     
  -5435924347.0004625       -6386394.7111291885       -5663385.3109880388     
  -5260787990.9349375       -12288440.489729166       -2088299.4372622548     
  -3938977070.9393077        17369259.453402996        689281605.45838737     
  -3795654543.2301636        17925011.892703056        680099125.83667612     
  -3652501085.2343769        17917198.620815039        676464637.03165293     
  -3509516696.9519463        17345819.637734890        678378139.04331720     
  -3366701378.3828721        16210874.943469286        685839631.87167084     
  -4273215426.7572947        8819146.7219002247        519161049.03799099     
  -4115522091.5921159        9508464.6950125694        510836279.99140203     
  -3957641572.7624278        10821728.216499567        507987164.58650023     
  -3799573870.2682309        12758937.286355019        510613702.82328808     
  -3641318984.1095233        15320091.904566288        518715894.70176238     
  -4604930032.0292292        1026159.1542050838        347225879.41524845     
  -4433072567.0508776        1787039.3682749271        340174449.88463038     
  -4260671665.0301499        4359376.3902862072        338526336.82069784     
  -4087727325.9670467        8743170.2201993465        342281540.22345161     
  -3914239549.8615689        14938420.858037949        351440060.09288514     
  -4934120886.7551146       -6009703.2496864796        173476096.59016305     
  -4748305969.6064491       -5239264.0875020027        168113635.51635903     
  -4561591362.0375443       -1469856.8578608036        168082153.73423499     
  -4373977064.0483894        5298518.4392852783        173381651.24379870     
  -4185463075.6389952        15065861.803900719        184012128.04504955     
  -5260787990.9349375       -12288440.489729166       -2088299.4372622548     
  -5061222299.2588186       -11570445.672315359       -5346163.1134104757     
  -4860400663.7845898       -6665971.5278499126       -3345384.6728731529     
  -4658323084.5122499        2424981.9436445236        3914035.8843492321     
  -4454989561.4418058        15702414.742151260        16432098.558249153     
  -3366701378.3828721        16210874.943469286        685839631.87167084     
  -3257251274.8053551        5006052.1232089996        682979288.68887603     
  -3147671868.7420759       -5767762.4111675024        688573427.02469957     
  -3037963160.1930351       -16110568.659683108        702622046.87913775     
  -2928125149.1582255       -26022366.622292399        725125148.25218785     
  -3641318984.1095233        15320091.904566288        518715894.70176238     
  -3511820342.3070998        8920487.2570452690        514989380.28370035     
  -3382729028.7574391        1163121.7669754028        517121440.32632154     
  -3254045043.4605451       -7952004.5656505823        525112074.82962674     
  -3125768386.4164138       -18424891.740825057        538961283.79361737     
  -3914239549.8615689        14938420.858037949        351440060.09288514     
  -3772109247.1426053        11118971.190744400        346221305.24460959     
  -3630922903.4149427        4152991.5524635315        344265217.79908466     
  -3490680518.6785698       -5959518.0567920208        345571797.75630867     
  -3351382092.9334893       -19218557.637018919        350141045.11628789     
  -4185463075.6389952        15065861.803900719        184012128.04504955     
  -4038117989.3118715        11601503.924326420        176675063.57160538     
  -3892253492.7145782        3201846.9453184605        170004759.44297969     
  -3747869585.8470984       -10133109.133072138        164001215.65917972     
  -3604966268.7094398       -28403364.310858011        158664432.22019744     
  -4454989561.4418058        15702414.742151260        16432098.558249153     
  -4309846568.8149033        10368085.457748413        6350655.2646859400     
  -4166720796.6563530       -1690312.0544719696       -5659934.7419752283     
  -4025612244.9661522       -20472777.794525146       -19599671.461755965     
  -3886520913.7442889       -45979311.762393236       -35468554.894649073     
  -2928125149.1582255       -26022366.622292399        725125148.25218785     
  -2842394574.6886492       -1581256.1417863369        710274525.87634933     
  -2729374529.4656820        113824756.85004056        725469012.74429333     
  -2589065013.4893236        320195672.35315871        770708608.85601711     
  -2421466026.7595735        617531490.36757994        845993314.21151114     
  -3125768386.4164138       -18424891.740825057        538961283.79361737     
  -2975458137.7900991        2819505.6809271574        535296159.86517286     
  -2808186358.4128304        80602338.939210176        552000302.13477349     
  -2623953048.2845783        214923608.03406990        589073710.60240471     
  -2422758207.4053774        405783312.96545517        646516385.26809132     
  -3351382092.9334893       -19218557.637018919        350141045.11628789     
  -3164137435.9954014       -9464453.0275017023        345612156.29907322     
  -2970259188.3087835        22401620.743765354        351776690.63416147     
  -2769747349.8736191        76379663.676845670        368634648.12155885     
  -2562601920.6899347        152469675.77170432        396186028.76124942     
  -3604966268.7094398       -28403364.310858011        158664432.22019744     
  -3408432469.3045521       -38433132.267108679        141222515.17805389     
  -3215593019.1535525       -60777397.736321092        124798178.24246514     
  -3026447918.2564411       -95436160.718499660        109391421.41345154     
  -2840997166.6132264       -142409421.21365368        95002244.691002727     
  -3886520913.7442889       -45979311.762393236       -35468554.894649073     
  -3708343237.7175584       -84086532.037858725       -77872763.497896299     
  -3544187850.9471536       -168934716.50110042       -128935235.04031403     
  -3394054753.4330468       -300523865.15200281       -188655969.52190593     
  -3257943945.1752748       -478853977.99066520       -257034966.94267765     
 </DataArray>
 <DataArray  type="Float64" Name="VM" NumberOfComponents="1" format="ascii">
   12936409298.285429     
   11342501139.181982     
   10212993753.815081     
   9276409958.1378918     
   8308290987.7001629     
   10131378084.177036     
   9323972855.9824371     
   8829180890.6003380     
   8447085198.1166553     
   8039869215.7879858     
   7983530243.5855408     
   7736855026.5765505     
   7671700014.2783537     
   7672711851.5631332     
   7669946377.6797876     
   6492774882.0253239     
   6588413125.9086628     
   6759354726.7507133     
   6963494607.4005814     
   7174159471.4042006     
   5658651993.9695034     
   5891798631.0809679     
   6117322442.3565483     
   6332761582.9933043     
   6537896996.8390512     
   8308290987.7001629     
   8025916500.8232422     
   7785721551.8420563     
   7576989800.4801798     
   7394744753.8009644     
   8039869215.7879858     
   7751605110.8773851     
   7479033434.1764326     
   7220193016.8027086     
   6975097695.4806042     
   7669946377.6797876     
   7385120353.2327528     
   7105686349.0817881     
   6831726796.6316977     
   6563450377.2555151     
   7174159471.4042006     
   6913915119.4351807     
   6661559882.4977732     
   6413231737.4813910     
   6165782693.5210590     
   6537896996.8390512     
   6330341863.9836578     
   6144959932.5250635     
   5967818420.0235395     
   5789899605.8021269     
   7394744753.8009644     
   7236867660.9450703     
   7071426195.5617275     
   6897717171.7446690     
   6715552517.8565416     
   6975097695.4806042     
   6821639204.3759613     
   6663546643.8802090     
   6500535498.9055080     
   6332556534.2005892     
   6563450377.2555151     
   6413432643.6981659     
   6261789836.3270779     
   6108490773.2218046     
   5953565499.2601862     
   6165782693.5210590     
   6017236939.6293221     
   5870037908.6152296     
   5724223613.1750984     
   5579849569.7282686     
   5789899605.8021269     
   5639503606.9675407     
   5493300997.9040365     
   5351203445.0343132     
   5213259176.2401476     
   6715552517.8565416     
   6523132884.2027760     
   6334295829.2893829     
   6148920151.2395229     
   5966981505.4496107     
   6332556534.2005892     
   6148338609.4336472     
   5966419202.4485769     
   5786773089.6507950     
   5609423274.6908255     
   5953565499.2601862     
   5780403368.4612818     
   5608636971.5880156     
   5438290640.7028561     
   5269423425.2238445     
   5579849569.7282686     
   5421110537.6020555     
   5263285410.2293072     
   5106416191.6020536     
   4950612053.1857901     
   5213259176.2401476     
   5072830008.0783625     
   4933315692.2952967     
   4794758908.2511196     
   4657360088.4752512     
   5966981505.4496107     
   5792102378.0042953     
   5615664668.6547012     
   5437633358.0605841     
   5258037818.6251173     
   5609423274.6908255     
   5445013674.8968554     
   5280027402.8585691     
   5114494323.9613686     
   4948492616.6029673     
   5269423425.2238445     
   5114586442.0570221     
   4960132403.3101025     
   4806135652.6615210     
   4652706763.1195745     
   4950612053.1857901     
   4804312706.7734356     
   4659293500.5126705     
   4515651639.3386078     
   4373514222.9837952     
   4657360088.4752512     
   4518402680.0879011     
   4381515329.3421440     
   4246796249.9775357     
   4114375361.1495504     
   5258037818.6251173     
   5059307961.9631166     
   4861664859.9071484     
   4665107668.4130774     
   4469665998.9807234     
   4948492616.6029673     
   4759093234.6963072     
   4570782439.0641413     
   4383599818.1933279     
   4197628696.7789249     
   4652706763.1195745     
   4475189416.0562840     
   4299050326.7574463     
   4124396905.1393251     
   3951407614.0323343     
   4373514222.9837952     
   4210631130.8322191     
   4049755625.3169379     
   3891096068.7442575     
   3734973752.0032086     
   4114375361.1495504     
   3969022637.0270290     
   3826688819.3982997     
   3687713081.3104439     
   3552600294.0931826     
   4469665998.9807234     
   4309281791.1998224     
   4147959536.5470839     
   3985704910.8357639     
   3822655361.9455223     
   4197628696.7789249     
   4052024916.7274466     
   3906486504.4208441     
   3761100118.9010072     
   3616039922.6777787     
   3951407614.0323343     
   3817309103.2605834     
   3683964251.7939281     
   3551483910.8174772     
   3420026687.1937451     
   3734973752.0032086     
   3609098827.3136983     
   3484257852.0212193     
   3360536295.5449300     
   3238039115.3570366     
   3552600294.0931826     
   3431765218.3030858     
   3311763395.4515500     
   3192613528.4733248     
   3074342790.7955475     
   3822655361.9455223     
   3617711870.7903500     
   3415616170.2443538     
   3216557189.8350987     
   3020957654.7423344     
   3616039922.6777787     
   3410335801.3252168     
   3206372165.1424832     
   3004249758.8979716     
   2804150370.8738384     
   3420026687.1937451     
   3223820959.8169951     
   3029541775.7189450     
   2837446548.0391860     
   2647976698.3240476     
   3238039115.3570366     
   3062385522.2931833     
   2890420830.6019683     
   2722963946.8158212     
   2561426443.7338943     
   3074342790.7955475     
   2930606710.4250512     
   2794051328.4006996     
   2666429376.2017531     
   2550670787.6195073     
   5658651993.9695034     
   5891798631.0809679     
   6117322442.3565483     
   6332761582.9933043     
   6537896996.8390512     
   5151850832.3736486     
   5311618415.0266571     
   5468027112.0158501     
   5618176037.1925230     
   5760598441.0025425     
   4643345274.1085119     
   4755191144.1359653     
   4868161883.5077105     
   4979615658.6528196     
   5087622307.6740332     
   4133394958.3337226     
   4223353403.2331576     
   4319226670.2180185     
   4419351551.8490086     
   4522267778.8366861     
   3623520701.0128665     
   3717933906.4961977     
   3823591507.8338385     
   3940427072.7277274     
   4068345929.2404718     
   6537896996.8390512     
   6330341863.9836578     
   6144959932.5250635     
   5967818420.0235395     
   5789899605.8021269     
   5760598441.0025425     
   5652627464.0279598     
   5560638652.9147778     
   5475564527.2128887     
   5391859015.2551060     
   5087622307.6740332     
   5053351527.6427736     
   5029563627.6177864     
   5011058027.6256104     
   4994629966.4038954     
   4522267778.8366861     
   4537140895.5954218     
   4556627720.9573860     
   4578262598.6310959     
   4600324900.2717266     
   4068345929.2404718     
   4109374936.0712123     
   4147643673.4192715     
   4182275702.0143600     
   4212557513.1629333     
   5789899605.8021269     
   5639503606.9675407     
   5493300997.9040365     
   5351203445.0343132     
   5213259176.2401476     
   5391859015.2551060     
   5250624469.3515768     
   5112623816.0458431     
   4977900183.2325983     
   4846549581.4777813     
   4994629966.4038954     
   4867227229.9787970     
   4743071972.1454382     
   4622131489.1321306     
   4504447006.6168680     
   4600324900.2717266     
   4491965252.3572922     
   4387959553.7162828     
   4287982882.8933082     
   4191943442.5277028     
   4212557513.1629333     
   4128798797.6692348     
   4051778312.2503366     
   3980624287.4912939     
   3915036697.5320120     
   5213259176.2401476     
   5072830008.0783625     
   4933315692.2952967     
   4794758908.2511196     
   4657360088.4752512     
   4846549581.4777813     
   4723976785.4638186     
   4603175693.1246014     
   4484278538.5775223     
   4367539071.3922901     
   4504447006.6168680     
   4397897154.9400187     
   4293863072.0173869     
   4192528682.9464369     
   4094163413.1480603     
   4191943442.5277028     
   4099483621.5454192     
   4010103600.7561355     
   3924002694.4240561     
   3841433825.2629151     
   3915036697.5320120     
   3834619574.2457066     
   3757592039.7508893     
   3684137236.9838920     
   3614468917.5774755     
   4657360088.4752512     
   4518402680.0879011     
   4381515329.3421440     
   4246796249.9775357     
   4114375361.1495504     
   4367539071.3922901     
   4237437366.3368139     
   4109891878.5958328     
   3985084548.7609110     
   3863244552.6727290     
   4094163413.1480603     
   3975916943.7488737     
   3861073502.2175689     
   3749910998.4244981     
   3642781471.6069241     
   3841433825.2629151     
   3738046129.2337565     
   3639296526.5108819     
   3545562558.6142731     
   3457330761.4467993     
   3614468917.5774755     
   3528760906.7500129     
   3449318226.8159404     
   3376601135.3578820     
   3311215819.7414217     
   4114375361.1495504     
   3969022637.0270290     
   3826688819.3982997     
   3687713081.3104439     
   3552600294.0931826     
   3863244552.6727290     
   3735679556.8770237     
   3611750772.0622654     
   3491828898.3328834     
   3376408017.6731453     
   3642781471.6069241     
   3530909067.6883249     
   3423042550.9458809     
   3319536875.4789343     
   3220829853.9155335     
   3457330761.4467993     
   3359062127.6153178     
   3264852368.6985927     
   3175000033.1196222     
   3089853612.5692096     
   3311215819.7414217     
   3224499141.8234935     
   3141523164.0380659     
   3062500341.2287588     
   2987672721.9956045     
   3552600294.0931826     
   3431765218.3030858     
   3311763395.4515500     
   3192613528.4733248     
   3074342790.7955475     
   3376408017.6731453     
   3260708474.7593303     
   3147109780.5749121     
   3035823530.9709020     
   2927100249.6615982     
   3220829853.9155335     
   3116123673.7259450     
   3015504061.4571810     
   2919431515.7697768     
   2828466821.8753700     
   3089853612.5692096     
   3001596535.0537734     
   2920073715.3594856     
   2845994489.0615511     
   2780234702.6543875     
   2987672721.9956045     
   2920422059.8731246     
   2863091287.1853318     
   2816558819.2371221     
   2781918485.0856853     
   3074342790.7955475     
   2930606710.4250512     
   2794051328.4006996     
   2666429376.2017531     
   2550670787.6195073     
   2927100249.6615982     
   2817411268.3714600     
   2714609047.0944548     
   2619765227.6662588     
   2534328477.3379216     
   2828466821.8753700     
   2739482293.3584919     
   2654820180.4393320     
   2574805425.3721161     
   2499814298.1581645     
   2780234702.6543875     
   2698822805.5291591     
   2617004470.6462674     
   2534521775.9134336     
   2451248109.0346012     
   2781918485.0856853     
   2696076626.5111189     
   2603382774.6210365     
   2503216809.9698887     
   2395493581.9719324     
   3623520701.0128665     
   3717933906.4961977     
   3823591507.8338385     
   3940427072.7277274     
   4068345929.2404718     
   3135871241.2086372     
   3253177656.1183181     
   3379872982.8474431     
   3515488874.6107163     
   3659568294.9188194     
   2692299449.1113486     
   2827831596.4328341     
   2970622455.9630966     
   3119589829.4756575     
   3273824084.6522293     
   2296337140.3884263     
   2446740691.2815952     
   2601781434.9767747     
   2759531682.0396619     
   2918561942.4523621     
   1953258072.1112268     
   2116936278.8134670     
   2281846862.5529079     
   2445014518.2687783     
   2604478873.0070524     
   4068345929.2404718     
   4109374936.0712123     
   4147643673.4192715     
   4182275702.0143600     
   4212557513.1629333     
   3659568294.9188194     
   3698143080.1387029     
   3735245054.4575248     
   3769984779.5827470     
   3801619741.5341182     
   3273824084.6522293     
   3315997244.6667023     
   3358353172.2584643     
   3400069558.2586279     
   3440468266.3796711     
   2918561942.4523621     
   2970400030.7875428     
   3024453009.2255206     
   3080034987.1052141     
   3136611844.5126662     
   2604478873.0070524     
   2671514949.8563643     
   2743122968.0661306     
   2818790067.2333951     
   2898165587.3685603     
   4212557513.1629333     
   4128798797.6692348     
   4051778312.2503366     
   3980624287.4912939     
   3915036697.5320120     
   3801619741.5341182     
   3749502980.2724309     
   3703433103.8803954     
   3662925610.4828644     
   3627869942.4147925     
   3440468266.3796711     
   3414729515.7332191     
   3393894301.4434595     
   3377726888.4096642     
   3366189085.5638304     
   3136611844.5126662     
   3132342976.8872080     
   3131157265.1513791     
   3132949899.0187802     
   3137685242.4622641     
   2898165587.3685603     
   2910960373.3866472     
   2924155698.9108610     
   2937693273.0907707     
   2951522743.2621083     
   3915036697.5320120     
   3834619574.2457066     
   3757592039.7508893     
   3684137236.9838920     
   3614468917.5774755     
   3627869942.4147925     
   3557667509.3692927     
   3491710924.8652701     
   3430214515.5931282     
   3373432842.7818537     
   3366189085.5638304     
   3307764976.1247053     
   3254697723.6666718     
   3207211313.5173779     
   3165581832.7794285     
   3137685242.4622641     
   3092207283.6532254     
   3053445263.3216233     
   3021597135.4425611     
   2996926259.0151038     
   2951522743.2621083     
   2919416887.0823607     
   2895605267.6513233     
   2880211724.7690530     
   2873440945.7572770     
   3614468917.5774755     
   3528760906.7500129     
   3449318226.8159404     
   3376601135.3578820     
   3311215819.7414217     
   3373432842.7818537     
   3305555074.7496700     
   3244041065.7051563     
   3189252871.8348732     
   3141635677.8218622     
   3165581832.7794285     
   3112235573.3092332     
   3065010931.0567355     
   3024161098.7736478     
   2989978232.1642694     
   2996926259.0151038     
   2954602769.9551306     
   2917774160.4522176     
   2886596343.8887200     
   2861241910.4075685     
   2873440945.7572770     
   2838540397.4815555     
   2808103586.4012837     
   2782220075.5177360     
   2760996095.5640273     
   3311215819.7414217     
   3224499141.8234935     
   3141523164.0380659     
   3062500341.2287588     
   2987672721.9956045     
   3141635677.8218622     
   3062192964.2902241     
   2987819227.3627777     
   2918831409.6380277     
   2855582660.0595379     
   2989978232.1642694     
   2920264638.0327740     
   2857253835.1903291     
   2801315685.6974316     
   2752866555.3794923     
   2861241910.4075685     
   2803072409.7867932     
   2753497109.7580414     
   2712868510.1446462     
   2681599383.5344253     
   2760996095.5640273     
   2715189659.7921987     
   2680074178.5420732     
   2655906175.7892194     
   2643023375.4046488     
   2987672721.9956045     
   2920422059.8731246     
   2863091287.1853318     
   2816558819.2371221     
   2781918485.0856853     
   2855582660.0595379     
   2809122260.5082870     
   2771536662.3869567     
   2743349211.2234545     
   2725166544.2643652     
   2752866555.3794923     
   2721240386.9637022     
   2696930430.2073588     
   2680180913.5555348     
   2671256861.2895465     
   2681599383.5344253     
   2658953546.6270962     
   2641595492.8334565     
   2629592220.1596169     
   2623024531.3317304     
   2643023375.4046488     
   2623948544.7409692     
   2607723321.0322542     
   2594343116.7669277     
   2583854674.8700395     
   2781918485.0856853     
   2696076626.5111189     
   2603382774.6210365     
   2503216809.9698887     
   2395493581.9719324     
   2725166544.2643652     
   2633974691.7623539     
   2546594353.7309661     
   2463398883.1722341     
   2384793989.8197665     
   2671256861.2895465     
   2598229260.4927506     
   2540711129.6866579     
   2500586087.3397303     
   2480195301.3957825     
   2623024531.3317304     
   2588151099.4217558     
   2580866362.9186368     
   2604726349.0203180     
   2664666385.5740967     
   2583854674.8700395     
   2602353937.8372459     
   2661271385.1110601     
   2765892477.2925448     
   2923928574.0865746     
   1953258072.1112268     
   2116936278.8134670     
   2281846862.5529079     
   2445014518.2687783     
   2604478873.0070524     
   1652465622.7398632     
   1818463842.1995254     
   1986104353.0318222     
   2152678705.2612138     
   2316423807.2235856     
   1393195034.1641183     
   1570219055.1449795     
   1748271638.9773071     
   1925339245.9655821     
   2100164912.5413465     
   1207774772.9533155     
   1399589966.5007441     
   1591084725.8199444     
   1781475302.6317861     
   1970297830.7455475     
   1138687657.4774036     
   1337147966.9997709     
   1536094575.2839310     
   1735527621.6888103     
   1935447251.3063750     
   2604478873.0070524     
   2671514949.8563643     
   2743122968.0661306     
   2818790067.2333951     
   2898165587.3685603     
   2316423807.2235856     
   2403085686.4563551     
   2492212514.8354344     
   2583415550.1139493     
   2676422105.6763072     
   2100164912.5413465     
   2203959978.1165519     
   2307629352.9857111     
   2410940237.7235651     
   2513728265.3611526     
   1970297830.7455475     
   2087842057.3984725     
   2202426959.4048281     
   2313980753.7509360     
   2422452876.4587126     
   1935447251.3063750     
   2062793707.0254099     
   2184532049.0895810     
   2300662021.3727360     
   2411183572.7720771     
   2898165587.3685603     
   2910960373.3866472     
   2924155698.9108610     
   2937693273.0907707     
   2951522743.2621083     
   2676422105.6763072     
   2695312864.3370104     
   2715947366.1922917     
   2738303174.1537814     
   2762365111.7673521     
   2513728265.3611526     
   2539798777.1089182     
   2569068698.7800431     
   2601537085.4146895     
   2637209471.1449490     
   2422452876.4587126     
   2455150466.9085188     
   2492564088.9943776     
   2534697706.0262389     
   2581561143.8227115     
   2411183572.7720771     
   2448029546.8105378     
   2491141933.9182596     
   2540527640.1912971     
   2596198384.0252333     
   2951522743.2621083     
   2919416887.0823607     
   2895605267.6513233     
   2880211724.7690530     
   2873440945.7572770     
   2762365111.7673521     
   2745566787.3650479     
   2735745065.9711781     
   2732968311.5627794     
   2737326038.6414862     
   2637209471.1449490     
   2630869845.7615213     
   2629632383.8983026     
   2633528011.6890864     
   2642588659.1315603     
   2581561143.8227115     
   2581177267.9504366     
   2583514287.2743835     
   2588591439.7218947     
   2596444435.1792922     
   2596198384.0252333     
   2598217933.4976792     
   2600205377.1281013     
   2602184373.6403785     
   2604238495.9495120     
   2873440945.7572770     
   2838540397.4815555     
   2808103586.4012837     
   2782220075.5177360     
   2760996095.5640273     
   2737326038.6414862     
   2705155907.1924267     
   2678920053.0446224     
   2658702565.8664436     
   2644592482.3740678     
   2642588659.1315603     
   2613891094.1087675     
   2592840377.8473692     
   2579478163.6408005     
   2573854918.2662845     
   2596444435.1792922     
   2570851658.6194329     
   2554793720.7330360     
   2548247514.6961565     
   2551219460.6253176     
   2604238495.9495120     
   2580096002.6674047     
   2567487243.2508931     
   2566334537.2334495     
   2576626173.7341981     
   2760996095.5640273     
   2715189659.7921987     
   2680074178.5420732     
   2655906175.7892194     
   2643023375.4046488     
   2644592482.3740678     
   2612610802.0698314     
   2590003778.8424749     
   2576901398.8420711     
   2573458848.4640818     
   2573854918.2662845     
   2550766322.5131893     
   2535362236.4938684     
   2527690114.5507765     
   2527799166.3445511     
   2551219460.6253176     
   2532475287.5073156     
   2519392804.4227505     
   2511978419.0611463     
   2510243590.8424196     
   2576626173.7341981     
   2558507370.3102136     
   2543762651.7902541     
   2532383102.9835091     
   2524389029.7532449     
   2643023375.4046488     
   2623948544.7409692     
   2607723321.0322542     
   2594343116.7669277     
   2583854674.8700395     
   2573458848.4640818     
   2548211478.8011985     
   2525055322.3601837     
   2504023219.4464626     
   2485194782.8232288     
   2527799166.3445511     
   2495524932.7600884     
   2464642485.5364118     
   2435222108.0665731     
   2407376768.4816341     
   2510243590.8424196     
   2470641939.2917657     
   2431805607.8112078     
   2393839822.2930622     
   2356889074.3309398     
   2524389029.7532449     
   2477817645.7477736     
   2431492610.3748593     
   2385552394.4633512     
   2340172159.0421681     
   2583854674.8700395     
   2602353937.8372459     
   2661271385.1110601     
   2765892477.2925448     
   2923928574.0865746     
   2485194782.8232288     
   2526681322.1707387     
   2590674624.6413975     
   2677482649.9585242     
   2787831323.3950467     
   2407376768.4816341     
   2432007025.6309366     
   2462043197.8841724     
   2498177115.5799985     
   2541379105.5104723     
   2356889074.3309398     
   2332253843.2339878     
   2295455400.0997405     
   2254149083.5228529     
   2220707545.1803794     
   2340172159.0421681     
   2247451379.6995339     
   2126975901.8301640     
   2003749574.1508927     
   1923574087.2473581     
   1138687657.4774036     
   1337147966.9997709     
   1536094575.2839310     
   1735527621.6888103     
   1935447251.3063750     
   1209700164.4253447     
   1401991488.9535658     
   1594016063.9424031     
   1785004609.3030841     
   1974503107.1907129     
   1396471418.3958337     
   1574257585.4984031     
   1753190469.9878857     
   1931272538.5500004     
   2107255691.7877300     
   1656436823.3276672     
   1823225395.1589339     
   1991840136.1739802     
   2159582873.8213472     
   2324689935.7655945     
   1957440164.1197994     
   2121672620.3159568     
   2287369889.9845700     
   2451560533.3311796     
   2612270384.2474599     
   1935447251.3063750     
   2062793707.0254099     
   2184532049.0895810     
   2300662021.3727360     
   2411183572.7720771     
   1974503107.1907129     
   2092471136.8014336     
   2207562578.6731877     
   2319701234.2381625     
   2428834884.1543298     
   2107255691.7877300     
   2212020212.8859348     
   2316827591.4794102     
   2421446598.4468889     
   2525713858.3200216     
   2324689935.7655945     
   2412844514.0593119     
   2503730872.7035508     
   2596977846.6898599     
   2692321726.4694314     
   2612270384.2474599     
   2681176664.9017797     
   2755033221.9574633     
   2833372196.0781007     
   2915868410.8863745     
   2411183572.7720771     
   2448029546.8105378     
   2491141933.9182596     
   2540527640.1912971     
   2596198384.0252333     
   2428834884.1543298     
   2465897737.6105990     
   2508279433.4949183     
   2555990513.7173605     
   2609040736.4423733     
   2525713858.3200216     
   2558560429.1558332     
   2595730666.9600701     
   2637234710.3590145     
   2683086068.2021961     
   2692321726.4694314     
   2718097385.3625045     
   2747148120.5850682     
   2779464086.1533484     
   2815052069.3930359     
   2915868410.8863745     
   2933366701.0591779     
   2953046226.9668889     
   2974851541.6561766     
   2998763197.3733439     
   2596198384.0252333     
   2598217933.4976792     
   2600205377.1281013     
   2602184373.6403785     
   2604238495.9495120     
   2609040736.4423733     
   2607952663.7765684     
   2611147947.5790172     
   2618620742.8662405     
   2630388467.4678245     
   2683086068.2021961     
   2678063793.7595677     
   2681506048.9914794     
   2693419735.3518696     
   2713823615.8318710     
   2815052069.3930359     
   2802789134.7839236     
   2802937944.6525135     
   2815636656.7362037     
   2841049958.1626601     
   2998763197.3733439     
   2974112282.8307567     
   2965619974.0945926     
   2973755563.1803665     
   2999054309.7058582     
   2604238495.9495120     
   2580096002.6674047     
   2567487243.2508931     
   2566334537.2334495     
   2576626173.7341981     
   2630388467.4678245     
   2621680277.7524796     
   2622608360.3591943     
   2633193317.2841816     
   2653474082.4960690     
   2713823615.8318710     
   2715564670.8883052     
   2724962016.6756563     
   2742092504.8231950     
   2767029295.4044886     
   2841049958.1626601     
   2849616842.1626234     
   2863844277.6416349     
   2883802709.2736149     
   2909561089.4906173     
   2999054309.7058582     
   3012296474.3563147     
   3029183152.4102955     
   3049712657.7377019     
   3073904911.1966586     
   2576626173.7341981     
   2558507370.3102136     
   2543762651.7902541     
   2532383102.9835091     
   2524389029.7532449     
   2653474082.4960690     
   2641666080.1950727     
   2636154512.9020953     
   2636928388.7397318     
   2643995136.3137956     
   2767029295.4044886     
   2759539950.0292783     
   2761272856.8314929     
   2772249552.3435297     
   2792506089.6551151     
   2909561089.4906173     
   2903241399.7247448     
   2909157908.6005864     
   2927434490.4384289     
   2958206574.1582584     
   3073904911.1966586     
   3064957205.9062982     
   3071480022.7533627     
   3093799863.0451136     
   3132244178.5718174     
   2524389029.7532449     
   2477817645.7477736     
   2431492610.3748593     
   2385552394.4633512     
   2340172159.0421681     
   2643995136.3137956     
   2621610443.4019365     
   2605292575.8374076     
   2595011200.2699957     
   2590735088.6121764     
   2792506089.6551151     
   2795109519.6114426     
   2809870213.2000794     
   2836807851.0497546     
   2875993859.0193820     
   2958206574.1582584     
   2984637021.1957932     
   3029970529.9171848     
   3094495672.2928157     
   3178611877.1987100     
   3132244178.5718174     
   3180770481.1179280     
   3256198652.6293445     
   3359244290.1335220     
   3490720692.5362835     
   2340172159.0421681     
   2247451379.6995339     
   2126975901.8301640     
   2003749574.1508927     
   1923574087.2473581     
   2590735088.6121764     
   2515185051.4362521     
   2424606289.5233440     
   2323847793.4276958     
   2221631001.3789072     
   2875993859.0193820     
   2847896438.0788918     
   2828809516.5596910     
   2818534784.6602273     
   2816870327.9932022     
   3178611877.1987100     
   3218334753.9998460     
   3298309831.7436705     
   3421013085.5150356     
   3589267116.0409269     
   3490720692.5362835     
   3619132642.5319538     
   3827028624.2074809     
   4121916092.9777756     
   4511137503.9741631     
   1957440164.1197994     
   2121672620.3159568     
   2287369889.9845700     
   2451560533.3311796     
   2612270384.2474599     
   2300289226.7022133     
   2450886372.2436337     
   2606255215.9668250     
   2764467404.4816380     
   2924085071.0252924     
   2695621574.0504942     
   2831115359.7888026     
   2973923027.8927684     
   3122962157.4585161     
   3277320753.6436234     
   3138277165.4975629     
   3255458525.4038572     
   3382019751.1866751     
   3517497088.6410890     
   3661437503.6090417     
   3624787618.9356985     
   3719143383.5370355     
   3824679927.7417560     
   3941344399.8914490     
   4069053536.7636628     
   2612270384.2474599     
   2681176664.9017797     
   2755033221.9574633     
   2833372196.0781007     
   2915868410.8863745     
   2924085071.0252924     
   2977357208.9053440     
   3033137402.3743625     
   3090770708.3730168     
   3149744503.8235078     
   3277320753.6436234     
   3320328433.5752883     
   3363706997.9662986     
   3406641810.8414187     
   3448461201.1791558     
   3661437503.6090417     
   3700195126.2280211     
   3737556002.0132513     
   3772611869.7808013     
   3804606517.2472663     
   4069053536.7636628     
   4109631984.4175196     
   4147421327.7090526     
   4181502245.2709723     
   4211128929.9477959     
   2915868410.8863745     
   2933366701.0591779     
   2953046226.9668889     
   2974851541.6561766     
   2998763197.3733439     
   3149744503.8235078     
   3145499166.4358339     
   3145210373.9962339     
   3148785928.5362601     
   3156249008.9197307     
   3448461201.1791558     
   3419512041.1252027     
   3395622052.6935644     
   3376569068.8074703     
   3362367517.7665734     
   3804606517.2472663     
   3747783478.3437681     
   3696636342.3602886     
   3650691269.5537982     
   3609854751.7467270     
   4211128929.9477959     
   4123006480.7467480     
   4040896521.9682612     
   3963945305.5892572     
   3891823454.9937315     
   2998763197.3733439     
   2974112282.8307567     
   2965619974.0945926     
   2973755563.1803665     
   2999054309.7058582     
   3156249008.9197307     
   3111456777.9751987     
   3078146972.6555247     
   3056832642.9838481     
   3048086350.7348075     
   3362367517.7665734     
   3298300894.9812803     
   3241289306.3075385     
   3191729393.9972153     
   3150065690.8972101     
   3609854751.7467270     
   3530204824.8658767     
   3453601487.4611745     
   3380239109.2324724     
   3310336604.6586194     
   3891823454.9937315     
   3802180725.3169713     
   3712201422.1803417     
   3621907729.3591213     
   3531330135.0899334     
   2999054309.7058582     
   3012296474.3563147     
   3029183152.4102955     
   3049712657.7377019     
   3073904911.1966586     
   3048086350.7348075     
   3031738538.7965970     
   3020545016.5569229     
   3014670059.3535638     
   3014303811.4226651     
   3150065690.8972101     
   3103446622.8191099     
   3063055865.5634804     
   3029191591.0125461     
   3002206273.2540107     
   3310336604.6586194     
   3233173426.8649516     
   3162836886.0866642     
   3099685078.2946229     
   3044179510.6604838     
   3531330135.0899334     
   3423658977.1489830     
   3322997096.2229395     
   3229658052.7007532     
   3144114643.7699308     
   3073904911.1966586     
   3064957205.9062982     
   3071480022.7533627     
   3093799863.0451136     
   3132244178.5718174     
   3014303811.4226651     
   2978181747.9736943     
   2954335957.9198127     
   2943226131.1396670     
   2945321966.4918756     
   3002206273.2540107     
   2938938074.2785783     
   2884544993.2741208     
   2839507133.7849388     
   2804339584.7906332     
   3044179510.6604838     
   2956519145.5368414     
   2874287469.2187662     
   2797828975.9155912     
   2727533462.0435061     
   3144114643.7699308     
   3037553586.1131306     
   2933383078.6733909     
   2831723763.6722527     
   2732718832.2252240     
   3132244178.5718174     
   3180770481.1179280     
   3256198652.6293445     
   3359244290.1335220     
   3490720692.5362835     
   2945321966.4918756     
   2958538047.3936129     
   2990643977.4747100     
   3042226940.7528687     
   3113844355.4541149     
   2804339584.7906332     
   2776883347.1770678     
   2759740402.9789958     
   2753383956.5751176     
   2758246678.3582330     
   2727533462.0435061     
   2660123950.4830842     
   2593942229.9317536     
   2529270056.0218310     
   2466456345.6721902     
   2732718832.2252240     
   2635624493.9715490     
   2532183283.9208279     
   2422891616.9005265     
   2308637116.3601532     
   3490720692.5362835     
   3619132642.5319538     
   3827028624.2074809     
   4121916092.9777756     
   4511137503.9741631     
   3113844355.4541149     
   3177854382.6493378     
   3285673576.2077842     
   3439592997.8388181     
   3641672704.2321529     
   2758246678.3582330     
   2731729134.2992105     
   2715229190.2993655     
   2709230604.7640767     
   2714233391.6561561     
   2466456345.6721902     
   2340711263.3740978     
   2196178881.1139441     
   2041336210.9455471     
   1892651113.6620128     
   2308637116.3601532     
   2132696260.4351523     
   1949314195.9235034     
   1814675945.3174593     
   1819562666.3651991     
   3624787618.9356985     
   3719143383.5370355     
   3824679927.7417560     
   3941344399.8914490     
   4069053536.7636628     
   4133563127.5147099     
   4223521655.2209640     
   4319325688.3279819     
   4419331980.2765932     
   4522098478.3909216     
   4642677220.0072374     
   4754513751.5436087     
   4867403629.2839737     
   4978727489.8025694     
   5086574843.9064693     
   5150589155.0682459     
   5310275491.8808956     
   5466534356.2651615     
   5616487326.3620024     
   5758685129.8299389     
   5657023605.9669247     
   5889956982.1699438     
   6115207819.6046305     
   6330334908.8434801     
   6535132202.0447502     
   4069053536.7636628     
   4109631984.4175196     
   4147421327.7090526     
   4181502245.2709723     
   4211128929.9477959     
   4522098478.3909216     
   4536124954.6468821     
   4554717136.0263596     
   4575390809.3827181     
   4596425847.6822729     
   5086574843.9064693     
   5051275140.2704496     
   5026423705.8916063     
   5006814101.8312931     
   4989248833.6123476     
   5758685129.8299389     
   5649692462.8523674     
   5556678155.8020811     
   5470579578.2646179     
   5385852208.8208733     
   6535132202.0447502     
   6326730744.0393372     
   6140534579.3795795     
   5962632632.5266085     
   5784002968.3508806     
   4211128929.9477959     
   4123006480.7467480     
   4040896521.9682612     
   3963945305.5892572     
   3891823454.9937315     
   4596425847.6822729     
   4485723490.8429050     
   4378962716.1299486     
   4275817469.2376914     
   4176167456.1438651     
   4989248833.6123476     
   4861060303.3649387     
   4735953400.4903355     
   4613888161.0270510     
   4494887190.0093250     
   5385852208.8208733     
   5244826890.6633902     
   5107052528.7955904     
   4972566154.1560907     
   4841458573.9508209     
   5784002968.3508806     
   5634194193.4303093     
   5488719398.9189644     
   5347492246.8944845     
   5210572920.6366062     
   3891823454.9937315     
   3802180725.3169713     
   3712201422.1803417     
   3621907729.3591213     
   3531330135.0899334     
   4176167456.1438651     
   4081189603.5132890     
   3987076914.2263269     
   3893918556.9683905     
   3801834674.3595819     
   4494887190.0093250     
   4390470945.9601126     
   4287585516.6937790     
   4186355164.0959091     
   4086976644.8454280     
   4841458573.9508209     
   4723046402.1745024     
   4606376875.3494844     
   4491577774.5018616     
   4378907127.3604078     
   5210572920.6366062     
   5073381398.3859129     
   4937782650.9209499     
   4803872072.6010294     
   4671944905.7557678     
   3531330135.0899334     
   3423658977.1489830     
   3322997096.2229395     
   3229658052.7007532     
   3144114643.7699308     
   3801834674.3595819     
   3682995946.2350645     
   3568939139.7648153     
   3459952668.8392529     
   3356439355.1078515     
   4086976644.8454280     
   3958854251.1852565     
   3833854674.9762373     
   3712211294.2906990     
   3594229183.0735655     
   4378907127.3604078     
   4244011413.7200985     
   4111065935.4990425     
   3980235782.3882942     
   3851723740.7194533     
   4671944905.7557678     
   4533142770.5420179     
   4395532623.5908947     
   4259205576.9906130     
   4124268003.6772089     
   3144114643.7699308     
   3037553586.1131306     
   2933383078.6733909     
   2831723763.6722527     
   2732718832.2252240     
   3356439355.1078515     
   3244576257.4254251     
   3135562099.4117150     
   3029565153.0953469     
   2926790507.8667264     
   3594229183.0735655     
   3474916494.1667333     
   3358686117.6608820     
   3245752907.4441552     
   3136389207.7426405     
   3851723740.7194533     
   3722586179.3680468     
   3596568017.7149363     
   3473928472.8927112     
   3355010452.0940495     
   4124268003.6772089     
   3982832702.1498861     
   3844390849.8635654     
   3709241764.2801304     
   3577799063.7577929     
   2732718832.2252240     
   2635624493.9715490     
   2532183283.9208279     
   2422891616.9005265     
   2308637116.3601532     
   2926790507.8667264     
   2835035798.7239699     
   2740726644.0787735     
   2644240009.3604617     
   2546140507.5337949     
   3136389207.7426405     
   3045356771.4044304     
   2954959929.8547330     
   2865493978.0130019     
   2777354235.3398890     
   3355010452.0940495     
   3258232963.7506633     
   3164753857.5942187     
   3074932709.9531789     
   2989250969.1183929     
   3577799063.7577929     
   3467765710.6230412     
   3363349005.0959420     
   3265205907.9507680     
   3174242704.7145324     
   2308637116.3601532     
   2132696260.4351523     
   1949314195.9235034     
   1814675945.3174593     
   1819562666.3651991     
   2546140507.5337949     
   2421528834.8480072     
   2298556914.2518320     
   2196435158.3307428     
   2142572487.2648232     
   2777354235.3398890     
   2691619687.8694654     
   2614991759.4544744     
   2548955025.5875511     
   2495127797.9276462     
   2989250969.1183929     
   2919665208.7547631     
   2869164027.6048779     
   2836449066.5631642     
   2821926275.0353632     
   3174242704.7145324     
   3096479383.2736015     
   3058108509.3393345     
   3068674893.9440866     
   3144405897.4307742     
   5657023605.9669247     
   5889956982.1699438     
   6115207819.6046305     
   6330334908.8434801     
   6535132202.0447502     
   6490987816.0432577     
   6586067855.0705900     
   6756466237.5661116     
   6960113447.8541746     
   7170355512.2890749     
   7981768719.3880262     
   7734287442.7073603     
   7668378838.7775393     
   7668733770.6680870     
   7665420389.3388767     
   10129814406.964354     
   9321437944.6883259     
   8825729591.0135098     
   8442833026.4550924     
   8034929593.9932346     
   12935213745.910957     
   11340223201.587616     
   10209670077.685463     
   9272168593.1614017     
   8303251945.3246231     
   6535132202.0447502     
   6326730744.0393372     
   6140534579.3795795     
   5962632632.5266085     
   5784002968.3508806     
   7170355512.2890749     
   6909593943.7413797     
   6656747342.1278849     
   6407963977.8491859     
   6160099268.1761532     
   7665420389.3388767     
   7380260394.5040092     
   7100513859.1955099     
   6826265651.2883711     
   6557728545.6161470     
   8034929593.9932346     
   7746367931.7986908     
   7473514376.8821564     
   7214406977.1151533     
   6969063020.6772108     
   8303251945.3246231     
   8020467999.6316805     
   7779867075.2332449     
   7570737708.8074436     
   7388110464.7879353     
   5784002968.3508806     
   5634194193.4303093     
   5488719398.9189644     
   5347492246.8944845     
   5210572920.6366062     
   6160099268.1761532     
   6012058445.1917725     
   5865443483.5058556     
   5720292485.6219244     
   5576662543.3555107     
   6557728545.6161470     
   6408106029.9920301     
   6256879182.5384521     
   6104015838.7014408     
   5949544989.5875244     
   6969063020.6772108     
   6815906563.0256395     
   6658078852.9166689     
   6495293833.9804754     
   6327504712.4514828     
   7388110464.7879353     
   7230490504.1162977     
   7065211463.4328775     
   6891568801.5814915     
   6709385806.0391617     
   5210572920.6366062     
   5073381398.3859129     
   4937782650.9209499     
   4803872072.6010294     
   4671944905.7557678     
   5576662543.3555107     
   5418088005.9487677     
   5260722049.7050028     
   5104636178.5673189     
   4949989001.6786118     
   5949544989.5875244     
   5774938534.7117243     
   5601776562.4321852     
   5430095631.4833975     
   5259971434.6941061     
   6327504712.4514828     
   6141769684.3826265     
   5958263943.3927841     
   5776960081.2327461     
   5597874296.7474861     
   6709385806.0391617     
   6516940109.6127100     
   6328005897.5155544     
   6142440973.2790947     
   5960191224.4218550     
   4671944905.7557678     
   4533142770.5420179     
   4395532623.5908947     
   4259205576.9906130     
   4124268003.6772089     
   4949989001.6786118     
   4803992483.4628572     
   4658786443.5869198     
   4514459890.2375689     
   4371123260.5776482     
   5259971434.6941061     
   5105667056.9963121     
   4951615478.6282368     
   4797877798.6339970     
   4644545669.7077761     
   5597874296.7474861     
   5434025143.2835741     
   5269794421.0159626     
   5105190901.8751192     
   4940264598.9443960     
   5960191224.4218550     
   5785470654.3459711     
   5609676546.5299587     
   5432742820.6799526     
   5254655792.1678238     
   4124268003.6772089     
   3982832702.1498861     
   3844390849.8635654     
   3709241764.2801304     
   3577799063.7577929     
   4371123260.5776482     
   4214214744.0133390     
   4059559745.5748458     
   3907375330.2394862     
   3757981177.3067098     
   4644545669.7077761     
   4472942389.8046608     
   4302989211.5807486     
   4134827782.2227502     
   3968689621.9492288     
   4940264598.9443960     
   4754613126.7732992     
   4570138713.3828106     
   4386919490.9651546     
   4205112024.1695395     
   5254655792.1678238     
   5055455487.3382874     
   4857074565.0083637     
   4659540980.4652929     
   4462952239.6883192     
   3577799063.7577929     
   3467765710.6230412     
   3363349005.0959420     
   3265205907.9507680     
   3174242704.7145324     
   3757981177.3067098     
   3627661922.7489228     
   3499862184.8225865     
   3374940632.3074703     
   3253400272.6862106     
   3968689621.9492288     
   3824981222.7725062     
   3681610135.6045723     
   3538692248.2704797     
   3396397916.9557810     
   4205112024.1695395     
   4055492814.2534599     
   3904973080.3205986     
   3753577058.9001579     
   3601349550.5898619     
   4462952239.6883192     
   4315053973.4658918     
   4165887432.5450797     
   4015558498.8688884     
   3864224813.3974710     
   3174242704.7145324     
   3096479383.2736015     
   3058108509.3393345     
   3068674893.9440866     
   3144405897.4307742     
   3253400272.6862106     
   3117911855.1966271     
   3005472799.7362223     
   2921693810.6020432     
   2876018530.8524871     
   3396397916.9557810     
   3215626182.7750144     
   3043143213.5889440     
   2880375169.5908680     
   2729795742.9247413     
   3601349550.5898619     
   3398194176.9017177     
   3192964255.4997916     
   2985893826.3098216     
   2777415500.2946095     
   3864224813.3974710     
   3669502812.7819147     
   3470006192.4900093     
   3270581146.2638998     
   3079224153.3570766     
 </DataArray>
 <DataArray  type="Float64" Name="strain" NumberOfComponents="3" format="ascii">
  0.20350740906930612        0.0000000000000000       0.12538101410234107     
  0.18669010877638131       -2.7337375832994941E-002   7.4333139129645329E-002
  0.16987280848345648       -4.4696804151947642E-002   3.5116646745877590E-002
  0.15305550819053168       -5.2078284956858095E-002   7.7315369510378672E-003
  0.13623820789760688       -4.9481818247726336E-002  -7.8221902548738231E-003
  0.15988619168224003        0.0000000000000000        9.6410697304736448E-002
  0.15321864583754680       -2.1855286707367142E-002   6.2657769446184564E-002
  0.14655109999285362       -3.6192578819082201E-002   3.7372967895167919E-002
  0.13988355414816042       -4.3011876335145166E-002   2.0556292651686445E-002
  0.13321600830346722       -4.2313179255556069E-002   1.2207743715740231E-002
  0.12649357849516701        0.0000000000000000        7.4152446091954705E-002
  0.12661253081731264       -1.6373197581739343E-002   5.5234512429156502E-002
  0.12673148313945826       -2.7688353486216757E-002   4.1421448792500745E-002
  0.12685043546160388       -3.3945467713432244E-002   3.2713255181987422E-002
  0.12696938778374953       -3.5144540263385822E-002   2.9109931597616535E-002
  0.10332956950808708        0.0000000000000000        5.8606260463995835E-002
  0.10687176371567875       -1.0891108456111543E-002   5.2063368078561184E-002
  0.11041395792327041       -1.9184128153351312E-002   4.7262089437876159E-002
  0.11395615213086206       -2.4879059091719318E-002   4.4202424541940816E-002
  0.11749834633845375       -2.7975901271215547E-002   4.2884373390755126E-002
   9.0394164721000231E-002   0.0000000000000000        4.9772140420859853E-002
   9.3996344532645160E-002  -5.4090193304837438E-003   5.3144336394398577E-002
   9.7598524344290075E-002  -1.0679902820485872E-002   5.4894889831294161E-002
  0.10120070415593499       -1.5812650470006389E-002   5.5023800731546627E-002
  0.10480288396757992       -2.0807262279045294E-002   5.3531069095155939E-002
  0.13623820789760688       -4.9481818247726336E-002  -7.8221902548738231E-003
  0.13304867780155777       -4.2946520010566612E-002  -3.3943587078015328E-003
  0.12985914770550866       -3.8511506231393239E-002  -3.8808194489443545E-004
  0.12666961760945955       -3.6176776910206140E-002   1.1966400338475174E-003
  0.12348008751341044       -3.5942332047005421E-002   1.3598072284243257E-003
  0.13321600830346722       -4.2313179255556069E-002   1.2207743715740231E-002
  0.12899416218766629       -3.8447530166888788E-002   1.2158205583906800E-002
  0.12477231607186534       -3.5765971655717224E-002   1.1465590196734862E-002
  0.12055046995606444       -3.4268503722041370E-002   1.0129897554224427E-002
  0.11632862384026352       -3.3955126365861205E-002   8.1511276563755175E-003
  0.12696938778374953       -3.5144540263385822E-002   2.9109931597616535E-002
  0.12249370317702345       -3.3948540323210971E-002   2.5499217667367995E-002
  0.11801801857029739       -3.3020437080041223E-002   2.2023904010607581E-002
  0.11354233396357130       -3.2360230533876592E-002   1.8683990627335466E-002
  0.10906664935684526       -3.1967920684717044E-002   1.5479477517551438E-002
  0.11749834633845375       -2.7975901271215547E-002   4.2884373390755126E-002
  0.11354730076962923       -2.9449550479533161E-002   3.6628677542582012E-002
  0.10959625520080471       -3.0274902504365216E-002   3.1286859496723753E-002
  0.10564520963198017       -3.0451957345711798E-002   2.6858919253180479E-002
  0.10169416406315568       -2.9980715003572855E-002   2.3344856811952114E-002
  0.10480288396757992       -2.0807262279045294E-002   5.3531069095155939E-002
  0.10215495496548363       -2.4950560635855316E-002   4.5546585209548962E-002
   9.9507025963387327E-002  -2.7529367928689218E-002   3.9254456655083508E-002
   9.6859096961291052E-002  -2.8543684157547006E-002   3.4654683431759654E-002
   9.4211167959194736E-002  -2.7993509322428639E-002   3.1747265539577380E-002
  0.12348008751341044       -3.5942332047005421E-002   1.3598072284243257E-003
  0.12055123587156610       -3.6448448280751278E-002   6.2099254371963952E-004
  0.11762238422972171       -3.6335402250404047E-002   8.2248043511784497E-005
  0.11469353258787732       -3.5603193955963564E-002  -2.5642627219914921E-004
  0.11176468094603298       -3.4251823397429937E-002  -3.9503040341348772E-004
  0.11632862384026352       -3.3955126365861205E-002   8.1511276563755175E-003
  0.11358396291126972       -3.4036174360654356E-002   7.7931237595744163E-003
  0.11083930198227591       -3.3721982479898216E-002   7.6034311039778410E-003
  0.10809464105328218       -3.3012550723592757E-002   7.5820496895852435E-003
  0.10534998012428837       -3.1907879091738117E-002   7.7289795163972830E-003
  0.10906664935684526       -3.1967920684717044E-002   1.5479477517551438E-002
  0.10647442019740955       -3.1623900440557351E-002   1.5278362020110042E-002
  0.10388219103797382       -3.1108562709392384E-002   1.5213798820580618E-002
  0.10128996187853812       -3.0421907491222033E-002   1.5285787918962877E-002
   9.8697732719102399E-002  -2.9563934786046298E-002   1.5494329315257044E-002
  0.10169416406315568       -2.9980715003572855E-002   2.3344856811952114E-002
   9.9222607729985562E-002  -2.9211626520460415E-002   2.3076707325326525E-002
   9.6751051396815418E-002  -2.8495142938886581E-002   2.2913351193320337E-002
   9.4279495063645316E-002  -2.7831264258851240E-002   2.2854788415933469E-002
   9.1807938730475172E-002  -2.7219990480354533E-002   2.2901018993166052E-002
   9.4211167959194736E-002  -2.7993509322428639E-002   3.1747265539577380E-002
   9.1828525508997741E-002  -2.6799352600363480E-002   3.1188159675223780E-002
   8.9445883058800718E-002  -2.5881723168380770E-002   3.0702088222197055E-002
   8.7063240608603695E-002  -2.5240621026480489E-002   3.0289051180497052E-002
   8.4680598158406672E-002  -2.4876046174662686E-002   2.9949048550124036E-002
  0.11176468094603298       -3.4251823397429937E-002  -3.9503040341348772E-004
  0.10869402058418626       -3.2720919896581602E-002  -1.3217319105771064E-004
  0.10562336022233954       -3.1450112775196798E-002   1.7051315230487418E-004
  0.10255269986049281       -3.0439402033275546E-002   5.1302862667430837E-004
   9.9482039498646091E-002  -2.9688787670817951E-002   8.9537323205024499E-004
  0.10534998012428837       -3.1907879091738117E-002   7.7289795163972830E-003
  0.10235274858085691       -3.0683374230560237E-002   7.5800549345373808E-003
   9.9355517037425511E-002  -2.9614442786284646E-002   7.5381588585011067E-003
   9.6358285493994097E-002  -2.8701084758911581E-002   7.6032912882887799E-003
   9.3361053950562656E-002  -2.7943300148441264E-002   7.7754522239001922E-003
   9.8697732719102399E-002  -2.9563934786046298E-002   1.5494329315257044E-002
   9.5841129368903391E-002  -2.8645828564538650E-002   1.5038145901742343E-002
   9.2984526018704328E-002  -2.7778772797372495E-002   1.4756190368868591E-002
   9.0127922668505306E-002  -2.6962767484547730E-002   1.4648462716635752E-002
   8.7271319318306256E-002  -2.6197812626064354E-002   1.4714962945043653E-002
   9.1807938730475172E-002  -2.7219990480354533E-002   2.2901018993166052E-002
   8.9159162948325626E-002  -2.6608282898517230E-002   2.2242099710557649E-002
   8.6510387166176039E-002  -2.5943102808460287E-002   2.1824607683407233E-002
   8.3861611384026438E-002  -2.5224450210183769E-002   2.1648542911714821E-002
   8.1212835601876865E-002  -2.4452325103687472E-002   2.1713905395480404E-002
   8.4680598158406672E-002  -2.4876046174662686E-002   2.9949048550124036E-002
   8.2306849319123632E-002  -2.4570737232495823E-002   2.9191916360983061E-002
   7.9933100479840591E-002  -2.4107432819548122E-002   2.8743410802117147E-002
   7.7559351640557536E-002  -2.3486132935819731E-002   2.8603531873526392E-002
   7.5185602801274481E-002  -2.2706837581310674E-002   2.8772279575210724E-002
   9.9482039498646091E-002  -2.9688787670817951E-002   8.9537323205024499E-004
   9.6523325423345074E-002  -2.9006920739841902E-002   5.6370450846432441E-004
   9.3564611348044058E-002  -2.8202452292365177E-002   4.4439923598640907E-004
   9.0605897272743069E-002  -2.7275382328388109E-002   5.3745741461583285E-004
   8.7647183197442025E-002  -2.6225710847910255E-002   8.4287904435365046E-004
   9.3361053950562656E-002  -2.7943300148441264E-002   7.7754522239001922E-003
   9.0600371571185639E-002  -2.7225629049264233E-002   7.5596766163655016E-003
   8.7839689191808568E-002  -2.6432611555772034E-002   7.5276009495709451E-003
   8.5079006812431496E-002  -2.5564247667964446E-002   7.6792252235163283E-003
   8.2318324433054479E-002  -2.4620537385841579E-002   8.0145494382017346E-003
   8.7271319318306256E-002  -2.6197812626064354E-002   1.4714962945043653E-002
   8.4680005124485452E-002  -2.5444337358686619E-002   1.4567825331374851E-002
   8.2088690930664635E-002  -2.4662770819178781E-002   1.4575724148078298E-002
   7.9497376736843872E-002  -2.3853113007540949E-002   1.4738659395154285E-002
   7.6906062543023096E-002  -2.3015363923773013E-002   1.5056631072602661E-002
   8.1212835601876865E-002  -2.4452325103687472E-002   2.1713905395480404E-002
   7.8762226083244596E-002  -2.3663045668108978E-002   2.1588150653492136E-002
   7.6311616564612356E-002  -2.2892930082585694E-002   2.1588768831508683E-002
   7.3861007045980157E-002  -2.2141978347117369E-002   2.1715759929529808E-002
   7.1410397527347860E-002  -2.1410190461704282E-002   2.1969123947555784E-002
   7.5185602801274481E-002  -2.2706837581310674E-002   2.8772279575210724E-002
   7.2847034447463044E-002  -2.1881753977531351E-002   2.8620652582717815E-002
   7.0508466093651675E-002  -2.1123089345992448E-002   2.8566734999862023E-002
   6.8169897739840279E-002  -2.0430843686693956E-002   2.8610526826643244E-002
   6.5831329386028897E-002  -1.9805016999635661E-002   2.8752028063061374E-002
   8.7647183197442025E-002  -2.6225710847910255E-002   8.4287904435365046E-004
   8.4353617150588034E-002  -2.5155036382109253E-002   6.9119500694775349E-004
   8.1060051103734099E-002  -2.4164957462161990E-002   6.6326490070933719E-004
   7.7766485056880108E-002  -2.3255474088068863E-002   7.5908872563865137E-004
   7.4472919010026173E-002  -2.2426586259829850E-002   9.7866648173439152E-004
   8.2318324433054479E-002  -2.4620537385841579E-002   8.0145494382017346E-003
   7.9169710858610770E-002  -2.3663961756138829E-002   7.7355551938902423E-003
   7.6021097284166977E-002  -2.2757001825591705E-002   7.6227119632318874E-003
   7.2872483709723254E-002  -2.1899657594199901E-002   7.6760197462266422E-003
   6.9723870135279420E-002  -2.1091929061963999E-002   7.8954785428743124E-003
   7.6906062543023096E-002  -2.3015363923773013E-002   1.5056631072602661E-002
   7.3944798523475311E-002  -2.2172887130168573E-002   1.4681306468083660E-002
   7.0983534503927553E-002  -2.1349046189021184E-002   1.4514529959703606E-002
   6.8022270484379727E-002  -2.0543841100331046E-002   1.4556301547462625E-002
   6.5061006464831983E-002  -1.9757271864098258E-002   1.4806621231360312E-002
   7.1410397527347860E-002  -2.1410190461704282E-002   2.1969123947555784E-002
   6.8678880145181823E-002  -2.0681812504198122E-002   2.1528448829527938E-002
   6.5947362763015743E-002  -1.9941090552450726E-002   2.1338718890124810E-002
   6.3215845380849650E-002  -1.9188024606462246E-002   2.1399934129346154E-002
   6.0484327998683633E-002  -1.8422614666232462E-002   2.1712094547192147E-002
   6.5831329386028897E-002  -1.9805016999635661E-002   2.8752028063061374E-002
   6.3371955723730278E-002  -1.9190737878227809E-002   2.8276982278223062E-002
   6.0912582061431644E-002  -1.8533134915880281E-002   2.8095278754495107E-002
   5.8453208399133073E-002  -1.7832208112593343E-002   2.8206917491877190E-002
   5.5993834736834447E-002  -1.7087957468366721E-002   2.8611898490369936E-002
   7.4472919010026173E-002  -2.2426586259829850E-002   9.7866648173439152E-004
   7.1807767177602067E-002  -2.1598955266512565E-002   6.0496304696744385E-004
   6.9142615345178071E-002  -2.0693242397185257E-002   5.3419016687755727E-004
   6.6477463512753993E-002  -1.9709447651848060E-002   7.6634784146345503E-004
   6.3812311680329969E-002  -1.8647571030501076E-002   1.3014360707259698E-003
   6.9723870135279420E-002  -2.1091929061963999E-002   7.8954785428743124E-003
   6.7322642980480296E-002  -2.0285077866618650E-002   7.6319258860472750E-003
   6.4921415825681145E-002  -1.9430365645899311E-002   7.5932920297934747E-003
   6.2520188670882007E-002  -1.8527792399805267E-002   7.7795769741129811E-003
   6.0118961516082814E-002  -1.7577358128337051E-002   8.1907807190063631E-003
   6.5061006464831983E-002  -1.9757271864098258E-002   1.4806621231360312E-002
   6.2845692233554629E-002  -1.8971200466724736E-002   1.4622998501837181E-002
   6.0630378002277260E-002  -1.8167488894612602E-002   1.4586282818784435E-002
   5.8415063770999955E-002  -1.7346137147762033E-002   1.4696474182201942E-002
   5.6199749539722565E-002  -1.6507145226172859E-002   1.4953572592089653E-002
   6.0484327998683633E-002  -1.8422614666232462E-002   2.1712094547192147E-002
   5.8376914936824953E-002  -1.7657323066830766E-002   2.1578180894337252E-002
   5.6269501874966377E-002  -1.6904612143326163E-002   2.1513162533849824E-002
   5.4162088813107710E-002  -1.6164481895719021E-002   2.1517039465729491E-002
   5.2054675751249120E-002  -1.5436932324008751E-002   2.1589811689976056E-002
   5.5993834736834447E-002  -1.7087957468366721E-002   2.8611898490369936E-002
   5.3916311090291436E-002  -1.6343445666936990E-002   2.8497473063547996E-002
   5.1838787443748507E-002  -1.5641735392039904E-002   2.8373931174989847E-002
   4.9761263797205565E-002  -1.4982826643675718E-002   2.8241272824696087E-002
   4.7683740150662568E-002  -1.4366719421844643E-002   2.8099498012666313E-002
   6.3812311680329969E-002  -1.8647571030501076E-002   1.3014360707259698E-003
   6.0388581382574524E-002  -1.7659300672424938E-002   1.2275328351475379E-003
   5.6964851084818968E-002  -1.6896324716900085E-002   1.0422857596698587E-003
   5.3541120787063440E-002  -1.6358643163927274E-002   7.4569484429259925E-004
   5.0117390489307967E-002  -1.6046256013506177E-002   3.3776008901620358E-004
   6.0118961516082814E-002  -1.7577358128337051E-002   8.1907807190063631E-003
   5.6674548123329116E-002  -1.6659618354703531E-002   7.8124042044186437E-003
   5.3230134730575335E-002  -1.5855128602112883E-002   7.5040053397338879E-003
   4.9785721337821706E-002  -1.5163888870565904E-002   7.2655841249523456E-003
   4.6341307945067967E-002  -1.4585899160061366E-002   7.0971405600739335E-003
   5.6199749539722565E-002  -1.6507145226172859E-002   1.4953572592089653E-002
   5.2915974541773075E-002  -1.5659936036981847E-002   1.4382767180001255E-002
   4.9632199543823544E-002  -1.4813932487325335E-002   1.4063260907617933E-002
   4.6348424545874047E-002  -1.3969134577203921E-002   1.3995053774940515E-002
   4.3064649547924605E-002  -1.3125542306617444E-002   1.4178145781968632E-002
   5.2054675751249120E-002  -1.5436932324008751E-002   2.1589811689976056E-002
   4.9112860637906305E-002  -1.4660253719260191E-002   2.0938621761895308E-002
   4.6171045524563470E-002  -1.3772736372538071E-002   2.0720052463322067E-002
   4.3229230411220780E-002  -1.2774380283842578E-002   2.0934103794257065E-002
   4.0287415297877896E-002  -1.1665185453172855E-002   2.1580775754699771E-002
   4.7683740150662568E-002  -1.4366719421844643E-002   2.8099498012666313E-002
   4.5265206411728875E-002  -1.3660571401538646E-002   2.7479967950101380E-002
   4.2846672672795155E-002  -1.2731540257750584E-002   2.7474380006846488E-002
   4.0428138933861435E-002  -1.1579625990480735E-002   2.8082734182902136E-002
   3.8009605194927798E-002  -1.0204828599728488E-002   2.9305030478268268E-002
   9.0394164721000231E-002   0.0000000000000000        4.9772140420859853E-002
   9.3996344532645160E-002  -5.4090193304837438E-003   5.3144336394398577E-002
   9.7598524344290075E-002  -1.0679902820485872E-002   5.4894889831294161E-002
  0.10120070415593499       -1.5812650470006389E-002   5.5023800731546627E-002
  0.10480288396757992       -2.0807262279045294E-002   5.3531069095155939E-002
   8.2450220728450860E-002   0.0000000000000000        4.4716702991777220E-002
   8.4660227492538098E-002  -4.5769647565209928E-003   4.8197576614643786E-002
   8.6870234256625350E-002  -9.0422838112025530E-003   5.0515746679038152E-002
   8.9080241020712589E-002  -1.3395957164044675E-002   5.1671213184960332E-002
   9.1290247784799841E-002  -1.7637984815047351E-002   5.1663976132410278E-002
   7.4260594124983328E-002   0.0000000000000000        4.0506565205978423E-002
   7.5537366819683843E-002  -3.7449101825582452E-003   4.4069626339530682E-002
   7.6814139514384344E-002  -7.4046648019192324E-003   4.6928922892781645E-002
   7.8090912209084845E-002  -1.0979263858082960E-002   4.9084454865731361E-002
   7.9367684903785346E-002  -1.4468707351049433E-002   5.0536222258379761E-002
   6.5825284910597678E-002   0.0000000000000000        3.7141727063463477E-002
   6.6627762514082381E-002  -2.9128556085954967E-003   4.0760485569059215E-002
   6.7430240117567070E-002  -5.7670457926359145E-003   4.4134418472524618E-002
   6.8232717721051758E-002  -8.5625705521212500E-003   4.7263525773859665E-002
   6.9035195324536461E-002  -1.1299429887051508E-002   5.0147807473064375E-002
   5.7144293085293882E-002   0.0000000000000000        3.4622188564232353E-002
   5.7931414575733697E-002  -2.0808010346327465E-003   3.8270154303229414E-002
   5.8718536066173506E-002  -4.1294267833525949E-003   4.2132233418267065E-002
   5.9505657556613328E-002  -6.1458772461595330E-003   4.6208425909345291E-002
   6.0292779047053144E-002  -8.1301524230535799E-003   5.0498731776464113E-002
  0.10480288396757992       -2.0807262279045294E-002   5.3531069095155939E-002
  0.10215495496548363       -2.4950560635855316E-002   4.5546585209548962E-002
   9.9507025963387327E-002  -2.7529367928689218E-002   3.9254456655083508E-002
   9.6859096961291052E-002  -2.8543684157547006E-002   3.4654683431759654E-002
   9.4211167959194736E-002  -2.7993509322428639E-002   3.1747265539577380E-002
   9.1290247784799841E-002  -1.7637984815047351E-002   5.1663976132410278E-002
   9.0095659769979547E-002  -2.1213896723626925E-002   4.6423089628194754E-002
   8.8901071755159211E-002  -2.3569222849199718E-002   4.2396529767389612E-002
   8.7706483740338917E-002  -2.4703963191765703E-002   3.9584296549994832E-002
   8.6511895725518595E-002  -2.4618117751324935E-002   3.7986389976010435E-002
   7.9367684903785346E-002  -1.4468707351049433E-002   5.0536222258379761E-002
   7.9148409188509877E-002  -1.7477232811398551E-002   4.7695027854586333E-002
   7.8929133473234353E-002  -1.9609077769710218E-002   4.5590131406472119E-002
   7.8709857757958857E-002  -2.0864242225984438E-002   4.4221532914037090E-002
   7.8490582042683346E-002  -2.1242726180221203E-002   4.3589232377281316E-002
   6.9035195324536461E-002  -1.1299429887051508E-002   5.0147807473064375E-002
   6.9313203221074579E-002  -1.3740568899170165E-002   4.9362399888723693E-002
   6.9591211117612725E-002  -1.5648932690220708E-002   4.8835261572331090E-002
   6.9869219014150830E-002  -1.7024521260203155E-002   4.8566392523886531E-002
   7.0147226910688962E-002  -1.7867334609117477E-002   4.8555792743389975E-002
   6.0292779047053144E-002  -8.1301524230535799E-003   5.0498731776464113E-002
   6.0590041867673722E-002  -1.0003904986941790E-002   5.1425205730606903E-002
   6.0887304688294307E-002  -1.1688787610731223E-002   5.2131920264966561E-002
   6.1184567508914892E-002  -1.3184800294421872E-002   5.2618875379543045E-002
   6.1481830329535463E-002  -1.4491943038013752E-002   5.2886071074336460E-002
   9.4211167959194736E-002  -2.7993509322428639E-002   3.1747265539577380E-002
   9.1828525508997741E-002  -2.6799352600363480E-002   3.1188159675223780E-002
   8.9445883058800718E-002  -2.5881723168380770E-002   3.0702088222197055E-002
   8.7063240608603695E-002  -2.5240621026480489E-002   3.0289051180497052E-002
   8.4680598158406672E-002  -2.4876046174662686E-002   2.9949048550124036E-002
   8.6511895725518595E-002  -2.4618117751324935E-002   3.7986389976010435E-002
   8.4251312313967541E-002  -2.3976987710833876E-002   3.6960995353322444E-002
   8.1990728902416460E-002  -2.3445874253249101E-002   3.6106684396599475E-002
   7.9730145490865378E-002  -2.3024777378570564E-002   3.5423457105841542E-002
   7.7469562079314283E-002  -2.2713697086798282E-002   3.4911313481048631E-002
   7.8490582042683346E-002  -2.1242726180221203E-002   4.3589232377281316E-002
   7.6450106924416381E-002  -2.1154622821304273E-002   4.2264059703435129E-002
   7.4409631806149401E-002  -2.1010025338117407E-002   4.1208019950192132E-002
   7.2369156687882435E-002  -2.0808933730660582E-002   4.0421113117552303E-002
   7.0328681569615470E-002  -2.0551347998933864E-002   3.9903339205515739E-002
   7.0147226910688962E-002  -1.7867334609117477E-002   4.8555792743389975E-002
   6.8424909340344273E-002  -1.8332257931774655E-002   4.7097352725561828E-002
   6.6702591769999597E-002  -1.8574176422985721E-002   4.6006094882974975E-002
   6.4980274199654880E-002  -1.8593090082750632E-002   4.5282019215629549E-002
   6.3257956629310233E-002  -1.8388998911069453E-002   4.4925125723525458E-002
   6.1481830329535463E-002  -1.4491943038013752E-002   5.2886071074336460E-002
   6.0175719561751231E-002  -1.5509893042245072E-002   5.1460874419702443E-002
   5.8869608793966993E-002  -1.6138327507854044E-002   5.0500909194947957E-002
   5.7563498026182776E-002  -1.6377246434840682E-002   5.0006175400073072E-002
   5.6257387258398531E-002  -1.6226649823205028E-002   4.9976673035077704E-002
   8.4680598158406672E-002  -2.4876046174662686E-002   2.9949048550124036E-002
   8.2306849319123632E-002  -2.4570737232495823E-002   2.9191916360983061E-002
   7.9933100479840591E-002  -2.4107432819548122E-002   2.8743410802117147E-002
   7.7559351640557536E-002  -2.3486132935819731E-002   2.8603531873526392E-002
   7.5185602801274481E-002  -2.2706837581310674E-002   2.8772279575210724E-002
   7.7469562079314283E-002  -2.2713697086798282E-002   3.4911313481048631E-002
   7.5383250302925961E-002  -2.2399662826028947E-002   3.4340107289761355E-002
   7.3296938526537569E-002  -2.1969704044359471E-002   3.4035148593988353E-002
   7.1210626750149247E-002  -2.1423820741789570E-002   3.3996437393729720E-002
   6.9124314973760856E-002  -2.0762012918319445E-002   3.4223973688985207E-002
   7.0328681569615470E-002  -2.0551347998933864E-002   3.9903339205515739E-002
   6.8487427721361030E-002  -2.0228588419562217E-002   3.9475988062201678E-002
   6.6646173873106590E-002  -1.9831975269170736E-002   3.9272505279641164E-002
   6.4804920024852164E-002  -1.9361508547759400E-002   3.9292890857834245E-002
   6.2963666176597710E-002  -1.8817188255328229E-002   3.9537144796780894E-002
   6.3257956629310233E-002  -1.8388998911069453E-002   4.4925125723525458E-002
   6.1619381574428950E-002  -1.8057514013095455E-002   4.4599558678304244E-002
   5.9980806519547646E-002  -1.7694246493982071E-002   4.4455480859075656E-002
   5.8342231464666341E-002  -1.7299196353729205E-002   4.4492892265840071E-002
   5.6703656409785065E-002  -1.6872363592337007E-002   4.4711792898597079E-002
   5.6257387258398531E-002  -1.6226649823205028E-002   4.9976673035077704E-002
   5.4779111862129609E-002  -1.5886439606628638E-002   4.9710819138068810E-002
   5.3300836465860695E-002  -1.5556517718793347E-002   4.9584075332291970E-002
   5.1822561069591780E-002  -1.5236884159699024E-002   4.9596441617747095E-002
   5.0344285673322886E-002  -1.4927538929345785E-002   4.9747917994434232E-002
   7.5185602801274481E-002  -2.2706837581310674E-002   2.8772279575210724E-002
   7.2847034447463044E-002  -2.1881753977531351E-002   2.8620652582717815E-002
   7.0508466093651675E-002  -2.1123089345992448E-002   2.8566734999862023E-002
   6.8169897739840279E-002  -2.0430843686693956E-002   2.8610526826643244E-002
   6.5831329386028897E-002  -1.9805016999635661E-002   2.8752028063061374E-002
   6.9124314973760856E-002  -2.0762012918319445E-002   3.4223973688985207E-002
   6.6908122050438779E-002  -2.0057466356607559E-002   3.3949218739366752E-002
   6.4691929127116687E-002  -1.9383366839312362E-002   3.3821505241089962E-002
   6.2475736203794652E-002  -1.8739714366434013E-002   3.3840833194154957E-002
   6.0259543280472588E-002  -1.8126508937972297E-002   3.4007202598561381E-002
   6.2963666176597710E-002  -1.8817188255328229E-002   3.9537144796780894E-002
   6.0919180725469688E-002  -1.8233178735683704E-002   3.9175233817860193E-002
   5.8874695274341651E-002  -1.7643644332632300E-002   3.9009696331985963E-002
   5.6830209823213608E-002  -1.7048585046174097E-002   3.9040532339158183E-002
   5.4785724372085585E-002  -1.6448000876308877E-002   3.9267741839376535E-002
   5.6703656409785065E-002  -1.6872363592337007E-002   4.4711792898597079E-002
   5.4880210472555715E-002  -1.6408891114759853E-002   4.4298697818197924E-002
   5.3056764535326401E-002  -1.5903921825952169E-002   4.4131308272549928E-002
   5.1233318598097072E-002  -1.5357455725914113E-002   4.4209624261652911E-002
   4.9409872660867743E-002  -1.4769492814645596E-002   4.4533645785507031E-002
   5.0344285673322886E-002  -1.4927538929345785E-002   4.9747917994434232E-002
   4.8791211291696959E-002  -1.4584603493836001E-002   4.9319610740380243E-002
   4.7238136910071046E-002  -1.4164199319272139E-002   4.9186341062781941E-002
   4.5685062528445120E-002  -1.3666326405654263E-002   4.9348108961639367E-002
   4.4131988146819207E-002  -1.3090984752982149E-002   4.9804914436952674E-002
   6.5831329386028897E-002  -1.9805016999635661E-002   2.8752028063061374E-002
   6.3371955723730278E-002  -1.9190737878227809E-002   2.8276982278223062E-002
   6.0912582061431644E-002  -1.8533134915880281E-002   2.8095278754495107E-002
   5.8453208399133073E-002  -1.7832208112593343E-002   2.8206917491877190E-002
   5.5993834736834447E-002  -1.7087957468366721E-002   2.8611898490369936E-002
   6.0259543280472588E-002  -1.8126508937972297E-002   3.4007202598561381E-002
   5.8067769830368765E-002  -1.7519013497508201E-002   3.3635557416657108E-002
   5.5875996380264928E-002  -1.6892490988622957E-002   3.3505770398032222E-002
   5.3684222930161105E-002  -1.6246941411316110E-002   3.3617841542686273E-002
   5.1492449480057267E-002  -1.5582364765588053E-002   3.3971770850619892E-002
   5.4785724372085585E-002  -1.6448000876308877E-002   3.9267741839376535E-002
   5.2810067036345394E-002  -1.5847289116788801E-002   3.8975200487888370E-002
   5.0834409700605210E-002  -1.5251847061365405E-002   3.8873033201848199E-002
   4.8858752364865060E-002  -1.4661674710038932E-002   3.8961239981256265E-002
   4.6883095029124897E-002  -1.4076772062809245E-002   3.9239820826112340E-002
   4.9409872660867743E-002  -1.4769492814645596E-002   4.4533645785507031E-002
   4.7598847341660137E-002  -1.4175564736069297E-002   4.4295911491916515E-002
   4.5787822022452511E-002  -1.3611203134108022E-002   4.4197067165943071E-002
   4.3976796703244926E-002  -1.3076408008761781E-002   4.4237112807586701E-002
   4.2165771384037279E-002  -1.2571179360030424E-002   4.4416048416847209E-002
   4.4131988146819207E-002  -1.3090984752982149E-002   4.9804914436952674E-002
   4.2434110746313064E-002  -1.2503840355349821E-002   4.9597690428741820E-002
   4.0736233345806880E-002  -1.1970559206850501E-002   4.9477872290316749E-002
   3.9038355945300703E-002  -1.1491141307484486E-002   4.9445460021677712E-002
   3.7340478544794525E-002  -1.1065586657251714E-002   4.9500453622824458E-002
   5.5993834736834447E-002  -1.7087957468366721E-002   2.8611898490369936E-002
   5.3916311090291436E-002  -1.6343445666936990E-002   2.8497473063547996E-002
   5.1838787443748507E-002  -1.5641735392039904E-002   2.8373931174989847E-002
   4.9761263797205565E-002  -1.4982826643675718E-002   2.8241272824696087E-002
   4.7683740150662568E-002  -1.4366719421844643E-002   2.8099498012666313E-002
   5.1492449480057267E-002  -1.5582364765588053E-002   3.3971770850619892E-002
   4.9452852464573066E-002  -1.4910779045437028E-002   3.3772514099383061E-002
   4.7413255449088865E-002  -1.4244202244861032E-002   3.3658227071999738E-002
   4.5373658433604691E-002  -1.3582634363860820E-002   3.3628909768469849E-002
   4.3334061418120462E-002  -1.2926075402435733E-002   3.3684562188793399E-002
   4.6883095029124897E-002  -1.4076772062809245E-002   3.9239820826112340E-002
   4.4975510830288792E-002  -1.3478112423936969E-002   3.8993525357418429E-002
   4.3067926631452695E-002  -1.2846669097682374E-002   3.8926285798167225E-002
   4.1160342432616542E-002  -1.2182442084045697E-002   3.9038102148358872E-002
   3.9252758233780480E-002  -1.1485431383026823E-002   3.9328974407992989E-002
   4.2165771384037279E-002  -1.2571179360030424E-002   4.4416048416847209E-002
   4.0484286187438587E-002  -1.2045445802436737E-002   4.4160506837653678E-002
   3.8802800990839909E-002  -1.1449135950503637E-002   4.4178107353492237E-002
   3.7121315794241203E-002  -1.0782249804230631E-002   4.4468849964362726E-002
   3.5439830597642483E-002  -1.0044787363617913E-002   4.5032734670265362E-002
   3.7340478544794525E-002  -1.1065586657251714E-002   4.9500453622824458E-002
   3.5979178536022532E-002  -1.0612779180936976E-002   4.9273458540088910E-002
   3.4617878527250567E-002  -1.0051602803324886E-002   4.9413691737974497E-002
   3.3256578518478602E-002  -9.3820575244156316E-003   4.9921153216481842E-002
   3.1895278509706609E-002  -8.6041433442091142E-003   5.0795842975610350E-002
   4.7683740150662568E-002  -1.4366719421844643E-002   2.8099498012666313E-002
   4.5265206411728875E-002  -1.3660571401538646E-002   2.7479967950101380E-002
   4.2846672672795155E-002  -1.2731540257750584E-002   2.7474380006846488E-002
   4.0428138933861435E-002  -1.1579625990480735E-002   2.8082734182902136E-002
   3.8009605194927798E-002  -1.0204828599728488E-002   2.9305030478268268E-002
   4.3334061418120462E-002  -1.2926075402435733E-002   3.3684562188793399E-002
   4.1405321890077701E-002  -1.2227365134750562E-002   3.3365357093799952E-002
   3.9476582362034912E-002  -1.1439343334969654E-002   3.3411798301278106E-002
   3.7547842833992193E-002  -1.0562010003093120E-002   3.3823885811227666E-002
   3.5619103305949418E-002  -9.5953651391207373E-003   3.4601619623649160E-002
   3.9252758233780480E-002  -1.1485431383026823E-002   3.9328974407992989E-002
   3.7565517099789794E-002  -1.0794158867962256E-002   3.9176522689184701E-002
   3.5878275965799206E-002  -1.0147146412188612E-002   3.9141421456009295E-002
   3.4191034831808576E-002  -9.5443940157054763E-003   3.9223670708466524E-002
   3.2503793697817918E-002  -8.9859016785130974E-003   3.9423270446556802E-002
   3.5439830597642483E-002  -1.0044787363617913E-002   4.5032734670265362E-002
   3.3745792040865238E-002  -9.3609526011740607E-003   4.4913464736255779E-002
   3.2051753484088057E-002  -8.8549494894072933E-003   4.4663249471040362E-002
   3.0357714927310809E-002  -8.5267780283176248E-003   4.4282088874618819E-002
   2.8663676370533582E-002  -8.3764382179054020E-003   4.3769982946991262E-002
   3.1895278509706609E-002  -8.6041433442091142E-003   5.0795842975610350E-002
   2.9946146713304006E-002  -7.9277463343860322E-003   5.0576183235013006E-002
   2.7997014916901403E-002  -7.5627525666264739E-003   4.9977282346371110E-002
   2.6047883120498799E-002  -7.5091620409302590E-003   4.8999140309684053E-002
   2.4098751324096168E-002  -7.7669747572977066E-003   4.7641757124952555E-002
   5.7144293085293882E-002   0.0000000000000000        3.4622188564232353E-002
   5.7931414575733697E-002  -2.0808010346327465E-003   3.8270154303229414E-002
   5.8718536066173506E-002  -4.1294267833525949E-003   4.2132233418267065E-002
   5.9505657556613328E-002  -6.1458772461595330E-003   4.6208425909345291E-002
   6.0292779047053144E-002  -8.1301524230535799E-003   5.0498731776464113E-002
   4.8632261242359372E-002   0.0000000000000000        3.2726240321160886E-002
   4.9567672399533955E-002  -1.7020426134822441E-003   3.6901037764536786E-002
   5.0503083556708524E-002  -3.4181548368215110E-003   4.1158301165341631E-002
   5.1438494713883100E-002  -5.1483366700177981E-003   4.5498030523575414E-002
   5.2373905871057683E-002  -6.8925881130711044E-003   4.9920225839238122E-002
   4.0703831975081595E-002   0.0000000000000000        3.1232172947124884E-002
   4.1655885380379287E-002  -1.3232841923317409E-003   3.5887557199109701E-002
   4.2607938785676973E-002  -2.7068828902904263E-003   4.0493759989911809E-002
   4.3559992190974658E-002  -4.1507960938760554E-003   4.5050781319531219E-002
   4.4512045596272351E-002  -5.6550238030886289E-003   4.9558621187967895E-002
   3.3359005283460537E-002   0.0000000000000000        3.0139986442124345E-002
   3.4196053518269695E-002  -9.4452577118123810E-004   3.5229712606948162E-002
   3.5033101753078853E-002  -1.9956109437593403E-003   4.0138609891977615E-002
   3.5870149987887998E-002  -3.1532555177343131E-003   4.4866678297212727E-002
   3.6707198222697163E-002  -4.4174594931061500E-003   4.9413917822653475E-002
   2.6597781167496205E-002   0.0000000000000000        2.9449680806159277E-002
   2.7188176813205178E-002  -5.6576735003073444E-004   3.4927503988052160E-002
   2.7778572458914155E-002  -1.2843389972282578E-003   4.0092850871539035E-002
   2.8368968104623124E-002  -2.1557149415925743E-003   4.4945721456619916E-002
   2.8959363750332097E-002  -3.1798951831236771E-003   4.9486115743294798E-002
   6.0292779047053144E-002  -8.1301524230535799E-003   5.0498731776464113E-002
   6.0590041867673722E-002  -1.0003904986941790E-002   5.1425205730606903E-002
   6.0887304688294307E-002  -1.1688787610731223E-002   5.2131920264966561E-002
   6.1184567508914892E-002  -1.3184800294421872E-002   5.2618875379543045E-002
   6.1481830329535463E-002  -1.4491943038013752E-002   5.2886071074336460E-002
   5.2373905871057683E-002  -6.8925881130711044E-003   4.9920225839238122E-002
   5.2491584439183503E-002  -8.5510469606077805E-003   5.1131150232373947E-002
   5.2609263007309337E-002  -1.0023851007254185E-002   5.2202665540303367E-002
   5.2726941575435157E-002  -1.1311000253010326E-002   5.3134771763026445E-002
   5.2844620143560991E-002  -1.2412494697876156E-002   5.3927468900543125E-002
   4.4512045596272351E-002  -5.6550238030886289E-003   4.9558621187967895E-002
   4.4530490246480182E-002  -7.0981889342737834E-003   5.1050780880888269E-002
   4.4548934896688000E-002  -8.3589144037771665E-003   5.2483881823178986E-002
   4.4567379546895824E-002  -9.4372002115987660E-003   5.3857924014840117E-002
   4.4585824197103670E-002  -1.0333046357738594E-002   5.5172907455871625E-002
   3.6707198222697163E-002  -4.4174594931061500E-003   4.9413917822653475E-002
   3.6706759289563740E-002  -5.6453309079397803E-003   5.1184097676149842E-002
   3.6706320356430330E-002  -6.6939778003001320E-003   5.2975569113593385E-002
   3.6705881423296907E-002  -7.5634001701872303E-003   5.4788332134984061E-002
   3.6705442490163498E-002  -8.2535980176010292E-003   5.6622386740321856E-002
   2.8959363750332097E-002  -3.1798951831236771E-003   4.9486115743294798E-002
   2.9020391568434199E-002  -4.1924728816057789E-003   5.1531100618158708E-002
   2.9081419386536297E-002  -5.0290411968231061E-003   5.3677727411546548E-002
   2.9142447204638398E-002  -5.6896001287756650E-003   5.5925996123458277E-002
   2.9203475022740497E-002  -6.1741496774634363E-003   5.8275906753893866E-002
   6.1481830329535463E-002  -1.4491943038013752E-002   5.2886071074336460E-002
   6.0175719561751231E-002  -1.5509893042245072E-002   5.1460874419702443E-002
   5.8869608793966993E-002  -1.6138327507854044E-002   5.0500909194947957E-002
   5.7563498026182776E-002  -1.6377246434840682E-002   5.0006175400073072E-002
   5.6257387258398531E-002  -1.6226649823205028E-002   4.9976673035077704E-002
   5.2844620143560991E-002  -1.2412494697876156E-002   5.3927468900543125E-002
   5.1945888653196853E-002  -1.3269498662945890E-002   5.3169255181629065E-002
   5.1047157162832750E-002  -1.3823176469313546E-002   5.2760568587675707E-002
   5.0148425672468633E-002  -1.4073528116979142E-002   5.2701409118683033E-002
   4.9249694182104502E-002  -1.4020553605942745E-002   5.2991776774651056E-002
   4.4585824197103670E-002  -1.0333046357738594E-002   5.5172907455871625E-002
   4.3978767679240804E-002  -1.1029104283646677E-002   5.4995487292757196E-002
   4.3371711161377967E-002  -1.1508025430773006E-002   5.5051889949684615E-002
   4.2764654643515122E-002  -1.1769809799117615E-002   5.5342115426653828E-002
   4.2157598125652285E-002  -1.1814457388680498E-002   5.5866163723664958E-002
   3.6705442490163498E-002  -8.2535980176010292E-003   5.6622386740321856E-002
   3.6274356639883085E-002  -8.7887099043474793E-003   5.6939570753086734E-002
   3.5843270789602664E-002  -9.1928743922325001E-003   5.7374873280974667E-002
   3.5412184939322265E-002  -9.4660914812560813E-003   5.7928294323985580E-002
   3.4981099089041845E-002  -9.6083611714182331E-003   5.8599833882119465E-002
   2.9203475022740497E-002  -6.1741496774634363E-003   5.8275906753893866E-002
   2.8832655535123673E-002  -6.5483155250482920E-003   5.9001505562617795E-002
   2.8461836047506846E-002  -6.8777233536919773E-003   5.9729518581545855E-002
   2.8091016559890020E-002  -7.1623731633945363E-003   6.0459945810678081E-002
   2.7720197072273182E-002  -7.4022649541559821E-003   6.1192787250014521E-002
   5.6257387258398531E-002  -1.6226649823205028E-002   4.9976673035077704E-002
   5.4779111862129609E-002  -1.5886439606628638E-002   4.9710819138068810E-002
   5.3300836465860695E-002  -1.5556517718793347E-002   4.9584075332291970E-002
   5.1822561069591780E-002  -1.5236884159699024E-002   4.9596441617747095E-002
   5.0344285673322886E-002  -1.4927538929345785E-002   4.9747917994434232E-002
   4.9249694182104502E-002  -1.4020553605942745E-002   5.2991776774651056E-002
   4.7925621838246210E-002  -1.3806766539695023E-002   5.2660618170152371E-002
   4.6601549494387912E-002  -1.3574680521726733E-002   5.2498755579242926E-002
   4.5277477150529599E-002  -1.3324295552037863E-002   5.2506189001922714E-002
   4.3953404806671315E-002  -1.3055611630628433E-002   5.2682918438191673E-002
   4.2157598125652285E-002  -1.1814457388680498E-002   5.5866163723664958E-002
   4.1017914756561830E-002  -1.1727093472761421E-002   5.5498287692138062E-002
   3.9878231387471381E-002  -1.1592843324660122E-002   5.5329893596557642E-002
   3.8738548018380926E-002  -1.1411706944376744E-002   5.5360981436923751E-002
   3.7598864649290478E-002  -1.1183684331911109E-002   5.5591551213236209E-002
   3.4981099089041845E-002  -9.6083611714182331E-003   5.8599833882119465E-002
   3.4055990617076495E-002  -9.6474204058278126E-003   5.8223827704025927E-002
   3.3130882145111132E-002  -9.6110061275935660E-003   5.8077489384236132E-002
   3.2205773673145775E-002  -9.4991183367156319E-003   5.8160818922750004E-002
   3.1280665201180433E-002  -9.3117570331938265E-003   5.8473816319567648E-002
   2.7720197072273182E-002  -7.4022649541559821E-003   6.1192787250014521E-002
   2.7039849419790159E-002  -7.5677473388941971E-003   6.0837238205816033E-002
   2.6359501767307145E-002  -7.6291689305269562E-003   6.0741542942278383E-002
   2.5679154114824118E-002  -7.5865297290544234E-003   6.0905701459401745E-002
   2.4998806462341094E-002  -7.4398297344764330E-003   6.1329713757186072E-002
   5.0344285673322886E-002  -1.4927538929345785E-002   4.9747917994434232E-002
   4.8791211291696959E-002  -1.4584603493836001E-002   4.9319610740380243E-002
   4.7238136910071046E-002  -1.4164199319272139E-002   4.9186341062781941E-002
   4.5685062528445120E-002  -1.3666326405654263E-002   4.9348108961639367E-002
   4.4131988146819207E-002  -1.3090984752982149E-002   4.9804914436952674E-002
   4.3953404806671315E-002  -1.3055611630628433E-002   5.2682918438191673E-002
   4.2671837283276830E-002  -1.2756847359908202E-002   5.2327086418161750E-002
   4.1390269759882345E-002  -1.2416221342286829E-002   5.2219230538138886E-002
   4.0108702236487867E-002  -1.2033733577764317E-002   5.2359350798122956E-002
   3.8827134713093389E-002  -1.1609384066340628E-002   5.2747447198114306E-002
   3.7598864649290478E-002  -1.1183684331911109E-002   5.5591551213236209E-002
   3.6541742547678793E-002  -1.0929091225980347E-002   5.5272587435077236E-002
   3.5484620446067108E-002  -1.0668243365301470E-002   5.5154538360476797E-002
   3.4427498344455437E-002  -1.0401140749874372E-002   5.5237403989434747E-002
   3.3370376242843731E-002  -1.0127783379699135E-002   5.5521184321951231E-002
   3.1280665201180433E-002  -9.3117570331938265E-003   5.8473816319567648E-002
   3.0400927084902867E-002  -9.1013350920524788E-003   5.8156113791126798E-002
   2.9521188968625309E-002  -8.9202653883160808E-003   5.7992264529795751E-002
   2.8641450852347768E-002  -8.7685479219844278E-003   5.7982268535574581E-002
   2.7761712736070220E-002  -8.6461826930576274E-003   5.8126125808463248E-002
   2.4998806462341094E-002  -7.4398297344764330E-003   6.1329713757186072E-002
   2.4249390894949048E-002  -7.2735789581246935E-003   6.0977665486310423E-002
   2.3499975327556995E-002  -7.1722874113308022E-003   6.0732409046095781E-002
   2.2750559760164948E-002  -7.1359550940945371E-003   6.0593944436542410E-002
   2.2001144192772895E-002  -7.1645820064160648E-003   6.0562271657650268E-002
   4.4131988146819207E-002  -1.3090984752982149E-002   4.9804914436952674E-002
   4.2434110746313064E-002  -1.2503840355349821E-002   4.9597690428741820E-002
   4.0736233345806880E-002  -1.1970559206850501E-002   4.9477872290316749E-002
   3.9038355945300703E-002  -1.1491141307484486E-002   4.9445460021677712E-002
   3.7340478544794525E-002  -1.1065586657251714E-002   4.9500453622824458E-002
   3.8827134713093389E-002  -1.1609384066340628E-002   5.2747447198114306E-002
   3.7244028676531912E-002  -1.1172359849178096E-002   5.2380495855260265E-002
   3.5660922639970442E-002  -1.0751847967438506E-002   5.2155681370509785E-002
   3.4077816603408972E-002  -1.0347848421122021E-002   5.2073003743862929E-002
   3.2494710566847496E-002  -9.9603612102286410E-003   5.2132462975319344E-002
   3.3370376242843731E-002  -1.0127783379699135E-002   5.5521184321951231E-002
   3.1956772558544573E-002  -9.8408793430063285E-003   5.5031856558164109E-002
   3.0543168874245425E-002  -9.5331367280265117E-003   5.4739396640798230E-002
   2.9129565189946263E-002  -9.2045555347595003E-003   5.4643804569853495E-002
   2.7715961505647119E-002  -8.8551357632055960E-003   5.4745080345329891E-002
   2.7761712736070220E-002  -8.6461826930576274E-003   5.8126125808463248E-002
   2.6572342392351039E-002  -8.5093988368345544E-003   5.7551772537453125E-002
   2.5382972048631849E-002  -8.3144254886144062E-003   5.7229018101182000E-002
   2.4193601704912675E-002  -8.0612626483970076E-003   5.7157862499649541E-002
   2.3004231361193478E-002  -7.7499103161825095E-003   5.7338305732855824E-002
   2.2001144192772895E-002  -7.1645820064160648E-003   6.0562271657650268E-002
   2.1090738177951290E-002  -7.1779183306628913E-003   5.9940243793127457E-002
   2.0180332163129693E-002  -7.0957142492024672E-003   5.9624545751661234E-002
   1.9269926148308070E-002  -6.9179697620344455E-003   5.9615177533251268E-002
   1.8359520133486490E-002  -6.6446848691594784E-003   5.9912139137897613E-002
   3.7340478544794525E-002  -1.1065586657251714E-002   4.9500453622824458E-002
   3.5979178536022532E-002  -1.0612779180936976E-002   4.9273458540088910E-002
   3.4617878527250567E-002  -1.0051602803324886E-002   4.9413691737974497E-002
   3.3256578518478602E-002  -9.3820575244156316E-003   4.9921153216481842E-002
   3.1895278509706609E-002  -8.6041433442091142E-003   5.0795842975610350E-002
   3.2494710566847496E-002  -9.9603612102286410E-003   5.2132462975319344E-002
   3.1460754038036151E-002  -9.5553754401146163E-003   5.2012541186250399E-002
   3.0426797509224834E-002  -9.0988802161364457E-003   5.2180078076481465E-002
   2.9392840980413532E-002  -8.5908755382940946E-003   5.2635073646012324E-002
   2.8358884451602173E-002  -8.0313614065873895E-003   5.3377527894843013E-002
   2.7715961505647119E-002  -8.8551357632055960E-003   5.4745080345329891E-002
   2.6929578855475013E-002  -8.4979716992924642E-003   5.4675372402494593E-002
   2.6143196205302900E-002  -8.1461576289480128E-003   5.4813353537637909E-002
   2.5356813555130801E-002  -7.7996935521724483E-003   5.5159023750759525E-002
   2.4570430904958682E-002  -7.4585794689654983E-003   5.5712383041859825E-002
   2.3004231361193478E-002  -7.7499103161825095E-003   5.7338305732855824E-002
   2.2385652988339118E-002  -7.4405679584701803E-003   5.7261952188821484E-002
   2.1767074615484733E-002  -7.1934350417596875E-003   5.7313518121443911E-002
   2.1148496242630370E-002  -7.0085115660507178E-003   5.7493003530723549E-002
   2.0529917869775989E-002  -6.8857975313435793E-003   5.7800408416660162E-002
   1.8359520133486490E-002  -6.6446848691594784E-003   5.9912139137897613E-002
   1.7828976436628424E-002  -6.3831642176479797E-003   5.9772280545230927E-002
   1.7298432739770359E-002  -6.2407124545711262E-003   5.9680571827899737E-002
   1.6767889042912307E-002  -6.2173295799292060E-003   5.9637012985904139E-002
   1.6237345346054227E-002  -6.3130155937218269E-003   5.9641604019244066E-002
   3.1895278509706609E-002  -8.6041433442091142E-003   5.0795842975610350E-002
   2.9946146713304006E-002  -7.9277463343860322E-003   5.0576183235013006E-002
   2.7997014916901403E-002  -7.5627525666264739E-003   4.9977282346371110E-002
   2.6047883120498799E-002  -7.5091620409302590E-003   4.8999140309684053E-002
   2.4098751324096168E-002  -7.7669747572977066E-003   4.7641757124952555E-002
   2.8358884451602173E-002  -8.0313614065873895E-003   5.3377527894843013E-002
   2.6228268690835457E-002  -7.4514956393928466E-003   5.2942461136911367E-002
   2.4097652930068755E-002  -6.8824360550868852E-003   5.2523667598296242E-002
   2.1967037169302109E-002  -6.3241826536694391E-003   5.2121147278997540E-002
   1.9836421408535365E-002  -5.7767354351409006E-003   5.1734900179015719E-002
   2.4570430904958682E-002  -7.4585794689654983E-003   5.5712383041859825E-002
   2.2653845547189265E-002  -6.9752449443997999E-003   5.5362506325768376E-002
   2.0737260189419855E-002  -6.2021195435475740E-003   5.5424417196354978E-002
   1.8820674831650432E-002  -5.1392032664089524E-003   5.5898115653619698E-002
   1.6904089473881029E-002  -3.7864961129839836E-003   5.6783601697562192E-002
   2.0529917869775989E-002  -6.8857975313435793E-003   5.7800408416660162E-002
   1.9222877282365235E-002  -6.4989942494066283E-003   5.7836318801584269E-002
   1.7915836694954518E-002  -5.5218030320082351E-003   5.8679531140547893E-002
   1.6608796107543788E-002  -3.9542238791483546E-003   6.0330045433550500E-002
   1.5301755520133013E-002  -1.7962567908270666E-003   6.2787861680593041E-002
   1.6237345346054227E-002  -6.3130155937218269E-003   5.9641604019244066E-002
   1.5935363896363547E-002  -6.0227435544136232E-003   6.0363898564358753E-002
   1.5633382446672825E-002  -4.8414865204688545E-003   6.2289009430874204E-002
   1.5331400996982110E-002  -2.7692444918877741E-003   6.5416936618790264E-002
   1.5029419547291423E-002   1.9398253132973942E-004   6.9747680128107392E-002
   2.6597781167496205E-002   0.0000000000000000        2.9449680806159277E-002
   2.7188176813205178E-002  -5.6576735003073444E-004   3.4927503988052160E-002
   2.7778572458914155E-002  -1.2843389972282578E-003   4.0092850871539035E-002
   2.8368968104623124E-002  -2.1557149415925743E-003   4.4945721456619916E-002
   2.8959363750332097E-002  -3.1798951831236771E-003   4.9486115743294798E-002
   2.0081321064103166E-002   0.0000000000000000        2.9022566265567568E-002
   2.0399819579804301E-002  -4.2173247944427526E-004   3.4313623317052892E-002
   2.0718318095505440E-002  -9.5720215830494889E-004   3.9373362406928555E-002
   2.1036816611206582E-002  -1.6064090365820209E-003   4.4201783535194543E-002
   2.1355315126907720E-002  -2.3693531142754869E-003   4.8798886701850869E-002
   1.3470786410195987E-002   0.0000000000000000        2.8719953046687122E-002
   1.3598546132685629E-002  -2.7769760885781652E-004   3.3863311065515281E-002
   1.3726305855175272E-002  -6.3006531938164002E-004   3.8856509459530113E-002
   1.3854065577664915E-002  -1.0571031315714709E-003   4.3699548228731608E-002
   1.3981825300154556E-002  -1.5588110454273110E-003   4.8392427373119794E-002
   6.7661772057746759E-003   0.0000000000000000        2.8541841149517942E-002
   6.7843564718491596E-003  -1.3366273827135843E-004   3.3576567233439318E-002
   6.8025357379236451E-003  -3.0292848045833116E-004   3.8542292029343721E-002
   6.8207150039981288E-003  -5.0779722656092274E-004   4.3439015537231111E-002
   6.8388942700726135E-003  -7.4826897657912623E-004   4.8266737757101531E-002
  -3.2506549160774001E-005   0.0000000000000000        2.8488230574060025E-002
  -4.2749402705107888E-005   1.0372132315101396E-005   3.3453391820825011E-002
  -5.2992256249441124E-005   2.4208358464977708E-005   3.8430710116369358E-002
  -6.3235109793775119E-005   4.1508678449630673E-005   4.3420185460693046E-002
  -7.3477963338107379E-005   6.2273092269051616E-005   4.8421817853796095E-002
   2.8959363750332097E-002  -3.1798951831236771E-003   4.9486115743294798E-002
   2.9020391568434199E-002  -4.1924728816057789E-003   5.1531100618158708E-002
   2.9081419386536297E-002  -5.0290411968231061E-003   5.3677727411546548E-002
   2.9142447204638398E-002  -5.6896001287756650E-003   5.5925996123458277E-002
   2.9203475022740497E-002  -6.1741496774634363E-003   5.8275906753893866E-002
   2.1355315126907720E-002  -2.3693531142754869E-003   4.8798886701850869E-002
   2.1487742345955456E-002  -3.1239337540681935E-003   5.1197424585049132E-002
   2.1620169565003195E-002  -3.7480503186429646E-003   5.3637119351614783E-002
   2.1752596784050938E-002  -4.2417028079998085E-003   5.6117971001547792E-002
   2.1885024003098677E-002  -4.6048912221386962E-003   5.8639979534848216E-002
   1.3981825300154556E-002  -1.5588110454273110E-003   4.8392427373119794E-002
   1.4125166884991429E-002  -2.0553946265306012E-003   5.1098972956605523E-002
   1.4268508469828304E-002  -2.4670594404628031E-003   5.3786190388302124E-002
   1.4411850054665177E-002  -2.7938054872239200E-003   5.6454079668209624E-002
   1.4555191639502052E-002  -3.0356327668139421E-003   5.9102640796328001E-002
   6.8388942700726135E-003  -7.4826897657912623E-004   4.8266737757101531E-002
   6.9326651855421148E-003  -9.8685549899301924E-004   5.1235745732827895E-002
   7.0264361010116154E-003  -1.1860685622826724E-003   5.4124940521608676E-002
   7.1202070164811159E-003  -1.3459081664480336E-003   5.6934322123443806E-002
   7.2139779319506173E-003  -1.4663743114891950E-003   5.9663890538333278E-002
  -7.3477963338107379E-005   6.2273092269051616E-005   4.8421817853796095E-002
  -8.9762752392486163E-005   8.1683628544573957E-005   5.1607742913716260E-002
  -1.0604754144686256E-004   9.4922315897495550E-005   5.4653369751534314E-002
  -1.2233233050123972E-004   1.0198915432783093E-004   5.7558698367250173E-002
  -1.3861711955561774E-004   1.0288414383556599E-004   6.0323728760863976E-002
   2.9203475022740497E-002  -6.1741496774634363E-003   5.8275906753893866E-002
   2.8832655535123673E-002  -6.5483155250482920E-003   5.9001505562617795E-002
   2.8461836047506846E-002  -6.8777233536919773E-003   5.9729518581545855E-002
   2.8091016559890020E-002  -7.1623731633945363E-003   6.0459945810678081E-002
   2.7720197072273182E-002  -7.4022649541559821E-003   6.1192787250014521E-002
   2.1885024003098677E-002  -4.6048912221386962E-003   5.8639979534848216E-002
   2.1535880674652216E-002  -4.8813851381246734E-003   5.9417300418598044E-002
   2.1186737346205756E-002  -5.1149541330227713E-003   6.0235559410484411E-002
   2.0837594017759292E-002  -5.3055982068329812E-003   6.1094756510507345E-002
   2.0488450689312834E-002  -5.4533173595552736E-003   6.1994891718666907E-002
   1.4555191639502052E-002  -3.0356327668139421E-003   5.9102640796328001E-002
   1.4266248368158362E-002  -3.2144547512010842E-003   5.9929850657250476E-002
   1.3977305096814670E-002  -3.3521849123535948E-003   6.0836522524241952E-002
   1.3688361825470983E-002  -3.4488232502714127E-003   6.1822656397302403E-002
   1.3399418554127291E-002  -3.5043697649546138E-003   6.2888252276431814E-002
   7.2139779319506173E-003  -1.4663743114891950E-003   5.9663890538333278E-002
   7.0237586156421030E-003  -1.5475243642774804E-003   6.0539156278575236E-002
   6.8335392993335870E-003  -1.5894156916843689E-003   6.1532407922818465E-002
   6.6433199830250702E-003  -1.5920482937098579E-003   6.2643645471063075E-002
   6.4531006667165585E-003  -1.5554221703539296E-003   6.3872868923309178E-002
  -1.3861711955561774E-004   1.0288414383556599E-004   6.0323728760863976E-002
  -1.9158858289655689E-004   1.1940602264611661E-004   6.1245217282572081E-002
  -2.4456004623749517E-004   1.7335352898478762E-004   6.2323215606213969E-002
  -2.9753150957843475E-004   2.6472666285170393E-004   6.3557723731789625E-002
  -3.5050297291937260E-004   3.9352542424674064E-004   6.4948741659299078E-002
   2.7720197072273182E-002  -7.4022649541559821E-003   6.1192787250014521E-002
   2.7039849419790159E-002  -7.5677473388941971E-003   6.0837238205816033E-002
   2.6359501767307145E-002  -7.6291689305269562E-003   6.0741542942278383E-002
   2.5679154114824118E-002  -7.5865297290544234E-003   6.0905701459401745E-002
   2.4998806462341094E-002  -7.4398297344764330E-003   6.1329713757186072E-002
   2.0488450689312834E-002  -5.4533173595552736E-003   6.1994891718666907E-002
   2.0035478700694075E-002  -5.5559431043524579E-003   6.1825240149380394E-002
   1.9582506712075311E-002  -5.6113069543871803E-003   6.1850486127161444E-002
   1.9129534723456562E-002  -5.6194089096595944E-003   6.2070629652010045E-002
   1.8676562734837795E-002  -5.5802489701695102E-003   6.2485670723926190E-002
   1.3399418554127291E-002  -3.5043697649546138E-003   6.2888252276431814E-002
   1.3108865995779416E-002  -3.5441388698107500E-003   6.2847699283714295E-002
   1.2818313437431540E-002  -3.5934449782474859E-003   6.2937087604470990E-002
   1.2527760879083662E-002  -3.6522880902647649E-003   6.3156417238701912E-002
   1.2237208320735788E-002  -3.7206682058625873E-003   6.3505688186406964E-002
   6.4531006667165585E-003  -1.5554221703539296E-003   6.3872868923309178E-002
   6.2600113050461838E-003  -1.5323346352690542E-003   6.3904615608817758E-002
   6.0669219433758144E-003  -1.5755830021077369E-003   6.4001347374207138E-002
   5.8738325817054380E-003  -1.6851672708699773E-003   6.4163064219477289E-002
   5.6807432200350703E-003  -1.8610874415556505E-003   6.4389766144628352E-002
  -3.5050297291937260E-004   3.9352542424674064E-004   6.4948741659299078E-002
  -5.1108537150562107E-004   4.7946959927262778E-004   6.4995989124690734E-002
  -6.7166777009186607E-004   4.4227897403200170E-004   6.5043265436369846E-002
  -8.3225016867811107E-004   2.8195354852489796E-004   6.5090570594336386E-002
  -9.9283256726435953E-004  -1.5066772487137836E-006   6.5137904598590340E-002
   2.4998806462341094E-002  -7.4398297344764330E-003   6.1329713757186072E-002
   2.4249390894949048E-002  -7.2735789581246935E-003   6.0977665486310423E-002
   2.3499975327556995E-002  -7.1722874113308022E-003   6.0732409046095781E-002
   2.2750559760164948E-002  -7.1359550940945371E-003   6.0593944436542410E-002
   2.2001144192772895E-002  -7.1645820064160648E-003   6.0562271657650268E-002
   1.8676562734837795E-002  -5.5802489701695102E-003   6.2485670723926190E-002
   1.8056636971293540E-002  -5.5258910232165864E-003   6.1998297184941223E-002
   1.7436711207749277E-002  -5.4883989561002045E-003   6.1663111422990732E-002
   1.6816785444205017E-002  -5.4677727688201977E-003   6.1480113438074566E-002
   1.6196859680660765E-002  -5.4640124613768437E-003   6.1449303230192792E-002
   1.2237208320735788E-002  -3.7206682058625873E-003   6.3505688186406964E-002
   1.1792168307412554E-002  -3.7782030883083684E-003   6.2931082729033958E-002
   1.1347128294089313E-002  -3.8045105008694957E-003   6.2554060995068661E-002
   1.0902088280766074E-002  -3.7995904435459138E-003   6.2374622984510977E-002
   1.0457048267442839E-002  -3.7634429163376504E-003   6.2392768697360906E-002
   5.6807432200350703E-003  -1.8610874415556505E-003   6.4389766144628352E-002
   5.4559849033060919E-003  -2.0305151534001920E-003   6.3776022118588557E-002
   5.2312265865771127E-003  -2.1206220456388425E-003   6.3405257762329678E-002
   5.0064682698481387E-003  -2.1314081182716021E-003   6.3277473075851715E-002
   4.7817099531191560E-003  -2.0628733712984432E-003   6.3392668059154514E-002
  -9.9283256726435953E-004  -1.5066772487137836E-006   6.5137904598590340E-002
  -9.5191324102584726E-004  -2.8282721849204329E-004   6.4533115353605008E-002
  -9.1099391478732979E-004  -4.3673359040823784E-004   6.4216701724773798E-002
  -8.7007458854881752E-004  -4.6322579299735815E-004   6.4188663712096639E-002
  -8.2915526231030004E-004  -3.6230382625918045E-004   6.4449001315573684E-002
   2.2001144192772895E-002  -7.1645820064160648E-003   6.0562271657650268E-002
   2.1090738177951290E-002  -7.1779183306628913E-003   5.9940243793127457E-002
   2.0180332163129693E-002  -7.0957142492024672E-003   5.9624545751661234E-002
   1.9269926148308070E-002  -6.9179697620344455E-003   5.9615177533251268E-002
   1.8359520133486490E-002  -6.6446848691594784E-003   5.9912139137897613E-002
   1.6196859680660765E-002  -5.4640124613768437E-003   6.1449303230192792E-002
   1.5564829506597037E-002  -5.4435525440480748E-003   6.0936697234923148E-002
   1.4932799332533320E-002  -5.3728275271115594E-003   6.0674513098113003E-002
   1.4300769158469612E-002  -5.2518374105676759E-003   6.0662750819762065E-002
   1.3668738984405890E-002  -5.0805821944162610E-003   6.0901410399870543E-002
   1.0457048267442839E-002  -3.7634429163376504E-003   6.2392768697360906E-002
   1.0047485969539985E-002  -3.7091867574331194E-003   6.1944309265244690E-002
   9.6379236716371292E-003  -3.6499408050209292E-003   6.1690363726990785E-002
   9.2283613737342736E-003  -3.5857050591009063E-003   6.1630932082599191E-002
   8.8187990758314197E-003  -3.5164795196731546E-003   6.1766014332070032E-002
   4.7817099531191560E-003  -2.0628733712984432E-003   6.3392668059154514E-002
   4.5387075667801414E-003  -1.9748209708182612E-003   6.2963079884091777E-002
   4.2957051804411155E-003  -1.9270540829301880E-003   6.2672097638294427E-002
   4.0527027941020905E-003  -1.9195727076340811E-003   6.2519721321762450E-002
   3.8097004077630742E-003  -1.9523768449300760E-003   6.2505950934495791E-002
  -8.2915526231030004E-004  -3.6230382625918045E-004   6.4449001315573684E-002
  -9.6150570168251556E-004  -2.4045518420331979E-004   6.3993009091464770E-002
  -1.0938561410547294E-003  -2.0416736083939124E-004   6.3619714832024193E-002
  -1.2262065804269509E-003  -2.5344035616711724E-004   6.3329118537251927E-002
  -1.3585570197991587E-003  -3.8827417018688637E-004   6.3121220207147943E-002
   1.8359520133486490E-002  -6.6446848691594784E-003   5.9912139137897613E-002
   1.7828976436628424E-002  -6.3831642176479797E-003   5.9772280545230927E-002
   1.7298432739770359E-002  -6.2407124545711262E-003   5.9680571827899737E-002
   1.6767889042912307E-002  -6.2173295799292060E-003   5.9637012985904139E-002
   1.6237345346054227E-002  -6.3130155937218269E-003   5.9641604019244066E-002
   1.3668738984405890E-002  -5.0805821944162610E-003   6.0901410399870543E-002
   1.3179451111620784E-002  -4.9384268285438682E-003   6.0481732152147305E-002
   1.2690163238835685E-002  -4.9047362628367591E-003   6.0096415677234324E-002
   1.2200875366050575E-002  -4.9795104972953190E-003   5.9745460975131552E-002
   1.1711587493265480E-002  -5.1627495319194194E-003   5.9428868045839300E-002
   8.8187990758314197E-003  -3.5164795196731546E-003   6.1766014332070032E-002
   8.3569789245940204E-003  -3.4936894394396872E-003   6.1077120517559327E-002
   7.8951587733566246E-003  -3.5687600711024545E-003   6.0408800373333550E-002
   7.4333386221192219E-003  -3.7416914146614893E-003   5.9761053899393027E-002
   6.9715184708818365E-003  -4.0124834701167067E-003   5.9133881095737459E-002
   3.8097004077630742E-003  -1.9523768449300760E-003   6.2505950934495791E-002
   3.3615598755481193E-003  -2.0489520503354855E-003   6.1558445641466952E-002
   2.9134193433331800E-003  -2.2327838793680353E-003   6.0617725916197837E-002
   2.4652788111182364E-003  -2.5038723320275199E-003   5.9683791758688529E-002
   2.0171382789032789E-003  -2.8622174083143131E-003   5.8756643168939068E-002
  -1.3585570197991587E-003  -3.8827417018688637E-004   6.3121220207147943E-002
  -1.8068060355168961E-003  -6.0421466123136702E-004   6.1925707523870110E-002
  -2.2550550512346439E-003  -8.9680768763376884E-004   6.0723192305826845E-002
  -2.7033040669523882E-003  -1.2660532493938802E-003   5.9513674553018162E-002
  -3.1515530826701291E-003  -1.7119513465115865E-003   5.8297154265444129E-002
   1.6237345346054227E-002  -6.3130155937218269E-003   5.9641604019244066E-002
   1.5935363896363547E-002  -6.0227435544136232E-003   6.0363898564358753E-002
   1.5633382446672825E-002  -4.8414865204688545E-003   6.2289009430874204E-002
   1.5331400996982110E-002  -2.7692444918877741E-003   6.5416936618790264E-002
   1.5029419547291423E-002   1.9398253132973942E-004   6.9747680128107392E-002
   1.1711587493265480E-002  -5.1627495319194194E-003   5.9428868045839300E-002
   1.2326160317767398E-002  -5.2511707045395650E-003   6.0245132133555590E-002
   1.2940733142269317E-002  -5.0414913529869820E-003   6.1691688448256538E-002
   1.3555305966771243E-002  -4.5337114772615733E-003   6.3768536989941990E-002
   1.4169878791273183E-002  -3.7278310773634082E-003   6.6475677758611851E-002
   6.9715184708818365E-003  -4.0124834701167067E-003   5.9133881095737459E-002
   7.9301214751602012E-003  -4.4795978546654791E-003   5.9451230255591958E-002
   8.8887244794385763E-003  -5.2414961855050471E-003   5.9826347548014726E-002
   9.8473274837169462E-003  -6.2981784626355373E-003   6.0259232973005852E-002
   1.0805930487995302E-002  -7.6496446860565559E-003   6.0749886530565567E-002
   2.0171382789032789E-003  -2.8622174083143131E-003   5.8756643168939068E-002
   2.7472473685419309E-003  -3.7080250047916291E-003   5.7982192930468121E-002
   3.4773564581805786E-003  -5.4415010180231989E-003   5.6692986730149116E-002
   4.2074655478192176E-003  -8.0626454480092515E-003   5.4889024567982135E-002
   4.9375746374578713E-003  -1.1571458294749704E-002   5.2570306443967665E-002
  -3.1515530826701291E-003  -1.7119513465115865E-003   5.8297154265444129E-002
  -3.2224620020873881E-003  -2.9364521549172795E-003   5.5838020158183788E-002
  -3.2933709215046680E-003  -5.6415058505411564E-003   5.2291605994659429E-002
  -3.3642798409219462E-003  -9.8271124333832519E-003   4.7657911774871331E-002
  -3.4351887603392001E-003  -1.5493271903442851E-002   4.1936937498818994E-002
  -3.2506549160774001E-005   0.0000000000000000        2.8488230574060025E-002
  -4.2749402705107888E-005   1.0372132315101396E-005   3.3453391820825011E-002
  -5.2992256249441124E-005   2.4208358464977708E-005   3.8430710116369358E-002
  -6.3235109793775119E-005   4.1508678449630673E-005   4.3420185460693046E-002
  -7.3477963338107379E-005   6.2273092269051616E-005   4.8421817853796095E-002
  -6.8299146097326397E-003   0.0000000000000000        2.8560239331042472E-002
  -6.8676825012753615E-003   1.5465223347736236E-004   3.3603351282098598E-002
  -6.9054503928180806E-003   3.4785407677508876E-004   3.8579256108378597E-002
  -6.9432182843608015E-003   5.7960552989317661E-004   4.3487953809882469E-002
  -6.9809861759035224E-003   8.4990659283163631E-004   4.8329444386610222E-002
  -1.3530696731063201E-002   0.0000000000000000        2.8758985431194380E-002
  -1.3675353834159788E-002   2.9893233463962245E-004   3.3915133602527237E-002
  -1.3820010937256372E-002   6.7149979508519808E-004   3.8924710475528479E-002
  -1.3964668040352960E-002   1.1177023813367304E-003   4.3787716050198121E-002
  -1.4109325143449545E-002   1.6375400933942175E-003   4.8504150326536169E-002
  -2.0134852913152462E-002   0.0000000000000000        2.9084468874515761E-002
  -2.0465763401358389E-002   4.4321243580188298E-004   3.4388738782110913E-002
  -2.0796673889564313E-002   9.9514551339531087E-004   3.9467073217819011E-002
  -2.1127584377770240E-002   1.6557992327802837E-003   4.4319472181640014E-002
  -2.1458494865976171E-002   2.4251735939567970E-003   4.8945935673573943E-002
  -2.6642383156000416E-002   0.0000000000000000        2.9536689661006602E-002
  -2.7238911202871162E-002   5.8749253696414438E-004   3.5024166820849668E-002
  -2.7835439249741908E-002   1.3187912317054185E-003   4.0206344335250180E-002
  -2.8431967296612657E-002   2.1938960842238335E-003   4.5083222204208136E-002
  -2.9028495343483406E-002   3.2128070945193809E-003   4.9654800427723536E-002
  -7.3477963338107379E-005   6.2273092269051616E-005   4.8421817853796095E-002
  -8.9762752392486163E-005   8.1683628544573957E-005   5.1607742913716260E-002
  -1.0604754144686256E-004   9.4922315897495550E-005   5.4653369751534314E-002
  -1.2233233050123972E-004   1.0198915432783093E-004   5.7558698367250173E-002
  -1.3861711955561774E-004   1.0288414383556599E-004   6.0323728760863976E-002
  -6.9809861759035224E-003   8.4990659283163631E-004   4.8329444386610222E-002
  -7.1060117714206441E-003   1.1167900752414319E-003   5.1300317797289031E-002
  -7.2310373669377667E-003   1.3382887867735597E-003   5.4194007817144486E-002
  -7.3560629624548823E-003   1.5144027274280403E-003   5.7010514446176608E-002
  -7.4810885579720101E-003   1.6451318972048323E-003   5.9749837684385347E-002
  -1.4109325143449545E-002   1.6375400933942175E-003   4.8504150326536169E-002
  -1.4279976714150631E-002   2.1518965219382972E-003   5.1220759166018551E-002
  -1.4450628284851720E-002   2.5816552576496446E-003   5.3923299445956370E-002
  -1.4621279855552807E-002   2.9268163005282499E-003   5.6611771166349620E-002
  -1.4791931426253895E-002   3.1873796505741056E-003   5.9286174327198252E-002
  -2.1458494865976171E-002   2.4251735939567970E-003   4.8945935673573943E-002
  -2.1611657580582446E-002   3.1870029686351725E-003   5.1369067019904825E-002
  -2.1764820295188728E-002   3.8250217285257090E-003   5.3841244637969909E-002
  -2.1917983009795004E-002   4.3392298736284734E-003   5.6362468527769230E-002
  -2.2071145724401286E-002   4.7296274039433685E-003   5.8932738689302704E-002
  -2.9028495343483406E-002   3.2128070945193809E-003   4.9654800427723536E-002
  -2.9101054370716098E-002   4.2221094153320343E-003   5.1745241358947841E-002
  -2.9173613397948790E-002   5.0683881994017842E-003   5.3947843393185133E-002
  -2.9246172425181485E-002   5.7516434467286730E-003   5.6262606530435383E-002
  -2.9318731452414176E-002   6.2718751573126383E-003   5.8689530770698627E-002
  -1.3861711955561774E-004   1.0288414383556599E-004   6.0323728760863976E-002
  -1.9158858289655689E-004   1.1940602264611661E-004   6.1245217282572081E-002
  -2.4456004623749517E-004   1.7335352898478762E-004   6.2323215606213969E-002
  -2.9753150957843475E-004   2.6472666285170393E-004   6.3557723731789625E-002
  -3.5050297291937260E-004   3.9352542424674064E-004   6.4948741659299078E-002
  -7.4810885579720101E-003   1.6451318972048323E-003   5.9749837684385347E-002
  -7.3892503956233986E-003   1.7550157665924063E-003   6.0711814498797416E-002
  -7.2974122332747863E-003   1.8685938060791565E-003   6.1806900762654798E-002
  -7.2055740709261792E-003   1.9858660156650779E-003   6.3035096475957508E-002
  -7.1137359085775651E-003   2.1068323953502832E-003   6.4396401638705511E-002
  -1.4791931426253895E-002   3.1873796505741056E-003   5.9286174327198252E-002
  -1.4578683990704201E-002   3.3906255105386855E-003   6.0254907976885298E-002
  -1.4365436555154506E-002   3.5638340831734977E-003   6.1333350723529204E-002
  -1.4152189119604811E-002   3.7070053684785213E-003   6.2521502567129988E-002
  -1.3938941684055120E-002   3.8201393664538050E-003   6.3819363507687590E-002
  -2.2071145724401286E-002   4.7296274039433685E-003   5.8932738689302704E-002
  -2.1759889368138968E-002   5.0262352544849769E-003   5.9874497716835715E-002
  -2.1448633011876644E-002   5.2590743602678527E-003   6.0902565488837185E-002
  -2.1137376655614326E-002   5.4281447212919439E-003   6.2016942005306996E-002
  -2.0826120299352005E-002   5.5334463375572955E-003   6.3217627266245219E-002
  -2.9318731452414176E-002   6.2718751573126383E-003   5.8689530770698627E-002
  -2.8932866527927689E-002   6.6618449984312648E-003   5.9570583718648699E-002
  -2.8547001603441209E-002   6.9543146373622061E-003   6.0514545058578700E-002
  -2.8161136678954729E-002   7.1492840741053804E-003   6.1521414790488629E-002
  -2.7775271754468246E-002   7.2467533086608693E-003   6.2591192914378507E-002
  -3.5050297291937260E-004   3.9352542424674064E-004   6.4948741659299078E-002
  -5.1108537150562107E-004   4.7946959927262778E-004   6.4995989124690734E-002
  -6.7166777009186607E-004   4.4227897403200170E-004   6.5043265436369846E-002
  -8.3225016867811107E-004   2.8195354852489796E-004   6.5090570594336386E-002
  -9.9283256726435953E-004  -1.5066772487137836E-006   6.5137904598590340E-002
  -7.1137359085775651E-003   2.1068323953502832E-003   6.4396401638705511E-002
  -7.2181250065436985E-003   2.1929653093217677E-003   6.4339592767713949E-002
  -7.3225141045098257E-003   2.2057371217666238E-003   6.4395141651675258E-002
  -7.4269032024759617E-003   2.1451478326848968E-003   6.4563048290589273E-002
  -7.5312923004420863E-003   2.0111974420765899E-003   6.4843312684456145E-002
  -1.3938941684055120E-002   3.8201393664538050E-003   6.3819363507687590E-002
  -1.3874808572735766E-002   3.9064610193708313E-003   6.3708271999052740E-002
  -1.3810675461416413E-002   3.9691952695011887E-003   6.3821867154036094E-002
  -1.3746542350097059E-002   4.0083421168449224E-003   6.4160148972637568E-002
  -1.3682409238777709E-002   4.0239015614019630E-003   6.4723117454857260E-002
  -2.0826120299352005E-002   5.5334463375572955E-003   6.3217627266245219E-002
  -2.0481136070081812E-002   5.6199567294199330E-003   6.3102026818707038E-002
  -2.0136151840811627E-002   5.7326534172357823E-003   6.3323441943452366E-002
  -1.9791167611541437E-002   5.8715364010049073E-003   6.3881872640481202E-002
  -1.9446183382271241E-002   6.0366056807273569E-003   6.4777318909793644E-002
  -2.7775271754468246E-002   7.2467533086608693E-003   6.2591192914378507E-002
  -2.7037107498581851E-002   7.3334524394690001E-003   6.2520857226676857E-002
  -2.6298943242695452E-002   7.4961115649703550E-003   6.2899866019924089E-002
  -2.5560778986809043E-002   7.7347306851649009E-003   6.3728219294120286E-002
  -2.4822614730922652E-002   8.0493098000526675E-003   6.5005917049265283E-002
  -9.9283256726435953E-004  -1.5066772487137836E-006   6.5137904598590340E-002
  -9.5191324102584726E-004  -2.8282721849204329E-004   6.4533115353605008E-002
  -9.1099391478732979E-004  -4.3673359040823784E-004   6.4216701724773798E-002
  -8.7007458854881752E-004  -4.6322579299735815E-004   6.4188663712096639E-002
  -8.2915526231030004E-004  -3.6230382625918045E-004   6.4449001315573684E-002
  -7.5312923004420863E-003   2.0111974420765899E-003   6.4843312684456145E-002
  -7.2272684290043739E-003   1.8780080744518757E-003   6.4701743821768409E-002
  -6.9232445575666650E-003   1.8197018543206975E-003   6.4798008433324894E-002
  -6.6192206861289613E-003   1.8362787816832062E-003   6.5132106519125654E-002
  -6.3151968146912436E-003   1.9277388565392406E-003   6.5704038079170801E-002
  -1.3682409238777709E-002   4.0239015614019630E-003   6.4723117454857260E-002
  -1.3165822964050628E-002   4.0388433673957391E-003   6.4992237952633508E-002
  -1.2649236689323553E-002   4.0761372990496293E-003   6.5448649782744228E-002
  -1.2132650414596463E-002   4.1357833563636310E-003   6.6092352945189378E-002
  -1.1616064139869389E-002   4.2177815393377449E-003   6.6923347439969083E-002
  -1.9446183382271241E-002   6.0366056807273569E-003   6.4777318909793644E-002
  -1.8767576846164608E-002   6.1996786603396165E-003   6.5404597746200485E-002
  -1.8088970310057982E-002   6.3325727437785074E-003   6.6168625773031883E-002
  -1.7410363773951349E-002   6.4352879310440973E-003   6.7069402990287977E-002
  -1.6731757237844716E-002   6.5078242221361243E-003   6.8106929397968724E-002
  -2.4822614730922652E-002   8.0493098000526675E-003   6.5005917049265283E-002
  -2.4032530075346295E-002   8.3605139532835077E-003   6.5938823202469132E-002
  -2.3242445419769948E-002   8.5890081885074618E-003   6.6957936404187776E-002
  -2.2452360764193595E-002   8.7347925057245698E-003   6.8063256654421256E-002
  -2.1662276108617248E-002   8.7978669049346703E-003   6.9254783953169474E-002
  -8.2915526231030004E-004  -3.6230382625918045E-004   6.4449001315573684E-002
  -9.6150570168251556E-004  -2.4045518420331979E-004   6.3993009091464770E-002
  -1.0938561410547294E-003  -2.0416736083939124E-004   6.3619714832024193E-002
  -1.2262065804269509E-003  -2.5344035616711724E-004   6.3329118537251927E-002
  -1.3585570197991587E-003  -3.8827417018688637E-004   6.3121220207147943E-002
  -6.3151968146912436E-003   1.9277388565392406E-003   6.5704038079170801E-002
  -6.3250714023367783E-003   2.0250420800665414E-003   6.5398619134901526E-002
  -6.3349459899823147E-003   2.0591484534423776E-003   6.5255453929417243E-002
  -6.3448205776278519E-003   2.0300579766668256E-003   6.5274542462718188E-002
  -6.3546951652733857E-003   1.9377706497398228E-003   6.5455884734803932E-002
  -1.1616064139869389E-002   4.2177815393377449E-003   6.6923347439969083E-002
  -1.1423907101671470E-002   4.2905393443364442E-003   6.6790865744079816E-002
  -1.1231750063473546E-002   4.3224642677241465E-003   6.6900193561092461E-002
  -1.1039593025275620E-002   4.3135563095009349E-003   6.7251330891006975E-002
  -1.0847435987077702E-002   4.2638154696666708E-003   6.7844277733823191E-002
  -1.6731757237844716E-002   6.5078242221361243E-003   6.8106929397968724E-002
  -1.6258012799686562E-002   6.5560366086063263E-003   6.8169748918999906E-002
  -1.5784268361528429E-002   6.5857800820059709E-003   6.8553933727049710E-002
  -1.5310523923370281E-002   6.5970546423349610E-003   6.9259483822118134E-002
  -1.4836779485212132E-002   6.5898602895934216E-003   7.0286399204205152E-002
  -2.1662276108617248E-002   8.7978669049346703E-003   6.9254783953169474E-002
  -2.0827388496382111E-002   8.8215338728761805E-003   6.9535268659661642E-002
  -1.9992500884146950E-002   8.8490958962877259E-003   7.0216674427289072E-002
  -1.9157613271911803E-002   8.8805529751689975E-003   7.1299001256051917E-002
  -1.8322725659676652E-002   8.9159051095202835E-003   7.2782249145950106E-002
  -1.3585570197991587E-003  -3.8827417018688637E-004   6.3121220207147943E-002
  -1.8068060355168961E-003  -6.0421466123136702E-004   6.1925707523870110E-002
  -2.2550550512346439E-003  -8.9680768763376884E-004   6.0723192305826845E-002
  -2.7033040669523882E-003  -1.2660532493938802E-003   5.9513674553018162E-002
  -3.1515530826701291E-003  -1.7119513465115865E-003   5.8297154265444129E-002
  -6.3546951652733857E-003   1.9377706497398228E-003   6.5455884734803932E-002
  -6.7335309897347522E-003   1.8266239933410200E-003   6.4814597929142820E-002
  -7.1123668141961308E-003   1.7409555281498040E-003   6.4319140040759656E-002
  -7.4912026386575042E-003   1.6807652541657205E-003   6.3969511069654650E-002
  -7.8700384631188690E-003   1.6460531713894389E-003   6.3765711015827897E-002
  -1.0847435987077702E-002   4.2638154696666708E-003   6.7844277733823191E-002
  -1.1004027168239137E-002   4.2574626479134486E-003   6.7859347532343697E-002
  -1.1160618349400554E-002   4.3787187439329259E-003   6.8173077700186019E-002
  -1.1317209530561978E-002   4.6275837577253748E-003   6.8785468237350003E-002
  -1.1473800711723405E-002   5.0040576892905753E-003   6.9696519143835706E-002
  -1.4836779485212132E-002   6.5898602895934216E-003   7.0286399204205152E-002
  -1.4618294571030024E-002   6.6883013024859397E-003   7.1059956333472868E-002
  -1.4399809656847926E-002   7.0164819597161900E-003   7.2285005284105946E-002
  -1.4181324742665823E-002   7.5744022612850024E-003   7.3961546056104319E-002
  -1.3962839828483720E-002   8.3620622071916006E-003   7.6089578649468054E-002
  -1.8322725659676652E-002   8.9159051095202835E-003   7.2782249145950106E-002
  -1.7576333198107454E-002   9.1191399570583198E-003   7.4416424332530373E-002
  -1.6829940736538231E-002   9.6542451754995789E-003   7.6654922792519425E-002
  -1.6083548274969030E-002   1.0521220764844536E-002   7.9497744525917360E-002
  -1.5337155813399818E-002   1.1720066725092848E-002   8.2944889532724275E-002
  -3.1515530826701291E-003  -1.7119513465115865E-003   5.8297154265444129E-002
  -3.2224620020873881E-003  -2.9364521549172795E-003   5.5838020158183788E-002
  -3.2933709215046680E-003  -5.6415058505411564E-003   5.2291605994659429E-002
  -3.3642798409219462E-003  -9.8271124333832519E-003   4.7657911774871331E-002
  -3.4351887603392001E-003  -1.5493271903442851E-002   4.1936937498818994E-002
  -7.8700384631188690E-003   1.6460531713894389E-003   6.3765711015827897E-002
  -8.7060957670553746E-003   1.2382907357580408E-003   6.1617365820088699E-002
  -9.5421530709918888E-003   5.8949403208913287E-005   5.9026003911575142E-002
  -1.0378210374928401E-002  -1.8919708262578674E-003   5.5991625290287075E-002
  -1.1214267678864923E-002  -4.6144699526420307E-003   5.2514229956224567E-002
  -1.1473800711723405E-002   5.0040576892905753E-003   6.9696519143835706E-002
  -1.2430743056689635E-002   5.4130336264335555E-003   6.8567936849918076E-002
  -1.3387685401655854E-002   5.7594046569592744E-003   6.7640601186715707E-002
  -1.4344627746622049E-002   6.0431707808676037E-003   6.6914512154228140E-002
  -1.5301570091588286E-002   6.2643319981587897E-003   6.6389669752455971E-002
  -1.3962839828483720E-002   8.3620622071916006E-003   7.6089578649468054E-002
  -1.4396403870990110E-002   9.5877765171089729E-003   7.6689733247672254E-002
  -1.4829967913496509E-002   1.1459859910709323E-002   7.8135397820081137E-002
  -1.5263531956002920E-002   1.3978312387992920E-002   8.0426572366694829E-002
  -1.5697095998509297E-002   1.7143133948959555E-002   8.3563256887512774E-002
  -1.5337155813399818E-002   1.1720066725092848E-002   8.2944889532724275E-002
  -1.4603078209956863E-002   1.3762519407784501E-002   8.5982755013350953E-002
  -1.3869000606513908E-002   1.7160315164459816E-002   9.0510393811671641E-002
  -1.3134923003070963E-002   2.1913453995118320E-002   9.6527805927686283E-002
  -1.2400845399628005E-002   2.8021935899760431E-002  0.10403499136139538     
  -2.6642383156000416E-002   0.0000000000000000        2.9536689661006602E-002
  -2.7238911202871162E-002   5.8749253696414438E-004   3.5024166820849668E-002
  -2.7835439249741908E-002   1.3187912317054185E-003   4.0206344335250180E-002
  -2.8431967296612657E-002   2.1938960842238335E-003   4.5083222204208136E-002
  -2.9028495343483406E-002   3.2128070945193809E-003   4.9654800427723536E-002
  -3.3392561152156157E-002   0.0000000000000000        3.0248545100540834E-002
  -3.4229713036382794E-002   9.5843066209852674E-004   3.5340988942607891E-002
  -3.5066864920609439E-002   2.0174798064083298E-003   4.0257484755405720E-002
  -3.5904016804836077E-002   3.1771474329294110E-003   4.4998032538934300E-002
  -3.6741168689062742E-002   4.4374335416617686E-003   4.9562632293193659E-002
  -4.0724660594168773E-002   0.0000000000000000        3.1352932502992377E-002
  -4.1673084699577992E-002   1.3293687872329087E-003   3.6007155351717578E-002
  -4.2621508804987204E-002   2.7161683811112378E-003   4.0614781787346857E-002
  -4.3569932910396438E-002   4.1603987816349938E-003   4.5175811809880215E-002
  -4.4518357015805650E-002   5.6620599888041658E-003   4.9690245419317658E-002
  -4.8638681482038260E-002   0.0000000000000000        3.2849851868361230E-002
  -4.9569026192456733E-002   1.7003069123672900E-003   3.7022666048178707E-002
  -5.0499370902875214E-002   3.4148569558141478E-003   4.1278235431073597E-002
  -5.1429715613293681E-002   5.1436501303405739E-003   4.5616560017045879E-002
  -5.2360060323712161E-002   6.8866864359465657E-003   5.0037639806095581E-002
  -5.7134623815764625E-002   0.0000000000000000        3.4739303196647385E-002
  -5.7917537515019032E-002   2.0712450375016730E-003   3.8387521031991292E-002
  -5.8700451214273447E-002   4.1135455305170553E-003   4.2247845686585919E-002
  -5.9483364913527854E-002   6.1269014790461540E-003   4.6320277160431272E-002
  -6.0266278612782276E-002   8.1113128830889551E-003   5.0604815453527366E-002
  -2.9028495343483406E-002   3.2128070945193809E-003   4.9654800427723536E-002
  -2.9101054370716098E-002   4.2221094153320343E-003   5.1745241358947841E-002
  -2.9173613397948790E-002   5.0683881994017842E-003   5.3947843393185133E-002
  -2.9246172425181485E-002   5.7516434467286730E-003   5.6262606530435383E-002
  -2.9318731452414176E-002   6.2718751573126383E-003   5.8689530770698627E-002
  -3.6741168689062742E-002   4.4374335416617686E-003   4.9562632293193659E-002
  -3.6742761175295235E-002   5.6618346542227690E-003   5.1379657675593146E-002
  -3.6744353661527750E-002   6.7138472922297909E-003   5.3226455036980022E-002
  -3.6745946147760243E-002   7.5934714556827928E-003   5.5103024377354329E-002
  -3.6747538633992757E-002   8.3007071445818301E-003   5.7009365696716011E-002
  -4.4518357015805650E-002   5.6620599888041658E-003   4.9690245419317658E-002
  -4.4531372085063539E-002   7.1015598931135140E-003   5.1224490315081236E-002
  -4.4544387154321442E-002   8.3593063850577621E-003   5.2706118065806613E-002
  -4.4557402223579318E-002   9.4352994646369290E-003   5.4135128671493858E-002
  -4.4570417292837228E-002   1.0329539131850998E-002   5.5511522132142888E-002
  -5.2360060323712161E-002   6.8866864359465657E-003   5.0037639806095581E-002
  -5.2466887100021016E-002   8.5412851320042435E-003   5.1279739277412133E-002
  -5.2573713876329871E-002   1.0004765477885738E-002   5.2386832479664927E-002
  -5.2680540652638733E-002   1.1277127473591079E-002   5.3358919412854006E-002
  -5.2787367428947574E-002   1.2358371119120184E-002   5.4196000076979313E-002
  -6.0266278612782276E-002   8.1113128830889551E-003   5.0604815453527366E-002
  -6.0549306220167652E-002   9.9810103708949886E-003   5.1545404562585800E-002
  -6.0832333827553042E-002   1.1650224570713727E-002   5.2268598278554929E-002
  -6.1115361434938419E-002   1.3118955482545193E-002   5.2774396601434709E-002
  -6.1398389042323809E-002   1.4387203106389364E-002   5.3062799531225203E-002
  -2.9318731452414176E-002   6.2718751573126383E-003   5.8689530770698627E-002
  -2.8932866527927689E-002   6.6618449984312648E-003   5.9570583718648699E-002
  -2.8547001603441209E-002   6.9543146373622061E-003   6.0514545058578700E-002
  -2.8161136678954729E-002   7.1492840741053804E-003   6.1521414790488629E-002
  -2.7775271754468246E-002   7.2467533086608693E-003   6.2591192914378507E-002
  -3.6747538633992757E-002   8.3007071445818301E-003   5.7009365696716011E-002
  -3.6253441793525444E-002   8.8370946349813906E-003   5.7408266629084784E-002
  -3.5759344953058117E-002   9.2041742029360090E-003   5.7960723001435337E-002
  -3.5265248112590783E-002   9.4019458484458536E-003   5.8666734813767600E-002
  -3.4771151272123470E-002   9.4304095715107561E-003   5.9526302066081650E-002
  -4.4570417292837228E-002   1.0329539131850998E-002   5.5511522132142888E-002
  -4.3877441488387250E-002   1.1012344271531490E-002   5.5356463328673222E-002
  -4.3184465683937252E-002   1.1454033768509939E-002   5.5445607013187147E-002
  -4.2491489879487268E-002   1.1654607622786313E-002   5.5778953185684585E-002
  -4.1798514075037298E-002   1.1614065834360615E-002   5.6356501846165634E-002
  -5.2787367428947574E-002   1.2358371119120184E-002   5.4196000076979313E-002
  -5.1804865612513129E-002   1.3187593908081611E-002   5.3415173817414022E-002
  -5.0822363796078657E-002   1.3703893334083818E-002   5.2969197093834124E-002
  -4.9839861979644191E-002   1.3907269397126793E-002   5.2858069906239563E-002
  -4.8857360163209719E-002   1.3797722097210516E-002   5.3081792254630521E-002
  -6.1398389042323809E-002   1.4387203106389364E-002   5.3062799531225203E-002
  -6.0035714165903059E-002   1.5362843544631712E-002   5.1584398095307134E-002
  -5.8673039289482282E-002   1.5953752899657669E-002   5.0531493243376260E-002
  -5.7310364413061518E-002   1.6159931171467239E-002   4.9904084975432604E-002
  -5.5947689536640755E-002   1.5981378360060389E-002   4.9702173291476137E-002
  -2.7775271754468246E-002   7.2467533086608693E-003   6.2591192914378507E-002
  -2.7037107498581851E-002   7.3334524394690001E-003   6.2520857226676857E-002
  -2.6298943242695452E-002   7.4961115649703550E-003   6.2899866019924089E-002
  -2.5560778986809043E-002   7.7347306851649009E-003   6.3728219294120286E-002
  -2.4822614730922652E-002   8.0493098000526675E-003   6.5005917049265283E-002
  -3.4771151272123470E-002   9.4304095715107561E-003   5.9526302066081650E-002
  -3.3641139185521703E-002   9.3970498508305772E-003   5.9427796957711901E-002
  -3.2511127098919922E-002   9.4093511651052453E-003   5.9663643029823965E-002
  -3.1381115012318168E-002   9.4673135143347395E-003   6.0233840282417857E-002
  -3.0251102925716398E-002   9.5709368985189558E-003   6.1138388715493638E-002
  -4.1798514075037298E-002   1.1614065834360615E-002   5.6356501846165634E-002
  -4.0391647458187192E-002   1.1460647262192102E-002   5.6199528357389367E-002
  -3.8984780841337108E-002   1.1322590765240104E-002   5.6261912748627935E-002
  -3.7577914224487037E-002   1.1199896343504521E-002   5.6543655019881310E-002
  -3.6171047607636925E-002   1.1092563996985341E-002   5.7044755171149437E-002
  -4.8857360163209719E-002   1.3797722097210516E-002   5.3081792254630521E-002
  -4.7288632316578344E-002   1.3524244673553709E-002   5.2836051425709366E-002
  -4.5719904469946969E-002   1.3235830365374937E-002   5.2694675176335963E-002
  -4.4151176623315608E-002   1.2932479172674221E-002   5.2657663506510383E-002
  -4.2582448776684219E-002   1.2614191095451678E-002   5.2725016416232597E-002
  -5.5947689536640755E-002   1.5981378360060389E-002   4.9702173291476137E-002
  -5.4332093760695151E-002   1.5587842084915197E-002   4.9337366162671814E-002
  -5.2716497984749533E-002   1.5149069965509833E-002   4.8961930312948168E-002
  -5.1100902208803915E-002   1.4665062001844068E-002   4.8575865742305289E-002
  -4.9485306432858311E-002   1.4135818193918015E-002   4.8179172450743074E-002
  -2.4822614730922652E-002   8.0493098000526675E-003   6.5005917049265283E-002
  -2.4032530075346295E-002   8.3605139532835077E-003   6.5938823202469132E-002
  -2.3242445419769948E-002   8.5890081885074618E-003   6.6957936404187776E-002
  -2.2452360764193595E-002   8.7347925057245698E-003   6.8063256654421256E-002
  -2.1662276108617248E-002   8.7978669049346703E-003   6.9254783953169474E-002
  -3.0251102925716398E-002   9.5709368985189558E-003   6.1138388715493638E-002
  -2.9344258404573293E-002   9.6614465212947059E-003   6.1533091960733213E-002
  -2.8437413883430178E-002   9.6800675862982050E-003   6.2075107888591420E-002
  -2.7530569362287066E-002   9.6268000935296506E-003   6.2764436499068321E-002
  -2.6623724841143986E-002   9.5016440429890325E-003   6.3601077792164035E-002
  -3.6171047607636925E-002   1.1092563996985341E-002   5.7044755171149437E-002
  -3.5086337586823141E-002   1.0962379089305772E-002   5.6912076868659414E-002
  -3.4001627566009371E-002   1.0771126984088924E-002   5.6987816882891992E-002
  -3.2916917545195629E-002   1.0518807681334761E-002   5.7271975213847297E-002
  -3.1832207524381810E-002   1.0205421181043395E-002   5.7764551861525057E-002
  -4.2582448776684219E-002   1.2614191095451678E-002   5.2725016416232597E-002
  -4.1258767622095877E-002   1.2263311657316905E-002   5.2075777926247790E-002
  -3.9935086467507541E-002   1.1862186381879655E-002   5.1696063387089659E-002
  -3.8611405312919178E-002   1.1410815269139883E-002   5.1585872798757967E-002
  -3.7287724158330857E-002   1.0909198319097785E-002   5.1745206161252888E-002
  -4.9485306432858311E-002   1.4135818193918015E-002   4.8179172450743074E-002
  -4.7861548510391497E-002   1.3564244225328037E-002   4.7024195133498453E-002
  -4.6237790587924668E-002   1.2953245779670358E-002   4.6199847401184269E-002
  -4.4614032665457853E-002   1.2302822856944999E-002   4.5706129253800590E-002
  -4.2990274742991025E-002   1.1612975457152175E-002   4.5543040691347292E-002
  -2.1662276108617248E-002   8.7978669049346703E-003   6.9254783953169474E-002
  -2.0827388496382111E-002   8.8215338728761805E-003   6.9535268659661642E-002
  -1.9992500884146950E-002   8.8490958962877259E-003   7.0216674427289072E-002
  -1.9157613271911803E-002   8.8805529751689975E-003   7.1299001256051917E-002
  -1.8322725659676652E-002   8.9159051095202835E-003   7.2782249145950106E-002
  -2.6623724841143986E-002   9.5016440429890325E-003   6.3601077792164035E-002
  -2.5429644599550636E-002   9.3457625470567823E-003   6.3599966477397171E-002
  -2.4235564357957332E-002   9.2003187181134705E-003   6.3916319360211207E-002
  -2.3041484116364003E-002   9.0653125561592843E-003   6.4550136440606143E-002
  -2.1847403874770705E-002   8.9407440611939393E-003   6.5501417718582089E-002
  -3.1832207524381810E-002   1.0205421181043395E-002   5.7764551861525057E-002
  -3.0362391516984794E-002   9.8699912212373148E-003   5.7488387137018329E-002
  -2.8892575509587768E-002   9.5515415399393885E-003   5.7446229746538104E-002
  -2.7422759502190766E-002   9.2500721371493507E-003   5.7638079690084304E-002
  -2.5952943494793726E-002   8.9655830128675118E-003   5.8063936967657090E-002
  -3.7287724158330857E-002   1.0909198319097785E-002   5.1745206161252888E-002
  -3.5625629248684572E-002   1.0394219895417771E-002   5.1200530638525414E-002
  -3.3963534339038273E-002   9.9027643617651921E-003   5.0806405586269782E-002
  -3.2301439429391988E-002   9.4348317181395837E-003   5.0562831004486303E-002
  -3.0639344519745697E-002   8.9904219645411537E-003   5.0469806893174818E-002
  -4.2990274742991025E-002   1.1612975457152175E-002   4.5543040691347292E-002
  -4.1219357794649941E-002   1.0918448569598505E-002   4.4736396981918058E-002
  -3.9448440846308844E-002   1.0253987183591093E-002   4.3996846879406332E-002
  -3.7677523897967739E-002   9.6195912991296866E-003   4.3324390383812333E-002
  -3.5906606949626635E-002   9.0152609162146846E-003   4.2719027495135897E-002
  -1.8322725659676652E-002   8.9159051095202835E-003   7.2782249145950106E-002
  -1.7576333198107454E-002   9.1191399570583198E-003   7.4416424332530373E-002
  -1.6829940736538231E-002   9.6542451754995789E-003   7.6654922792519425E-002
  -1.6083548274969030E-002   1.0521220764844536E-002   7.9497744525917360E-002
  -1.5337155813399818E-002   1.1720066725092848E-002   8.2944889532724275E-002
  -2.1847403874770705E-002   8.9407440611939393E-003   6.5501417718582089E-002
  -2.0597465056248106E-002   8.9156948838195471E-003   6.6714190253326200E-002
  -1.9347526237725482E-002   9.0792466746384970E-003   6.8329732228568085E-002
  -1.8097587419202889E-002   9.4313994336506363E-003   7.0348043644307828E-002
  -1.6847648600680280E-002   9.9721531608559788E-003   7.2769124500545623E-002
  -2.5952943494793726E-002   8.9655830128675118E-003   5.8063936967657090E-002
  -2.4401012152228722E-002   8.7122498105811352E-003   5.8712037447854581E-002
  -2.2849080809663722E-002   8.5042481737775191E-003   5.9561353535639162E-002
  -2.1297149467098715E-002   8.3415781024569011E-003   6.0611885231010534E-002
  -1.9745218124533687E-002   8.2242395966190540E-003   6.1863632533968843E-002
  -3.0639344519745697E-002   8.9904219645411537E-003   5.0469806893174818E-002
  -2.8986974486049286E-002   8.5088047373425707E-003   5.0409965916115809E-002
  -2.7334604452352865E-002   7.9292496729163782E-003   5.0349786713732483E-002
  -2.5682234418656451E-002   7.2517567712630281E-003   5.0289269286025125E-002
  -2.4029864384960069E-002   6.4763260323821570E-003   5.0228413632993699E-002
  -3.5906606949626635E-002   9.0152609162146846E-003   4.2719027495135897E-002
  -3.4355352057709843E-002   8.3053596641039507E-003   4.1807975658109564E-002
  -3.2804097165793022E-002   7.3542511720553760E-003   4.0695031762848388E-002
  -3.1252842273876216E-002   6.1619354400692175E-003   3.9380195809351953E-002
  -2.9701587381959396E-002   4.7284124681453155E-003   3.7863467797620454E-002
  -1.5337155813399818E-002   1.1720066725092848E-002   8.2944889532724275E-002
  -1.4603078209956863E-002   1.3762519407784501E-002   8.5982755013350953E-002
  -1.3869000606513908E-002   1.7160315164459816E-002   9.0510393811671641E-002
  -1.3134923003070963E-002   2.1913453995118320E-002   9.6527805927686283E-002
  -1.2400845399628005E-002   2.8021935899760431E-002  0.10403499136139538     
  -1.6847648600680280E-002   9.9721531608559788E-003   7.2769124500545623E-002
  -1.4966609855230007E-002   1.0904384134339418E-002   7.5051949368085902E-002
  -1.3085571109779795E-002   1.2430968632186262E-002   7.8138923201946653E-002
  -1.1204532364329528E-002   1.4551906654396478E-002   8.2030046002127682E-002
  -9.3234936188792833E-003   1.7267198200970113E-002   8.6725317768629684E-002
  -1.9745218124533687E-002   8.2242395966190540E-003   6.1863632533968843E-002
  -1.7402842588449773E-002   8.0462488608941674E-003   6.2630427238802550E-002
  -1.5060467052365861E-002   7.7016220999128193E-003   6.3515746558583150E-002
  -1.2718091516281962E-002   7.1903593136746630E-003   6.4519590493310630E-002
  -1.0375715980198031E-002   6.5124605021797954E-003   6.5641959042984921E-002
  -2.4029864384960069E-002   6.4763260323821570E-003   5.0228413632993699E-002
  -2.1911776409616134E-002   5.1881135874491668E-003   4.8718188625501015E-002
  -1.9793688434272205E-002   2.9722755676393764E-003   4.6640863881581576E-002
  -1.7675600458928221E-002  -1.7118802704716579E-004   4.3996439401235071E-002
  -1.5557512483584345E-002  -4.2422771966105222E-003   4.0784915184462187E-002
  -2.9701587381959396E-002   4.7284124681453155E-003   3.7863467797620454E-002
  -2.8493411318729067E-002   2.3299783140039443E-003   3.3315233528181165E-002
  -2.7285235255498676E-002  -1.7570709646341637E-003   2.7514275170941432E-002
  -2.6077059192268371E-002  -7.5327353677690466E-003   2.0460592725900992E-002
  -2.4868883129038011E-002  -1.4997014895400840E-002   1.2154186193060745E-002
  -5.7134623815764625E-002   0.0000000000000000        3.4739303196647385E-002
  -5.7917537515019032E-002   2.0712450375016730E-003   3.8387521031991292E-002
  -5.8700451214273447E-002   4.1135455305170553E-003   4.2247845686585919E-002
  -5.9483364913527854E-002   6.1269014790461540E-003   4.6320277160431272E-002
  -6.0266278612782276E-002   8.1113128830889551E-003   5.0604815453527366E-002
  -6.5800476792788790E-002   0.0000000000000000        3.7247785887152982E-002
  -6.6600268128617510E-002   2.9032854887446162E-003   4.0866684571168224E-002
  -6.7400059464446230E-002   5.7506458124457040E-003   4.4239721162784108E-002
  -6.8199850800274950E-002   8.5420809711032573E-003   4.7366895662000655E-002
  -6.8999642136103670E-002   1.1277590964717298E-002   5.0248208068817857E-002
  -7.4224229610551667E-002   0.0000000000000000        4.0601799339180143E-002
  -7.5498867494604785E-002   3.7353259399875586E-003   4.4164398251309481E-002
  -7.6773505378657875E-002   7.3877460943743509E-003   4.7023166159389389E-002
  -7.8048143262710978E-002   1.0957260463160373E-002   4.9178103063419888E-002
  -7.9322781146764068E-002   1.4443869046345632E-002   5.0629208963400958E-002
  -8.2405882269053279E-002   0.0000000000000000        4.4801343552728870E-002
  -8.4613335612980831E-002   4.5673663912305009E-003   4.8280662072415055E-002
  -8.6820788956908382E-002   9.0248463763029953E-003   5.0598180676401740E-002
  -8.9028242300835947E-002   1.3372439955217492E-002   5.1753899364688966E-002
  -9.1235695644763526E-002   1.7610147127973964E-002   5.1747818137276677E-002
  -9.0345434768293625E-002   0.0000000000000000        4.9846418527799155E-002
  -9.3943672483745688E-002   5.3994068424734441E-003   5.3215476034484954E-002
  -9.7541910199197779E-002   1.0661946658231645E-002   5.4964764713821196E-002
 -0.10114014791464984        1.5787619447274588E-002   5.5094284565807866E-002
 -0.10473838563010193        2.0776425209602302E-002   5.3604035590444993E-002
  -6.0266278612782276E-002   8.1113128830889551E-003   5.0604815453527366E-002
  -6.0549306220167652E-002   9.9810103708949886E-003   5.1545404562585800E-002
  -6.0832333827553042E-002   1.1650224570713727E-002   5.2268598278554929E-002
  -6.1115361434938419E-002   1.3118955482545193E-002   5.2774396601434709E-002
  -6.1398389042323809E-002   1.4387203106389364E-002   5.3062799531225203E-002
  -6.8999642136103670E-002   1.1277590964717298E-002   5.0248208068817857E-002
  -6.9261935489152771E-002   1.3714676252231370E-002   4.9466447570391044E-002
  -6.9524228842201885E-002   1.5610837292589025E-002   4.8943550973726130E-002
  -6.9786522195251013E-002   1.6966074085790289E-002   4.8679518278823067E-002
  -7.0048815548300114E-002   1.7780386631835156E-002   4.8674349485681889E-002
  -7.9322781146764068E-002   1.4443869046345632E-002   5.0629208963400958E-002
  -7.9088080950625708E-002   1.7448342133567749E-002   4.7784657898319774E-002
  -7.8853380754487334E-002   1.9571450014464330E-002   4.5675230029851667E-002
  -7.8618680558348975E-002   2.0813192689035382E-002   4.4300925357996637E-002
  -7.8383980362210615E-002   2.1173570157280903E-002   4.3661743882754657E-002
  -9.1235695644763526E-002   1.7610147127973964E-002   5.1747818137276677E-002
  -9.0027742604586458E-002   2.1182008014904125E-002   4.6500035546371971E-002
  -8.8819789564409418E-002   2.3532062736339631E-002   4.2463635446931554E-002
  -8.7611836524232378E-002   2.4660311292280478E-002   3.9638617838955413E-002
  -8.6403883484055310E-002   2.4566753682726657E-002   3.8024982722443569E-002
 -0.10473838563010193        2.0776425209602302E-002   5.3604035590444993E-002
 -0.10208092045103503        2.4915673896240512E-002   4.5612580514547668E-002
  -9.9423455271968095E-002   2.7492675458214936E-002   3.9308767224965825E-002
  -9.6765990092901155E-002   2.8507429895525564E-002   3.4692595721699471E-002
  -9.4108524913834257E-002   2.7959937208172435E-002   3.1764066004748549E-002
  -6.1398389042323809E-002   1.4387203106389364E-002   5.3062799531225203E-002
  -6.0035714165903059E-002   1.5362843544631712E-002   5.1584398095307134E-002
  -5.8673039289482282E-002   1.5953752899657669E-002   5.0531493243376260E-002
  -5.7310364413061518E-002   1.6159931171467239E-002   4.9904084975432604E-002
  -5.5947689536640755E-002   1.5981378360060389E-002   4.9702173291476137E-002
  -7.0048815548300114E-002   1.7780386631835156E-002   4.8674349485681889E-002
  -6.8304133867824884E-002   1.8215617149632147E-002   4.7166734515618994E-002
  -6.6559452187349655E-002   1.8433607858089861E-002   4.5997636569677848E-002
  -6.4814770506874453E-002   1.8434358757208367E-002   4.5167055647858362E-002
  -6.3070088826399209E-002   1.8217869846987644E-002   4.4674991750160563E-002
  -7.8383980362210615E-002   2.1173570157280903E-002   4.3661743882754657E-002
  -7.6344271437546407E-002   2.1068390754632599E-002   4.2292406652424099E-002
  -7.4304562512882269E-002   2.0913462816522149E-002   4.1174606886349767E-002
  -7.2264853588218131E-002   2.0708786342949561E-002   4.0308344584531620E-002
  -7.0225144663553951E-002   2.0454361333914831E-002   3.9693619746969659E-002
  -8.6403883484055310E-002   2.4566753682726657E-002   3.8024982722443569E-002
  -8.4156126875067738E-002   2.3921164359633040E-002   3.6961414505722462E-002
  -8.1908370266080124E-002   2.3393317774954341E-002   3.6062404193392052E-002
  -7.9660613657092497E-002   2.2983213928690710E-002   3.5327951785452338E-002
  -7.7412857048104911E-002   2.2690852820842024E-002   3.4758057281903294E-002
  -9.4108524913834257E-002   2.7959937208172435E-002   3.1764066004748549E-002
  -9.1739700180388739E-002   2.6773937964633478E-002   3.1173758075514028E-002
  -8.9370875446943179E-002   2.5873172733386629E-002   3.0661028490804713E-002
  -8.7002050713497647E-002   2.5257641514431876E-002   3.0225877250620564E-002
  -8.4633225980052101E-002   2.4927344307769259E-002   2.9868304354961586E-002
  -5.5947689536640755E-002   1.5981378360060389E-002   4.9702173291476137E-002
  -5.4332093760695151E-002   1.5587842084915197E-002   4.9337366162671814E-002
  -5.2716497984749533E-002   1.5149069965509833E-002   4.8961930312948168E-002
  -5.1100902208803915E-002   1.4665062001844068E-002   4.8575865742305289E-002
  -4.9485306432858311E-002   1.4135818193918015E-002   4.8179172450743074E-002
  -6.3070088826399209E-002   1.8217869846987644E-002   4.4674991750160563E-002
  -6.1417516700530479E-002   1.7856963705265815E-002   4.4266717895840878E-002
  -5.9764944574661749E-002   1.7424462909881311E-002   4.3943025462286692E-002
  -5.8112372448793047E-002   1.6920367460834085E-002   4.3703914449498074E-002
  -5.6459800322924289E-002   1.6344677358124032E-002   4.3549384857474949E-002
  -7.0225144663553951E-002   2.0454361333914831E-002   3.9693619746969659E-002
  -6.8440386046077287E-002   2.0126085325616407E-002   3.9215520357732125E-002
  -6.6655627428600636E-002   1.9699855854252841E-002   3.8917212530944961E-002
  -6.4870868811123958E-002   1.9175672919824045E-002   3.8798696266608118E-002
  -6.3086110193647335E-002   1.8553536522330077E-002   3.8859971564721540E-002
  -7.7412857048104911E-002   2.2690852820842024E-002   3.4758057281903294E-002
  -7.5400701797335504E-002   2.2395206945967042E-002   3.4183773548345509E-002
  -7.3388546546566097E-002   2.1975248798624315E-002   3.3884491518922838E-002
  -7.1376391295796732E-002   2.1430978378814049E-002   3.3860211193635387E-002
  -6.9364236045027311E-002   2.0762395686536164E-002   3.4110932572482953E-002
  -8.4633225980052101E-002   2.4927344307769259E-002   2.9868304354961586E-002
  -8.2298463954305179E-002   2.4664328566317617E-002   2.9171477467681145E-002
  -7.9963701928558242E-002   2.4250641742995838E-002   2.8844862426220509E-002
  -7.7628939902811334E-002   2.3686283837804047E-002   2.8888459230579946E-002
  -7.5294177877064383E-002   2.2971254850742112E-002   2.9302267880759236E-002
  -4.9485306432858311E-002   1.4135818193918015E-002   4.8179172450743074E-002
  -4.7861548510391497E-002   1.3564244225328037E-002   4.7024195133498453E-002
  -4.6237790587924668E-002   1.2953245779670358E-002   4.6199847401184269E-002
  -4.4614032665457853E-002   1.2302822856944999E-002   4.5706129253800590E-002
  -4.2990274742991025E-002   1.1612975457152175E-002   4.5543040691347292E-002
  -5.6459800322924289E-002   1.6344677358124032E-002   4.3549384857474949E-002
  -5.4540215804869910E-002   1.5721133503955750E-002   4.2676019907069665E-002
  -5.2620631286815593E-002   1.5073476800533482E-002   4.2063678562909004E-002
  -5.0701046768761221E-002   1.4401707247857410E-002   4.1712360824992953E-002
  -4.8781462250706904E-002   1.3705824845927417E-002   4.1622066693321608E-002
  -6.3086110193647335E-002   1.8553536522330077E-002   3.8859971564721540E-002
  -6.0940305058691205E-002   1.7878022782583491E-002   3.8283530608969309E-002
  -5.8794499923735123E-002   1.7193707821396662E-002   3.7898507280775907E-002
  -5.6648694788778972E-002   1.6500591638769737E-002   3.7704901580141371E-002
  -5.4502889653822918E-002   1.5798674234702687E-002   3.7702713507065763E-002
  -6.9364236045027311E-002   2.0762395686536164E-002   3.4110932572482953E-002
  -6.7061816271855257E-002   2.0034912061211191E-002   3.3846727239197565E-002
  -6.4759396498683217E-002   1.9313938842259785E-002   3.3704333554785290E-002
  -6.2456976725511149E-002   1.8599476029682163E-002   3.3683751519245929E-002
  -6.0154556952339129E-002   1.7891523623478026E-002   3.3784981132579647E-002
  -7.5294177877064383E-002   2.2971254850742112E-002   2.9302267880759236E-002
  -7.2904749444362163E-002   2.2191801339838890E-002   2.9365609797754377E-002
  -7.0515321011659943E-002   2.1434169863122986E-002   2.9481157384936785E-002
  -6.8125892578957736E-002   2.0698360420594440E-002   2.9648910642306493E-002
  -6.5736464146255474E-002   1.9984373012253254E-002   2.9868869569863454E-002
  -4.2990274742991025E-002   1.1612975457152175E-002   4.5543040691347292E-002
  -4.1219357794649941E-002   1.0918448569598505E-002   4.4736396981918058E-002
  -3.9448440846308844E-002   1.0253987183591093E-002   4.3996846879406332E-002
  -3.7677523897967739E-002   9.6195912991296866E-003   4.3324390383812333E-002
  -3.5906606949626635E-002   9.0152609162146846E-003   4.2719027495135897E-002
  -4.8781462250706904E-002   1.3705824845927417E-002   4.1622066693321608E-002
  -4.6921786779389144E-002   1.3008092155789491E-002   4.0932086891743352E-002
  -4.5062111308071473E-002   1.2330771738489510E-002   4.0352530529200736E-002
  -4.3202435836753761E-002   1.1673863594027792E-002   3.9883397605693774E-002
  -4.1342760365436035E-002   1.1037367722404101E-002   3.9524688121222451E-002
  -5.4502889653822918E-002   1.5798674234702687E-002   3.7702713507065763E-002
  -5.2511125827410549E-002   1.5097735741980506E-002   3.7119744384630338E-002
  -5.0519362000998130E-002   1.4407556293388267E-002   3.6690528533348581E-002
  -4.8527598174585747E-002   1.3728135888925843E-002   3.6415065953220555E-002
  -4.6535834348173342E-002   1.3059474528593434E-002   3.6293356644246350E-002
  -6.0154556952339129E-002   1.7891523623478026E-002   3.3784981132579647E-002
  -5.7987374938713990E-002   1.7187379328171506E-002   3.3299369460578966E-002
  -5.5820192925088892E-002   1.6484340848286854E-002   3.3010840891850052E-002
  -5.3653010911463767E-002   1.5782408183824034E-002   3.2919395426392821E-002
  -5.1485828897838648E-002   1.5081581334782782E-002   3.3025033064207350E-002
  -6.5736464146255474E-002   1.9984373012253254E-002   2.9868869569863454E-002
  -6.3350534113299578E-002   1.9277022914362535E-002   2.9470962119589300E-002
  -6.0964604080343696E-002   1.8561125403185469E-002   2.9313467604704962E-002
  -5.8578674047387778E-002   1.7836680478721979E-002   2.9396386025210414E-002
  -5.6192744014431889E-002   1.7103688140972184E-002   2.9719717381105737E-002
  -3.5906606949626635E-002   9.0152609162146846E-003   4.2719027495135897E-002
  -3.4355352057709843E-002   8.3053596641039507E-003   4.1807975658109564E-002
  -3.2804097165793022E-002   7.3542511720553760E-003   4.0695031762848388E-002
  -3.1252842273876216E-002   6.1619354400692175E-003   3.9380195809351953E-002
  -2.9701587381959396E-002   4.7284124681453155E-003   3.7863467797620454E-002
  -4.1342760365436035E-002   1.1037367722404101E-002   3.9524688121222451E-002
  -3.9922365916249113E-002   1.0321442392097924E-002   3.8717508117703303E-002
  -3.8501971467062170E-002   9.4262458715894393E-003   3.7850499286959521E-002
  -3.7081577017875234E-002   8.3517781608778638E-003   3.6923661628991203E-002
  -3.5661182568688304E-002   7.0980392599638842E-003   3.5936995143797945E-002
  -4.6535834348173342E-002   1.3059474528593434E-002   3.6293356644246350E-002
  -4.5104237110705860E-002   1.2337525120092119E-002   3.5651984523969393E-002
  -4.3672639873238397E-002   1.1498240571123211E-002   3.5092846807478095E-002
  -4.2241042635770908E-002   1.0541620881686507E-002   3.4615943494772566E-002
  -4.0809445398303459E-002   9.4676660517824252E-003   3.4221274585852932E-002
  -5.1485828897838648E-002   1.5081581334782782E-002   3.3025033064207350E-002
  -4.9900965641080222E-002   1.4353607848086258E-002   3.2611404876907495E-002
  -4.8316102384321713E-002   1.3570235270656962E-002   3.2422074324403832E-002
  -4.6731239127563239E-002   1.2731463602495318E-002   3.2457041406696523E-002
  -4.5146375870804716E-002   1.1837292843600980E-002   3.2716306123785038E-002
  -5.6192744014431889E-002   1.7103688140972184E-002   2.9719717381105737E-002
  -5.4312551507371964E-002   1.6369690576080259E-002   2.9595769176517961E-002
  -5.2432359000312095E-002   1.5642229970190921E-002   2.9838181837736982E-002
  -5.0552166493252171E-002   1.4921306323303792E-002   3.0446955364762635E-002
  -4.8671973986192302E-002   1.4206919635419590E-002   3.1422089757594807E-002
  -2.9701587381959396E-002   4.7284124681453155E-003   3.7863467797620454E-002
  -2.8493411318729067E-002   2.3299783140039443E-003   3.3315233528181165E-002
  -2.7285235255498676E-002  -1.7570709646341637E-003   2.7514275170941432E-002
  -2.6077059192268371E-002  -7.5327353677690466E-003   2.0460592725900992E-002
  -2.4868883129038011E-002  -1.4997014895400840E-002   1.2154186193060745E-002
  -3.5661182568688304E-002   7.0980392599638842E-003   3.5936995143797945E-002
  -3.5386395740546181E-002   5.2938883866063824E-003   3.1214344144594230E-002
  -3.5111608912404058E-002   2.5681847585649759E-003   2.5877638763014577E-002
  -3.4836822084262045E-002  -1.0790716241602209E-003   1.9926878999058900E-002
  -3.4562035256119866E-002  -5.6478807615695237E-003   1.3362064852726840E-002
  -4.0809445398303459E-002   9.4676660517824252E-003   3.4221274585852932E-002
  -4.0829378099825224E-002   8.2577984592087650E-003   3.0091269226697692E-002
  -4.0849310801346912E-002   6.8934404817641085E-003   2.5985879190590679E-002
  -4.0869243502868670E-002   5.3745921194484365E-003   2.1905104477531984E-002
  -4.0889176204390310E-002   3.7012533722616814E-003   1.7848945087521717E-002
  -4.5146375870804716E-002   1.1837292843600980E-002   3.2716306123785038E-002
  -4.4822358396565988E-002   1.1221708531811175E-002   2.9946008774491304E-002
  -4.4498340922327170E-002   1.1218696204963300E-002   2.7838996453670099E-002
  -4.4174323448088512E-002   1.1828255863057066E-002   2.6395269161321726E-002
  -4.3850305973849632E-002   1.3050387506093053E-002   2.5614826897446000E-002
  -4.8671973986192302E-002   1.4206919635419590E-002   3.1422089757594807E-002
  -4.7365336630768556E-002   1.4185618604413475E-002   3.0778562787975139E-002
  -4.6058699275344908E-002   1.5543951928162422E-002   3.1436990552252714E-002
  -4.4752061919921184E-002   1.8281919606665930E-002   3.3397373050427406E-002
  -4.3445424564497459E-002   2.2399521639924203E-002   3.6659710282498814E-002
  -9.0345434768293625E-002   0.0000000000000000        4.9846418527799155E-002
  -9.3943672483745688E-002   5.3994068424734441E-003   5.3215476034484954E-002
  -9.7541910199197779E-002   1.0661946658231645E-002   5.4964764713821196E-002
 -0.10114014791464984        1.5787619447274588E-002   5.5094284565807866E-002
 -0.10473838563010193        2.0776425209602302E-002   5.3604035590444993E-002
 -0.10328004119098298        0.0000000000000000        5.8669992602871333E-002
 -0.10681630843675198        1.0881094731925906E-002   5.2121934824685426E-002
 -0.11035257568252099        1.9165763339077033E-002   4.7317586813215226E-002
 -0.11388884292828999        2.4854005821453383E-002   4.4256948568460741E-002
 -0.11742511017405902        2.7945822179054950E-002   4.2940020090421978E-002
 -0.12644685561983166        0.0000000000000000        7.4205034116425733E-002
 -0.12655767380185234        1.6362782621378365E-002   5.5280301955308593E-002
 -0.12666849198387298        2.7669580019922424E-002   4.1462758154972440E-002
 -0.12677931016589364        3.3920392195632178E-002   3.2752402715417267E-002
 -0.12689012834791430        3.5115219148507591E-002   2.9149235636643029E-002
 -0.15984587805483969        0.0000000000000000        9.6451543068462375E-002
 -0.15316776857904674        2.1844470510830834E-002   6.2690577426354463E-002
 -0.14648965910325379        3.6173396700767822E-002   3.7400278739092782E-002
 -0.13981154962746081        4.2986778569810931E-002   2.0580647006677361E-002
 -0.13313344015166786        4.2284616117960236E-002   1.2231682229108202E-002
 -0.20347710849600706        0.0000000000000000       0.12540951945898124     
 -0.18664659276833523        2.7326158400283285E-002   7.4352761237823015E-002
 -0.16981607704066337        4.4677213381613214E-002   3.5130148565576322E-002
 -0.15298556131299154        5.2053164943989753E-002   7.7416814422411467E-003
 -0.13615504558531966        4.9454013087412887E-002  -7.8126401321825037E-003
 -0.10473838563010193        2.0776425209602302E-002   5.3604035590444993E-002
 -0.10208092045103503        2.4915673896240512E-002   4.5612580514547668E-002
  -9.9423455271968095E-002   2.7492675458214936E-002   3.9308767224965825E-002
  -9.6765990092901155E-002   2.8507429895525564E-002   3.4692595721699471E-002
  -9.4108524913834257E-002   2.7959937208172435E-002   3.1764066004748549E-002
 -0.11742511017405902        2.7945822179054950E-002   4.2940020090421978E-002
 -0.11346820297810377        2.9416237616757254E-002   3.6677760195355465E-002
 -0.10951129578214855        3.0240277339435798E-002   3.1326742547750100E-002
 -0.10555438858619329        3.0417941347090551E-002   2.6886967147605891E-002
 -0.10159748139023811        2.9949229639721582E-002   2.3358433994922771E-002
 -0.12689012834791430        3.5115219148507591E-002   2.9149235636643029E-002
 -0.12241017867392512        3.3916801337273997E-002   2.5532042332047394E-002
 -0.11793022899993592        3.2987879220656678E-002   2.2049691736058474E-002
 -0.11345027932594672        3.2328452798655580E-002   1.8702183848676442E-002
 -0.10897032965195751        3.1938522071270722E-002   1.5489518669901151E-002
 -0.13313344015166786        4.2284616117960236E-002   1.2231682229108202E-002
 -0.12890684753849904        3.8417365057790739E-002   1.2175426924623386E-002
 -0.12468025492533016        3.5735481101877541E-002   1.1477614789891061E-002
 -0.12045366231216134        3.4238964250220563E-002   1.0138245824911116E-002
 -0.11622706969899252        3.3927814502819842E-002   8.1573200296837789E-003
 -0.13615504558531966        4.9454013087412887E-002  -7.8126401321825037E-003
 -0.13295820957182553        4.2917928778307489E-002  -3.3920860269164785E-003
 -0.12976137355833137        3.8483082983098431E-002  -3.8948829075236870E-004
 -0.12656453754483721        3.6149475701785547E-002   1.1951530763099883E-003
 -0.12336770153134308        3.5917106934369003E-002   1.3618380742704272E-003
  -9.4108524913834257E-002   2.7959937208172435E-002   3.1764066004748549E-002
  -9.1739700180388739E-002   2.6773937964633478E-002   3.1173758075514028E-002
  -8.9370875446943179E-002   2.5873172733386629E-002   3.0661028490804713E-002
  -8.7002050713497647E-002   2.5257641514431876E-002   3.0225877250620564E-002
  -8.4633225980052101E-002   2.4927344307769259E-002   2.9868304354961586E-002
 -0.10159748139023811        2.9949229639721582E-002   2.3358433994922771E-002
  -9.9135766983718593E-002   2.9186044817390591E-002   2.3070877357617436E-002
  -9.6674052577199091E-002   2.8480289480159300E-002   2.2891521721934760E-002
  -9.4212338170679630E-002   2.7831963628027794E-002   2.2820367087874754E-002
  -9.1750623764160100E-002   2.7241067260996038E-002   2.2857413455437500E-002
 -0.10897032965195751        3.1938522071270722E-002   1.5489518669901151E-002
 -0.10638510291526654        3.1598151670147623E-002   1.5276908797332575E-002
 -0.10379987617857557        3.1087406226932013E-002   1.5203122583484156E-002
 -0.10121464944188455        3.0406285741623736E-002   1.5268160028356039E-002
  -9.8629422705193565E-002   2.9554790214222852E-002   1.5472021131948201E-002
 -0.11622706969899252        3.3927814502819842E-002   8.1573200296837789E-003
 -0.11348770797503249        3.4010258522904777E-002   7.7918523946594685E-003
 -0.11074834625107248        3.3694522973704684E-002   7.5958310754529988E-003
 -0.10800898452711244        3.2980607855219640E-002   7.5692560720645088E-003
 -0.10526962280315245        3.1868513167449611E-002   7.7121273844936436E-003
 -0.12336770153134308        3.5917106934369003E-002   1.3618380742704272E-003
 -0.12044358216301648        3.6422365375661847E-002   6.1570814959818754E-004
 -0.11751946279468989        3.6301639720477424E-002   6.9647197841249397E-005
 -0.11459534342636328        3.5554929968815589E-002  -2.7634478100033166E-004
 -0.11167122405803670        3.4182236120676446E-002  -4.2226778692633360E-004
  -8.4633225980052101E-002   2.4927344307769259E-002   2.9868304354961586E-002
  -8.2298463954305179E-002   2.4664328566317617E-002   2.9171477467681145E-002
  -7.9963701928558242E-002   2.4250641742995838E-002   2.8844862426220509E-002
  -7.7628939902811334E-002   2.3686283837804047E-002   2.8888459230579946E-002
  -7.5294177877064383E-002   2.2971254850742112E-002   2.9302267880759236E-002
  -9.1750623764160100E-002   2.7241067260996038E-002   2.2857413455437500E-002
  -8.9092577536517420E-002   2.6654151407089516E-002   2.2252187996947836E-002
  -8.6434531308874657E-002   2.6017767094333642E-002   2.1923319096429791E-002
  -8.3776485081231894E-002   2.5331914322728542E-002   2.1870806753883476E-002
  -8.1118438853589145E-002   2.4596593092274160E-002   2.2094650969308849E-002
  -9.8629422705193565E-002   2.9554790214222852E-002   1.5472021131948201E-002
  -9.5741947563503266E-002   2.8643974247861359E-002   1.5059599725270031E-002
  -9.2854472421812953E-002   2.7784892445671498E-002   1.4829679588715372E-002
  -8.9966997280122682E-002   2.6977544807653089E-002   1.4782260722284109E-002
  -8.7079522138432355E-002   2.6221931333806223E-002   1.4917343125976236E-002
 -0.10526962280315245        3.1868513167449611E-002   7.7121273844936436E-003
 -0.10224657403526284        3.0633797088633147E-002   7.5937126526477838E-003
  -9.9223525267373214E-002   2.9552017797009274E-002   7.5639439030771825E-003
  -9.6200476499483573E-002   2.8623175292577470E-002   7.6228211357820203E-003
  -9.3177427731593973E-002   2.7847269575338222E-002   7.7703443507616040E-003
 -0.11167122405803670        3.4182236120676446E-002  -4.2226778692633360E-004
 -0.10860645695179605        3.2623619929405157E-002  -1.4547322091887360E-004
 -0.10554168984555534        3.1319143148347023E-002   1.2611203951544414E-004
 -0.10247692273931469        3.0268805777502010E-002   3.9248799437664392E-004
  -9.9412155633073984E-002   2.9472607816870278E-002   6.5365464366501369E-004
  -7.5294177877064383E-002   2.2971254850742112E-002   2.9302267880759236E-002
  -7.2904749444362163E-002   2.2191801339838890E-002   2.9365609797754377E-002
  -7.0515321011659943E-002   2.1434169863122986E-002   2.9481157384936785E-002
  -6.8125892578957736E-002   2.0698360420594440E-002   2.9648910642306493E-002
  -6.5736464146255474E-002   1.9984373012253254E-002   2.9868869569863454E-002
  -8.1118438853589145E-002   2.4596593092274160E-002   2.2094650969308849E-002
  -7.8654917351749648E-002   2.3833830861128086E-002   2.2051262222762213E-002
  -7.6191395849910110E-002   2.3065655087447734E-002   2.2103853944302781E-002
  -7.3727874348070599E-002   2.2292065771233410E-002   2.2252426133930955E-002
  -7.1264352846231074E-002   2.1513062912484809E-002   2.2496978791646277E-002
  -8.7079522138432355E-002   2.6221931333806223E-002   1.4917343125976236E-002
  -8.4498132769555465E-002   2.5475860382417337E-002   1.4739988139166278E-002
  -8.1916743400678560E-002   2.4697140311772513E-002   1.4702388418343874E-002
  -7.9335354031801697E-002   2.3885771121872328E-002   1.4804543963508552E-002
  -7.6753964662924834E-002   2.3041752812716226E-002   1.5046454774660767E-002
  -9.3177427731593973E-002   2.7847269575338222E-002   7.7703443507616040E-003
  -9.0434395697779682E-002   2.7117889903706394E-002   7.4317875469667241E-003
  -8.7691363663965405E-002   2.6328625536097168E-002   7.2767608070595296E-003
  -8.4948331630151072E-002   2.5479476472511021E-002   7.3052641310396276E-003
  -8.2205299596336809E-002   2.4570442712947463E-002   7.5172975189070658E-003
  -9.9412155633073984E-002   2.9472607816870278E-002   6.5365464366501369E-004
  -9.6463706136422245E-002   2.8759919424995589E-002   1.2666044616377325E-004
  -9.3515256639770478E-002   2.7960110760421916E-002  -1.7302888954988382E-004
  -9.0566807143118724E-002   2.7073181823150157E-002  -2.4541336347614837E-004
  -8.7618357646466971E-002   2.6099132613179199E-002  -9.0492975614697713E-005
  -6.5736464146255474E-002   1.9984373012253254E-002   2.9868869569863454E-002
  -6.3350534113299578E-002   1.9277022914362535E-002   2.9470962119589300E-002
  -6.0964604080343696E-002   1.8561125403185469E-002   2.9313467604704962E-002
  -5.8578674047387778E-002   1.7836680478721979E-002   2.9396386025210414E-002
  -5.6192744014431889E-002   1.7103688140972184E-002   2.9719717381105737E-002
  -7.1264352846231074E-002   2.1513062912484809E-002   2.2496978791646277E-002
  -6.8639577183343653E-002   2.0736084869544119E-002   2.2136238799627422E-002
  -6.6014801520456301E-002   1.9968570000753798E-002   2.2012777132081676E-002
  -6.3390025857568963E-002   1.9210518306113741E-002   2.2126593789009150E-002
  -6.0765250194681555E-002   1.8461929785623721E-002   2.2477688770409704E-002
  -7.6753964662924834E-002   2.3041752812716226E-002   1.5046454774660767E-002
  -7.3893477981022665E-002   2.2195146824725634E-002   1.4740892828333983E-002
  -7.1032991299120593E-002   2.1376014598322182E-002   1.4669474595563572E-002
  -6.8172504617218438E-002   2.0584356133505222E-002   1.4832200076349569E-002
  -6.5312017935316338E-002   1.9820171430275146E-002   1.5229069270691689E-002
  -8.2205299596336809E-002   2.4570442712947463E-002   7.5172975189070658E-003
  -7.9112236506336642E-002   2.3654208779907211E-002   7.2849242057088908E-003
  -7.6019173416336433E-002   2.2783459195890039E-002   7.2835599951501830E-003
  -7.2926110326336252E-002   2.1958193960896703E-002   7.5132048872312771E-003
  -6.9833047236336085E-002   2.1178413074926655E-002   7.9738588819521471E-003
  -8.7618357646466971E-002   2.6099132613179199E-002  -9.0492975614697713E-005
  -8.4295852759285417E-002   2.5113270735088844E-002  -2.3166706824778727E-004
  -8.0973347872103918E-002   2.4190903793458784E-002  -1.4496666915783663E-004
  -7.7650842984922391E-002   2.3332031788288660E-002   1.6960822165513340E-004
  -7.4328338097740865E-002   2.2536654719578220E-002   7.1205760419079667E-004
  -5.6192744014431889E-002   1.7103688140972184E-002   2.9719717381105737E-002
  -5.4312551507371964E-002   1.6369690576080259E-002   2.9595769176517961E-002
  -5.2432359000312095E-002   1.5642229970190921E-002   2.9838181837736982E-002
  -5.0552166493252171E-002   1.4921306323303792E-002   3.0446955364762635E-002
  -4.8671973986192302E-002   1.4206919635419590E-002   3.1422089757594807E-002
  -6.0765250194681555E-002   1.8461929785623721E-002   2.2477688770409704E-002
  -5.8574941474736894E-002   1.7707776499152922E-002   2.2316206478960349E-002
  -5.6384632754792198E-002   1.6933030506570121E-002   2.2408595747473933E-002
  -5.4194324034847502E-002   1.6137691807875217E-002   2.2754856575950493E-002
  -5.2004015314902771E-002   1.5321760403068319E-002   2.3354988964390089E-002
  -6.5312017935316338E-002   1.9820171430275146E-002   1.5229069270691689E-002
  -6.2924082308330478E-002   1.9045862422225432E-002   1.5002923227266415E-002
  -6.0536146681344695E-002   1.8223831042949105E-002   1.4918159437960335E-002
  -5.8148211054358870E-002   1.7354077292446313E-002   1.4974777902773375E-002
  -5.5760275427373059E-002   1.6436601170717130E-002   1.5172778621705810E-002
  -6.9833047236336085E-002   2.1178413074926655E-002   7.9738588819521471E-003
  -6.7359974008152815E-002   2.0383948345298129E-002   7.6559194214362337E-003
  -6.4886900779969559E-002   1.9514631579328198E-002   7.3668729091957864E-003
  -6.2413827551786281E-002   1.8570462777017627E-002   7.1067193452311215E-003
  -5.9940754323603039E-002   1.7551441938366233E-002   6.8754587295418897E-003
  -7.4328338097740865E-002   2.2536654719578220E-002   7.1205760419079667E-004
  -7.1882616574203806E-002   2.1722034268370327E-002   2.7519506146972406E-004
  -6.9436895050666858E-002   2.0805432115707234E-002  -2.4526383881892655E-004
  -6.6991173527129910E-002   1.9786848261588677E-002  -8.4931909667609190E-004
  -6.4545452003592851E-002   1.8666282706014892E-002  -1.5369707121014597E-003
  -4.8671973986192302E-002   1.4206919635419590E-002   3.1422089757594807E-002
  -4.7365336630768556E-002   1.4185618604413475E-002   3.0778562787975139E-002
  -4.6058699275344908E-002   1.5543951928162422E-002   3.1436990552252714E-002
  -4.4752061919921184E-002   1.8281919606665930E-002   3.3397373050427406E-002
  -4.3445424564497459E-002   2.2399521639924203E-002   3.6659710282498814E-002
  -5.2004015314902771E-002   1.5321760403068319E-002   2.3354988964390089E-002
  -4.9605066491572952E-002   1.4924282450299281E-002   2.3196166927490824E-002
  -4.7206117668243223E-002   1.5384304107717656E-002   2.3920013092506853E-002
  -4.4807168844913328E-002   1.6701825375324060E-002   2.5526527459437537E-002
  -4.2408220021583565E-002   1.8876846253117807E-002   2.8015710028283958E-002
  -5.5760275427373059E-002   1.6436601170717130E-002   1.5172778621705810E-002
  -5.2688301668119178E-002   1.5662946296185309E-002   1.4976526772959839E-002
  -4.9616327908865221E-002   1.5224656287273340E-002   1.5243656594146997E-002
  -4.6544354149611215E-002   1.5121731143982192E-002   1.5974168085267550E-002
  -4.3472380390357432E-002   1.5354170866311412E-002   1.7168061246320809E-002
  -5.9940754323603039E-002   1.7551441938366233E-002   6.8754587295418897E-003
  -5.6615042160406998E-002   1.6401610142070949E-002   6.1196423243823350E-003
  -5.3289329997210935E-002   1.5065008466829077E-002   5.4079210571734895E-003
  -4.9963617834014859E-002   1.3541636912640546E-002   4.7402949279162334E-003
  -4.6637905670818838E-002   1.1831495479505238E-002   4.1167639366101183E-003
  -6.4545452003592851E-002   1.8666282706014892E-002  -1.5369707121014597E-003
  -6.1385287968436675E-002   1.7140273987956811E-002  -3.3744864182421730E-003
  -5.8225123933280387E-002   1.4905360646384092E-002  -5.5871935184136079E-003
  -5.5064959898124100E-002   1.1961542681298523E-002  -8.1750920126159241E-003
  -5.1904795862967923E-002   8.3088200926986211E-003  -1.1138181900849364E-002
 </DataArray>
 </PointData>
 </Piece>
 <Piece  NumberOfPoints="          1600 "  NumberOfCells="         1024 ">
 <Points>
 <DataArray  type="Float64" NumberOfComponents="3"  format="ascii" >
  0.50000000000000000        0.0000000000000000        0.0000000000000000     
  0.53125000000000000        0.0000000000000000        0.0000000000000000     
  0.56250000000000000        0.0000000000000000        0.0000000000000000     
  0.59375000000000000        0.0000000000000000        0.0000000000000000     
  0.62500000000000000        0.0000000000000000        0.0000000000000000     
  0.50000000000000000        3.1250000000000000E-002   0.0000000000000000     
  0.53125000000000000        3.1250000000000000E-002   0.0000000000000000     
  0.56250000000000000        3.1250000000000000E-002   0.0000000000000000     
  0.59375000000000000        3.1250000000000000E-002   0.0000000000000000     
  0.62500000000000000        3.1250000000000000E-002   0.0000000000000000     
  0.50000000000000000        6.2500000000000000E-002   0.0000000000000000     
  0.53125000000000000        6.2500000000000000E-002   0.0000000000000000     
  0.56250000000000000        6.2500000000000000E-002   0.0000000000000000     
  0.59375000000000000        6.2500000000000000E-002   0.0000000000000000     
  0.62500000000000000        6.2500000000000000E-002   0.0000000000000000     
  0.50000000000000000        9.3750000000000000E-002   0.0000000000000000     
  0.53125000000000000        9.3750000000000000E-002   0.0000000000000000     
  0.56250000000000000        9.3750000000000000E-002   0.0000000000000000     
  0.59375000000000000        9.3750000000000000E-002   0.0000000000000000     
  0.62500000000000000        9.3750000000000000E-002   0.0000000000000000     
  0.50000000000000000       0.12500000000000000        0.0000000000000000     
  0.53125000000000000       0.12500000000000000        0.0000000000000000     
  0.56250000000000000       0.12500000000000000        0.0000000000000000     
  0.59375000000000000       0.12500000000000000        0.0000000000000000     
  0.62500000000000000       0.12500000000000000        0.0000000000000000     
  0.62500000000000000        0.0000000000000000        0.0000000000000000     
  0.65625000000000000        0.0000000000000000        0.0000000000000000     
  0.68750000000000000        0.0000000000000000        0.0000000000000000     
  0.71875000000000000        0.0000000000000000        0.0000000000000000     
  0.75000000000000000        0.0000000000000000        0.0000000000000000     
  0.62500000000000000        3.1250000000000000E-002   0.0000000000000000     
  0.65625000000000000        3.1250000000000000E-002   0.0000000000000000     
  0.68750000000000000        3.1250000000000000E-002   0.0000000000000000     
  0.71875000000000000        3.1250000000000000E-002   0.0000000000000000     
  0.75000000000000000        3.1250000000000000E-002   0.0000000000000000     
  0.62500000000000000        6.2500000000000000E-002   0.0000000000000000     
  0.65625000000000000        6.2500000000000000E-002   0.0000000000000000     
  0.68750000000000000        6.2500000000000000E-002   0.0000000000000000     
  0.71875000000000000        6.2500000000000000E-002   0.0000000000000000     
  0.75000000000000000        6.2500000000000000E-002   0.0000000000000000     
  0.62500000000000000        9.3750000000000000E-002   0.0000000000000000     
  0.65625000000000000        9.3750000000000000E-002   0.0000000000000000     
  0.68750000000000000        9.3750000000000000E-002   0.0000000000000000     
  0.71875000000000000        9.3750000000000000E-002   0.0000000000000000     
  0.75000000000000000        9.3750000000000000E-002   0.0000000000000000     
  0.62500000000000000       0.12500000000000000        0.0000000000000000     
  0.65625000000000000       0.12500000000000000        0.0000000000000000     
  0.68750000000000000       0.12500000000000000        0.0000000000000000     
  0.71875000000000000       0.12500000000000000        0.0000000000000000     
  0.75000000000000000       0.12500000000000000        0.0000000000000000     
  0.75000000000000000        0.0000000000000000        0.0000000000000000     
  0.78125000000000000        0.0000000000000000        0.0000000000000000     
  0.81250000000000000        0.0000000000000000        0.0000000000000000     
  0.84375000000000000        0.0000000000000000        0.0000000000000000     
  0.87500000000000000        0.0000000000000000        0.0000000000000000     
  0.75000000000000000        3.1250000000000000E-002   0.0000000000000000     
  0.78125000000000000        3.1250000000000000E-002   0.0000000000000000     
  0.81250000000000000        3.1250000000000000E-002   0.0000000000000000     
  0.84375000000000000        3.1250000000000000E-002   0.0000000000000000     
  0.87500000000000000        3.1250000000000000E-002   0.0000000000000000     
  0.75000000000000000        6.2500000000000000E-002   0.0000000000000000     
  0.78125000000000000        6.2500000000000000E-002   0.0000000000000000     
  0.81250000000000000        6.2500000000000000E-002   0.0000000000000000     
  0.84375000000000000        6.2500000000000000E-002   0.0000000000000000     
  0.87500000000000000        6.2500000000000000E-002   0.0000000000000000     
  0.75000000000000000        9.3750000000000000E-002   0.0000000000000000     
  0.78125000000000000        9.3750000000000000E-002   0.0000000000000000     
  0.81250000000000000        9.3750000000000000E-002   0.0000000000000000     
  0.84375000000000000        9.3750000000000000E-002   0.0000000000000000     
  0.87500000000000000        9.3750000000000000E-002   0.0000000000000000     
  0.75000000000000000       0.12500000000000000        0.0000000000000000     
  0.78125000000000000       0.12500000000000000        0.0000000000000000     
  0.81250000000000000       0.12500000000000000        0.0000000000000000     
  0.84375000000000000       0.12500000000000000        0.0000000000000000     
  0.87500000000000000       0.12500000000000000        0.0000000000000000     
  0.87500000000000000        0.0000000000000000        0.0000000000000000     
  0.90625000000000000        0.0000000000000000        0.0000000000000000     
  0.93750000000000000        0.0000000000000000        0.0000000000000000     
  0.96875000000000000        0.0000000000000000        0.0000000000000000     
   1.0000000000000000        0.0000000000000000        0.0000000000000000     
  0.87500000000000000        3.1250000000000000E-002   0.0000000000000000     
  0.90625000000000000        3.1250000000000000E-002   0.0000000000000000     
  0.93750000000000000        3.1250000000000000E-002   0.0000000000000000     
  0.96875000000000000        3.1250000000000000E-002   0.0000000000000000     
   1.0000000000000000        3.1250000000000000E-002   0.0000000000000000     
  0.87500000000000000        6.2500000000000000E-002   0.0000000000000000     
  0.90625000000000000        6.2500000000000000E-002   0.0000000000000000     
  0.93750000000000000        6.2500000000000000E-002   0.0000000000000000     
  0.96875000000000000        6.2500000000000000E-002   0.0000000000000000     
   1.0000000000000000        6.2500000000000000E-002   0.0000000000000000     
  0.87500000000000000        9.3750000000000000E-002   0.0000000000000000     
  0.90625000000000000        9.3750000000000000E-002   0.0000000000000000     
  0.93750000000000000        9.3750000000000000E-002   0.0000000000000000     
  0.96875000000000000        9.3750000000000000E-002   0.0000000000000000     
   1.0000000000000000        9.3750000000000000E-002   0.0000000000000000     
  0.87500000000000000       0.12500000000000000        0.0000000000000000     
  0.90625000000000000       0.12500000000000000        0.0000000000000000     
  0.93750000000000000       0.12500000000000000        0.0000000000000000     
  0.96875000000000000       0.12500000000000000        0.0000000000000000     
   1.0000000000000000       0.12500000000000000        0.0000000000000000     
   1.0000000000000000        0.0000000000000000        0.0000000000000000     
   1.0312500000000000        0.0000000000000000        0.0000000000000000     
   1.0625000000000000        0.0000000000000000        0.0000000000000000     
   1.0937500000000000        0.0000000000000000        0.0000000000000000     
   1.1250000000000000        0.0000000000000000        0.0000000000000000     
   1.0000000000000000        3.1250000000000000E-002   0.0000000000000000     
   1.0312500000000000        3.1250000000000000E-002   0.0000000000000000     
   1.0625000000000000        3.1250000000000000E-002   0.0000000000000000     
   1.0937500000000000        3.1250000000000000E-002   0.0000000000000000     
   1.1250000000000000        3.1250000000000000E-002   0.0000000000000000     
   1.0000000000000000        6.2500000000000000E-002   0.0000000000000000     
   1.0312500000000000        6.2500000000000000E-002   0.0000000000000000     
   1.0625000000000000        6.2500000000000000E-002   0.0000000000000000     
   1.0937500000000000        6.2500000000000000E-002   0.0000000000000000     
   1.1250000000000000        6.2500000000000000E-002   0.0000000000000000     
   1.0000000000000000        9.3750000000000000E-002   0.0000000000000000     
   1.0312500000000000        9.3750000000000000E-002   0.0000000000000000     
   1.0625000000000000        9.3750000000000000E-002   0.0000000000000000     
   1.0937500000000000        9.3750000000000000E-002   0.0000000000000000     
   1.1250000000000000        9.3750000000000000E-002   0.0000000000000000     
   1.0000000000000000       0.12500000000000000        0.0000000000000000     
   1.0312500000000000       0.12500000000000000        0.0000000000000000     
   1.0625000000000000       0.12500000000000000        0.0000000000000000     
   1.0937500000000000       0.12500000000000000        0.0000000000000000     
   1.1250000000000000       0.12500000000000000        0.0000000000000000     
   1.1250000000000000        0.0000000000000000        0.0000000000000000     
   1.1562500000000000        0.0000000000000000        0.0000000000000000     
   1.1875000000000000        0.0000000000000000        0.0000000000000000     
   1.2187500000000000        0.0000000000000000        0.0000000000000000     
   1.2500000000000000        0.0000000000000000        0.0000000000000000     
   1.1250000000000000        3.1250000000000000E-002   0.0000000000000000     
   1.1562500000000000        3.1250000000000000E-002   0.0000000000000000     
   1.1875000000000000        3.1250000000000000E-002   0.0000000000000000     
   1.2187500000000000        3.1250000000000000E-002   0.0000000000000000     
   1.2500000000000000        3.1250000000000000E-002   0.0000000000000000     
   1.1250000000000000        6.2500000000000000E-002   0.0000000000000000     
   1.1562500000000000        6.2500000000000000E-002   0.0000000000000000     
   1.1875000000000000        6.2500000000000000E-002   0.0000000000000000     
   1.2187500000000000        6.2500000000000000E-002   0.0000000000000000     
   1.2500000000000000        6.2500000000000000E-002   0.0000000000000000     
   1.1250000000000000        9.3750000000000000E-002   0.0000000000000000     
   1.1562500000000000        9.3750000000000000E-002   0.0000000000000000     
   1.1875000000000000        9.3750000000000000E-002   0.0000000000000000     
   1.2187500000000000        9.3750000000000000E-002   0.0000000000000000     
   1.2500000000000000        9.3750000000000000E-002   0.0000000000000000     
   1.1250000000000000       0.12500000000000000        0.0000000000000000     
   1.1562500000000000       0.12500000000000000        0.0000000000000000     
   1.1875000000000000       0.12500000000000000        0.0000000000000000     
   1.2187500000000000       0.12500000000000000        0.0000000000000000     
   1.2500000000000000       0.12500000000000000        0.0000000000000000     
   1.2500000000000000        0.0000000000000000        0.0000000000000000     
   1.2812500000000000        0.0000000000000000        0.0000000000000000     
   1.3125000000000000        0.0000000000000000        0.0000000000000000     
   1.3437500000000000        0.0000000000000000        0.0000000000000000     
   1.3750000000000000        0.0000000000000000        0.0000000000000000     
   1.2500000000000000        3.1250000000000000E-002   0.0000000000000000     
   1.2812500000000000        3.1250000000000000E-002   0.0000000000000000     
   1.3125000000000000        3.1250000000000000E-002   0.0000000000000000     
   1.3437500000000000        3.1250000000000000E-002   0.0000000000000000     
   1.3750000000000000        3.1250000000000000E-002   0.0000000000000000     
   1.2500000000000000        6.2500000000000000E-002   0.0000000000000000     
   1.2812500000000000        6.2500000000000000E-002   0.0000000000000000     
   1.3125000000000000        6.2500000000000000E-002   0.0000000000000000     
   1.3437500000000000        6.2500000000000000E-002   0.0000000000000000     
   1.3750000000000000        6.2500000000000000E-002   0.0000000000000000     
   1.2500000000000000        9.3750000000000000E-002   0.0000000000000000     
   1.2812500000000000        9.3750000000000000E-002   0.0000000000000000     
   1.3125000000000000        9.3750000000000000E-002   0.0000000000000000     
   1.3437500000000000        9.3750000000000000E-002   0.0000000000000000     
   1.3750000000000000        9.3750000000000000E-002   0.0000000000000000     
   1.2500000000000000       0.12500000000000000        0.0000000000000000     
   1.2812500000000000       0.12500000000000000        0.0000000000000000     
   1.3125000000000000       0.12500000000000000        0.0000000000000000     
   1.3437500000000000       0.12500000000000000        0.0000000000000000     
   1.3750000000000000       0.12500000000000000        0.0000000000000000     
   1.3750000000000000        0.0000000000000000        0.0000000000000000     
   1.4062500000000000        0.0000000000000000        0.0000000000000000     
   1.4375000000000000        0.0000000000000000        0.0000000000000000     
   1.4687500000000000        0.0000000000000000        0.0000000000000000     
   1.5000000000000000        0.0000000000000000        0.0000000000000000     
   1.3750000000000000        3.1250000000000000E-002   0.0000000000000000     
   1.4062500000000000        3.1250000000000000E-002   0.0000000000000000     
   1.4375000000000000        3.1250000000000000E-002   0.0000000000000000     
   1.4687500000000000        3.1250000000000000E-002   0.0000000000000000     
   1.5000000000000000        3.1250000000000000E-002   0.0000000000000000     
   1.3750000000000000        6.2500000000000000E-002   0.0000000000000000     
   1.4062500000000000        6.2500000000000000E-002   0.0000000000000000     
   1.4375000000000000        6.2500000000000000E-002   0.0000000000000000     
   1.4687500000000000        6.2500000000000000E-002   0.0000000000000000     
   1.5000000000000000        6.2500000000000000E-002   0.0000000000000000     
   1.3750000000000000        9.3750000000000000E-002   0.0000000000000000     
   1.4062500000000000        9.3750000000000000E-002   0.0000000000000000     
   1.4375000000000000        9.3750000000000000E-002   0.0000000000000000     
   1.4687500000000000        9.3750000000000000E-002   0.0000000000000000     
   1.5000000000000000        9.3750000000000000E-002   0.0000000000000000     
   1.3750000000000000       0.12500000000000000        0.0000000000000000     
   1.4062500000000000       0.12500000000000000        0.0000000000000000     
   1.4375000000000000       0.12500000000000000        0.0000000000000000     
   1.4687500000000000       0.12500000000000000        0.0000000000000000     
   1.5000000000000000       0.12500000000000000        0.0000000000000000     
  0.50000000000000000       0.12500000000000000        0.0000000000000000     
  0.53125000000000000       0.12500000000000000        0.0000000000000000     
  0.56250000000000000       0.12500000000000000        0.0000000000000000     
  0.59375000000000000       0.12500000000000000        0.0000000000000000     
  0.62500000000000000       0.12500000000000000        0.0000000000000000     
  0.50000000000000000       0.15625000000000000        0.0000000000000000     
  0.53125000000000000       0.15625000000000000        0.0000000000000000     
  0.56250000000000000       0.15625000000000000        0.0000000000000000     
  0.59375000000000000       0.15625000000000000        0.0000000000000000     
  0.62500000000000000       0.15625000000000000        0.0000000000000000     
  0.50000000000000000       0.18750000000000000        0.0000000000000000     
  0.53125000000000000       0.18750000000000000        0.0000000000000000     
  0.56250000000000000       0.18750000000000000        0.0000000000000000     
  0.59375000000000000       0.18750000000000000        0.0000000000000000     
  0.62500000000000000       0.18750000000000000        0.0000000000000000     
  0.50000000000000000       0.21875000000000000        0.0000000000000000     
  0.53125000000000000       0.21875000000000000        0.0000000000000000     
  0.56250000000000000       0.21875000000000000        0.0000000000000000     
  0.59375000000000000       0.21875000000000000        0.0000000000000000     
  0.62500000000000000       0.21875000000000000        0.0000000000000000     
  0.50000000000000000       0.25000000000000000        0.0000000000000000     
  0.53125000000000000       0.25000000000000000        0.0000000000000000     
  0.56250000000000000       0.25000000000000000        0.0000000000000000     
  0.59375000000000000       0.25000000000000000        0.0000000000000000     
  0.62500000000000000       0.25000000000000000        0.0000000000000000     
  0.62500000000000000       0.12500000000000000        0.0000000000000000     
  0.65625000000000000       0.12500000000000000        0.0000000000000000     
  0.68750000000000000       0.12500000000000000        0.0000000000000000     
  0.71875000000000000       0.12500000000000000        0.0000000000000000     
  0.75000000000000000       0.12500000000000000        0.0000000000000000     
  0.62500000000000000       0.15625000000000000        0.0000000000000000     
  0.65625000000000000       0.15625000000000000        0.0000000000000000     
  0.68750000000000000       0.15625000000000000        0.0000000000000000     
  0.71875000000000000       0.15625000000000000        0.0000000000000000     
  0.75000000000000000       0.15625000000000000        0.0000000000000000     
  0.62500000000000000       0.18750000000000000        0.0000000000000000     
  0.65625000000000000       0.18750000000000000        0.0000000000000000     
  0.68750000000000000       0.18750000000000000        0.0000000000000000     
  0.71875000000000000       0.18750000000000000        0.0000000000000000     
  0.75000000000000000       0.18750000000000000        0.0000000000000000     
  0.62500000000000000       0.21875000000000000        0.0000000000000000     
  0.65625000000000000       0.21875000000000000        0.0000000000000000     
  0.68750000000000000       0.21875000000000000        0.0000000000000000     
  0.71875000000000000       0.21875000000000000        0.0000000000000000     
  0.75000000000000000       0.21875000000000000        0.0000000000000000     
  0.62500000000000000       0.25000000000000000        0.0000000000000000     
  0.65625000000000000       0.25000000000000000        0.0000000000000000     
  0.68750000000000000       0.25000000000000000        0.0000000000000000     
  0.71875000000000000       0.25000000000000000        0.0000000000000000     
  0.75000000000000000       0.25000000000000000        0.0000000000000000     
  0.75000000000000000       0.12500000000000000        0.0000000000000000     
  0.78125000000000000       0.12500000000000000        0.0000000000000000     
  0.81250000000000000       0.12500000000000000        0.0000000000000000     
  0.84375000000000000       0.12500000000000000        0.0000000000000000     
  0.87500000000000000       0.12500000000000000        0.0000000000000000     
  0.75000000000000000       0.15625000000000000        0.0000000000000000     
  0.78125000000000000       0.15625000000000000        0.0000000000000000     
  0.81250000000000000       0.15625000000000000        0.0000000000000000     
  0.84375000000000000       0.15625000000000000        0.0000000000000000     
  0.87500000000000000       0.15625000000000000        0.0000000000000000     
  0.75000000000000000       0.18750000000000000        0.0000000000000000     
  0.78125000000000000       0.18750000000000000        0.0000000000000000     
  0.81250000000000000       0.18750000000000000        0.0000000000000000     
  0.84375000000000000       0.18750000000000000        0.0000000000000000     
  0.87500000000000000       0.18750000000000000        0.0000000000000000     
  0.75000000000000000       0.21875000000000000        0.0000000000000000     
  0.78125000000000000       0.21875000000000000        0.0000000000000000     
  0.81250000000000000       0.21875000000000000        0.0000000000000000     
  0.84375000000000000       0.21875000000000000        0.0000000000000000     
  0.87500000000000000       0.21875000000000000        0.0000000000000000     
  0.75000000000000000       0.25000000000000000        0.0000000000000000     
  0.78125000000000000       0.25000000000000000        0.0000000000000000     
  0.81250000000000000       0.25000000000000000        0.0000000000000000     
  0.84375000000000000       0.25000000000000000        0.0000000000000000     
  0.87500000000000000       0.25000000000000000        0.0000000000000000     
  0.87500000000000000       0.12500000000000000        0.0000000000000000     
  0.90625000000000000       0.12500000000000000        0.0000000000000000     
  0.93750000000000000       0.12500000000000000        0.0000000000000000     
  0.96875000000000000       0.12500000000000000        0.0000000000000000     
   1.0000000000000000       0.12500000000000000        0.0000000000000000     
  0.87500000000000000       0.15625000000000000        0.0000000000000000     
  0.90625000000000000       0.15625000000000000        0.0000000000000000     
  0.93750000000000000       0.15625000000000000        0.0000000000000000     
  0.96875000000000000       0.15625000000000000        0.0000000000000000     
   1.0000000000000000       0.15625000000000000        0.0000000000000000     
  0.87500000000000000       0.18750000000000000        0.0000000000000000     
  0.90625000000000000       0.18750000000000000        0.0000000000000000     
  0.93750000000000000       0.18750000000000000        0.0000000000000000     
  0.96875000000000000       0.18750000000000000        0.0000000000000000     
   1.0000000000000000       0.18750000000000000        0.0000000000000000     
  0.87500000000000000       0.21875000000000000        0.0000000000000000     
  0.90625000000000000       0.21875000000000000        0.0000000000000000     
  0.93750000000000000       0.21875000000000000        0.0000000000000000     
  0.96875000000000000       0.21875000000000000        0.0000000000000000     
   1.0000000000000000       0.21875000000000000        0.0000000000000000     
  0.87500000000000000       0.25000000000000000        0.0000000000000000     
  0.90625000000000000       0.25000000000000000        0.0000000000000000     
  0.93750000000000000       0.25000000000000000        0.0000000000000000     
  0.96875000000000000       0.25000000000000000        0.0000000000000000     
   1.0000000000000000       0.25000000000000000        0.0000000000000000     
   1.0000000000000000       0.12500000000000000        0.0000000000000000     
   1.0312500000000000       0.12500000000000000        0.0000000000000000     
   1.0625000000000000       0.12500000000000000        0.0000000000000000     
   1.0937500000000000       0.12500000000000000        0.0000000000000000     
   1.1250000000000000       0.12500000000000000        0.0000000000000000     
   1.0000000000000000       0.15625000000000000        0.0000000000000000     
   1.0312500000000000       0.15625000000000000        0.0000000000000000     
   1.0625000000000000       0.15625000000000000        0.0000000000000000     
   1.0937500000000000       0.15625000000000000        0.0000000000000000     
   1.1250000000000000       0.15625000000000000        0.0000000000000000     
   1.0000000000000000       0.18750000000000000        0.0000000000000000     
   1.0312500000000000       0.18750000000000000        0.0000000000000000     
   1.0625000000000000       0.18750000000000000        0.0000000000000000     
   1.0937500000000000       0.18750000000000000        0.0000000000000000     
   1.1250000000000000       0.18750000000000000        0.0000000000000000     
   1.0000000000000000       0.21875000000000000        0.0000000000000000     
   1.0312500000000000       0.21875000000000000        0.0000000000000000     
   1.0625000000000000       0.21875000000000000        0.0000000000000000     
   1.0937500000000000       0.21875000000000000        0.0000000000000000     
   1.1250000000000000       0.21875000000000000        0.0000000000000000     
   1.0000000000000000       0.25000000000000000        0.0000000000000000     
   1.0312500000000000       0.25000000000000000        0.0000000000000000     
   1.0625000000000000       0.25000000000000000        0.0000000000000000     
   1.0937500000000000       0.25000000000000000        0.0000000000000000     
   1.1250000000000000       0.25000000000000000        0.0000000000000000     
   1.1250000000000000       0.12500000000000000        0.0000000000000000     
   1.1562500000000000       0.12500000000000000        0.0000000000000000     
   1.1875000000000000       0.12500000000000000        0.0000000000000000     
   1.2187500000000000       0.12500000000000000        0.0000000000000000     
   1.2500000000000000       0.12500000000000000        0.0000000000000000     
   1.1250000000000000       0.15625000000000000        0.0000000000000000     
   1.1562500000000000       0.15625000000000000        0.0000000000000000     
   1.1875000000000000       0.15625000000000000        0.0000000000000000     
   1.2187500000000000       0.15625000000000000        0.0000000000000000     
   1.2500000000000000       0.15625000000000000        0.0000000000000000     
   1.1250000000000000       0.18750000000000000        0.0000000000000000     
   1.1562500000000000       0.18750000000000000        0.0000000000000000     
   1.1875000000000000       0.18750000000000000        0.0000000000000000     
   1.2187500000000000       0.18750000000000000        0.0000000000000000     
   1.2500000000000000       0.18750000000000000        0.0000000000000000     
   1.1250000000000000       0.21875000000000000        0.0000000000000000     
   1.1562500000000000       0.21875000000000000        0.0000000000000000     
   1.1875000000000000       0.21875000000000000        0.0000000000000000     
   1.2187500000000000       0.21875000000000000        0.0000000000000000     
   1.2500000000000000       0.21875000000000000        0.0000000000000000     
   1.1250000000000000       0.25000000000000000        0.0000000000000000     
   1.1562500000000000       0.25000000000000000        0.0000000000000000     
   1.1875000000000000       0.25000000000000000        0.0000000000000000     
   1.2187500000000000       0.25000000000000000        0.0000000000000000     
   1.2500000000000000       0.25000000000000000        0.0000000000000000     
   1.2500000000000000       0.12500000000000000        0.0000000000000000     
   1.2812500000000000       0.12500000000000000        0.0000000000000000     
   1.3125000000000000       0.12500000000000000        0.0000000000000000     
   1.3437500000000000       0.12500000000000000        0.0000000000000000     
   1.3750000000000000       0.12500000000000000        0.0000000000000000     
   1.2500000000000000       0.15625000000000000        0.0000000000000000     
   1.2812500000000000       0.15625000000000000        0.0000000000000000     
   1.3125000000000000       0.15625000000000000        0.0000000000000000     
   1.3437500000000000       0.15625000000000000        0.0000000000000000     
   1.3750000000000000       0.15625000000000000        0.0000000000000000     
   1.2500000000000000       0.18750000000000000        0.0000000000000000     
   1.2812500000000000       0.18750000000000000        0.0000000000000000     
   1.3125000000000000       0.18750000000000000        0.0000000000000000     
   1.3437500000000000       0.18750000000000000        0.0000000000000000     
   1.3750000000000000       0.18750000000000000        0.0000000000000000     
   1.2500000000000000       0.21875000000000000        0.0000000000000000     
   1.2812500000000000       0.21875000000000000        0.0000000000000000     
   1.3125000000000000       0.21875000000000000        0.0000000000000000     
   1.3437500000000000       0.21875000000000000        0.0000000000000000     
   1.3750000000000000       0.21875000000000000        0.0000000000000000     
   1.2500000000000000       0.25000000000000000        0.0000000000000000     
   1.2812500000000000       0.25000000000000000        0.0000000000000000     
   1.3125000000000000       0.25000000000000000        0.0000000000000000     
   1.3437500000000000       0.25000000000000000        0.0000000000000000     
   1.3750000000000000       0.25000000000000000        0.0000000000000000     
   1.3750000000000000       0.12500000000000000        0.0000000000000000     
   1.4062500000000000       0.12500000000000000        0.0000000000000000     
   1.4375000000000000       0.12500000000000000        0.0000000000000000     
   1.4687500000000000       0.12500000000000000        0.0000000000000000     
   1.5000000000000000       0.12500000000000000        0.0000000000000000     
   1.3750000000000000       0.15625000000000000        0.0000000000000000     
   1.4062500000000000       0.15625000000000000        0.0000000000000000     
   1.4375000000000000       0.15625000000000000        0.0000000000000000     
   1.4687500000000000       0.15625000000000000        0.0000000000000000     
   1.5000000000000000       0.15625000000000000        0.0000000000000000     
   1.3750000000000000       0.18750000000000000        0.0000000000000000     
   1.4062500000000000       0.18750000000000000        0.0000000000000000     
   1.4375000000000000       0.18750000000000000        0.0000000000000000     
   1.4687500000000000       0.18750000000000000        0.0000000000000000     
   1.5000000000000000       0.18750000000000000        0.0000000000000000     
   1.3750000000000000       0.21875000000000000        0.0000000000000000     
   1.4062500000000000       0.21875000000000000        0.0000000000000000     
   1.4375000000000000       0.21875000000000000        0.0000000000000000     
   1.4687500000000000       0.21875000000000000        0.0000000000000000     
   1.5000000000000000       0.21875000000000000        0.0000000000000000     
   1.3750000000000000       0.25000000000000000        0.0000000000000000     
   1.4062500000000000       0.25000000000000000        0.0000000000000000     
   1.4375000000000000       0.25000000000000000        0.0000000000000000     
   1.4687500000000000       0.25000000000000000        0.0000000000000000     
   1.5000000000000000       0.25000000000000000        0.0000000000000000     
  0.50000000000000000       0.25000000000000000        0.0000000000000000     
  0.53125000000000000       0.25000000000000000        0.0000000000000000     
  0.56250000000000000       0.25000000000000000        0.0000000000000000     
  0.59375000000000000       0.25000000000000000        0.0000000000000000     
  0.62500000000000000       0.25000000000000000        0.0000000000000000     
  0.50000000000000000       0.28125000000000000        0.0000000000000000     
  0.53125000000000000       0.28125000000000000        0.0000000000000000     
  0.56250000000000000       0.28125000000000000        0.0000000000000000     
  0.59375000000000000       0.28125000000000000        0.0000000000000000     
  0.62500000000000000       0.28125000000000000        0.0000000000000000     
  0.50000000000000000       0.31250000000000000        0.0000000000000000     
  0.53125000000000000       0.31250000000000000        0.0000000000000000     
  0.56250000000000000       0.31250000000000000        0.0000000000000000     
  0.59375000000000000       0.31250000000000000        0.0000000000000000     
  0.62500000000000000       0.31250000000000000        0.0000000000000000     
  0.50000000000000000       0.34375000000000000        0.0000000000000000     
  0.53125000000000000       0.34375000000000000        0.0000000000000000     
  0.56250000000000000       0.34375000000000000        0.0000000000000000     
  0.59375000000000000       0.34375000000000000        0.0000000000000000     
  0.62500000000000000       0.34375000000000000        0.0000000000000000     
  0.50000000000000000       0.37500000000000000        0.0000000000000000     
  0.53125000000000000       0.37500000000000000        0.0000000000000000     
  0.56250000000000000       0.37500000000000000        0.0000000000000000     
  0.59375000000000000       0.37500000000000000        0.0000000000000000     
  0.62500000000000000       0.37500000000000000        0.0000000000000000     
  0.62500000000000000       0.25000000000000000        0.0000000000000000     
  0.65625000000000000       0.25000000000000000        0.0000000000000000     
  0.68750000000000000       0.25000000000000000        0.0000000000000000     
  0.71875000000000000       0.25000000000000000        0.0000000000000000     
  0.75000000000000000       0.25000000000000000        0.0000000000000000     
  0.62500000000000000       0.28125000000000000        0.0000000000000000     
  0.65625000000000000       0.28125000000000000        0.0000000000000000     
  0.68750000000000000       0.28125000000000000        0.0000000000000000     
  0.71875000000000000       0.28125000000000000        0.0000000000000000     
  0.75000000000000000       0.28125000000000000        0.0000000000000000     
  0.62500000000000000       0.31250000000000000        0.0000000000000000     
  0.65625000000000000       0.31250000000000000        0.0000000000000000     
  0.68750000000000000       0.31250000000000000        0.0000000000000000     
  0.71875000000000000       0.31250000000000000        0.0000000000000000     
  0.75000000000000000       0.31250000000000000        0.0000000000000000     
  0.62500000000000000       0.34375000000000000        0.0000000000000000     
  0.65625000000000000       0.34375000000000000        0.0000000000000000     
  0.68750000000000000       0.34375000000000000        0.0000000000000000     
  0.71875000000000000       0.34375000000000000        0.0000000000000000     
  0.75000000000000000       0.34375000000000000        0.0000000000000000     
  0.62500000000000000       0.37500000000000000        0.0000000000000000     
  0.65625000000000000       0.37500000000000000        0.0000000000000000     
  0.68750000000000000       0.37500000000000000        0.0000000000000000     
  0.71875000000000000       0.37500000000000000        0.0000000000000000     
  0.75000000000000000       0.37500000000000000        0.0000000000000000     
  0.75000000000000000       0.25000000000000000        0.0000000000000000     
  0.78125000000000000       0.25000000000000000        0.0000000000000000     
  0.81250000000000000       0.25000000000000000        0.0000000000000000     
  0.84375000000000000       0.25000000000000000        0.0000000000000000     
  0.87500000000000000       0.25000000000000000        0.0000000000000000     
  0.75000000000000000       0.28125000000000000        0.0000000000000000     
  0.78125000000000000       0.28125000000000000        0.0000000000000000     
  0.81250000000000000       0.28125000000000000        0.0000000000000000     
  0.84375000000000000       0.28125000000000000        0.0000000000000000     
  0.87500000000000000       0.28125000000000000        0.0000000000000000     
  0.75000000000000000       0.31250000000000000        0.0000000000000000     
  0.78125000000000000       0.31250000000000000        0.0000000000000000     
  0.81250000000000000       0.31250000000000000        0.0000000000000000     
  0.84375000000000000       0.31250000000000000        0.0000000000000000     
  0.87500000000000000       0.31250000000000000        0.0000000000000000     
  0.75000000000000000       0.34375000000000000        0.0000000000000000     
  0.78125000000000000       0.34375000000000000        0.0000000000000000     
  0.81250000000000000       0.34375000000000000        0.0000000000000000     
  0.84375000000000000       0.34375000000000000        0.0000000000000000     
  0.87500000000000000       0.34375000000000000        0.0000000000000000     
  0.75000000000000000       0.37500000000000000        0.0000000000000000     
  0.78125000000000000       0.37500000000000000        0.0000000000000000     
  0.81250000000000000       0.37500000000000000        0.0000000000000000     
  0.84375000000000000       0.37500000000000000        0.0000000000000000     
  0.87500000000000000       0.37500000000000000        0.0000000000000000     
  0.87500000000000000       0.25000000000000000        0.0000000000000000     
  0.90625000000000000       0.25000000000000000        0.0000000000000000     
  0.93750000000000000       0.25000000000000000        0.0000000000000000     
  0.96875000000000000       0.25000000000000000        0.0000000000000000     
   1.0000000000000000       0.25000000000000000        0.0000000000000000     
  0.87500000000000000       0.28125000000000000        0.0000000000000000     
  0.90625000000000000       0.28125000000000000        0.0000000000000000     
  0.93750000000000000       0.28125000000000000        0.0000000000000000     
  0.96875000000000000       0.28125000000000000        0.0000000000000000     
   1.0000000000000000       0.28125000000000000        0.0000000000000000     
  0.87500000000000000       0.31250000000000000        0.0000000000000000     
  0.90625000000000000       0.31250000000000000        0.0000000000000000     
  0.93750000000000000       0.31250000000000000        0.0000000000000000     
  0.96875000000000000       0.31250000000000000        0.0000000000000000     
   1.0000000000000000       0.31250000000000000        0.0000000000000000     
  0.87500000000000000       0.34375000000000000        0.0000000000000000     
  0.90625000000000000       0.34375000000000000        0.0000000000000000     
  0.93750000000000000       0.34375000000000000        0.0000000000000000     
  0.96875000000000000       0.34375000000000000        0.0000000000000000     
   1.0000000000000000       0.34375000000000000        0.0000000000000000     
  0.87500000000000000       0.37500000000000000        0.0000000000000000     
  0.90625000000000000       0.37500000000000000        0.0000000000000000     
  0.93750000000000000       0.37500000000000000        0.0000000000000000     
  0.96875000000000000       0.37500000000000000        0.0000000000000000     
   1.0000000000000000       0.37500000000000000        0.0000000000000000     
   1.0000000000000000       0.25000000000000000        0.0000000000000000     
   1.0312500000000000       0.25000000000000000        0.0000000000000000     
   1.0625000000000000       0.25000000000000000        0.0000000000000000     
   1.0937500000000000       0.25000000000000000        0.0000000000000000     
   1.1250000000000000       0.25000000000000000        0.0000000000000000     
   1.0000000000000000       0.28125000000000000        0.0000000000000000     
   1.0312500000000000       0.28125000000000000        0.0000000000000000     
   1.0625000000000000       0.28125000000000000        0.0000000000000000     
   1.0937500000000000       0.28125000000000000        0.0000000000000000     
   1.1250000000000000       0.28125000000000000        0.0000000000000000     
   1.0000000000000000       0.31250000000000000        0.0000000000000000     
   1.0312500000000000       0.31250000000000000        0.0000000000000000     
   1.0625000000000000       0.31250000000000000        0.0000000000000000     
   1.0937500000000000       0.31250000000000000        0.0000000000000000     
   1.1250000000000000       0.31250000000000000        0.0000000000000000     
   1.0000000000000000       0.34375000000000000        0.0000000000000000     
   1.0312500000000000       0.34375000000000000        0.0000000000000000     
   1.0625000000000000       0.34375000000000000        0.0000000000000000     
   1.0937500000000000       0.34375000000000000        0.0000000000000000     
   1.1250000000000000       0.34375000000000000        0.0000000000000000     
   1.0000000000000000       0.37500000000000000        0.0000000000000000     
   1.0312500000000000       0.37500000000000000        0.0000000000000000     
   1.0625000000000000       0.37500000000000000        0.0000000000000000     
   1.0937500000000000       0.37500000000000000        0.0000000000000000     
   1.1250000000000000       0.37500000000000000        0.0000000000000000     
   1.1250000000000000       0.25000000000000000        0.0000000000000000     
   1.1562500000000000       0.25000000000000000        0.0000000000000000     
   1.1875000000000000       0.25000000000000000        0.0000000000000000     
   1.2187500000000000       0.25000000000000000        0.0000000000000000     
   1.2500000000000000       0.25000000000000000        0.0000000000000000     
   1.1250000000000000       0.28125000000000000        0.0000000000000000     
   1.1562500000000000       0.28125000000000000        0.0000000000000000     
   1.1875000000000000       0.28125000000000000        0.0000000000000000     
   1.2187500000000000       0.28125000000000000        0.0000000000000000     
   1.2500000000000000       0.28125000000000000        0.0000000000000000     
   1.1250000000000000       0.31250000000000000        0.0000000000000000     
   1.1562500000000000       0.31250000000000000        0.0000000000000000     
   1.1875000000000000       0.31250000000000000        0.0000000000000000     
   1.2187500000000000       0.31250000000000000        0.0000000000000000     
   1.2500000000000000       0.31250000000000000        0.0000000000000000     
   1.1250000000000000       0.34375000000000000        0.0000000000000000     
   1.1562500000000000       0.34375000000000000        0.0000000000000000     
   1.1875000000000000       0.34375000000000000        0.0000000000000000     
   1.2187500000000000       0.34375000000000000        0.0000000000000000     
   1.2500000000000000       0.34375000000000000        0.0000000000000000     
   1.1250000000000000       0.37500000000000000        0.0000000000000000     
   1.1562500000000000       0.37500000000000000        0.0000000000000000     
   1.1875000000000000       0.37500000000000000        0.0000000000000000     
   1.2187500000000000       0.37500000000000000        0.0000000000000000     
   1.2500000000000000       0.37500000000000000        0.0000000000000000     
   1.2500000000000000       0.25000000000000000        0.0000000000000000     
   1.2812500000000000       0.25000000000000000        0.0000000000000000     
   1.3125000000000000       0.25000000000000000        0.0000000000000000     
   1.3437500000000000       0.25000000000000000        0.0000000000000000     
   1.3750000000000000       0.25000000000000000        0.0000000000000000     
   1.2500000000000000       0.28125000000000000        0.0000000000000000     
   1.2812500000000000       0.28125000000000000        0.0000000000000000     
   1.3125000000000000       0.28125000000000000        0.0000000000000000     
   1.3437500000000000       0.28125000000000000        0.0000000000000000     
   1.3750000000000000       0.28125000000000000        0.0000000000000000     
   1.2500000000000000       0.31250000000000000        0.0000000000000000     
   1.2812500000000000       0.31250000000000000        0.0000000000000000     
   1.3125000000000000       0.31250000000000000        0.0000000000000000     
   1.3437500000000000       0.31250000000000000        0.0000000000000000     
   1.3750000000000000       0.31250000000000000        0.0000000000000000     
   1.2500000000000000       0.34375000000000000        0.0000000000000000     
   1.2812500000000000       0.34375000000000000        0.0000000000000000     
   1.3125000000000000       0.34375000000000000        0.0000000000000000     
   1.3437500000000000       0.34375000000000000        0.0000000000000000     
   1.3750000000000000       0.34375000000000000        0.0000000000000000     
   1.2500000000000000       0.37500000000000000        0.0000000000000000     
   1.2812500000000000       0.37500000000000000        0.0000000000000000     
   1.3125000000000000       0.37500000000000000        0.0000000000000000     
   1.3437500000000000       0.37500000000000000        0.0000000000000000     
   1.3750000000000000       0.37500000000000000        0.0000000000000000     
   1.3750000000000000       0.25000000000000000        0.0000000000000000     
   1.4062500000000000       0.25000000000000000        0.0000000000000000     
   1.4375000000000000       0.25000000000000000        0.0000000000000000     
   1.4687500000000000       0.25000000000000000        0.0000000000000000     
   1.5000000000000000       0.25000000000000000        0.0000000000000000     
   1.3750000000000000       0.28125000000000000        0.0000000000000000     
   1.4062500000000000       0.28125000000000000        0.0000000000000000     
   1.4375000000000000       0.28125000000000000        0.0000000000000000     
   1.4687500000000000       0.28125000000000000        0.0000000000000000     
   1.5000000000000000       0.28125000000000000        0.0000000000000000     
   1.3750000000000000       0.31250000000000000        0.0000000000000000     
   1.4062500000000000       0.31250000000000000        0.0000000000000000     
   1.4375000000000000       0.31250000000000000        0.0000000000000000     
   1.4687500000000000       0.31250000000000000        0.0000000000000000     
   1.5000000000000000       0.31250000000000000        0.0000000000000000     
   1.3750000000000000       0.34375000000000000        0.0000000000000000     
   1.4062500000000000       0.34375000000000000        0.0000000000000000     
   1.4375000000000000       0.34375000000000000        0.0000000000000000     
   1.4687500000000000       0.34375000000000000        0.0000000000000000     
   1.5000000000000000       0.34375000000000000        0.0000000000000000     
   1.3750000000000000       0.37500000000000000        0.0000000000000000     
   1.4062500000000000       0.37500000000000000        0.0000000000000000     
   1.4375000000000000       0.37500000000000000        0.0000000000000000     
   1.4687500000000000       0.37500000000000000        0.0000000000000000     
   1.5000000000000000       0.37500000000000000        0.0000000000000000     
  0.50000000000000000       0.37500000000000000        0.0000000000000000     
  0.53125000000000000       0.37500000000000000        0.0000000000000000     
  0.56250000000000000       0.37500000000000000        0.0000000000000000     
  0.59375000000000000       0.37500000000000000        0.0000000000000000     
  0.62500000000000000       0.37500000000000000        0.0000000000000000     
  0.50000000000000000       0.40625000000000000        0.0000000000000000     
  0.53125000000000000       0.40625000000000000        0.0000000000000000     
  0.56250000000000000       0.40625000000000000        0.0000000000000000     
  0.59375000000000000       0.40625000000000000        0.0000000000000000     
  0.62500000000000000       0.40625000000000000        0.0000000000000000     
  0.50000000000000000       0.43750000000000000        0.0000000000000000     
  0.53125000000000000       0.43750000000000000        0.0000000000000000     
  0.56250000000000000       0.43750000000000000        0.0000000000000000     
  0.59375000000000000       0.43750000000000000        0.0000000000000000     
  0.62500000000000000       0.43750000000000000        0.0000000000000000     
  0.50000000000000000       0.46875000000000000        0.0000000000000000     
  0.53125000000000000       0.46875000000000000        0.0000000000000000     
  0.56250000000000000       0.46875000000000000        0.0000000000000000     
  0.59375000000000000       0.46875000000000000        0.0000000000000000     
  0.62500000000000000       0.46875000000000000        0.0000000000000000     
  0.50000000000000000       0.50000000000000000        0.0000000000000000     
  0.53125000000000000       0.50000000000000000        0.0000000000000000     
  0.56250000000000000       0.50000000000000000        0.0000000000000000     
  0.59375000000000000       0.50000000000000000        0.0000000000000000     
  0.62500000000000000       0.50000000000000000        0.0000000000000000     
  0.62500000000000000       0.37500000000000000        0.0000000000000000     
  0.65625000000000000       0.37500000000000000        0.0000000000000000     
  0.68750000000000000       0.37500000000000000        0.0000000000000000     
  0.71875000000000000       0.37500000000000000        0.0000000000000000     
  0.75000000000000000       0.37500000000000000        0.0000000000000000     
  0.62500000000000000       0.40625000000000000        0.0000000000000000     
  0.65625000000000000       0.40625000000000000        0.0000000000000000     
  0.68750000000000000       0.40625000000000000        0.0000000000000000     
  0.71875000000000000       0.40625000000000000        0.0000000000000000     
  0.75000000000000000       0.40625000000000000        0.0000000000000000     
  0.62500000000000000       0.43750000000000000        0.0000000000000000     
  0.65625000000000000       0.43750000000000000        0.0000000000000000     
  0.68750000000000000       0.43750000000000000        0.0000000000000000     
  0.71875000000000000       0.43750000000000000        0.0000000000000000     
  0.75000000000000000       0.43750000000000000        0.0000000000000000     
  0.62500000000000000       0.46875000000000000        0.0000000000000000     
  0.65625000000000000       0.46875000000000000        0.0000000000000000     
  0.68750000000000000       0.46875000000000000        0.0000000000000000     
  0.71875000000000000       0.46875000000000000        0.0000000000000000     
  0.75000000000000000       0.46875000000000000        0.0000000000000000     
  0.62500000000000000       0.50000000000000000        0.0000000000000000     
  0.65625000000000000       0.50000000000000000        0.0000000000000000     
  0.68750000000000000       0.50000000000000000        0.0000000000000000     
  0.71875000000000000       0.50000000000000000        0.0000000000000000     
  0.75000000000000000       0.50000000000000000        0.0000000000000000     
  0.75000000000000000       0.37500000000000000        0.0000000000000000     
  0.78125000000000000       0.37500000000000000        0.0000000000000000     
  0.81250000000000000       0.37500000000000000        0.0000000000000000     
  0.84375000000000000       0.37500000000000000        0.0000000000000000     
  0.87500000000000000       0.37500000000000000        0.0000000000000000     
  0.75000000000000000       0.40625000000000000        0.0000000000000000     
  0.78125000000000000       0.40625000000000000        0.0000000000000000     
  0.81250000000000000       0.40625000000000000        0.0000000000000000     
  0.84375000000000000       0.40625000000000000        0.0000000000000000     
  0.87500000000000000       0.40625000000000000        0.0000000000000000     
  0.75000000000000000       0.43750000000000000        0.0000000000000000     
  0.78125000000000000       0.43750000000000000        0.0000000000000000     
  0.81250000000000000       0.43750000000000000        0.0000000000000000     
  0.84375000000000000       0.43750000000000000        0.0000000000000000     
  0.87500000000000000       0.43750000000000000        0.0000000000000000     
  0.75000000000000000       0.46875000000000000        0.0000000000000000     
  0.78125000000000000       0.46875000000000000        0.0000000000000000     
  0.81250000000000000       0.46875000000000000        0.0000000000000000     
  0.84375000000000000       0.46875000000000000        0.0000000000000000     
  0.87500000000000000       0.46875000000000000        0.0000000000000000     
  0.75000000000000000       0.50000000000000000        0.0000000000000000     
  0.78125000000000000       0.50000000000000000        0.0000000000000000     
  0.81250000000000000       0.50000000000000000        0.0000000000000000     
  0.84375000000000000       0.50000000000000000        0.0000000000000000     
  0.87500000000000000       0.50000000000000000        0.0000000000000000     
  0.87500000000000000       0.37500000000000000        0.0000000000000000     
  0.90625000000000000       0.37500000000000000        0.0000000000000000     
  0.93750000000000000       0.37500000000000000        0.0000000000000000     
  0.96875000000000000       0.37500000000000000        0.0000000000000000     
   1.0000000000000000       0.37500000000000000        0.0000000000000000     
  0.87500000000000000       0.40625000000000000        0.0000000000000000     
  0.90625000000000000       0.40625000000000000        0.0000000000000000     
  0.93750000000000000       0.40625000000000000        0.0000000000000000     
  0.96875000000000000       0.40625000000000000        0.0000000000000000     
   1.0000000000000000       0.40625000000000000        0.0000000000000000     
  0.87500000000000000       0.43750000000000000        0.0000000000000000     
  0.90625000000000000       0.43750000000000000        0.0000000000000000     
  0.93750000000000000       0.43750000000000000        0.0000000000000000     
  0.96875000000000000       0.43750000000000000        0.0000000000000000     
   1.0000000000000000       0.43750000000000000        0.0000000000000000     
  0.87500000000000000       0.46875000000000000        0.0000000000000000     
  0.90625000000000000       0.46875000000000000        0.0000000000000000     
  0.93750000000000000       0.46875000000000000        0.0000000000000000     
  0.96875000000000000       0.46875000000000000        0.0000000000000000     
   1.0000000000000000       0.46875000000000000        0.0000000000000000     
  0.87500000000000000       0.50000000000000000        0.0000000000000000     
  0.90625000000000000       0.50000000000000000        0.0000000000000000     
  0.93750000000000000       0.50000000000000000        0.0000000000000000     
  0.96875000000000000       0.50000000000000000        0.0000000000000000     
   1.0000000000000000       0.50000000000000000        0.0000000000000000     
   1.0000000000000000       0.37500000000000000        0.0000000000000000     
   1.0312500000000000       0.37500000000000000        0.0000000000000000     
   1.0625000000000000       0.37500000000000000        0.0000000000000000     
   1.0937500000000000       0.37500000000000000        0.0000000000000000     
   1.1250000000000000       0.37500000000000000        0.0000000000000000     
   1.0000000000000000       0.40625000000000000        0.0000000000000000     
   1.0312500000000000       0.40625000000000000        0.0000000000000000     
   1.0625000000000000       0.40625000000000000        0.0000000000000000     
   1.0937500000000000       0.40625000000000000        0.0000000000000000     
   1.1250000000000000       0.40625000000000000        0.0000000000000000     
   1.0000000000000000       0.43750000000000000        0.0000000000000000     
   1.0312500000000000       0.43750000000000000        0.0000000000000000     
   1.0625000000000000       0.43750000000000000        0.0000000000000000     
   1.0937500000000000       0.43750000000000000        0.0000000000000000     
   1.1250000000000000       0.43750000000000000        0.0000000000000000     
   1.0000000000000000       0.46875000000000000        0.0000000000000000     
   1.0312500000000000       0.46875000000000000        0.0000000000000000     
   1.0625000000000000       0.46875000000000000        0.0000000000000000     
   1.0937500000000000       0.46875000000000000        0.0000000000000000     
   1.1250000000000000       0.46875000000000000        0.0000000000000000     
   1.0000000000000000       0.50000000000000000        0.0000000000000000     
   1.0312500000000000       0.50000000000000000        0.0000000000000000     
   1.0625000000000000       0.50000000000000000        0.0000000000000000     
   1.0937500000000000       0.50000000000000000        0.0000000000000000     
   1.1250000000000000       0.50000000000000000        0.0000000000000000     
   1.1250000000000000       0.37500000000000000        0.0000000000000000     
   1.1562500000000000       0.37500000000000000        0.0000000000000000     
   1.1875000000000000       0.37500000000000000        0.0000000000000000     
   1.2187500000000000       0.37500000000000000        0.0000000000000000     
   1.2500000000000000       0.37500000000000000        0.0000000000000000     
   1.1250000000000000       0.40625000000000000        0.0000000000000000     
   1.1562500000000000       0.40625000000000000        0.0000000000000000     
   1.1875000000000000       0.40625000000000000        0.0000000000000000     
   1.2187500000000000       0.40625000000000000        0.0000000000000000     
   1.2500000000000000       0.40625000000000000        0.0000000000000000     
   1.1250000000000000       0.43750000000000000        0.0000000000000000     
   1.1562500000000000       0.43750000000000000        0.0000000000000000     
   1.1875000000000000       0.43750000000000000        0.0000000000000000     
   1.2187500000000000       0.43750000000000000        0.0000000000000000     
   1.2500000000000000       0.43750000000000000        0.0000000000000000     
   1.1250000000000000       0.46875000000000000        0.0000000000000000     
   1.1562500000000000       0.46875000000000000        0.0000000000000000     
   1.1875000000000000       0.46875000000000000        0.0000000000000000     
   1.2187500000000000       0.46875000000000000        0.0000000000000000     
   1.2500000000000000       0.46875000000000000        0.0000000000000000     
   1.1250000000000000       0.50000000000000000        0.0000000000000000     
   1.1562500000000000       0.50000000000000000        0.0000000000000000     
   1.1875000000000000       0.50000000000000000        0.0000000000000000     
   1.2187500000000000       0.50000000000000000        0.0000000000000000     
   1.2500000000000000       0.50000000000000000        0.0000000000000000     
   1.2500000000000000       0.37500000000000000        0.0000000000000000     
   1.2812500000000000       0.37500000000000000        0.0000000000000000     
   1.3125000000000000       0.37500000000000000        0.0000000000000000     
   1.3437500000000000       0.37500000000000000        0.0000000000000000     
   1.3750000000000000       0.37500000000000000        0.0000000000000000     
   1.2500000000000000       0.40625000000000000        0.0000000000000000     
   1.2812500000000000       0.40625000000000000        0.0000000000000000     
   1.3125000000000000       0.40625000000000000        0.0000000000000000     
   1.3437500000000000       0.40625000000000000        0.0000000000000000     
   1.3750000000000000       0.40625000000000000        0.0000000000000000     
   1.2500000000000000       0.43750000000000000        0.0000000000000000     
   1.2812500000000000       0.43750000000000000        0.0000000000000000     
   1.3125000000000000       0.43750000000000000        0.0000000000000000     
   1.3437500000000000       0.43750000000000000        0.0000000000000000     
   1.3750000000000000       0.43750000000000000        0.0000000000000000     
   1.2500000000000000       0.46875000000000000        0.0000000000000000     
   1.2812500000000000       0.46875000000000000        0.0000000000000000     
   1.3125000000000000       0.46875000000000000        0.0000000000000000     
   1.3437500000000000       0.46875000000000000        0.0000000000000000     
   1.3750000000000000       0.46875000000000000        0.0000000000000000     
   1.2500000000000000       0.50000000000000000        0.0000000000000000     
   1.2812500000000000       0.50000000000000000        0.0000000000000000     
   1.3125000000000000       0.50000000000000000        0.0000000000000000     
   1.3437500000000000       0.50000000000000000        0.0000000000000000     
   1.3750000000000000       0.50000000000000000        0.0000000000000000     
   1.3750000000000000       0.37500000000000000        0.0000000000000000     
   1.4062500000000000       0.37500000000000000        0.0000000000000000     
   1.4375000000000000       0.37500000000000000        0.0000000000000000     
   1.4687500000000000       0.37500000000000000        0.0000000000000000     
   1.5000000000000000       0.37500000000000000        0.0000000000000000     
   1.3750000000000000       0.40625000000000000        0.0000000000000000     
   1.4062500000000000       0.40625000000000000        0.0000000000000000     
   1.4375000000000000       0.40625000000000000        0.0000000000000000     
   1.4687500000000000       0.40625000000000000        0.0000000000000000     
   1.5000000000000000       0.40625000000000000        0.0000000000000000     
   1.3750000000000000       0.43750000000000000        0.0000000000000000     
   1.4062500000000000       0.43750000000000000        0.0000000000000000     
   1.4375000000000000       0.43750000000000000        0.0000000000000000     
   1.4687500000000000       0.43750000000000000        0.0000000000000000     
   1.5000000000000000       0.43750000000000000        0.0000000000000000     
   1.3750000000000000       0.46875000000000000        0.0000000000000000     
   1.4062500000000000       0.46875000000000000        0.0000000000000000     
   1.4375000000000000       0.46875000000000000        0.0000000000000000     
   1.4687500000000000       0.46875000000000000        0.0000000000000000     
   1.5000000000000000       0.46875000000000000        0.0000000000000000     
   1.3750000000000000       0.50000000000000000        0.0000000000000000     
   1.4062500000000000       0.50000000000000000        0.0000000000000000     
   1.4375000000000000       0.50000000000000000        0.0000000000000000     
   1.4687500000000000       0.50000000000000000        0.0000000000000000     
   1.5000000000000000       0.50000000000000000        0.0000000000000000     
  0.50000000000000000       0.50000000000000000        0.0000000000000000     
  0.53125000000000000       0.50000000000000000        0.0000000000000000     
  0.56250000000000000       0.50000000000000000        0.0000000000000000     
  0.59375000000000000       0.50000000000000000        0.0000000000000000     
  0.62500000000000000       0.50000000000000000        0.0000000000000000     
  0.50000000000000000       0.53125000000000000        0.0000000000000000     
  0.53125000000000000       0.53125000000000000        0.0000000000000000     
  0.56250000000000000       0.53125000000000000        0.0000000000000000     
  0.59375000000000000       0.53125000000000000        0.0000000000000000     
  0.62500000000000000       0.53125000000000000        0.0000000000000000     
  0.50000000000000000       0.56250000000000000        0.0000000000000000     
  0.53125000000000000       0.56250000000000000        0.0000000000000000     
  0.56250000000000000       0.56250000000000000        0.0000000000000000     
  0.59375000000000000       0.56250000000000000        0.0000000000000000     
  0.62500000000000000       0.56250000000000000        0.0000000000000000     
  0.50000000000000000       0.59375000000000000        0.0000000000000000     
  0.53125000000000000       0.59375000000000000        0.0000000000000000     
  0.56250000000000000       0.59375000000000000        0.0000000000000000     
  0.59375000000000000       0.59375000000000000        0.0000000000000000     
  0.62500000000000000       0.59375000000000000        0.0000000000000000     
  0.50000000000000000       0.62500000000000000        0.0000000000000000     
  0.53125000000000000       0.62500000000000000        0.0000000000000000     
  0.56250000000000000       0.62500000000000000        0.0000000000000000     
  0.59375000000000000       0.62500000000000000        0.0000000000000000     
  0.62500000000000000       0.62500000000000000        0.0000000000000000     
  0.62500000000000000       0.50000000000000000        0.0000000000000000     
  0.65625000000000000       0.50000000000000000        0.0000000000000000     
  0.68750000000000000       0.50000000000000000        0.0000000000000000     
  0.71875000000000000       0.50000000000000000        0.0000000000000000     
  0.75000000000000000       0.50000000000000000        0.0000000000000000     
  0.62500000000000000       0.53125000000000000        0.0000000000000000     
  0.65625000000000000       0.53125000000000000        0.0000000000000000     
  0.68750000000000000       0.53125000000000000        0.0000000000000000     
  0.71875000000000000       0.53125000000000000        0.0000000000000000     
  0.75000000000000000       0.53125000000000000        0.0000000000000000     
  0.62500000000000000       0.56250000000000000        0.0000000000000000     
  0.65625000000000000       0.56250000000000000        0.0000000000000000     
  0.68750000000000000       0.56250000000000000        0.0000000000000000     
  0.71875000000000000       0.56250000000000000        0.0000000000000000     
  0.75000000000000000       0.56250000000000000        0.0000000000000000     
  0.62500000000000000       0.59375000000000000        0.0000000000000000     
  0.65625000000000000       0.59375000000000000        0.0000000000000000     
  0.68750000000000000       0.59375000000000000        0.0000000000000000     
  0.71875000000000000       0.59375000000000000        0.0000000000000000     
  0.75000000000000000       0.59375000000000000        0.0000000000000000     
  0.62500000000000000       0.62500000000000000        0.0000000000000000     
  0.65625000000000000       0.62500000000000000        0.0000000000000000     
  0.68750000000000000       0.62500000000000000        0.0000000000000000     
  0.71875000000000000       0.62500000000000000        0.0000000000000000     
  0.75000000000000000       0.62500000000000000        0.0000000000000000     
  0.75000000000000000       0.50000000000000000        0.0000000000000000     
  0.78125000000000000       0.50000000000000000        0.0000000000000000     
  0.81250000000000000       0.50000000000000000        0.0000000000000000     
  0.84375000000000000       0.50000000000000000        0.0000000000000000     
  0.87500000000000000       0.50000000000000000        0.0000000000000000     
  0.75000000000000000       0.53125000000000000        0.0000000000000000     
  0.78125000000000000       0.53125000000000000        0.0000000000000000     
  0.81250000000000000       0.53125000000000000        0.0000000000000000     
  0.84375000000000000       0.53125000000000000        0.0000000000000000     
  0.87500000000000000       0.53125000000000000        0.0000000000000000     
  0.75000000000000000       0.56250000000000000        0.0000000000000000     
  0.78125000000000000       0.56250000000000000        0.0000000000000000     
  0.81250000000000000       0.56250000000000000        0.0000000000000000     
  0.84375000000000000       0.56250000000000000        0.0000000000000000     
  0.87500000000000000       0.56250000000000000        0.0000000000000000     
  0.75000000000000000       0.59375000000000000        0.0000000000000000     
  0.78125000000000000       0.59375000000000000        0.0000000000000000     
  0.81250000000000000       0.59375000000000000        0.0000000000000000     
  0.84375000000000000       0.59375000000000000        0.0000000000000000     
  0.87500000000000000       0.59375000000000000        0.0000000000000000     
  0.75000000000000000       0.62500000000000000        0.0000000000000000     
  0.78125000000000000       0.62500000000000000        0.0000000000000000     
  0.81250000000000000       0.62500000000000000        0.0000000000000000     
  0.84375000000000000       0.62500000000000000        0.0000000000000000     
  0.87500000000000000       0.62500000000000000        0.0000000000000000     
  0.87500000000000000       0.50000000000000000        0.0000000000000000     
  0.90625000000000000       0.50000000000000000        0.0000000000000000     
  0.93750000000000000       0.50000000000000000        0.0000000000000000     
  0.96875000000000000       0.50000000000000000        0.0000000000000000     
   1.0000000000000000       0.50000000000000000        0.0000000000000000     
  0.87500000000000000       0.53125000000000000        0.0000000000000000     
  0.90625000000000000       0.53125000000000000        0.0000000000000000     
  0.93750000000000000       0.53125000000000000        0.0000000000000000     
  0.96875000000000000       0.53125000000000000        0.0000000000000000     
   1.0000000000000000       0.53125000000000000        0.0000000000000000     
  0.87500000000000000       0.56250000000000000        0.0000000000000000     
  0.90625000000000000       0.56250000000000000        0.0000000000000000     
  0.93750000000000000       0.56250000000000000        0.0000000000000000     
  0.96875000000000000       0.56250000000000000        0.0000000000000000     
   1.0000000000000000       0.56250000000000000        0.0000000000000000     
  0.87500000000000000       0.59375000000000000        0.0000000000000000     
  0.90625000000000000       0.59375000000000000        0.0000000000000000     
  0.93750000000000000       0.59375000000000000        0.0000000000000000     
  0.96875000000000000       0.59375000000000000        0.0000000000000000     
   1.0000000000000000       0.59375000000000000        0.0000000000000000     
  0.87500000000000000       0.62500000000000000        0.0000000000000000     
  0.90625000000000000       0.62500000000000000        0.0000000000000000     
  0.93750000000000000       0.62500000000000000        0.0000000000000000     
  0.96875000000000000       0.62500000000000000        0.0000000000000000     
   1.0000000000000000       0.62500000000000000        0.0000000000000000     
   1.0000000000000000       0.50000000000000000        0.0000000000000000     
   1.0312500000000000       0.50000000000000000        0.0000000000000000     
   1.0625000000000000       0.50000000000000000        0.0000000000000000     
   1.0937500000000000       0.50000000000000000        0.0000000000000000     
   1.1250000000000000       0.50000000000000000        0.0000000000000000     
   1.0000000000000000       0.53125000000000000        0.0000000000000000     
   1.0312500000000000       0.53125000000000000        0.0000000000000000     
   1.0625000000000000       0.53125000000000000        0.0000000000000000     
   1.0937500000000000       0.53125000000000000        0.0000000000000000     
   1.1250000000000000       0.53125000000000000        0.0000000000000000     
   1.0000000000000000       0.56250000000000000        0.0000000000000000     
   1.0312500000000000       0.56250000000000000        0.0000000000000000     
   1.0625000000000000       0.56250000000000000        0.0000000000000000     
   1.0937500000000000       0.56250000000000000        0.0000000000000000     
   1.1250000000000000       0.56250000000000000        0.0000000000000000     
   1.0000000000000000       0.59375000000000000        0.0000000000000000     
   1.0312500000000000       0.59375000000000000        0.0000000000000000     
   1.0625000000000000       0.59375000000000000        0.0000000000000000     
   1.0937500000000000       0.59375000000000000        0.0000000000000000     
   1.1250000000000000       0.59375000000000000        0.0000000000000000     
   1.0000000000000000       0.62500000000000000        0.0000000000000000     
   1.0312500000000000       0.62500000000000000        0.0000000000000000     
   1.0625000000000000       0.62500000000000000        0.0000000000000000     
   1.0937500000000000       0.62500000000000000        0.0000000000000000     
   1.1250000000000000       0.62500000000000000        0.0000000000000000     
   1.1250000000000000       0.50000000000000000        0.0000000000000000     
   1.1562500000000000       0.50000000000000000        0.0000000000000000     
   1.1875000000000000       0.50000000000000000        0.0000000000000000     
   1.2187500000000000       0.50000000000000000        0.0000000000000000     
   1.2500000000000000       0.50000000000000000        0.0000000000000000     
   1.1250000000000000       0.53125000000000000        0.0000000000000000     
   1.1562500000000000       0.53125000000000000        0.0000000000000000     
   1.1875000000000000       0.53125000000000000        0.0000000000000000     
   1.2187500000000000       0.53125000000000000        0.0000000000000000     
   1.2500000000000000       0.53125000000000000        0.0000000000000000     
   1.1250000000000000       0.56250000000000000        0.0000000000000000     
   1.1562500000000000       0.56250000000000000        0.0000000000000000     
   1.1875000000000000       0.56250000000000000        0.0000000000000000     
   1.2187500000000000       0.56250000000000000        0.0000000000000000     
   1.2500000000000000       0.56250000000000000        0.0000000000000000     
   1.1250000000000000       0.59375000000000000        0.0000000000000000     
   1.1562500000000000       0.59375000000000000        0.0000000000000000     
   1.1875000000000000       0.59375000000000000        0.0000000000000000     
   1.2187500000000000       0.59375000000000000        0.0000000000000000     
   1.2500000000000000       0.59375000000000000        0.0000000000000000     
   1.1250000000000000       0.62500000000000000        0.0000000000000000     
   1.1562500000000000       0.62500000000000000        0.0000000000000000     
   1.1875000000000000       0.62500000000000000        0.0000000000000000     
   1.2187500000000000       0.62500000000000000        0.0000000000000000     
   1.2500000000000000       0.62500000000000000        0.0000000000000000     
   1.2500000000000000       0.50000000000000000        0.0000000000000000     
   1.2812500000000000       0.50000000000000000        0.0000000000000000     
   1.3125000000000000       0.50000000000000000        0.0000000000000000     
   1.3437500000000000       0.50000000000000000        0.0000000000000000     
   1.3750000000000000       0.50000000000000000        0.0000000000000000     
   1.2500000000000000       0.53125000000000000        0.0000000000000000     
   1.2812500000000000       0.53125000000000000        0.0000000000000000     
   1.3125000000000000       0.53125000000000000        0.0000000000000000     
   1.3437500000000000       0.53125000000000000        0.0000000000000000     
   1.3750000000000000       0.53125000000000000        0.0000000000000000     
   1.2500000000000000       0.56250000000000000        0.0000000000000000     
   1.2812500000000000       0.56250000000000000        0.0000000000000000     
   1.3125000000000000       0.56250000000000000        0.0000000000000000     
   1.3437500000000000       0.56250000000000000        0.0000000000000000     
   1.3750000000000000       0.56250000000000000        0.0000000000000000     
   1.2500000000000000       0.59375000000000000        0.0000000000000000     
   1.2812500000000000       0.59375000000000000        0.0000000000000000     
   1.3125000000000000       0.59375000000000000        0.0000000000000000     
   1.3437500000000000       0.59375000000000000        0.0000000000000000     
   1.3750000000000000       0.59375000000000000        0.0000000000000000     
   1.2500000000000000       0.62500000000000000        0.0000000000000000     
   1.2812500000000000       0.62500000000000000        0.0000000000000000     
   1.3125000000000000       0.62500000000000000        0.0000000000000000     
   1.3437500000000000       0.62500000000000000        0.0000000000000000     
   1.3750000000000000       0.62500000000000000        0.0000000000000000     
   1.3750000000000000       0.50000000000000000        0.0000000000000000     
   1.4062500000000000       0.50000000000000000        0.0000000000000000     
   1.4375000000000000       0.50000000000000000        0.0000000000000000     
   1.4687500000000000       0.50000000000000000        0.0000000000000000     
   1.5000000000000000       0.50000000000000000        0.0000000000000000     
   1.3750000000000000       0.53125000000000000        0.0000000000000000     
   1.4062500000000000       0.53125000000000000        0.0000000000000000     
   1.4375000000000000       0.53125000000000000        0.0000000000000000     
   1.4687500000000000       0.53125000000000000        0.0000000000000000     
   1.5000000000000000       0.53125000000000000        0.0000000000000000     
   1.3750000000000000       0.56250000000000000        0.0000000000000000     
   1.4062500000000000       0.56250000000000000        0.0000000000000000     
   1.4375000000000000       0.56250000000000000        0.0000000000000000     
   1.4687500000000000       0.56250000000000000        0.0000000000000000     
   1.5000000000000000       0.56250000000000000        0.0000000000000000     
   1.3750000000000000       0.59375000000000000        0.0000000000000000     
   1.4062500000000000       0.59375000000000000        0.0000000000000000     
   1.4375000000000000       0.59375000000000000        0.0000000000000000     
   1.4687500000000000       0.59375000000000000        0.0000000000000000     
   1.5000000000000000       0.59375000000000000        0.0000000000000000     
   1.3750000000000000       0.62500000000000000        0.0000000000000000     
   1.4062500000000000       0.62500000000000000        0.0000000000000000     
   1.4375000000000000       0.62500000000000000        0.0000000000000000     
   1.4687500000000000       0.62500000000000000        0.0000000000000000     
   1.5000000000000000       0.62500000000000000        0.0000000000000000     
  0.50000000000000000       0.62500000000000000        0.0000000000000000     
  0.53125000000000000       0.62500000000000000        0.0000000000000000     
  0.56250000000000000       0.62500000000000000        0.0000000000000000     
  0.59375000000000000       0.62500000000000000        0.0000000000000000     
  0.62500000000000000       0.62500000000000000        0.0000000000000000     
  0.50000000000000000       0.65625000000000000        0.0000000000000000     
  0.53125000000000000       0.65625000000000000        0.0000000000000000     
  0.56250000000000000       0.65625000000000000        0.0000000000000000     
  0.59375000000000000       0.65625000000000000        0.0000000000000000     
  0.62500000000000000       0.65625000000000000        0.0000000000000000     
  0.50000000000000000       0.68750000000000000        0.0000000000000000     
  0.53125000000000000       0.68750000000000000        0.0000000000000000     
  0.56250000000000000       0.68750000000000000        0.0000000000000000     
  0.59375000000000000       0.68750000000000000        0.0000000000000000     
  0.62500000000000000       0.68750000000000000        0.0000000000000000     
  0.50000000000000000       0.71875000000000000        0.0000000000000000     
  0.53125000000000000       0.71875000000000000        0.0000000000000000     
  0.56250000000000000       0.71875000000000000        0.0000000000000000     
  0.59375000000000000       0.71875000000000000        0.0000000000000000     
  0.62500000000000000       0.71875000000000000        0.0000000000000000     
  0.50000000000000000       0.75000000000000000        0.0000000000000000     
  0.53125000000000000       0.75000000000000000        0.0000000000000000     
  0.56250000000000000       0.75000000000000000        0.0000000000000000     
  0.59375000000000000       0.75000000000000000        0.0000000000000000     
  0.62500000000000000       0.75000000000000000        0.0000000000000000     
  0.62500000000000000       0.62500000000000000        0.0000000000000000     
  0.65625000000000000       0.62500000000000000        0.0000000000000000     
  0.68750000000000000       0.62500000000000000        0.0000000000000000     
  0.71875000000000000       0.62500000000000000        0.0000000000000000     
  0.75000000000000000       0.62500000000000000        0.0000000000000000     
  0.62500000000000000       0.65625000000000000        0.0000000000000000     
  0.65625000000000000       0.65625000000000000        0.0000000000000000     
  0.68750000000000000       0.65625000000000000        0.0000000000000000     
  0.71875000000000000       0.65625000000000000        0.0000000000000000     
  0.75000000000000000       0.65625000000000000        0.0000000000000000     
  0.62500000000000000       0.68750000000000000        0.0000000000000000     
  0.65625000000000000       0.68750000000000000        0.0000000000000000     
  0.68750000000000000       0.68750000000000000        0.0000000000000000     
  0.71875000000000000       0.68750000000000000        0.0000000000000000     
  0.75000000000000000       0.68750000000000000        0.0000000000000000     
  0.62500000000000000       0.71875000000000000        0.0000000000000000     
  0.65625000000000000       0.71875000000000000        0.0000000000000000     
  0.68750000000000000       0.71875000000000000        0.0000000000000000     
  0.71875000000000000       0.71875000000000000        0.0000000000000000     
  0.75000000000000000       0.71875000000000000        0.0000000000000000     
  0.62500000000000000       0.75000000000000000        0.0000000000000000     
  0.65625000000000000       0.75000000000000000        0.0000000000000000     
  0.68750000000000000       0.75000000000000000        0.0000000000000000     
  0.71875000000000000       0.75000000000000000        0.0000000000000000     
  0.75000000000000000       0.75000000000000000        0.0000000000000000     
  0.75000000000000000       0.62500000000000000        0.0000000000000000     
  0.78125000000000000       0.62500000000000000        0.0000000000000000     
  0.81250000000000000       0.62500000000000000        0.0000000000000000     
  0.84375000000000000       0.62500000000000000        0.0000000000000000     
  0.87500000000000000       0.62500000000000000        0.0000000000000000     
  0.75000000000000000       0.65625000000000000        0.0000000000000000     
  0.78125000000000000       0.65625000000000000        0.0000000000000000     
  0.81250000000000000       0.65625000000000000        0.0000000000000000     
  0.84375000000000000       0.65625000000000000        0.0000000000000000     
  0.87500000000000000       0.65625000000000000        0.0000000000000000     
  0.75000000000000000       0.68750000000000000        0.0000000000000000     
  0.78125000000000000       0.68750000000000000        0.0000000000000000     
  0.81250000000000000       0.68750000000000000        0.0000000000000000     
  0.84375000000000000       0.68750000000000000        0.0000000000000000     
  0.87500000000000000       0.68750000000000000        0.0000000000000000     
  0.75000000000000000       0.71875000000000000        0.0000000000000000     
  0.78125000000000000       0.71875000000000000        0.0000000000000000     
  0.81250000000000000       0.71875000000000000        0.0000000000000000     
  0.84375000000000000       0.71875000000000000        0.0000000000000000     
  0.87500000000000000       0.71875000000000000        0.0000000000000000     
  0.75000000000000000       0.75000000000000000        0.0000000000000000     
  0.78125000000000000       0.75000000000000000        0.0000000000000000     
  0.81250000000000000       0.75000000000000000        0.0000000000000000     
  0.84375000000000000       0.75000000000000000        0.0000000000000000     
  0.87500000000000000       0.75000000000000000        0.0000000000000000     
  0.87500000000000000       0.62500000000000000        0.0000000000000000     
  0.90625000000000000       0.62500000000000000        0.0000000000000000     
  0.93750000000000000       0.62500000000000000        0.0000000000000000     
  0.96875000000000000       0.62500000000000000        0.0000000000000000     
   1.0000000000000000       0.62500000000000000        0.0000000000000000     
  0.87500000000000000       0.65625000000000000        0.0000000000000000     
  0.90625000000000000       0.65625000000000000        0.0000000000000000     
  0.93750000000000000       0.65625000000000000        0.0000000000000000     
  0.96875000000000000       0.65625000000000000        0.0000000000000000     
   1.0000000000000000       0.65625000000000000        0.0000000000000000     
  0.87500000000000000       0.68750000000000000        0.0000000000000000     
  0.90625000000000000       0.68750000000000000        0.0000000000000000     
  0.93750000000000000       0.68750000000000000        0.0000000000000000     
  0.96875000000000000       0.68750000000000000        0.0000000000000000     
   1.0000000000000000       0.68750000000000000        0.0000000000000000     
  0.87500000000000000       0.71875000000000000        0.0000000000000000     
  0.90625000000000000       0.71875000000000000        0.0000000000000000     
  0.93750000000000000       0.71875000000000000        0.0000000000000000     
  0.96875000000000000       0.71875000000000000        0.0000000000000000     
   1.0000000000000000       0.71875000000000000        0.0000000000000000     
  0.87500000000000000       0.75000000000000000        0.0000000000000000     
  0.90625000000000000       0.75000000000000000        0.0000000000000000     
  0.93750000000000000       0.75000000000000000        0.0000000000000000     
  0.96875000000000000       0.75000000000000000        0.0000000000000000     
   1.0000000000000000       0.75000000000000000        0.0000000000000000     
   1.0000000000000000       0.62500000000000000        0.0000000000000000     
   1.0312500000000000       0.62500000000000000        0.0000000000000000     
   1.0625000000000000       0.62500000000000000        0.0000000000000000     
   1.0937500000000000       0.62500000000000000        0.0000000000000000     
   1.1250000000000000       0.62500000000000000        0.0000000000000000     
   1.0000000000000000       0.65625000000000000        0.0000000000000000     
   1.0312500000000000       0.65625000000000000        0.0000000000000000     
   1.0625000000000000       0.65625000000000000        0.0000000000000000     
   1.0937500000000000       0.65625000000000000        0.0000000000000000     
   1.1250000000000000       0.65625000000000000        0.0000000000000000     
   1.0000000000000000       0.68750000000000000        0.0000000000000000     
   1.0312500000000000       0.68750000000000000        0.0000000000000000     
   1.0625000000000000       0.68750000000000000        0.0000000000000000     
   1.0937500000000000       0.68750000000000000        0.0000000000000000     
   1.1250000000000000       0.68750000000000000        0.0000000000000000     
   1.0000000000000000       0.71875000000000000        0.0000000000000000     
   1.0312500000000000       0.71875000000000000        0.0000000000000000     
   1.0625000000000000       0.71875000000000000        0.0000000000000000     
   1.0937500000000000       0.71875000000000000        0.0000000000000000     
   1.1250000000000000       0.71875000000000000        0.0000000000000000     
   1.0000000000000000       0.75000000000000000        0.0000000000000000     
   1.0312500000000000       0.75000000000000000        0.0000000000000000     
   1.0625000000000000       0.75000000000000000        0.0000000000000000     
   1.0937500000000000       0.75000000000000000        0.0000000000000000     
   1.1250000000000000       0.75000000000000000        0.0000000000000000     
   1.1250000000000000       0.62500000000000000        0.0000000000000000     
   1.1562500000000000       0.62500000000000000        0.0000000000000000     
   1.1875000000000000       0.62500000000000000        0.0000000000000000     
   1.2187500000000000       0.62500000000000000        0.0000000000000000     
   1.2500000000000000       0.62500000000000000        0.0000000000000000     
   1.1250000000000000       0.65625000000000000        0.0000000000000000     
   1.1562500000000000       0.65625000000000000        0.0000000000000000     
   1.1875000000000000       0.65625000000000000        0.0000000000000000     
   1.2187500000000000       0.65625000000000000        0.0000000000000000     
   1.2500000000000000       0.65625000000000000        0.0000000000000000     
   1.1250000000000000       0.68750000000000000        0.0000000000000000     
   1.1562500000000000       0.68750000000000000        0.0000000000000000     
   1.1875000000000000       0.68750000000000000        0.0000000000000000     
   1.2187500000000000       0.68750000000000000        0.0000000000000000     
   1.2500000000000000       0.68750000000000000        0.0000000000000000     
   1.1250000000000000       0.71875000000000000        0.0000000000000000     
   1.1562500000000000       0.71875000000000000        0.0000000000000000     
   1.1875000000000000       0.71875000000000000        0.0000000000000000     
   1.2187500000000000       0.71875000000000000        0.0000000000000000     
   1.2500000000000000       0.71875000000000000        0.0000000000000000     
   1.1250000000000000       0.75000000000000000        0.0000000000000000     
   1.1562500000000000       0.75000000000000000        0.0000000000000000     
   1.1875000000000000       0.75000000000000000        0.0000000000000000     
   1.2187500000000000       0.75000000000000000        0.0000000000000000     
   1.2500000000000000       0.75000000000000000        0.0000000000000000     
   1.2500000000000000       0.62500000000000000        0.0000000000000000     
   1.2812500000000000       0.62500000000000000        0.0000000000000000     
   1.3125000000000000       0.62500000000000000        0.0000000000000000     
   1.3437500000000000       0.62500000000000000        0.0000000000000000     
   1.3750000000000000       0.62500000000000000        0.0000000000000000     
   1.2500000000000000       0.65625000000000000        0.0000000000000000     
   1.2812500000000000       0.65625000000000000        0.0000000000000000     
   1.3125000000000000       0.65625000000000000        0.0000000000000000     
   1.3437500000000000       0.65625000000000000        0.0000000000000000     
   1.3750000000000000       0.65625000000000000        0.0000000000000000     
   1.2500000000000000       0.68750000000000000        0.0000000000000000     
   1.2812500000000000       0.68750000000000000        0.0000000000000000     
   1.3125000000000000       0.68750000000000000        0.0000000000000000     
   1.3437500000000000       0.68750000000000000        0.0000000000000000     
   1.3750000000000000       0.68750000000000000        0.0000000000000000     
   1.2500000000000000       0.71875000000000000        0.0000000000000000     
   1.2812500000000000       0.71875000000000000        0.0000000000000000     
   1.3125000000000000       0.71875000000000000        0.0000000000000000     
   1.3437500000000000       0.71875000000000000        0.0000000000000000     
   1.3750000000000000       0.71875000000000000        0.0000000000000000     
   1.2500000000000000       0.75000000000000000        0.0000000000000000     
   1.2812500000000000       0.75000000000000000        0.0000000000000000     
   1.3125000000000000       0.75000000000000000        0.0000000000000000     
   1.3437500000000000       0.75000000000000000        0.0000000000000000     
   1.3750000000000000       0.75000000000000000        0.0000000000000000     
   1.3750000000000000       0.62500000000000000        0.0000000000000000     
   1.4062500000000000       0.62500000000000000        0.0000000000000000     
   1.4375000000000000       0.62500000000000000        0.0000000000000000     
   1.4687500000000000       0.62500000000000000        0.0000000000000000     
   1.5000000000000000       0.62500000000000000        0.0000000000000000     
   1.3750000000000000       0.65625000000000000        0.0000000000000000     
   1.4062500000000000       0.65625000000000000        0.0000000000000000     
   1.4375000000000000       0.65625000000000000        0.0000000000000000     
   1.4687500000000000       0.65625000000000000        0.0000000000000000     
   1.5000000000000000       0.65625000000000000        0.0000000000000000     
   1.3750000000000000       0.68750000000000000        0.0000000000000000     
   1.4062500000000000       0.68750000000000000        0.0000000000000000     
   1.4375000000000000       0.68750000000000000        0.0000000000000000     
   1.4687500000000000       0.68750000000000000        0.0000000000000000     
   1.5000000000000000       0.68750000000000000        0.0000000000000000     
   1.3750000000000000       0.71875000000000000        0.0000000000000000     
   1.4062500000000000       0.71875000000000000        0.0000000000000000     
   1.4375000000000000       0.71875000000000000        0.0000000000000000     
   1.4687500000000000       0.71875000000000000        0.0000000000000000     
   1.5000000000000000       0.71875000000000000        0.0000000000000000     
   1.3750000000000000       0.75000000000000000        0.0000000000000000     
   1.4062500000000000       0.75000000000000000        0.0000000000000000     
   1.4375000000000000       0.75000000000000000        0.0000000000000000     
   1.4687500000000000       0.75000000000000000        0.0000000000000000     
   1.5000000000000000       0.75000000000000000        0.0000000000000000     
  0.50000000000000000       0.75000000000000000        0.0000000000000000     
  0.53125000000000000       0.75000000000000000        0.0000000000000000     
  0.56250000000000000       0.75000000000000000        0.0000000000000000     
  0.59375000000000000       0.75000000000000000        0.0000000000000000     
  0.62500000000000000       0.75000000000000000        0.0000000000000000     
  0.50000000000000000       0.78125000000000000        0.0000000000000000     
  0.53125000000000000       0.78125000000000000        0.0000000000000000     
  0.56250000000000000       0.78125000000000000        0.0000000000000000     
  0.59375000000000000       0.78125000000000000        0.0000000000000000     
  0.62500000000000000       0.78125000000000000        0.0000000000000000     
  0.50000000000000000       0.81250000000000000        0.0000000000000000     
  0.53125000000000000       0.81250000000000000        0.0000000000000000     
  0.56250000000000000       0.81250000000000000        0.0000000000000000     
  0.59375000000000000       0.81250000000000000        0.0000000000000000     
  0.62500000000000000       0.81250000000000000        0.0000000000000000     
  0.50000000000000000       0.84375000000000000        0.0000000000000000     
  0.53125000000000000       0.84375000000000000        0.0000000000000000     
  0.56250000000000000       0.84375000000000000        0.0000000000000000     
  0.59375000000000000       0.84375000000000000        0.0000000000000000     
  0.62500000000000000       0.84375000000000000        0.0000000000000000     
  0.50000000000000000       0.87500000000000000        0.0000000000000000     
  0.53125000000000000       0.87500000000000000        0.0000000000000000     
  0.56250000000000000       0.87500000000000000        0.0000000000000000     
  0.59375000000000000       0.87500000000000000        0.0000000000000000     
  0.62500000000000000       0.87500000000000000        0.0000000000000000     
  0.62500000000000000       0.75000000000000000        0.0000000000000000     
  0.65625000000000000       0.75000000000000000        0.0000000000000000     
  0.68750000000000000       0.75000000000000000        0.0000000000000000     
  0.71875000000000000       0.75000000000000000        0.0000000000000000     
  0.75000000000000000       0.75000000000000000        0.0000000000000000     
  0.62500000000000000       0.78125000000000000        0.0000000000000000     
  0.65625000000000000       0.78125000000000000        0.0000000000000000     
  0.68750000000000000       0.78125000000000000        0.0000000000000000     
  0.71875000000000000       0.78125000000000000        0.0000000000000000     
  0.75000000000000000       0.78125000000000000        0.0000000000000000     
  0.62500000000000000       0.81250000000000000        0.0000000000000000     
  0.65625000000000000       0.81250000000000000        0.0000000000000000     
  0.68750000000000000       0.81250000000000000        0.0000000000000000     
  0.71875000000000000       0.81250000000000000        0.0000000000000000     
  0.75000000000000000       0.81250000000000000        0.0000000000000000     
  0.62500000000000000       0.84375000000000000        0.0000000000000000     
  0.65625000000000000       0.84375000000000000        0.0000000000000000     
  0.68750000000000000       0.84375000000000000        0.0000000000000000     
  0.71875000000000000       0.84375000000000000        0.0000000000000000     
  0.75000000000000000       0.84375000000000000        0.0000000000000000     
  0.62500000000000000       0.87500000000000000        0.0000000000000000     
  0.65625000000000000       0.87500000000000000        0.0000000000000000     
  0.68750000000000000       0.87500000000000000        0.0000000000000000     
  0.71875000000000000       0.87500000000000000        0.0000000000000000     
  0.75000000000000000       0.87500000000000000        0.0000000000000000     
  0.75000000000000000       0.75000000000000000        0.0000000000000000     
  0.78125000000000000       0.75000000000000000        0.0000000000000000     
  0.81250000000000000       0.75000000000000000        0.0000000000000000     
  0.84375000000000000       0.75000000000000000        0.0000000000000000     
  0.87500000000000000       0.75000000000000000        0.0000000000000000     
  0.75000000000000000       0.78125000000000000        0.0000000000000000     
  0.78125000000000000       0.78125000000000000        0.0000000000000000     
  0.81250000000000000       0.78125000000000000        0.0000000000000000     
  0.84375000000000000       0.78125000000000000        0.0000000000000000     
  0.87500000000000000       0.78125000000000000        0.0000000000000000     
  0.75000000000000000       0.81250000000000000        0.0000000000000000     
  0.78125000000000000       0.81250000000000000        0.0000000000000000     
  0.81250000000000000       0.81250000000000000        0.0000000000000000     
  0.84375000000000000       0.81250000000000000        0.0000000000000000     
  0.87500000000000000       0.81250000000000000        0.0000000000000000     
  0.75000000000000000       0.84375000000000000        0.0000000000000000     
  0.78125000000000000       0.84375000000000000        0.0000000000000000     
  0.81250000000000000       0.84375000000000000        0.0000000000000000     
  0.84375000000000000       0.84375000000000000        0.0000000000000000     
  0.87500000000000000       0.84375000000000000        0.0000000000000000     
  0.75000000000000000       0.87500000000000000        0.0000000000000000     
  0.78125000000000000       0.87500000000000000        0.0000000000000000     
  0.81250000000000000       0.87500000000000000        0.0000000000000000     
  0.84375000000000000       0.87500000000000000        0.0000000000000000     
  0.87500000000000000       0.87500000000000000        0.0000000000000000     
  0.87500000000000000       0.75000000000000000        0.0000000000000000     
  0.90625000000000000       0.75000000000000000        0.0000000000000000     
  0.93750000000000000       0.75000000000000000        0.0000000000000000     
  0.96875000000000000       0.75000000000000000        0.0000000000000000     
   1.0000000000000000       0.75000000000000000        0.0000000000000000     
  0.87500000000000000       0.78125000000000000        0.0000000000000000     
  0.90625000000000000       0.78125000000000000        0.0000000000000000     
  0.93750000000000000       0.78125000000000000        0.0000000000000000     
  0.96875000000000000       0.78125000000000000        0.0000000000000000     
   1.0000000000000000       0.78125000000000000        0.0000000000000000     
  0.87500000000000000       0.81250000000000000        0.0000000000000000     
  0.90625000000000000       0.81250000000000000        0.0000000000000000     
  0.93750000000000000       0.81250000000000000        0.0000000000000000     
  0.96875000000000000       0.81250000000000000        0.0000000000000000     
   1.0000000000000000       0.81250000000000000        0.0000000000000000     
  0.87500000000000000       0.84375000000000000        0.0000000000000000     
  0.90625000000000000       0.84375000000000000        0.0000000000000000     
  0.93750000000000000       0.84375000000000000        0.0000000000000000     
  0.96875000000000000       0.84375000000000000        0.0000000000000000     
   1.0000000000000000       0.84375000000000000        0.0000000000000000     
  0.87500000000000000       0.87500000000000000        0.0000000000000000     
  0.90625000000000000       0.87500000000000000        0.0000000000000000     
  0.93750000000000000       0.87500000000000000        0.0000000000000000     
  0.96875000000000000       0.87500000000000000        0.0000000000000000     
   1.0000000000000000       0.87500000000000000        0.0000000000000000     
   1.0000000000000000       0.75000000000000000        0.0000000000000000     
   1.0312500000000000       0.75000000000000000        0.0000000000000000     
   1.0625000000000000       0.75000000000000000        0.0000000000000000     
   1.0937500000000000       0.75000000000000000        0.0000000000000000     
   1.1250000000000000       0.75000000000000000        0.0000000000000000     
   1.0000000000000000       0.78125000000000000        0.0000000000000000     
   1.0312500000000000       0.78125000000000000        0.0000000000000000     
   1.0625000000000000       0.78125000000000000        0.0000000000000000     
   1.0937500000000000       0.78125000000000000        0.0000000000000000     
   1.1250000000000000       0.78125000000000000        0.0000000000000000     
   1.0000000000000000       0.81250000000000000        0.0000000000000000     
   1.0312500000000000       0.81250000000000000        0.0000000000000000     
   1.0625000000000000       0.81250000000000000        0.0000000000000000     
   1.0937500000000000       0.81250000000000000        0.0000000000000000     
   1.1250000000000000       0.81250000000000000        0.0000000000000000     
   1.0000000000000000       0.84375000000000000        0.0000000000000000     
   1.0312500000000000       0.84375000000000000        0.0000000000000000     
   1.0625000000000000       0.84375000000000000        0.0000000000000000     
   1.0937500000000000       0.84375000000000000        0.0000000000000000     
   1.1250000000000000       0.84375000000000000        0.0000000000000000     
   1.0000000000000000       0.87500000000000000        0.0000000000000000     
   1.0312500000000000       0.87500000000000000        0.0000000000000000     
   1.0625000000000000       0.87500000000000000        0.0000000000000000     
   1.0937500000000000       0.87500000000000000        0.0000000000000000     
   1.1250000000000000       0.87500000000000000        0.0000000000000000     
   1.1250000000000000       0.75000000000000000        0.0000000000000000     
   1.1562500000000000       0.75000000000000000        0.0000000000000000     
   1.1875000000000000       0.75000000000000000        0.0000000000000000     
   1.2187500000000000       0.75000000000000000        0.0000000000000000     
   1.2500000000000000       0.75000000000000000        0.0000000000000000     
   1.1250000000000000       0.78125000000000000        0.0000000000000000     
   1.1562500000000000       0.78125000000000000        0.0000000000000000     
   1.1875000000000000       0.78125000000000000        0.0000000000000000     
   1.2187500000000000       0.78125000000000000        0.0000000000000000     
   1.2500000000000000       0.78125000000000000        0.0000000000000000     
   1.1250000000000000       0.81250000000000000        0.0000000000000000     
   1.1562500000000000       0.81250000000000000        0.0000000000000000     
   1.1875000000000000       0.81250000000000000        0.0000000000000000     
   1.2187500000000000       0.81250000000000000        0.0000000000000000     
   1.2500000000000000       0.81250000000000000        0.0000000000000000     
   1.1250000000000000       0.84375000000000000        0.0000000000000000     
   1.1562500000000000       0.84375000000000000        0.0000000000000000     
   1.1875000000000000       0.84375000000000000        0.0000000000000000     
   1.2187500000000000       0.84375000000000000        0.0000000000000000     
   1.2500000000000000       0.84375000000000000        0.0000000000000000     
   1.1250000000000000       0.87500000000000000        0.0000000000000000     
   1.1562500000000000       0.87500000000000000        0.0000000000000000     
   1.1875000000000000       0.87500000000000000        0.0000000000000000     
   1.2187500000000000       0.87500000000000000        0.0000000000000000     
   1.2500000000000000       0.87500000000000000        0.0000000000000000     
   1.2500000000000000       0.75000000000000000        0.0000000000000000     
   1.2812500000000000       0.75000000000000000        0.0000000000000000     
   1.3125000000000000       0.75000000000000000        0.0000000000000000     
   1.3437500000000000       0.75000000000000000        0.0000000000000000     
   1.3750000000000000       0.75000000000000000        0.0000000000000000     
   1.2500000000000000       0.78125000000000000        0.0000000000000000     
   1.2812500000000000       0.78125000000000000        0.0000000000000000     
   1.3125000000000000       0.78125000000000000        0.0000000000000000     
   1.3437500000000000       0.78125000000000000        0.0000000000000000     
   1.3750000000000000       0.78125000000000000        0.0000000000000000     
   1.2500000000000000       0.81250000000000000        0.0000000000000000     
   1.2812500000000000       0.81250000000000000        0.0000000000000000     
   1.3125000000000000       0.81250000000000000        0.0000000000000000     
   1.3437500000000000       0.81250000000000000        0.0000000000000000     
   1.3750000000000000       0.81250000000000000        0.0000000000000000     
   1.2500000000000000       0.84375000000000000        0.0000000000000000     
   1.2812500000000000       0.84375000000000000        0.0000000000000000     
   1.3125000000000000       0.84375000000000000        0.0000000000000000     
   1.3437500000000000       0.84375000000000000        0.0000000000000000     
   1.3750000000000000       0.84375000000000000        0.0000000000000000     
   1.2500000000000000       0.87500000000000000        0.0000000000000000     
   1.2812500000000000       0.87500000000000000        0.0000000000000000     
   1.3125000000000000       0.87500000000000000        0.0000000000000000     
   1.3437500000000000       0.87500000000000000        0.0000000000000000     
   1.3750000000000000       0.87500000000000000        0.0000000000000000     
   1.3750000000000000       0.75000000000000000        0.0000000000000000     
   1.4062500000000000       0.75000000000000000        0.0000000000000000     
   1.4375000000000000       0.75000000000000000        0.0000000000000000     
   1.4687500000000000       0.75000000000000000        0.0000000000000000     
   1.5000000000000000       0.75000000000000000        0.0000000000000000     
   1.3750000000000000       0.78125000000000000        0.0000000000000000     
   1.4062500000000000       0.78125000000000000        0.0000000000000000     
   1.4375000000000000       0.78125000000000000        0.0000000000000000     
   1.4687500000000000       0.78125000000000000        0.0000000000000000     
   1.5000000000000000       0.78125000000000000        0.0000000000000000     
   1.3750000000000000       0.81250000000000000        0.0000000000000000     
   1.4062500000000000       0.81250000000000000        0.0000000000000000     
   1.4375000000000000       0.81250000000000000        0.0000000000000000     
   1.4687500000000000       0.81250000000000000        0.0000000000000000     
   1.5000000000000000       0.81250000000000000        0.0000000000000000     
   1.3750000000000000       0.84375000000000000        0.0000000000000000     
   1.4062500000000000       0.84375000000000000        0.0000000000000000     
   1.4375000000000000       0.84375000000000000        0.0000000000000000     
   1.4687500000000000       0.84375000000000000        0.0000000000000000     
   1.5000000000000000       0.84375000000000000        0.0000000000000000     
   1.3750000000000000       0.87500000000000000        0.0000000000000000     
   1.4062500000000000       0.87500000000000000        0.0000000000000000     
   1.4375000000000000       0.87500000000000000        0.0000000000000000     
   1.4687500000000000       0.87500000000000000        0.0000000000000000     
   1.5000000000000000       0.87500000000000000        0.0000000000000000     
  0.50000000000000000       0.87500000000000000        0.0000000000000000     
  0.53125000000000000       0.87500000000000000        0.0000000000000000     
  0.56250000000000000       0.87500000000000000        0.0000000000000000     
  0.59375000000000000       0.87500000000000000        0.0000000000000000     
  0.62500000000000000       0.87500000000000000        0.0000000000000000     
  0.50000000000000000       0.90625000000000000        0.0000000000000000     
  0.53125000000000000       0.90625000000000000        0.0000000000000000     
  0.56250000000000000       0.90625000000000000        0.0000000000000000     
  0.59375000000000000       0.90625000000000000        0.0000000000000000     
  0.62500000000000000       0.90625000000000000        0.0000000000000000     
  0.50000000000000000       0.93750000000000000        0.0000000000000000     
  0.53125000000000000       0.93750000000000000        0.0000000000000000     
  0.56250000000000000       0.93750000000000000        0.0000000000000000     
  0.59375000000000000       0.93750000000000000        0.0000000000000000     
  0.62500000000000000       0.93750000000000000        0.0000000000000000     
  0.50000000000000000       0.96875000000000000        0.0000000000000000     
  0.53125000000000000       0.96875000000000000        0.0000000000000000     
  0.56250000000000000       0.96875000000000000        0.0000000000000000     
  0.59375000000000000       0.96875000000000000        0.0000000000000000     
  0.62500000000000000       0.96875000000000000        0.0000000000000000     
  0.50000000000000000        1.0000000000000000        0.0000000000000000     
  0.53125000000000000        1.0000000000000000        0.0000000000000000     
  0.56250000000000000        1.0000000000000000        0.0000000000000000     
  0.59375000000000000        1.0000000000000000        0.0000000000000000     
  0.62500000000000000        1.0000000000000000        0.0000000000000000     
  0.62500000000000000       0.87500000000000000        0.0000000000000000     
  0.65625000000000000       0.87500000000000000        0.0000000000000000     
  0.68750000000000000       0.87500000000000000        0.0000000000000000     
  0.71875000000000000       0.87500000000000000        0.0000000000000000     
  0.75000000000000000       0.87500000000000000        0.0000000000000000     
  0.62500000000000000       0.90625000000000000        0.0000000000000000     
  0.65625000000000000       0.90625000000000000        0.0000000000000000     
  0.68750000000000000       0.90625000000000000        0.0000000000000000     
  0.71875000000000000       0.90625000000000000        0.0000000000000000     
  0.75000000000000000       0.90625000000000000        0.0000000000000000     
  0.62500000000000000       0.93750000000000000        0.0000000000000000     
  0.65625000000000000       0.93750000000000000        0.0000000000000000     
  0.68750000000000000       0.93750000000000000        0.0000000000000000     
  0.71875000000000000       0.93750000000000000        0.0000000000000000     
  0.75000000000000000       0.93750000000000000        0.0000000000000000     
  0.62500000000000000       0.96875000000000000        0.0000000000000000     
  0.65625000000000000       0.96875000000000000        0.0000000000000000     
  0.68750000000000000       0.96875000000000000        0.0000000000000000     
  0.71875000000000000       0.96875000000000000        0.0000000000000000     
  0.75000000000000000       0.96875000000000000        0.0000000000000000     
  0.62500000000000000        1.0000000000000000        0.0000000000000000     
  0.65625000000000000        1.0000000000000000        0.0000000000000000     
  0.68750000000000000        1.0000000000000000        0.0000000000000000     
  0.71875000000000000        1.0000000000000000        0.0000000000000000     
  0.75000000000000000        1.0000000000000000        0.0000000000000000     
  0.75000000000000000       0.87500000000000000        0.0000000000000000     
  0.78125000000000000       0.87500000000000000        0.0000000000000000     
  0.81250000000000000       0.87500000000000000        0.0000000000000000     
  0.84375000000000000       0.87500000000000000        0.0000000000000000     
  0.87500000000000000       0.87500000000000000        0.0000000000000000     
  0.75000000000000000       0.90625000000000000        0.0000000000000000     
  0.78125000000000000       0.90625000000000000        0.0000000000000000     
  0.81250000000000000       0.90625000000000000        0.0000000000000000     
  0.84375000000000000       0.90625000000000000        0.0000000000000000     
  0.87500000000000000       0.90625000000000000        0.0000000000000000     
  0.75000000000000000       0.93750000000000000        0.0000000000000000     
  0.78125000000000000       0.93750000000000000        0.0000000000000000     
  0.81250000000000000       0.93750000000000000        0.0000000000000000     
  0.84375000000000000       0.93750000000000000        0.0000000000000000     
  0.87500000000000000       0.93750000000000000        0.0000000000000000     
  0.75000000000000000       0.96875000000000000        0.0000000000000000     
  0.78125000000000000       0.96875000000000000        0.0000000000000000     
  0.81250000000000000       0.96875000000000000        0.0000000000000000     
  0.84375000000000000       0.96875000000000000        0.0000000000000000     
  0.87500000000000000       0.96875000000000000        0.0000000000000000     
  0.75000000000000000        1.0000000000000000        0.0000000000000000     
  0.78125000000000000        1.0000000000000000        0.0000000000000000     
  0.81250000000000000        1.0000000000000000        0.0000000000000000     
  0.84375000000000000        1.0000000000000000        0.0000000000000000     
  0.87500000000000000        1.0000000000000000        0.0000000000000000     
  0.87500000000000000       0.87500000000000000        0.0000000000000000     
  0.90625000000000000       0.87500000000000000        0.0000000000000000     
  0.93750000000000000       0.87500000000000000        0.0000000000000000     
  0.96875000000000000       0.87500000000000000        0.0000000000000000     
   1.0000000000000000       0.87500000000000000        0.0000000000000000     
  0.87500000000000000       0.90625000000000000        0.0000000000000000     
  0.90625000000000000       0.90625000000000000        0.0000000000000000     
  0.93750000000000000       0.90625000000000000        0.0000000000000000     
  0.96875000000000000       0.90625000000000000        0.0000000000000000     
   1.0000000000000000       0.90625000000000000        0.0000000000000000     
  0.87500000000000000       0.93750000000000000        0.0000000000000000     
  0.90625000000000000       0.93750000000000000        0.0000000000000000     
  0.93750000000000000       0.93750000000000000        0.0000000000000000     
  0.96875000000000000       0.93750000000000000        0.0000000000000000     
   1.0000000000000000       0.93750000000000000        0.0000000000000000     
  0.87500000000000000       0.96875000000000000        0.0000000000000000     
  0.90625000000000000       0.96875000000000000        0.0000000000000000     
  0.93750000000000000       0.96875000000000000        0.0000000000000000     
  0.96875000000000000       0.96875000000000000        0.0000000000000000     
   1.0000000000000000       0.96875000000000000        0.0000000000000000     
  0.87500000000000000        1.0000000000000000        0.0000000000000000     
  0.90625000000000000        1.0000000000000000        0.0000000000000000     
  0.93750000000000000        1.0000000000000000        0.0000000000000000     
  0.96875000000000000        1.0000000000000000        0.0000000000000000     
   1.0000000000000000        1.0000000000000000        0.0000000000000000     
   1.0000000000000000       0.87500000000000000        0.0000000000000000     
   1.0312500000000000       0.87500000000000000        0.0000000000000000     
   1.0625000000000000       0.87500000000000000        0.0000000000000000     
   1.0937500000000000       0.87500000000000000        0.0000000000000000     
   1.1250000000000000       0.87500000000000000        0.0000000000000000     
   1.0000000000000000       0.90625000000000000        0.0000000000000000     
   1.0312500000000000       0.90625000000000000        0.0000000000000000     
   1.0625000000000000       0.90625000000000000        0.0000000000000000     
   1.0937500000000000       0.90625000000000000        0.0000000000000000     
   1.1250000000000000       0.90625000000000000        0.0000000000000000     
   1.0000000000000000       0.93750000000000000        0.0000000000000000     
   1.0312500000000000       0.93750000000000000        0.0000000000000000     
   1.0625000000000000       0.93750000000000000        0.0000000000000000     
   1.0937500000000000       0.93750000000000000        0.0000000000000000     
   1.1250000000000000       0.93750000000000000        0.0000000000000000     
   1.0000000000000000       0.96875000000000000        0.0000000000000000     
   1.0312500000000000       0.96875000000000000        0.0000000000000000     
   1.0625000000000000       0.96875000000000000        0.0000000000000000     
   1.0937500000000000       0.96875000000000000        0.0000000000000000     
   1.1250000000000000       0.96875000000000000        0.0000000000000000     
   1.0000000000000000        1.0000000000000000        0.0000000000000000     
   1.0312500000000000        1.0000000000000000        0.0000000000000000     
   1.0625000000000000        1.0000000000000000        0.0000000000000000     
   1.0937500000000000        1.0000000000000000        0.0000000000000000     
   1.1250000000000000        1.0000000000000000        0.0000000000000000     
   1.1250000000000000       0.87500000000000000        0.0000000000000000     
   1.1562500000000000       0.87500000000000000        0.0000000000000000     
   1.1875000000000000       0.87500000000000000        0.0000000000000000     
   1.2187500000000000       0.87500000000000000        0.0000000000000000     
   1.2500000000000000       0.87500000000000000        0.0000000000000000     
   1.1250000000000000       0.90625000000000000        0.0000000000000000     
   1.1562500000000000       0.90625000000000000        0.0000000000000000     
   1.1875000000000000       0.90625000000000000        0.0000000000000000     
   1.2187500000000000       0.90625000000000000        0.0000000000000000     
   1.2500000000000000       0.90625000000000000        0.0000000000000000     
   1.1250000000000000       0.93750000000000000        0.0000000000000000     
   1.1562500000000000       0.93750000000000000        0.0000000000000000     
   1.1875000000000000       0.93750000000000000        0.0000000000000000     
   1.2187500000000000       0.93750000000000000        0.0000000000000000     
   1.2500000000000000       0.93750000000000000        0.0000000000000000     
   1.1250000000000000       0.96875000000000000        0.0000000000000000     
   1.1562500000000000       0.96875000000000000        0.0000000000000000     
   1.1875000000000000       0.96875000000000000        0.0000000000000000     
   1.2187500000000000       0.96875000000000000        0.0000000000000000     
   1.2500000000000000       0.96875000000000000        0.0000000000000000     
   1.1250000000000000        1.0000000000000000        0.0000000000000000     
   1.1562500000000000        1.0000000000000000        0.0000000000000000     
   1.1875000000000000        1.0000000000000000        0.0000000000000000     
   1.2187500000000000        1.0000000000000000        0.0000000000000000     
   1.2500000000000000        1.0000000000000000        0.0000000000000000     
   1.2500000000000000       0.87500000000000000        0.0000000000000000     
   1.2812500000000000       0.87500000000000000        0.0000000000000000     
   1.3125000000000000       0.87500000000000000        0.0000000000000000     
   1.3437500000000000       0.87500000000000000        0.0000000000000000     
   1.3750000000000000       0.87500000000000000        0.0000000000000000     
   1.2500000000000000       0.90625000000000000        0.0000000000000000     
   1.2812500000000000       0.90625000000000000        0.0000000000000000     
   1.3125000000000000       0.90625000000000000        0.0000000000000000     
   1.3437500000000000       0.90625000000000000        0.0000000000000000     
   1.3750000000000000       0.90625000000000000        0.0000000000000000     
   1.2500000000000000       0.93750000000000000        0.0000000000000000     
   1.2812500000000000       0.93750000000000000        0.0000000000000000     
   1.3125000000000000       0.93750000000000000        0.0000000000000000     
   1.3437500000000000       0.93750000000000000        0.0000000000000000     
   1.3750000000000000       0.93750000000000000        0.0000000000000000     
   1.2500000000000000       0.96875000000000000        0.0000000000000000     
   1.2812500000000000       0.96875000000000000        0.0000000000000000     
   1.3125000000000000       0.96875000000000000        0.0000000000000000     
   1.3437500000000000       0.96875000000000000        0.0000000000000000     
   1.3750000000000000       0.96875000000000000        0.0000000000000000     
   1.2500000000000000        1.0000000000000000        0.0000000000000000     
   1.2812500000000000        1.0000000000000000        0.0000000000000000     
   1.3125000000000000        1.0000000000000000        0.0000000000000000     
   1.3437500000000000        1.0000000000000000        0.0000000000000000     
   1.3750000000000000        1.0000000000000000        0.0000000000000000     
   1.3750000000000000       0.87500000000000000        0.0000000000000000     
   1.4062500000000000       0.87500000000000000        0.0000000000000000     
   1.4375000000000000       0.87500000000000000        0.0000000000000000     
   1.4687500000000000       0.87500000000000000        0.0000000000000000     
   1.5000000000000000       0.87500000000000000        0.0000000000000000     
   1.3750000000000000       0.90625000000000000        0.0000000000000000     
   1.4062500000000000       0.90625000000000000        0.0000000000000000     
   1.4375000000000000       0.90625000000000000        0.0000000000000000     
   1.4687500000000000       0.90625000000000000        0.0000000000000000     
   1.5000000000000000       0.90625000000000000        0.0000000000000000     
   1.3750000000000000       0.93750000000000000        0.0000000000000000     
   1.4062500000000000       0.93750000000000000        0.0000000000000000     
   1.4375000000000000       0.93750000000000000        0.0000000000000000     
   1.4687500000000000       0.93750000000000000        0.0000000000000000     
   1.5000000000000000       0.93750000000000000        0.0000000000000000     
   1.3750000000000000       0.96875000000000000        0.0000000000000000     
   1.4062500000000000       0.96875000000000000        0.0000000000000000     
   1.4375000000000000       0.96875000000000000        0.0000000000000000     
   1.4687500000000000       0.96875000000000000        0.0000000000000000     
   1.5000000000000000       0.96875000000000000        0.0000000000000000     
   1.3750000000000000        1.0000000000000000        0.0000000000000000     
   1.4062500000000000        1.0000000000000000        0.0000000000000000     
   1.4375000000000000        1.0000000000000000        0.0000000000000000     
   1.4687500000000000        1.0000000000000000        0.0000000000000000     
   1.5000000000000000        1.0000000000000000        0.0000000000000000     
 </DataArray>
 </Points>
 <Cells>
 <DataArray  type="Int32"  Name="connectivity"  format="ascii">
           0           1           6           5
           1           2           7           6
           2           3           8           7
           3           4           9           8
           5           6          11          10
           6           7          12          11
           7           8          13          12
           8           9          14          13
          10          11          16          15
          11          12          17          16
          12          13          18          17
          13          14          19          18
          15          16          21          20
          16          17          22          21
          17          18          23          22
          18          19          24          23
          25          26          31          30
          26          27          32          31
          27          28          33          32
          28          29          34          33
          30          31          36          35
          31          32          37          36
          32          33          38          37
          33          34          39          38
          35          36          41          40
          36          37          42          41
          37          38          43          42
          38          39          44          43
          40          41          46          45
          41          42          47          46
          42          43          48          47
          43          44          49          48
          50          51          56          55
          51          52          57          56
          52          53          58          57
          53          54          59          58
          55          56          61          60
          56          57          62          61
          57          58          63          62
          58          59          64          63
          60          61          66          65
          61          62          67          66
          62          63          68          67
          63          64          69          68
          65          66          71          70
          66          67          72          71
          67          68          73          72
          68          69          74          73
          75          76          81          80
          76          77          82          81
          77          78          83          82
          78          79          84          83
          80          81          86          85
          81          82          87          86
          82          83          88          87
          83          84          89          88
          85          86          91          90
          86          87          92          91
          87          88          93          92
          88          89          94          93
          90          91          96          95
          91          92          97          96
          92          93          98          97
          93          94          99          98
         100         101         106         105
         101         102         107         106
         102         103         108         107
         103         104         109         108
         105         106         111         110
         106         107         112         111
         107         108         113         112
         108         109         114         113
         110         111         116         115
         111         112         117         116
         112         113         118         117
         113         114         119         118
         115         116         121         120
         116         117         122         121
         117         118         123         122
         118         119         124         123
         125         126         131         130
         126         127         132         131
         127         128         133         132
         128         129         134         133
         130         131         136         135
         131         132         137         136
         132         133         138         137
         133         134         139         138
         135         136         141         140
         136         137         142         141
         137         138         143         142
         138         139         144         143
         140         141         146         145
         141         142         147         146
         142         143         148         147
         143         144         149         148
         150         151         156         155
         151         152         157         156
         152         153         158         157
         153         154         159         158
         155         156         161         160
         156         157         162         161
         157         158         163         162
         158         159         164         163
         160         161         166         165
         161         162         167         166
         162         163         168         167
         163         164         169         168
         165         166         171         170
         166         167         172         171
         167         168         173         172
         168         169         174         173
         175         176         181         180
         176         177         182         181
         177         178         183         182
         178         179         184         183
         180         181         186         185
         181         182         187         186
         182         183         188         187
         183         184         189         188
         185         186         191         190
         186         187         192         191
         187         188         193         192
         188         189         194         193
         190         191         196         195
         191         192         197         196
         192         193         198         197
         193         194         199         198
         200         201         206         205
         201         202         207         206
         202         203         208         207
         203         204         209         208
         205         206         211         210
         206         207         212         211
         207         208         213         212
         208         209         214         213
         210         211         216         215
         211         212         217         216
         212         213         218         217
         213         214         219         218
         215         216         221         220
         216         217         222         221
         217         218         223         222
         218         219         224         223
         225         226         231         230
         226         227         232         231
         227         228         233         232
         228         229         234         233
         230         231         236         235
         231         232         237         236
         232         233         238         237
         233         234         239         238
         235         236         241         240
         236         237         242         241
         237         238         243         242
         238         239         244         243
         240         241         246         245
         241         242         247         246
         242         243         248         247
         243         244         249         248
         250         251         256         255
         251         252         257         256
         252         253         258         257
         253         254         259         258
         255         256         261         260
         256         257         262         261
         257         258         263         262
         258         259         264         263
         260         261         266         265
         261         262         267         266
         262         263         268         267
         263         264         269         268
         265         266         271         270
         266         267         272         271
         267         268         273         272
         268         269         274         273
         275         276         281         280
         276         277         282         281
         277         278         283         282
         278         279         284         283
         280         281         286         285
         281         282         287         286
         282         283         288         287
         283         284         289         288
         285         286         291         290
         286         287         292         291
         287         288         293         292
         288         289         294         293
         290         291         296         295
         291         292         297         296
         292         293         298         297
         293         294         299         298
         300         301         306         305
         301         302         307         306
         302         303         308         307
         303         304         309         308
         305         306         311         310
         306         307         312         311
         307         308         313         312
         308         309         314         313
         310         311         316         315
         311         312         317         316
         312         313         318         317
         313         314         319         318
         315         316         321         320
         316         317         322         321
         317         318         323         322
         318         319         324         323
         325         326         331         330
         326         327         332         331
         327         328         333         332
         328         329         334         333
         330         331         336         335
         331         332         337         336
         332         333         338         337
         333         334         339         338
         335         336         341         340
         336         337         342         341
         337         338         343         342
         338         339         344         343
         340         341         346         345
         341         342         347         346
         342         343         348         347
         343         344         349         348
         350         351         356         355
         351         352         357         356
         352         353         358         357
         353         354         359         358
         355         356         361         360
         356         357         362         361
         357         358         363         362
         358         359         364         363
         360         361         366         365
         361         362         367         366
         362         363         368         367
         363         364         369         368
         365         366         371         370
         366         367         372         371
         367         368         373         372
         368         369         374         373
         375         376         381         380
         376         377         382         381
         377         378         383         382
         378         379         384         383
         380         381         386         385
         381         382         387         386
         382         383         388         387
         383         384         389         388
         385         386         391         390
         386         387         392         391
         387         388         393         392
         388         389         394         393
         390         391         396         395
         391         392         397         396
         392         393         398         397
         393         394         399         398
         400         401         406         405
         401         402         407         406
         402         403         408         407
         403         404         409         408
         405         406         411         410
         406         407         412         411
         407         408         413         412
         408         409         414         413
         410         411         416         415
         411         412         417         416
         412         413         418         417
         413         414         419         418
         415         416         421         420
         416         417         422         421
         417         418         423         422
         418         419         424         423
         425         426         431         430
         426         427         432         431
         427         428         433         432
         428         429         434         433
         430         431         436         435
         431         432         437         436
         432         433         438         437
         433         434         439         438
         435         436         441         440
         436         437         442         441
         437         438         443         442
         438         439         444         443
         440         441         446         445
         441         442         447         446
         442         443         448         447
         443         444         449         448
         450         451         456         455
         451         452         457         456
         452         453         458         457
         453         454         459         458
         455         456         461         460
         456         457         462         461
         457         458         463         462
         458         459         464         463
         460         461         466         465
         461         462         467         466
         462         463         468         467
         463         464         469         468
         465         466         471         470
         466         467         472         471
         467         468         473         472
         468         469         474         473
         475         476         481         480
         476         477         482         481
         477         478         483         482
         478         479         484         483
         480         481         486         485
         481         482         487         486
         482         483         488         487
         483         484         489         488
         485         486         491         490
         486         487         492         491
         487         488         493         492
         488         489         494         493
         490         491         496         495
         491         492         497         496
         492         493         498         497
         493         494         499         498
         500         501         506         505
         501         502         507         506
         502         503         508         507
         503         504         509         508
         505         506         511         510
         506         507         512         511
         507         508         513         512
         508         509         514         513
         510         511         516         515
         511         512         517         516
         512         513         518         517
         513         514         519         518
         515         516         521         520
         516         517         522         521
         517         518         523         522
         518         519         524         523
         525         526         531         530
         526         527         532         531
         527         528         533         532
         528         529         534         533
         530         531         536         535
         531         532         537         536
         532         533         538         537
         533         534         539         538
         535         536         541         540
         536         537         542         541
         537         538         543         542
         538         539         544         543
         540         541         546         545
         541         542         547         546
         542         543         548         547
         543         544         549         548
         550         551         556         555
         551         552         557         556
         552         553         558         557
         553         554         559         558
         555         556         561         560
         556         557         562         561
         557         558         563         562
         558         559         564         563
         560         561         566         565
         561         562         567         566
         562         563         568         567
         563         564         569         568
         565         566         571         570
         566         567         572         571
         567         568         573         572
         568         569         574         573
         575         576         581         580
         576         577         582         581
         577         578         583         582
         578         579         584         583
         580         581         586         585
         581         582         587         586
         582         583         588         587
         583         584         589         588
         585         586         591         590
         586         587         592         591
         587         588         593         592
         588         589         594         593
         590         591         596         595
         591         592         597         596
         592         593         598         597
         593         594         599         598
         600         601         606         605
         601         602         607         606
         602         603         608         607
         603         604         609         608
         605         606         611         610
         606         607         612         611
         607         608         613         612
         608         609         614         613
         610         611         616         615
         611         612         617         616
         612         613         618         617
         613         614         619         618
         615         616         621         620
         616         617         622         621
         617         618         623         622
         618         619         624         623
         625         626         631         630
         626         627         632         631
         627         628         633         632
         628         629         634         633
         630         631         636         635
         631         632         637         636
         632         633         638         637
         633         634         639         638
         635         636         641         640
         636         637         642         641
         637         638         643         642
         638         639         644         643
         640         641         646         645
         641         642         647         646
         642         643         648         647
         643         644         649         648
         650         651         656         655
         651         652         657         656
         652         653         658         657
         653         654         659         658
         655         656         661         660
         656         657         662         661
         657         658         663         662
         658         659         664         663
         660         661         666         665
         661         662         667         666
         662         663         668         667
         663         664         669         668
         665         666         671         670
         666         667         672         671
         667         668         673         672
         668         669         674         673
         675         676         681         680
         676         677         682         681
         677         678         683         682
         678         679         684         683
         680         681         686         685
         681         682         687         686
         682         683         688         687
         683         684         689         688
         685         686         691         690
         686         687         692         691
         687         688         693         692
         688         689         694         693
         690         691         696         695
         691         692         697         696
         692         693         698         697
         693         694         699         698
         700         701         706         705
         701         702         707         706
         702         703         708         707
         703         704         709         708
         705         706         711         710
         706         707         712         711
         707         708         713         712
         708         709         714         713
         710         711         716         715
         711         712         717         716
         712         713         718         717
         713         714         719         718
         715         716         721         720
         716         717         722         721
         717         718         723         722
         718         719         724         723
         725         726         731         730
         726         727         732         731
         727         728         733         732
         728         729         734         733
         730         731         736         735
         731         732         737         736
         732         733         738         737
         733         734         739         738
         735         736         741         740
         736         737         742         741
         737         738         743         742
         738         739         744         743
         740         741         746         745
         741         742         747         746
         742         743         748         747
         743         744         749         748
         750         751         756         755
         751         752         757         756
         752         753         758         757
         753         754         759         758
         755         756         761         760
         756         757         762         761
         757         758         763         762
         758         759         764         763
         760         761         766         765
         761         762         767         766
         762         763         768         767
         763         764         769         768
         765         766         771         770
         766         767         772         771
         767         768         773         772
         768         769         774         773
         775         776         781         780
         776         777         782         781
         777         778         783         782
         778         779         784         783
         780         781         786         785
         781         782         787         786
         782         783         788         787
         783         784         789         788
         785         786         791         790
         786         787         792         791
         787         788         793         792
         788         789         794         793
         790         791         796         795
         791         792         797         796
         792         793         798         797
         793         794         799         798
         800         801         806         805
         801         802         807         806
         802         803         808         807
         803         804         809         808
         805         806         811         810
         806         807         812         811
         807         808         813         812
         808         809         814         813
         810         811         816         815
         811         812         817         816
         812         813         818         817
         813         814         819         818
         815         816         821         820
         816         817         822         821
         817         818         823         822
         818         819         824         823
         825         826         831         830
         826         827         832         831
         827         828         833         832
         828         829         834         833
         830         831         836         835
         831         832         837         836
         832         833         838         837
         833         834         839         838
         835         836         841         840
         836         837         842         841
         837         838         843         842
         838         839         844         843
         840         841         846         845
         841         842         847         846
         842         843         848         847
         843         844         849         848
         850         851         856         855
         851         852         857         856
         852         853         858         857
         853         854         859         858
         855         856         861         860
         856         857         862         861
         857         858         863         862
         858         859         864         863
         860         861         866         865
         861         862         867         866
         862         863         868         867
         863         864         869         868
         865         866         871         870
         866         867         872         871
         867         868         873         872
         868         869         874         873
         875         876         881         880
         876         877         882         881
         877         878         883         882
         878         879         884         883
         880         881         886         885
         881         882         887         886
         882         883         888         887
         883         884         889         888
         885         886         891         890
         886         887         892         891
         887         888         893         892
         888         889         894         893
         890         891         896         895
         891         892         897         896
         892         893         898         897
         893         894         899         898
         900         901         906         905
         901         902         907         906
         902         903         908         907
         903         904         909         908
         905         906         911         910
         906         907         912         911
         907         908         913         912
         908         909         914         913
         910         911         916         915
         911         912         917         916
         912         913         918         917
         913         914         919         918
         915         916         921         920
         916         917         922         921
         917         918         923         922
         918         919         924         923
         925         926         931         930
         926         927         932         931
         927         928         933         932
         928         929         934         933
         930         931         936         935
         931         932         937         936
         932         933         938         937
         933         934         939         938
         935         936         941         940
         936         937         942         941
         937         938         943         942
         938         939         944         943
         940         941         946         945
         941         942         947         946
         942         943         948         947
         943         944         949         948
         950         951         956         955
         951         952         957         956
         952         953         958         957
         953         954         959         958
         955         956         961         960
         956         957         962         961
         957         958         963         962
         958         959         964         963
         960         961         966         965
         961         962         967         966
         962         963         968         967
         963         964         969         968
         965         966         971         970
         966         967         972         971
         967         968         973         972
         968         969         974         973
         975         976         981         980
         976         977         982         981
         977         978         983         982
         978         979         984         983
         980         981         986         985
         981         982         987         986
         982         983         988         987
         983         984         989         988
         985         986         991         990
         986         987         992         991
         987         988         993         992
         988         989         994         993
         990         991         996         995
         991         992         997         996
         992         993         998         997
         993         994         999         998
        1000        1001        1006        1005
        1001        1002        1007        1006
        1002        1003        1008        1007
        1003        1004        1009        1008
        1005        1006        1011        1010
        1006        1007        1012        1011
        1007        1008        1013        1012
        1008        1009        1014        1013
        1010        1011        1016        1015
        1011        1012        1017        1016
        1012        1013        1018        1017
        1013        1014        1019        1018
        1015        1016        1021        1020
        1016        1017        1022        1021
        1017        1018        1023        1022
        1018        1019        1024        1023
        1025        1026        1031        1030
        1026        1027        1032        1031
        1027        1028        1033        1032
        1028        1029        1034        1033
        1030        1031        1036        1035
        1031        1032        1037        1036
        1032        1033        1038        1037
        1033        1034        1039        1038
        1035        1036        1041        1040
        1036        1037        1042        1041
        1037        1038        1043        1042
        1038        1039        1044        1043
        1040        1041        1046        1045
        1041        1042        1047        1046
        1042        1043        1048        1047
        1043        1044        1049        1048
        1050        1051        1056        1055
        1051        1052        1057        1056
        1052        1053        1058        1057
        1053        1054        1059        1058
        1055        1056        1061        1060
        1056        1057        1062        1061
        1057        1058        1063        1062
        1058        1059        1064        1063
        1060        1061        1066        1065
        1061        1062        1067        1066
        1062        1063        1068        1067
        1063        1064        1069        1068
        1065        1066        1071        1070
        1066        1067        1072        1071
        1067        1068        1073        1072
        1068        1069        1074        1073
        1075        1076        1081        1080
        1076        1077        1082        1081
        1077        1078        1083        1082
        1078        1079        1084        1083
        1080        1081        1086        1085
        1081        1082        1087        1086
        1082        1083        1088        1087
        1083        1084        1089        1088
        1085        1086        1091        1090
        1086        1087        1092        1091
        1087        1088        1093        1092
        1088        1089        1094        1093
        1090        1091        1096        1095
        1091        1092        1097        1096
        1092        1093        1098        1097
        1093        1094        1099        1098
        1100        1101        1106        1105
        1101        1102        1107        1106
        1102        1103        1108        1107
        1103        1104        1109        1108
        1105        1106        1111        1110
        1106        1107        1112        1111
        1107        1108        1113        1112
        1108        1109        1114        1113
        1110        1111        1116        1115
        1111        1112        1117        1116
        1112        1113        1118        1117
        1113        1114        1119        1118
        1115        1116        1121        1120
        1116        1117        1122        1121
        1117        1118        1123        1122
        1118        1119        1124        1123
        1125        1126        1131        1130
        1126        1127        1132        1131
        1127        1128        1133        1132
        1128        1129        1134        1133
        1130        1131        1136        1135
        1131        1132        1137        1136
        1132        1133        1138        1137
        1133        1134        1139        1138
        1135        1136        1141        1140
        1136        1137        1142        1141
        1137        1138        1143        1142
        1138        1139        1144        1143
        1140        1141        1146        1145
        1141        1142        1147        1146
        1142        1143        1148        1147
        1143        1144        1149        1148
        1150        1151        1156        1155
        1151        1152        1157        1156
        1152        1153        1158        1157
        1153        1154        1159        1158
        1155        1156        1161        1160
        1156        1157        1162        1161
        1157        1158        1163        1162
        1158        1159        1164        1163
        1160        1161        1166        1165
        1161        1162        1167        1166
        1162        1163        1168        1167
        1163        1164        1169        1168
        1165        1166        1171        1170
        1166        1167        1172        1171
        1167        1168        1173        1172
        1168        1169        1174        1173
        1175        1176        1181        1180
        1176        1177        1182        1181
        1177        1178        1183        1182
        1178        1179        1184        1183
        1180        1181        1186        1185
        1181        1182        1187        1186
        1182        1183        1188        1187
        1183        1184        1189        1188
        1185        1186        1191        1190
        1186        1187        1192        1191
        1187        1188        1193        1192
        1188        1189        1194        1193
        1190        1191        1196        1195
        1191        1192        1197        1196
        1192        1193        1198        1197
        1193        1194        1199        1198
        1200        1201        1206        1205
        1201        1202        1207        1206
        1202        1203        1208        1207
        1203        1204        1209        1208
        1205        1206        1211        1210
        1206        1207        1212        1211
        1207        1208        1213        1212
        1208        1209        1214        1213
        1210        1211        1216        1215
        1211        1212        1217        1216
        1212        1213        1218        1217
        1213        1214        1219        1218
        1215        1216        1221        1220
        1216        1217        1222        1221
        1217        1218        1223        1222
        1218        1219        1224        1223
        1225        1226        1231        1230
        1226        1227        1232        1231
        1227        1228        1233        1232
        1228        1229        1234        1233
        1230        1231        1236        1235
        1231        1232        1237        1236
        1232        1233        1238        1237
        1233        1234        1239        1238
        1235        1236        1241        1240
        1236        1237        1242        1241
        1237        1238        1243        1242
        1238        1239        1244        1243
        1240        1241        1246        1245
        1241        1242        1247        1246
        1242        1243        1248        1247
        1243        1244        1249        1248
        1250        1251        1256        1255
        1251        1252        1257        1256
        1252        1253        1258        1257
        1253        1254        1259        1258
        1255        1256        1261        1260
        1256        1257        1262        1261
        1257        1258        1263        1262
        1258        1259        1264        1263
        1260        1261        1266        1265
        1261        1262        1267        1266
        1262        1263        1268        1267
        1263        1264        1269        1268
        1265        1266        1271        1270
        1266        1267        1272        1271
        1267        1268        1273        1272
        1268        1269        1274        1273
        1275        1276        1281        1280
        1276        1277        1282        1281
        1277        1278        1283        1282
        1278        1279        1284        1283
        1280        1281        1286        1285
        1281        1282        1287        1286
        1282        1283        1288        1287
        1283        1284        1289        1288
        1285        1286        1291        1290
        1286        1287        1292        1291
        1287        1288        1293        1292
        1288        1289        1294        1293
        1290        1291        1296        1295
        1291        1292        1297        1296
        1292        1293        1298        1297
        1293        1294        1299        1298
        1300        1301        1306        1305
        1301        1302        1307        1306
        1302        1303        1308        1307
        1303        1304        1309        1308
        1305        1306        1311        1310
        1306        1307        1312        1311
        1307        1308        1313        1312
        1308        1309        1314        1313
        1310        1311        1316        1315
        1311        1312        1317        1316
        1312        1313        1318        1317
        1313        1314        1319        1318
        1315        1316        1321        1320
        1316        1317        1322        1321
        1317        1318        1323        1322
        1318        1319        1324        1323
        1325        1326        1331        1330
        1326        1327        1332        1331
        1327        1328        1333        1332
        1328        1329        1334        1333
        1330        1331        1336        1335
        1331        1332        1337        1336
        1332        1333        1338        1337
        1333        1334        1339        1338
        1335        1336        1341        1340
        1336        1337        1342        1341
        1337        1338        1343        1342
        1338        1339        1344        1343
        1340        1341        1346        1345
        1341        1342        1347        1346
        1342        1343        1348        1347
        1343        1344        1349        1348
        1350        1351        1356        1355
        1351        1352        1357        1356
        1352        1353        1358        1357
        1353        1354        1359        1358
        1355        1356        1361        1360
        1356        1357        1362        1361
        1357        1358        1363        1362
        1358        1359        1364        1363
        1360        1361        1366        1365
        1361        1362        1367        1366
        1362        1363        1368        1367
        1363        1364        1369        1368
        1365        1366        1371        1370
        1366        1367        1372        1371
        1367        1368        1373        1372
        1368        1369        1374        1373
        1375        1376        1381        1380
        1376        1377        1382        1381
        1377        1378        1383        1382
        1378        1379        1384        1383
        1380        1381        1386        1385
        1381        1382        1387        1386
        1382        1383        1388        1387
        1383        1384        1389        1388
        1385        1386        1391        1390
        1386        1387        1392        1391
        1387        1388        1393        1392
        1388        1389        1394        1393
        1390        1391        1396        1395
        1391        1392        1397        1396
        1392        1393        1398        1397
        1393        1394        1399        1398
        1400        1401        1406        1405
        1401        1402        1407        1406
        1402        1403        1408        1407
        1403        1404        1409        1408
        1405        1406        1411        1410
        1406        1407        1412        1411
        1407        1408        1413        1412
        1408        1409        1414        1413
        1410        1411        1416        1415
        1411        1412        1417        1416
        1412        1413        1418        1417
        1413        1414        1419        1418
        1415        1416        1421        1420
        1416        1417        1422        1421
        1417        1418        1423        1422
        1418        1419        1424        1423
        1425        1426        1431        1430
        1426        1427        1432        1431
        1427        1428        1433        1432
        1428        1429        1434        1433
        1430        1431        1436        1435
        1431        1432        1437        1436
        1432        1433        1438        1437
        1433        1434        1439        1438
        1435        1436        1441        1440
        1436        1437        1442        1441
        1437        1438        1443        1442
        1438        1439        1444        1443
        1440        1441        1446        1445
        1441        1442        1447        1446
        1442        1443        1448        1447
        1443        1444        1449        1448
        1450        1451        1456        1455
        1451        1452        1457        1456
        1452        1453        1458        1457
        1453        1454        1459        1458
        1455        1456        1461        1460
        1456        1457        1462        1461
        1457        1458        1463        1462
        1458        1459        1464        1463
        1460        1461        1466        1465
        1461        1462        1467        1466
        1462        1463        1468        1467
        1463        1464        1469        1468
        1465        1466        1471        1470
        1466        1467        1472        1471
        1467        1468        1473        1472
        1468        1469        1474        1473
        1475        1476        1481        1480
        1476        1477        1482        1481
        1477        1478        1483        1482
        1478        1479        1484        1483
        1480        1481        1486        1485
        1481        1482        1487        1486
        1482        1483        1488        1487
        1483        1484        1489        1488
        1485        1486        1491        1490
        1486        1487        1492        1491
        1487        1488        1493        1492
        1488        1489        1494        1493
        1490        1491        1496        1495
        1491        1492        1497        1496
        1492        1493        1498        1497
        1493        1494        1499        1498
        1500        1501        1506        1505
        1501        1502        1507        1506
        1502        1503        1508        1507
        1503        1504        1509        1508
        1505        1506        1511        1510
        1506        1507        1512        1511
        1507        1508        1513        1512
        1508        1509        1514        1513
        1510        1511        1516        1515
        1511        1512        1517        1516
        1512        1513        1518        1517
        1513        1514        1519        1518
        1515        1516        1521        1520
        1516        1517        1522        1521
        1517        1518        1523        1522
        1518        1519        1524        1523
        1525        1526        1531        1530
        1526        1527        1532        1531
        1527        1528        1533        1532
        1528        1529        1534        1533
        1530        1531        1536        1535
        1531        1532        1537        1536
        1532        1533        1538        1537
        1533        1534        1539        1538
        1535        1536        1541        1540
        1536        1537        1542        1541
        1537        1538        1543        1542
        1538        1539        1544        1543
        1540        1541        1546        1545
        1541        1542        1547        1546
        1542        1543        1548        1547
        1543        1544        1549        1548
        1550        1551        1556        1555
        1551        1552        1557        1556
        1552        1553        1558        1557
        1553        1554        1559        1558
        1555        1556        1561        1560
        1556        1557        1562        1561
        1557        1558        1563        1562
        1558        1559        1564        1563
        1560        1561        1566        1565
        1561        1562        1567        1566
        1562        1563        1568        1567
        1563        1564        1569        1568
        1565        1566        1571        1570
        1566        1567        1572        1571
        1567        1568        1573        1572
        1568        1569        1574        1573
        1575        1576        1581        1580
        1576        1577        1582        1581
        1577        1578        1583        1582
        1578        1579        1584        1583
        1580        1581        1586        1585
        1581        1582        1587        1586
        1582        1583        1588        1587
        1583        1584        1589        1588
        1585        1586        1591        1590
        1586        1587        1592        1591
        1587        1588        1593        1592
        1588        1589        1594        1593
        1590        1591        1596        1595
        1591        1592        1597        1596
        1592        1593        1598        1597
        1593        1594        1599        1598
 </DataArray>
 <DataArray  type="Int32"  Name="offsets"  format="ascii"> 
           4
           8
          12
          16
          20
          24
          28
          32
          36
          40
          44
          48
          52
          56
          60
          64
          68
          72
          76
          80
          84
          88
          92
          96
         100
         104
         108
         112
         116
         120
         124
         128
         132
         136
         140
         144
         148
         152
         156
         160
         164
         168
         172
         176
         180
         184
         188
         192
         196
         200
         204
         208
         212
         216
         220
         224
         228
         232
         236
         240
         244
         248
         252
         256
         260
         264
         268
         272
         276
         280
         284
         288
         292
         296
         300
         304
         308
         312
         316
         320
         324
         328
         332
         336
         340
         344
         348
         352
         356
         360
         364
         368
         372
         376
         380
         384
         388
         392
         396
         400
         404
         408
         412
         416
         420
         424
         428
         432
         436
         440
         444
         448
         452
         456
         460
         464
         468
         472
         476
         480
         484
         488
         492
         496
         500
         504
         508
         512
         516
         520
         524
         528
         532
         536
         540
         544
         548
         552
         556
         560
         564
         568
         572
         576
         580
         584
         588
         592
         596
         600
         604
         608
         612
         616
         620
         624
         628
         632
         636
         640
         644
         648
         652
         656
         660
         664
         668
         672
         676
         680
         684
         688
         692
         696
         700
         704
         708
         712
         716
         720
         724
         728
         732
         736
         740
         744
         748
         752
         756
         760
         764
         768
         772
         776
         780
         784
         788
         792
         796
         800
         804
         808
         812
         816
         820
         824
         828
         832
         836
         840
         844
         848
         852
         856
         860
         864
         868
         872
         876
         880
         884
         888
         892
         896
         900
         904
         908
         912
         916
         920
         924
         928
         932
         936
         940
         944
         948
         952
         956
         960
         964
         968
         972
         976
         980
         984
         988
         992
         996
        1000
        1004
        1008
        1012
        1016
        1020
        1024
        1028
        1032
        1036
        1040
        1044
        1048
        1052
        1056
        1060
        1064
        1068
        1072
        1076
        1080
        1084
        1088
        1092
        1096
        1100
        1104
        1108
        1112
        1116
        1120
        1124
        1128
        1132
        1136
        1140
        1144
        1148
        1152
        1156
        1160
        1164
        1168
        1172
        1176
        1180
        1184
        1188
        1192
        1196
        1200
        1204
        1208
        1212
        1216
        1220
        1224
        1228
        1232
        1236
        1240
        1244
        1248
        1252
        1256
        1260
        1264
        1268
        1272
        1276
        1280
        1284
        1288
        1292
        1296
        1300
        1304
        1308
        1312
        1316
        1320
        1324
        1328
        1332
        1336
        1340
        1344
        1348
        1352
        1356
        1360
        1364
        1368
        1372
        1376
        1380
        1384
        1388
        1392
        1396
        1400
        1404
        1408
        1412
        1416
        1420
        1424
        1428
        1432
        1436
        1440
        1444
        1448
        1452
        1456
        1460
        1464
        1468
        1472
        1476
        1480
        1484
        1488
        1492
        1496
        1500
        1504
        1508
        1512
        1516
        1520
        1524
        1528
        1532
        1536
        1540
        1544
        1548
        1552
        1556
        1560
        1564
        1568
        1572
        1576
        1580
        1584
        1588
        1592
        1596
        1600
        1604
        1608
        1612
        1616
        1620
        1624
        1628
        1632
        1636
        1640
        1644
        1648
        1652
        1656
        1660
        1664
        1668
        1672
        1676
        1680
        1684
        1688
        1692
        1696
        1700
        1704
        1708
        1712
        1716
        1720
        1724
        1728
        1732
        1736
        1740
        1744
        1748
        1752
        1756
        1760
        1764
        1768
        1772
        1776
        1780
        1784
        1788
        1792
        1796
        1800
        1804
        1808
        1812
        1816
        1820
        1824
        1828
        1832
        1836
        1840
        1844
        1848
        1852
        1856
        1860
        1864
        1868
        1872
        1876
        1880
        1884
        1888
        1892
        1896
        1900
        1904
        1908
        1912
        1916
        1920
        1924
        1928
        1932
        1936
        1940
        1944
        1948
        1952
        1956
        1960
        1964
        1968
        1972
        1976
        1980
        1984
        1988
        1992
        1996
        2000
        2004
        2008
        2012
        2016
        2020
        2024
        2028
        2032
        2036
        2040
        2044
        2048
        2052
        2056
        2060
        2064
        2068
        2072
        2076
        2080
        2084
        2088
        2092
        2096
        2100
        2104
        2108
        2112
        2116
        2120
        2124
        2128
        2132
        2136
        2140
        2144
        2148
        2152
        2156
        2160
        2164
        2168
        2172
        2176
        2180
        2184
        2188
        2192
        2196
        2200
        2204
        2208
        2212
        2216
        2220
        2224
        2228
        2232
        2236
        2240
        2244
        2248
        2252
        2256
        2260
        2264
        2268
        2272
        2276
        2280
        2284
        2288
        2292
        2296
        2300
        2304
        2308
        2312
        2316
        2320
        2324
        2328
        2332
        2336
        2340
        2344
        2348
        2352
        2356
        2360
        2364
        2368
        2372
        2376
        2380
        2384
        2388
        2392
        2396
        2400
        2404
        2408
        2412
        2416
        2420
        2424
        2428
        2432
        2436
        2440
        2444
        2448
        2452
        2456
        2460
        2464
        2468
        2472
        2476
        2480
        2484
        2488
        2492
        2496
        2500
        2504
        2508
        2512
        2516
        2520
        2524
        2528
        2532
        2536
        2540
        2544
        2548
        2552
        2556
        2560
        2564
        2568
        2572
        2576
        2580
        2584
        2588
        2592
        2596
        2600
        2604
        2608
        2612
        2616
        2620
        2624
        2628
        2632
        2636
        2640
        2644
        2648
        2652
        2656
        2660
        2664
        2668
        2672
        2676
        2680
        2684
        2688
        2692
        2696
        2700
        2704
        2708
        2712
        2716
        2720
        2724
        2728
        2732
        2736
        2740
        2744
        2748
        2752
        2756
        2760
        2764
        2768
        2772
        2776
        2780
        2784
        2788
        2792
        2796
        2800
        2804
        2808
        2812
        2816
        2820
        2824
        2828
        2832
        2836
        2840
        2844
        2848
        2852
        2856
        2860
        2864
        2868
        2872
        2876
        2880
        2884
        2888
        2892
        2896
        2900
        2904
        2908
        2912
        2916
        2920
        2924
        2928
        2932
        2936
        2940
        2944
        2948
        2952
        2956
        2960
        2964
        2968
        2972
        2976
        2980
        2984
        2988
        2992
        2996
        3000
        3004
        3008
        3012
        3016
        3020
        3024
        3028
        3032
        3036
        3040
        3044
        3048
        3052
        3056
        3060
        3064
        3068
        3072
        3076
        3080
        3084
        3088
        3092
        3096
        3100
        3104
        3108
        3112
        3116
        3120
        3124
        3128
        3132
        3136
        3140
        3144
        3148
        3152
        3156
        3160
        3164
        3168
        3172
        3176
        3180
        3184
        3188
        3192
        3196
        3200
        3204
        3208
        3212
        3216
        3220
        3224
        3228
        3232
        3236
        3240
        3244
        3248
        3252
        3256
        3260
        3264
        3268
        3272
        3276
        3280
        3284
        3288
        3292
        3296
        3300
        3304
        3308
        3312
        3316
        3320
        3324
        3328
        3332
        3336
        3340
        3344
        3348
        3352
        3356
        3360
        3364
        3368
        3372
        3376
        3380
        3384
        3388
        3392
        3396
        3400
        3404
        3408
        3412
        3416
        3420
        3424
        3428
        3432
        3436
        3440
        3444
        3448
        3452
        3456
        3460
        3464
        3468
        3472
        3476
        3480
        3484
        3488
        3492
        3496
        3500
        3504
        3508
        3512
        3516
        3520
        3524
        3528
        3532
        3536
        3540
        3544
        3548
        3552
        3556
        3560
        3564
        3568
        3572
        3576
        3580
        3584
        3588
        3592
        3596
        3600
        3604
        3608
        3612
        3616
        3620
        3624
        3628
        3632
        3636
        3640
        3644
        3648
        3652
        3656
        3660
        3664
        3668
        3672
        3676
        3680
        3684
        3688
        3692
        3696
        3700
        3704
        3708
        3712
        3716
        3720
        3724
        3728
        3732
        3736
        3740
        3744
        3748
        3752
        3756
        3760
        3764
        3768
        3772
        3776
        3780
        3784
        3788
        3792
        3796
        3800
        3804
        3808
        3812
        3816
        3820
        3824
        3828
        3832
        3836
        3840
        3844
        3848
        3852
        3856
        3860
        3864
        3868
        3872
        3876
        3880
        3884
        3888
        3892
        3896
        3900
        3904
        3908
        3912
        3916
        3920
        3924
        3928
        3932
        3936
        3940
        3944
        3948
        3952
        3956
        3960
        3964
        3968
        3972
        3976
        3980
        3984
        3988
        3992
        3996
        4000
        4004
        4008
        4012
        4016
        4020
        4024
        4028
        4032
        4036
        4040
        4044
        4048
        4052
        4056
        4060
        4064
        4068
        4072
        4076
        4080
        4084
        4088
        4092
        4096
 </DataArray>
 <DataArray  type="UInt8"  Name="types"  format="ascii">
 9
 9
 9
 9
 9
 9
 9
 9
 9
 9
 9
 9
 9
 9
 9
 9
 9
 9
 9
 9
 9
 9
 9
 9
 9
 9
 9
 9
 9
 9
 9
 9
 9
 9
 9
 9
 9
 9
 9
 9
 9
 9
 9
 9
 9
 9
 9
 9
 9
 9
 9
 9
 9
 9
 9
 9
 9
 9
 9
 9
 9
 9
 9
 9
 9
 9
 9
 9
 9
 9
 9
 9
 9
 9
 9
 9
 9
 9
 9
 9
 9
 9
 9
 9
 9
 9
 9
 9
 9
 9
 9
 9
 9
 9
 9
 9
 9
 9
 9
 9
 9
 9
 9
 9
 9
 9
 9
 9
 9
 9
 9
 9
 9
 9
 9
 9
 9
 9
 9
 9
 9
 9
 9
 9
 9
 9
 9
 9
 9
 9
 9
 9
 9
 9
 9
 9
 9
 9
 9
 9
 9
 9
 9
 9
 9
 9
 9
 9
 9
 9
 9
 9
 9
 9
 9
 9
 9
 9
 9
 9
 9
 9
 9
 9
 9
 9
 9
 9
 9
 9
 9
 9
 9
 9
 9
 9
 9
 9
 9
 9
 9
 9
 9
 9
 9
 9
 9
 9
 9
 9
 9
 9
 9
 9
 9
 9
 9
 9
 9
 9
 9
 9
 9
 9
 9
 9
 9
 9
 9
 9
 9
 9
 9
 9
 9
 9
 9
 9
 9
 9
 9
 9
 9
 9
 9
 9
 9
 9
 9
 9
 9
 9
 9
 9
 9
 9
 9
 9
 9
 9
 9
 9
 9
 9
 9
 9
 9
 9
 9
 9
 9
 9
 9
 9
 9
 9
 9
 9
 9
 9
 9
 9
 9
 9
 9
 9
 9
 9
 9
 9
 9
 9
 9
 9
 9
 9
 9
 9
 9
 9
 9
 9
 9
 9
 9
 9
 9
 9
 9
 9
 9
 9
 9
 9
 9
 9
 9
 9
 9
 9
 9
 9
 9
 9
 9
 9
 9
 9
 9
 9
 9
 9
 9
 9
 9
 9
 9
 9
 9
 9
 9
 9
 9
 9
 9
 9
 9
 9
 9
 9
 9
 9
 9
 9
 9
 9
 9
 9
 9
 9
 9
 9
 9
 9
 9
 9
 9
 9
 9
 9
 9
 9
 9
 9
 9
 9
 9
 9
 9
 9
 9
 9
 9
 9
 9
 9
 9
 9
 9
 9
 9
 9
 9
 9
 9
 9
 9
 9
 9
 9
 9
 9
 9
 9
 9
 9
 9
 9
 9
 9
 9
 9
 9
 9
 9
 9
 9
 9
 9
 9
 9
 9
 9
 9
 9
 9
 9
 9
 9
 9
 9
 9
 9
 9
 9
 9
 9
 9
 9
 9
 9
 9
 9
 9
 9
 9
 9
 9
 9
 9
 9
 9
 9
 9
 9
 9
 9
 9
 9
 9
 9
 9
 9
 9
 9
 9
 9
 9
 9
 9
 9
 9
 9
 9
 9
 9
 9
 9
 9
 9
 9
 9
 9
 9
 9
 9
 9
 9
 9
 9
 9
 9
 9
 9
 9
 9
 9
 9
 9
 9
 9
 9
 9
 9
 9
 9
 9
 9
 9
 9
 9
 9
 9
 9
 9
 9
 9
 9
 9
 9
 9
 9
 9
 9
 9
 9
 9
 9
 9
 9
 9
 9
 9
 9
 9
 9
 9
 9
 9
 9
 9
 9
 9
 9
 9
 9
 9
 9
 9
 9
 9
 9
 9
 9
 9
 9
 9
 9
 9
 9
 9
 9
 9
 9
 9
 9
 9
 9
 9
 9
 9
 9
 9
 9
 9
 9
 9
 9
 9
 9
 9
 9
 9
 9
 9
 9
 9
 9
 9
 9
 9
 9
 9
 9
 9
 9
 9
 9
 9
 9
 9
 9
 9
 9
 9
 9
 9
 9
 9
 9
 9
 9
 9
 9
 9
 9
 9
 9
 9
 9
 9
 9
 9
 9
 9
 9
 9
 9
 9
 9
 9
 9
 9
 9
 9
 9
 9
 9
 9
 9
 9
 9
 9
 9
 9
 9
 9
 9
 9
 9
 9
 9
 9
 9
 9
 9
 9
 9
 9
 9
 9
 9
 9
 9
 9
 9
 9
 9
 9
 9
 9
 9
 9
 9
 9
 9
 9
 9
 9
 9
 9
 9
 9
 9
 9
 9
 9
 9
 9
 9
 9
 9
 9
 9
 9
 9
 9
 9
 9
 9
 9
 9
 9
 9
 9
 9
 9
 9
 9
 9
 9
 9
 9
 9
 9
 9
 9
 9
 9
 9
 9
 9
 9
 9
 9
 9
 9
 9
 9
 9
 9
 9
 9
 9
 9
 9
 9
 9
 9
 9
 9
 9
 9
 9
 9
 9
 9
 9
 9
 9
 9
 9
 9
 9
 9
 9
 9
 9
 9
 9
 9
 9
 9
 9
 9
 9
 9
 9
 9
 9
 9
 9
 9
 9
 9
 9
 9
 9
 9
 9
 9
 9
 9
 9
 9
 9
 9
 9
 9
 9
 9
 9
 9
 9
 9
 9
 9
 9
 9
 9
 9
 9
 9
 9
 9
 9
 9
 9
 9
 9
 9
 9
 9
 9
 9
 9
 9
 9
 9
 9
 9
 9
 9
 9
 9
 9
 9
 9
 9
 9
 9
 9
 9
 9
 9
 9
 9
 9
 9
 9
 9
 9
 9
 9
 9
 9
 9
 9
 9
 9
 9
 9
 9
 9
 9
 9
 9
 9
 9
 9
 9
 9
 9
 9
 9
 9
 9
 9
 9
 9
 9
 9
 9
 9
 9
 9
 9
 9
 9
 9
 9
 9
 9
 9
 9
 9
 9
 9
 9
 9
 9
 9
 9
 9
 9
 9
 9
 9
 9
 9
 9
 9
 9
 9
 9
 9
 9
 9
 9
 9
 9
 9
 9
 9
 9
 9
 9
 9
 9
 9
 9
 9
 9
 9
 9
 9
 9
 9
 9
 9
 9
 9
 9
 9
 9
 9
 9
 9
 9
 9
 9
 9
 9
 9
 9
 9
 9
 9
 9
 9
 9
 9
 9
 9
 9
 9
 9
 9
 9
 9
 9
 9
 9
 9
 9
 9
 9
 9
 9
 9
 9
 9
 9
 9
 9
 9
 9
 9
 9
 9
 9
 9
 9
 9
 9
 9
 9
 9
 9
 9
 9
 9
 9
 9
 9
 9
 9
 9
 9
 9
 9
 9
 9
 9
 9
 9
 9
 9
 9
 9
 9
 9
 9
 9
 9
 9
 9
 9
 9
 9
 9
 9
 9
 9
 9
 9
 9
 9
 9
 9
 9
 9
 9
 9
 9
 9
 9
 9
 9
 9
 9
 9
 9
 9
 </DataArray>
 </Cells> 
 <PointData>
 <DataArray  type="Float64" Name="disp" NumberOfComponents="3" format="ascii">
   6.5375357338238849E-002   6.2801820958097263E-002   0.0000000000000000     
   6.8447763985431606E-002   6.8201783112818451E-002   0.0000000000000000     
   7.1419572227992972E-002   7.3778640677106933E-002   0.0000000000000000     
   7.4290782065922933E-002   7.9532393650962735E-002   0.0000000000000000     
   7.7061393499221531E-002   8.5463042034385844E-002   0.0000000000000000     
   6.0183462872861401E-002   6.1903683614856701E-002   0.0000000000000000     
   6.3073780482998471E-002   6.7324390164753639E-002   0.0000000000000000     
   6.5865830933529129E-002   7.2924709117124065E-002   0.0000000000000000     
   6.8559614224453391E-002   7.8704640471967957E-002   0.0000000000000000     
   7.1155130355771229E-002   8.4664184229285372E-002   0.0000000000000000     
   5.5196062765259443E-002   6.1056213012865068E-002   0.0000000000000000     
   5.7898154802852854E-002   6.6501406284421125E-002   0.0000000000000000     
   6.0507441957388240E-002   7.2127051226461888E-002   0.0000000000000000     
   6.3023924228865630E-002   7.7933147838987402E-002   0.0000000000000000     
   6.5447601617284995E-002   8.3919696121997622E-002   0.0000000000000000     
   5.0413157015432954E-002   6.0259409152122363E-002   0.0000000000000000     
   5.2920886944994736E-002   6.5732831471820921E-002   0.0000000000000000     
   5.5344405299570298E-002   7.1385667005120487E-002   0.0000000000000000     
   5.7683712079159656E-002   7.7217915752021055E-002   0.0000000000000000     
   5.9938807283762809E-002   8.3229577712522637E-002   0.0000000000000000     
   4.5834745623381953E-002   5.9513272032628600E-002   0.0000000000000000     
   4.8141976909424122E-002   6.5018665726953015E-002   0.0000000000000000     
   5.0376720960075297E-002   7.0700556453099778E-002   0.0000000000000000     
   5.2538977775335491E-002   7.6558944211068916E-002   0.0000000000000000     
   5.4628747355204690E-002   8.2593829000860389E-002   0.0000000000000000     
   7.7061393499221531E-002   8.5463042034385844E-002   0.0000000000000000     
   7.9737259620035347E-002   9.1562108732165526E-002   0.0000000000000000     
   8.2324233520511061E-002   9.7821116649091044E-002   0.0000000000000000     
   8.4822315200648660E-002  0.10424006578516239        0.0000000000000000     
   8.7231504660448128E-002  0.11081895614037959        0.0000000000000000     
   7.1155130355771229E-002   8.4664184229285372E-002   0.0000000000000000     
   7.3661081398844142E-002   9.0793029054551708E-002   0.0000000000000000     
   7.6086169425033642E-002   9.7080863613242391E-002   0.0000000000000000     
   7.8430394434339731E-002  0.10352768790535745        0.0000000000000000     
   8.0693756426762381E-002  0.11013350193089685        0.0000000000000000     
   6.5447601617284995E-002   8.3919696121997622E-002   0.0000000000000000     
   6.7787366511003450E-002   9.0075716655189417E-002   0.0000000000000000     
   7.0052111298378142E-002   9.6390230018259568E-002   0.0000000000000000     
   7.2241835979409044E-002  0.10286323621120810        0.0000000000000000     
   7.4356540554096143E-002  0.10949473523403502        0.0000000000000000     
   5.9938807283762809E-002   8.3229577712522637E-002   0.0000000000000000     
   6.2116114956513271E-002   8.9410171534078695E-002   0.0000000000000000     
   6.4222059140544532E-002   9.5749215864142589E-002   0.0000000000000000     
   6.6256639835856571E-002  0.10224671070271439        0.0000000000000000     
   6.8219857042449442E-002  0.10890265604979404        0.0000000000000000     
   5.4628747355204690E-002   8.2593829000860389E-002   0.0000000000000000     
   5.6647326735373572E-002   8.8796393691219472E-002   0.0000000000000000     
   5.8596012951532800E-002   9.5157821150891428E-002   0.0000000000000000     
   6.0474806003682345E-002  0.10167811137987627        0.0000000000000000     
   6.2283705891822250E-002  0.10835726437817397        0.0000000000000000     
   8.7231504660448128E-002  0.11081895614037959        0.0000000000000000     
   8.9544553630228355E-002  0.11754331869841374        0.0000000000000000     
   9.1754213840308158E-002  0.12439868444293596        0.0000000000000000     
   9.3860485290687606E-002  0.13138505337394624        0.0000000000000000     
   9.5863367981366618E-002  0.13850242549144456        0.0000000000000000     
   8.0693756426762381E-002  0.11013350193089685        0.0000000000000000     
   8.2867409673335612E-002  0.11688475089713489        0.0000000000000000     
   8.4942508445093379E-002  0.12376788001134574        0.0000000000000000     
   8.6919052742035721E-002  0.13078288927352946        0.0000000000000000     
   8.8797042564162612E-002  0.13792977868368606        0.0000000000000000     
   7.4356540554096143E-002  0.10949473523403502        0.0000000000000000     
   7.6387372522617875E-002  0.11627164735066574        0.0000000000000000     
   7.8325479385152538E-002  0.12318089282502574        0.0000000000000000     
   8.0170861141700175E-002  0.13022247165711504        0.0000000000000000     
   8.1923517792260744E-002  0.13739638384693359        0.0000000000000000     
   6.8219857042449442E-002  0.10890265604979404        0.0000000000000000     
   7.0104442178075113E-002  0.11570400805900632        0.0000000000000000     
   7.1903126660485622E-002  0.12263772288397595        0.0000000000000000     
   7.3615910489680927E-002  0.12970380052470290        0.0000000000000000     
   7.5242793665661056E-002  0.13690224098118720        0.0000000000000000     
   6.2283705891822250E-002  0.10835726437817397        0.0000000000000000     
   6.4018618639707370E-002  0.11518183302215663        0.0000000000000000     
   6.5675450271092631E-002  0.12213837018819633        0.0000000000000000     
   6.7254200785978005E-002  0.12922687587629303        0.0000000000000000     
   6.8754870184363492E-002  0.13644735008644679        0.0000000000000000     
   9.5863367981366618E-002  0.13850242549144456        0.0000000000000000     
   9.7769775434274120E-002  0.14574052132066659        0.0000000000000000     
   9.9586621171338971E-002  0.15308906138684786        0.0000000000000000     
  0.10131390519256118       0.16054804568998851        0.0000000000000000     
  0.10295162749794073       0.16811747423008844        0.0000000000000000     
   8.8797042564162612E-002  0.13792977868368606        0.0000000000000000     
   9.0583929029144278E-002  0.14519711726498979        0.0000000000000000     
   9.2287163254650945E-002  0.15257347404061503        0.0000000000000000     
   9.3906745240682571E-002  0.16005884901056167        0.0000000000000000     
   9.5442674987239198E-002  0.16765324217482988        0.0000000000000000     
   8.1923517792260744E-002  0.13739638384693359        0.0000000000000000     
   8.3590533663243316E-002  0.14469062464904975        0.0000000000000000     
   8.5178993081056795E-002  0.15209318931803187        0.0000000000000000     
   8.6688896045701264E-002  0.15960407785387989        0.0000000000000000     
   8.8120242557176640E-002  0.16722329025659385        0.0000000000000000     
   7.5242793665661056E-002  0.13690224098118720        0.0000000000000000     
   7.6789589336571207E-002  0.14422104347284645        0.0000000000000000     
   7.8262110650556604E-002  0.15164820721909844        0.0000000000000000     
   7.9660357607617222E-002  0.15918373221994306        0.0000000000000000     
   8.0984330207753072E-002  0.16682761847538036        0.0000000000000000     
   6.8754870184363492E-002  0.13644735008644679        0.0000000000000000     
   7.0181096049127978E-002  0.14378837373637990        0.0000000000000000     
   7.1536515963150318E-002  0.15123852774381469        0.0000000000000000     
   7.2821129926430486E-002  0.15879781210875121        0.0000000000000000     
   7.4034937938968509E-002  0.16646622683118945        0.0000000000000000     
  0.10295162749794073       0.16811747423008844        0.0000000000000000     
  0.10450151905207057       0.17578681196397986        0.0000000000000000     
  0.10596531081954355       0.18354552384849507        0.0000000000000000     
  0.10734300280035974       0.19139360988363399        0.0000000000000000     
  0.10863459499451908       0.19933107006939671        0.0000000000000000     
   9.5442674987239198E-002  0.16765324217482988        0.0000000000000000     
   9.6894522339936381E-002  0.17534731371942988        0.0000000000000000     
   9.8261857144389689E-002  0.18313172383037210        0.0000000000000000     
   9.9544679400599120E-002  0.19100647250765648        0.0000000000000000     
  0.10074298910856472       0.19897155975128317        0.0000000000000000     
   8.8120242557176640E-002  0.16722329025659385        0.0000000000000000     
   8.9471259939949296E-002  0.17494204533442848        0.0000000000000000     
   9.0740175518485539E-002  0.18275156189563835        0.0000000000000000     
   9.1926989292785338E-002  0.19065183994022367        0.0000000000000000     
   9.3031701262848765E-002  0.19864287946818432        0.0000000000000000     
   8.0984330207753072E-002  0.16682761847538036        0.0000000000000000     
   8.2231731852109316E-002  0.17457100680897558        0.0000000000000000     
   8.3400265941831073E-002  0.18240503804429400        0.0000000000000000     
   8.4489932476918383E-002  0.19032971218133554        0.0000000000000000     
   8.5500731457371221E-002  0.19834502922010017        0.0000000000000000     
   7.4034937938968509E-002  0.16646622683118945        0.0000000000000000     
   7.5175938076416426E-002  0.17423419814307128        0.0000000000000000     
   7.6242128414426347E-002  0.18209215227633882        0.0000000000000000     
   7.7233508952998242E-002  0.19004008923099200        0.0000000000000000     
   7.8150079692132113E-002  0.19807800900703082        0.0000000000000000     
  0.10863459499451908       0.19933107006939671        0.0000000000000000     
  0.10984525045130478       0.20735415207768593        0.0000000000000000     
  0.11098013221999996       0.21545910358040454        0.0000000000000000     
  0.11203924030060466       0.22364592457755250        0.0000000000000000     
  0.11302257469311887       0.23191461506912980        0.0000000000000000     
  0.10074298910856472       0.19897155975128317        0.0000000000000000     
  0.10186232813487350       0.20702058847637544        0.0000000000000000     
  0.10290823834611264       0.21514716159805683        0.0000000000000000     
  0.10388071974228211       0.22335127911632729        0.0000000000000000     
  0.10477977232338193       0.23163294103118687        0.0000000000000000     
   9.3031701262848765E-002  0.19864287946818432        0.0000000000000000     
   9.4059226755944983E-002  0.20671680408406437        0.0000000000000000     
   9.5014481099343323E-002  0.21486573739240783        0.0000000000000000     
   9.5897464293043730E-002  0.22308967939321478        0.0000000000000000     
   9.6708176337046273E-002  0.23138863008648514        0.0000000000000000     
   8.5500731457371221E-002  0.19834502922010017        0.0000000000000000     
   8.6435946314519202E-002  0.20644279890075276        0.0000000000000000     
   8.7298860479691986E-002  0.21461483096345765        0.0000000000000000     
   8.8089473952889560E-002  0.22286112540821496        0.0000000000000000     
   8.8807786734111896E-002  0.23118168223502472        0.0000000000000000     
   7.8150079692132113E-002  0.19807800900703082        0.0000000000000000     
   7.8992486810596202E-002  0.20619857292644045        0.0000000000000000     
   7.9761376487158656E-002  0.21439444231120611        0.0000000000000000     
   8.0456748721819571E-002  0.22266561716132785        0.0000000000000000     
   8.1078603514578851E-002  0.23101209747680565        0.0000000000000000     
  0.11302257469311887       0.23191461506912980        0.0000000000000000     
  0.11395838143819656       0.24028157326926219        0.0000000000000000     
  0.11487490657649171       0.24876319739207536        0.0000000000000000     
  0.11577215010800432       0.25735948743756926        0.0000000000000000     
  0.11665011203273437       0.26607044340574393        0.0000000000000000     
  0.10477977232338193       0.23163294103118687        0.0000000000000000     
  0.10561040856399614       0.24001555255837753        0.0000000000000000     
  0.10637764093870887       0.24852251891364133        0.0000000000000000     
  0.10708146944752012       0.25715384009697828        0.0000000000000000     
  0.10772189409042986       0.26590951610838842        0.0000000000000000     
   9.6708176337046273E-002  0.23138863008648514        0.0000000000000000     
   9.7437408091883601E-002  0.23978902380213835        0.0000000000000000     
   9.8075950418088517E-002  0.24831729487009380        0.0000000000000000     
   9.8623803315660993E-002  0.25697344329035143        0.0000000000000000     
   9.9080966784601057E-002  0.26575746906291137        0.0000000000000000     
   8.8807786734111896E-002  0.23118168223502472        0.0000000000000000     
   8.9439380021858958E-002  0.23960198700054475        0.0000000000000000     
   8.9969835014630628E-002  0.24814752526143274        0.0000000000000000     
   9.0399151712426989E-002  0.25681829701768877        0.0000000000000000     
   9.0727330115247931E-002  0.26561430226931271        0.0000000000000000     
   8.1078603514578851E-002  0.23101209747680565        0.0000000000000000     
   8.1616324353922187E-002  0.23945444215359665        0.0000000000000000     
   8.2059294728335258E-002  0.24801321008765811        0.0000000000000000     
   8.2407514637818050E-002  0.25668840127899006        0.0000000000000000     
   8.2660984082370548E-002  0.26548001572759244        0.0000000000000000     
  0.11665011203273437       0.26607044340574393        0.0000000000000000     
  0.11744922588519721       0.27506067198601863        0.0000000000000000     
  0.11810992519990811       0.28449477986781263        0.0000000000000000     
  0.11863220997686710       0.29437276705112581        0.0000000000000000     
  0.11901608021607415       0.30469463353595827        0.0000000000000000     
  0.10772189409042986       0.26590951610838842        0.0000000000000000     
  0.10828002510698939       0.27492163484476329        0.0000000000000000     
  0.10873697273674997       0.28432228420299444        0.0000000000000000     
  0.10909273697971161       0.29411146418308182        0.0000000000000000     
  0.10934731783587433       0.30428917478502548        0.0000000000000000     
   9.9080966784601057E-002  0.26575746906291137        0.0000000000000000     
   9.9458548067152500E-002  0.27476755588044888        0.0000000000000000     
   9.9767654405559278E-002  0.28410188743563930        0.0000000000000000     
  0.10000828579982131       0.29376046372848280        0.0000000000000000     
  0.10018044224993861       0.30374328475897927        0.0000000000000000     
   9.0727330115247931E-002  0.26561430226931271        0.0000000000000000     
   9.0984794765686577E-002  0.27459843509307535        0.0000000000000000     
   9.1201970206335983E-002  0.28383358956574739        0.0000000000000000     
   9.1378856437196121E-002  0.29331976568732882        0.0000000000000000     
   9.1515453458267032E-002  0.30305696345781963        0.0000000000000000     
   8.2660984082370548E-002  0.26548001572759244        0.0000000000000000     
   8.2858765202591625E-002  0.27441427248264277        0.0000000000000000     
   8.3039920139080167E-002  0.28351739059331860        0.0000000000000000     
   8.3204448891836133E-002  0.29278937005961980        0.0000000000000000     
   8.3352351460859536E-002  0.30223021088154656        0.0000000000000000     
   4.5834745623381953E-002   5.9513272032628600E-002   0.0000000000000000     
   4.8141976909424122E-002   6.5018665726953015E-002   0.0000000000000000     
   5.0376720960075297E-002   7.0700556453099778E-002   0.0000000000000000     
   5.2538977775335491E-002   7.6558944211068916E-002   0.0000000000000000     
   5.4628747355204690E-002   8.2593829000860389E-002   0.0000000000000000     
   4.1424578145765154E-002   5.8826254130975503E-002   0.0000000000000000     
   4.3531633912493477E-002   6.4361266367321798E-002   0.0000000000000000     
   4.5577541800218488E-002   7.0069933895548442E-002   0.0000000000000000     
   4.7562301808940187E-002   7.5952256715655433E-002   0.0000000000000000     
   4.9485913938658560E-002   8.2008234827642773E-002   0.0000000000000000     
   3.7146404139241286E-002   5.8206807923754850E-002   0.0000000000000000     
   3.9060067170555282E-002   6.3762990710431650E-002   0.0000000000000000     
   4.0920020681315131E-002   6.9492013657615065E-002   0.0000000000000000     
   4.2726264671520818E-002   7.5393876765305082E-002   0.0000000000000000     
   4.4478799141172337E-002   8.1468580033501714E-002   0.0000000000000000     
   3.3000223603810344E-002   5.7654933410966627E-002   0.0000000000000000     
   3.4727276683609525E-002   6.3223838756282555E-002   0.0000000000000000     
   3.6404157603365211E-002   6.8966795739299633E-002   0.0000000000000000     
   3.8030866363077370E-002   7.4883804360017833E-002   0.0000000000000000     
   3.9607402962746022E-002   8.0974864618437212E-002   0.0000000000000000     
   2.8986036539472331E-002   5.7170630592610849E-002   0.0000000000000000     
   3.0533262451656218E-002   6.2743810504874528E-002   0.0000000000000000     
   3.2029952566368723E-002   6.8494280140602146E-002   0.0000000000000000     
   3.3476106883609857E-002   7.4422039499793716E-002   0.0000000000000000     
   3.4871725403379614E-002   8.0527088582449252E-002   0.0000000000000000     
   5.4628747355204690E-002   8.2593829000860389E-002   0.0000000000000000     
   5.6647326735373572E-002   8.8796393691219472E-002   0.0000000000000000     
   5.8596012951532800E-002   9.5157821150891428E-002   0.0000000000000000     
   6.0474806003682345E-002  0.10167811137987627        0.0000000000000000     
   6.2283705891822250E-002  0.10835726437817397        0.0000000000000000     
   4.9485913938658560E-002   8.2008234827642773E-002   0.0000000000000000     
   5.1344939576586597E-002   8.8230794275602528E-002   0.0000000000000000     
   5.3135940109937253E-002   9.4612861103626753E-002   0.0000000000000000     
   5.4858915538710550E-002  0.10115443531171545        0.0000000000000000     
   5.6513865862906458E-002  0.10785551689986864        0.0000000000000000     
   4.4478799141172337E-002   8.1468580033501714E-002   0.0000000000000000     
   4.6172891209154521E-002   8.7709784436218560E-002   0.0000000000000000     
   4.7803807994352195E-002   9.4111150947469191E-002   0.0000000000000000     
   4.9371549496765352E-002  0.10067267956725363        0.0000000000000000     
   5.0876115716393971E-002  0.10739437029557188        0.0000000000000000     
   3.9607402962746022E-002   8.0974864618437212E-002   0.0000000000000000     
   4.1131181633077378E-002   8.7233364173067554E-002   0.0000000000000000     
   4.2599616604777617E-002   9.3652690682418757E-002   0.0000000000000000     
   4.4012707877846766E-002  0.10023284414649082        0.0000000000000000     
   4.5370455452284804E-002  0.10697382456528370        0.0000000000000000     
   3.4871725403379614E-002   8.0527088582449252E-002   0.0000000000000000     
   3.6219810848355127E-002   8.6801533486149537E-002   0.0000000000000000     
   3.7523365941213506E-002   9.3237480308475451E-002   0.0000000000000000     
   3.8782390681954777E-002   9.9834929049426979E-002   0.0000000000000000     
   3.9996885070578921E-002  0.10659387970900411        0.0000000000000000     
   6.2283705891822250E-002  0.10835726437817397        0.0000000000000000     
   6.4018618639707370E-002  0.11518183302215663        0.0000000000000000     
   6.5675450271092631E-002  0.12213837018819633        0.0000000000000000     
   6.7254200785978005E-002  0.12922687587629303        0.0000000000000000     
   6.8754870184363492E-002  0.13644735008644679        0.0000000000000000     
   5.6513865862906458E-002  0.10785551689986864        0.0000000000000000     
   5.8099566179382632E-002  0.11470209433222668        0.0000000000000000     
   5.9614791584996649E-002  0.12168015607293006        0.0000000000000000     
   6.1059542079748529E-002  0.12878970212197877        0.0000000000000000     
   6.2433817663638272E-002  0.13603073247937270        0.0000000000000000     
   5.0876115716393971E-002  0.10739437029557188        0.0000000000000000     
   5.2316949068968853E-002  0.11426176408132657        0.0000000000000000     
   5.3693491970220754E-002  0.12126040187342037        0.0000000000000000     
   5.5005744420149646E-002  0.12839028367185326        0.0000000000000000     
   5.6253706418755559E-002  0.13565140947662527        0.0000000000000000     
   4.5370455452284804E-002  0.10697382456528370        0.0000000000000000     
   4.6670767308466074E-002  0.11386084226945624        0.0000000000000000     
   4.7911551426764933E-002  0.12087910758966722        0.0000000000000000     
   4.9092807807181352E-002  0.12802862052591663        0.0000000000000000     
   5.0214536449715359E-002  0.13530938107820445        0.0000000000000000     
   3.9996885070578921E-002  0.10659387970900411        0.0000000000000000     
   4.1161020897874281E-002  0.11349932889661569        0.0000000000000000     
   4.2268969954629185E-002  0.12053627322167058        0.0000000000000000     
   4.3320732240843658E-002  0.12770471268416875        0.0000000000000000     
   4.4316307756517674E-002  0.13500464728411024        0.0000000000000000     
   6.8754870184363492E-002  0.13644735008644679        0.0000000000000000     
   7.0181096049127978E-002  0.14378837373637990        0.0000000000000000     
   7.1536515963150318E-002  0.15123852774381469        0.0000000000000000     
   7.2821129926430486E-002  0.15879781210875121        0.0000000000000000     
   7.4034937938968509E-002  0.16646622683118945        0.0000000000000000     
   6.2433817663638272E-002  0.13603073247937270        0.0000000000000000     
   6.3739201043902655E-002  0.14339256034833298        0.0000000000000000     
   6.4977274927778453E-002  0.15086449893208045        0.0000000000000000     
   6.6148039315265680E-002  0.15844654823061527        0.0000000000000000     
   6.7251494206364310E-002  0.16613870824393734        0.0000000000000000     
   5.6253706418755559E-002  0.13565140947662527        0.0000000000000000     
   5.7438051563884276E-002  0.14303354821738862        0.0000000000000000     
   5.8559453453381580E-002  0.15052646882379561        0.0000000000000000     
   5.9617912087247454E-002  0.15813017129584622        0.0000000000000000     
   6.0613427465481935E-002  0.16584465563354042        0.0000000000000000     
   5.0214536449715359E-002  0.13530938107820445        0.0000000000000000     
   5.1277647609072829E-002  0.14271133734354685        0.0000000000000000     
   5.2283051539959650E-002  0.15022443741896005        0.0000000000000000     
   5.3230748242375829E-002  0.15784868130444399        0.0000000000000000     
   5.4120737716321358E-002  0.16558406899999870        0.0000000000000000     
   4.4316307756517674E-002  0.13500464728411024        0.0000000000000000     
   4.5257989179468321E-002  0.14242592772680771        0.0000000000000000     
   4.6148069187512700E-002  0.14995840471757385        0.0000000000000000     
   4.6986547780650784E-002  0.15760207825640865        0.0000000000000000     
   4.7773424958882593E-002  0.16535694834331219        0.0000000000000000     
   7.4034937938968509E-002  0.16646622683118945        0.0000000000000000     
   7.5175938076416426E-002  0.17423419814307128        0.0000000000000000     
   7.6242128414426347E-002  0.18209215227633882        0.0000000000000000     
   7.7233508952998242E-002  0.19004008923099200        0.0000000000000000     
   7.8150079692132113E-002  0.19807800900703082        0.0000000000000000     
   6.7251494206364310E-002  0.16613870824393734        0.0000000000000000     
   6.8286141178833040E-002  0.17393051786823061        0.0000000000000000     
   6.9250481810430531E-002  0.18181151599967901        0.0000000000000000     
   7.0144516101156767E-002  0.18978170263828262        0.0000000000000000     
   7.0968244051011778E-002  0.19784107778404128        0.0000000000000000     
   6.0613427465481935E-002  0.16584465563354042        0.0000000000000000     
   6.1544603725321542E-002  0.17365886451596849        0.0000000000000000     
   6.2410045004002837E-002  0.18156174062222058        0.0000000000000000     
   6.3209751301525827E-002  0.18955328395229670        0.0000000000000000     
   6.3943722617890483E-002  0.19763349450619691        0.0000000000000000     
   5.4120737716321358E-002  0.16558406899999870        0.0000000000000000     
   5.4951325715881953E-002  0.17341923808628498        0.0000000000000000     
   5.5720817995143286E-002  0.18134282614396352        0.0000000000000000     
   5.6429214554105406E-002  0.18935483317303439        0.0000000000000000     
   5.7076515392768278E-002  0.19745525917349757        0.0000000000000000     
   4.7773424958882593E-002  0.16535694834331219        0.0000000000000000     
   4.8506307150514252E-002  0.17321163857918001        0.0000000000000000     
   4.9182800783851906E-002  0.18115477256490783        0.0000000000000000     
   4.9802905858895526E-002  0.18918635030049560        0.0000000000000000     
   5.0366622375645133E-002  0.19730637178594335        0.0000000000000000     
   7.8150079692132113E-002  0.19807800900703082        0.0000000000000000     
   7.8992486810596202E-002  0.20619857292644045        0.0000000000000000     
   7.9761376487158656E-002  0.21439444231120611        0.0000000000000000     
   8.0456748721819571E-002  0.22266561716132785        0.0000000000000000     
   8.1078603514578851E-002  0.23101209747680565        0.0000000000000000     
   7.0968244051011778E-002  0.19784107778404128        0.0000000000000000     
   7.1719769221553542E-002  0.20598332725288285        0.0000000000000000     
   7.2397195174340123E-002  0.21420213686073492        0.0000000000000000     
   7.3000521909371480E-002  0.22249750660759751        0.0000000000000000     
   7.3529749426647639E-002  0.23086943649347061        0.0000000000000000     
   6.3943722617890483E-002  0.19763349450619691        0.0000000000000000     
   6.4608714524768893E-002  0.20579626297183515        0.0000000000000000     
   6.5201482593833085E-002  0.21403548003712544        0.0000000000000000     
   6.5722026825083088E-002  0.22235114570206793        0.0000000000000000     
   6.6170347218518874E-002  0.23074325996666248        0.0000000000000000     
   5.7076515392768278E-002  0.19745525917349757        0.0000000000000000     
   5.7659322720242226E-002  0.20563738008329732        0.0000000000000000     
   5.8174238745637583E-002  0.21389447184037783        0.0000000000000000     
   5.8621263468954340E-002  0.22222653444473914        0.0000000000000000     
   5.9000396890192514E-002  0.23063356789638126        0.0000000000000000     
   5.0366622375645133E-002  0.19730637178594335        0.0000000000000000     
   5.0871593807973549E-002  0.20550667858726934        0.0000000000000000     
   5.1315463629753602E-002  0.21377911227049196        0.0000000000000000     
   5.1698231840985293E-002  0.22212367283561113        0.0000000000000000     
   5.2019898441668599E-002  0.23054036028262692        0.0000000000000000     
   8.1078603514578851E-002  0.23101209747680565        0.0000000000000000     
   8.1616324353922187E-002  0.23945444215359665        0.0000000000000000     
   8.2059294728335258E-002  0.24801321008765811        0.0000000000000000     
   8.2407514637818050E-002  0.25668840127899006        0.0000000000000000     
   8.2660984082370548E-002  0.26548001572759244        0.0000000000000000     
   7.3529749426647639E-002  0.23086943649347061        0.0000000000000000     
   7.3981669354481805E-002  0.23933146709482050        0.0000000000000000     
   7.4353073321187180E-002  0.24789713898811361        0.0000000000000000     
   7.4643961326763791E-002  0.25656645217334972        0.0000000000000000     
   7.4854333371211584E-002  0.26533940665052902        0.0000000000000000     
   6.6170347218518874E-002  0.23074325996666248        0.0000000000000000     
   6.6548843289946327E-002  0.23921813965774283        0.0000000000000000     
   6.6859914555171304E-002  0.24778210160214265        0.0000000000000000     
   6.7103561014193805E-002  0.25643514579986199        0.0000000000000000     
   6.7279782667013829E-002  0.26517727225090076        0.0000000000000000     
   5.9000396890192514E-002  0.23063356789638126        0.0000000000000000     
   5.9317846160315726E-002  0.23911445984236351        0.0000000000000000     
   5.9579818430287583E-002  0.24766809792974540        0.0000000000000000     
   5.9786313700108097E-002  0.25629448215852674        0.0000000000000000     
   5.9937331969777255E-002  0.26499361252870773        0.0000000000000000     
   5.2019898441668599E-002  0.23054036028262692        0.0000000000000000     
   5.2288677965590016E-002  0.23902042764868264        0.0000000000000000     
   5.2512784946536044E-002  0.24755512797092177        0.0000000000000000     
   5.2692219384506668E-002  0.25614446124934420        0.0000000000000000     
   5.2826981279501875E-002  0.26478842748394998        0.0000000000000000     
   8.2660984082370548E-002  0.26548001572759244        0.0000000000000000     
   8.2858765202591625E-002  0.27441427248264277        0.0000000000000000     
   8.3039920139080167E-002  0.28351739059331860        0.0000000000000000     
   8.3204448891836133E-002  0.29278937005961980        0.0000000000000000     
   8.3352351460859536E-002  0.30223021088154656        0.0000000000000000     
   7.4854333371211584E-002  0.26533940665052902        0.0000000000000000     
   7.5025215062172843E-002  0.27420946652421940        0.0000000000000000     
   7.5197632007289766E-002  0.28317009589898900        0.0000000000000000     
   7.5371584206562356E-002  0.29222129477483760        0.0000000000000000     
   7.5547071659990611E-002  0.30136306315176553        0.0000000000000000     
   6.7279782667013829E-002  0.26517727225090076        0.0000000000000000     
   6.7428900028735472E-002  0.27397841569287351        0.0000000000000000     
   6.7591233614462828E-002  0.28280851086339470        0.0000000000000000     
   6.7766783424195884E-002  0.29166755776246417        0.0000000000000000     
   6.7955549457934639E-002  0.30055555639008225        0.0000000000000000     
   5.9937331969777255E-002  0.26499361252870773        0.0000000000000000     
   6.0069820102279528E-002  0.27372111998860515        0.0000000000000000     
   6.0220724960599353E-002  0.28243263548653574        0.0000000000000000     
   6.0390046544736710E-002  0.29112815902249961        0.0000000000000000     
   6.0577784854691626E-002  0.29980769059649665        0.0000000000000000     
   5.2826981279501875E-002  0.26478842748394998        0.0000000000000000     
   5.2947975282805003E-002  0.27343757941141422        0.0000000000000000     
   5.3086106045699327E-002  0.28204246976841213        0.0000000000000000     
   5.3241373568184848E-002  0.29060309855494360        0.0000000000000000     
   5.3413777850261593E-002  0.29911946577100867        0.0000000000000000     
   2.8986036539472331E-002   5.7170630592610849E-002   0.0000000000000000     
   3.0533262451656218E-002   6.2743810504874528E-002   0.0000000000000000     
   3.2029952566368723E-002   6.8494280140602146E-002   0.0000000000000000     
   3.3476106883609857E-002   7.4422039499793716E-002   0.0000000000000000     
   3.4871725403379614E-002   8.0527088582449252E-002   0.0000000000000000     
   2.5085549603928350E-002   5.6736258435807291E-002   0.0000000000000000     
   2.6455943472047057E-002   6.2318357049396950E-002   0.0000000000000000     
   2.7774663410874378E-002   6.8078955639152519E-002   0.0000000000000000     
   2.9041709420410327E-002   7.4018054205074027E-002   0.0000000000000000     
   3.0257081500654891E-002   8.0135652747161487E-002   0.0000000000000000     
   2.1280469454879512E-002   5.6334175907675796E-002   0.0000000000000000     
   2.2473238742133757E-002   6.1942929483039172E-002   0.0000000000000000     
   2.3615547977430856E-002   6.7725311012580572E-002   0.0000000000000000     
   2.4707397160770812E-002   7.3681320496300051E-002   0.0000000000000000     
   2.5748786292153630E-002   7.9810957934197596E-002   0.0000000000000000     
   1.7570796092325813E-002   5.5964383008216330E-002   0.0000000000000000     
   1.8585148261916325E-002   6.1617527805801223E-002   0.0000000000000000     
   1.9552606266038157E-002   6.7433346260886373E-002   0.0000000000000000     
   2.0473170104691327E-002   7.3411838373471830E-002   0.0000000000000000     
   2.1346839777875826E-002   7.9553004143557524E-002   0.0000000000000000     
   1.3956529516267252E-002   5.5626879737428900E-002   0.0000000000000000     
   1.4791672031394747E-002   6.1342152017683081E-002   0.0000000000000000     
   1.5585838276696285E-002   6.7203061384069868E-002   0.0000000000000000     
   1.6339028252171862E-002   7.3209607836589280E-002   0.0000000000000000     
   1.7051241957821477E-002   7.9361791375241311E-002   0.0000000000000000     
   3.4871725403379614E-002   8.0527088582449252E-002   0.0000000000000000     
   3.6219810848355127E-002   8.6801533486149537E-002   0.0000000000000000     
   3.7523365941213506E-002   9.3237480308475451E-002   0.0000000000000000     
   3.8782390681954777E-002   9.9834929049426979E-002   0.0000000000000000     
   3.9996885070578921E-002  0.10659387970900411        0.0000000000000000     
   3.0257081500654891E-002   8.0135652747161487E-002   0.0000000000000000     
   3.1429619478856329E-002   8.6423570688730425E-002   0.0000000000000000     
   3.2568163182262883E-002   9.2873627453096380E-002   0.0000000000000000     
   3.3672712610874546E-002   9.9485823040259394E-002   0.0000000000000000     
   3.4743267764691332E-002  0.10626015745021944        0.0000000000000000     
   2.5748786292153630E-002   7.9810957934197596E-002   0.0000000000000000     
   2.6751448148449524E-002   8.6108754094076145E-002   0.0000000000000000     
   2.7727115506528715E-002   9.2569239743738721E-002   0.0000000000000000     
   2.8675788366391210E-002   9.9192414883185323E-002   0.0000000000000000     
   2.9597466728037005E-002  0.10597827951241601        0.0000000000000000     
   2.1346839777875826E-002   7.9553004143557524E-002   0.0000000000000000     
   2.2185296857134704E-002   8.5857083702186685E-002   0.0000000000000000     
   2.3000222914011017E-002   9.2324317180402432E-002   0.0000000000000000     
   2.3791617948504769E-002   9.8954704578204822E-002   0.0000000000000000     
   2.4559481960615942E-002  0.10574824589559378        0.0000000000000000     
   1.7051241957821477E-002   7.9361791375241311E-002   0.0000000000000000     
   1.7731165604911874E-002   8.5668559513062043E-002   0.0000000000000000     
   1.8387485404709785E-002   9.2138859763087527E-002   0.0000000000000000     
   1.9020201357215213E-002   9.8772692125317793E-002   0.0000000000000000     
   1.9629313462428157E-002  0.10557005659975281        0.0000000000000000     
   3.9996885070578921E-002  0.10659387970900411        0.0000000000000000     
   4.1161020897874281E-002  0.11349932889661569        0.0000000000000000     
   4.2268969954629185E-002  0.12053627322167058        0.0000000000000000     
   4.3320732240843658E-002  0.12770471268416875        0.0000000000000000     
   4.4316307756517674E-002  0.13500464728411024        0.0000000000000000     
   3.4743267764691332E-002  0.10626015745021944        0.0000000000000000     
   3.5770508714638202E-002  0.11318156704211467        0.0000000000000000     
   3.6745115531640143E-002  0.12023498817508324        0.0000000000000000     
   3.7667088215697170E-002  0.12742042084912519        0.0000000000000000     
   3.8536426766809261E-002  0.13473786506424051        0.0000000000000000     
   2.9597466728037005E-002  0.10597827951241601        0.0000000000000000     
   3.0482029636202574E-002  0.11291189978526281        0.0000000000000000     
   3.1319356135624421E-002  0.11997834185555795        0.0000000000000000     
   3.2109446226302518E-002  0.12717760572330136        0.0000000000000000     
   3.2852299908236890E-002  0.13450969138849311        0.0000000000000000     
   2.4559481960615942E-002  0.10574824589559378        0.0000000000000000     
   2.5295583662567407E-002  0.11269032712606014        0.0000000000000000     
   2.5991691766581993E-002  0.11976633426309463        0.0000000000000000     
   2.6647806272659717E-002  0.12697626730669728        0.0000000000000000     
   2.7263927180800559E-002  0.13432012625686804        0.0000000000000000     
   1.9629313462428157E-002  0.10557005659975281        0.0000000000000000     
   2.0211170793732688E-002  0.11251684906450665        0.0000000000000000     
   2.0762122424512884E-002  0.11959896539769335        0.0000000000000000     
   2.1282168354768746E-002  0.12681640559931290        0.0000000000000000     
   2.1771308584500271E-002  0.13416916966936532        0.0000000000000000     
   4.4316307756517674E-002  0.13500464728411024        0.0000000000000000     
   4.5257989179468321E-002  0.14242592772680771        0.0000000000000000     
   4.6148069187512700E-002  0.14995840471757385        0.0000000000000000     
   4.6986547780650784E-002  0.15760207825640865        0.0000000000000000     
   4.7773424958882593E-002  0.16535694834331219        0.0000000000000000     
   3.8536426766809261E-002  0.13473786506424051        0.0000000000000000     
   3.9356909079479946E-002  0.14217687195228304        0.0000000000000000     
   4.0132313048212721E-002  0.14972699264510669        0.0000000000000000     
   4.0862638673007601E-002  0.15738822714271142        0.0000000000000000     
   4.1547885953864591E-002  0.16516057544509724        0.0000000000000000     
   3.2852299908236890E-002  0.13450969138849311        0.0000000000000000     
   3.3552240113516860E-002  0.14196372260508486        0.0000000000000000     
   3.4213589774231744E-002  0.14952882312702828        0.0000000000000000     
   3.4836348890381563E-002  0.15720499295432347        0.0000000000000000     
   3.5420517461966311E-002  0.16499223208697025        0.0000000000000000     
   2.7263927180800559E-002  0.13432012625686804        0.0000000000000000     
   2.7843982281579069E-002  0.14178647968521316        0.0000000000000000     
   2.8391899365569771E-002  0.14936389616333873        0.0000000000000000     
   2.8907678432772661E-002  0.15705237569124475        0.0000000000000000     
   2.9391319483187742E-002  0.16485191826893122        0.0000000000000000     
   2.1771308584500271E-002  0.13416916966936532        0.0000000000000000     
   2.2232135583666580E-002  0.14164514319266791        0.0000000000000000     
   2.2667241822226784E-002  0.14923221175403786        0.0000000000000000     
   2.3076627300180889E-002  0.15693037535347529        0.0000000000000000     
   2.3460292017528903E-002  0.16473963399098018        0.0000000000000000     
   4.7773424958882593E-002  0.16535694834331219        0.0000000000000000     
   4.8506307150514252E-002  0.17321163857918001        0.0000000000000000     
   4.9182800783851906E-002  0.18115477256490783        0.0000000000000000     
   4.9802905858895526E-002  0.18918635030049560        0.0000000000000000     
   5.0366622375645133E-002  0.19730637178594335        0.0000000000000000     
   4.1547885953864591E-002  0.16516057544509724        0.0000000000000000     
   4.2184962683645612E-002  0.17303279974401178        0.0000000000000000     
   4.2770776655212624E-002  0.18099366223120267        0.0000000000000000     
   4.3305327868565606E-002  0.18904316290666989        0.0000000000000000     
   4.3788616323704573E-002  0.19718130177041343        0.0000000000000000     
   3.5420517461966311E-002  0.16499223208697025        0.0000000000000000     
   3.5962706969703197E-002  0.17287945533013832        0.0000000000000000     
   3.6459528894309458E-002  0.18085557748899708        0.0000000000000000     
   3.6910983235785094E-002  0.18892059856354668        0.0000000000000000     
   3.7317069994130092E-002  0.19707451855378699        0.0000000000000000     
   2.9391319483187742E-002  0.16485191826893122        0.0000000000000000     
   2.9839540008686997E-002  0.17275160533755959        0.0000000000000000     
   3.0249057501142412E-002  0.18074051833829122        0.0000000000000000     
   3.0619871960553977E-002  0.18881865727112601        0.0000000000000000     
   3.0951983386921695E-002  0.19698602213606406        0.0000000000000000     
   2.3460292017528903E-002  0.16473963399098018        0.0000000000000000     
   2.3815461800597022E-002  0.17264924976627566        0.0000000000000000     
   2.4139362475711478E-002  0.18064848477908485        0.0000000000000000     
   2.4431994042872263E-002  0.18873733902940787        0.0000000000000000     
   2.4693356502079378E-002  0.19691581251724466        0.0000000000000000     
   5.0366622375645133E-002  0.19730637178594335        0.0000000000000000     
   5.0871593807973549E-002  0.20550667858726934        0.0000000000000000     
   5.1315463629753602E-002  0.21377911227049196        0.0000000000000000     
   5.1698231840985293E-002  0.22212367283561113        0.0000000000000000     
   5.2019898441668599E-002  0.23054036028262692        0.0000000000000000     
   4.3788616323704573E-002  0.19718130177041343        0.0000000000000000     
   4.4219717704320351E-002  0.20539803596337813        0.0000000000000000     
   4.4597707694103747E-002  0.21368332262650891        0.0000000000000000     
   4.4922586293054782E-002  0.22203716175980570        0.0000000000000000     
   4.5194353501173457E-002  0.23045955336326857        0.0000000000000000     
   3.7317069994130092E-002  0.19707451855378699        0.0000000000000000     
   3.7677884325640072E-002  0.20530532969125051        0.0000000000000000     
   3.7993521386610621E-002  0.21360102420746976        0.0000000000000000     
   3.8263981177041738E-002  0.22196160210244464        0.0000000000000000     
   3.8489263696933444E-002  0.23038706337617526        0.0000000000000000     
   3.0951983386921695E-002  0.19698602213606406        0.0000000000000000     
   3.1246093671932717E-002  0.20522855977088653        0.0000000000000000     
   3.1502904707274210E-002  0.21353221701337446        0.0000000000000000     
   3.1722416492946159E-002  0.22189699386352799        0.0000000000000000     
   3.1904629028948576E-002  0.23032289032134698        0.0000000000000000     
   2.4693356502079378E-002  0.19691581251724466        0.0000000000000000     
   2.4924345743198306E-002  0.20516772620228607        0.0000000000000000     
   2.5125857656094531E-002  0.21347690104422307        0.0000000000000000     
   2.5297892240768040E-002  0.22184333704305567        0.0000000000000000     
   2.5440449497218846E-002  0.23026703419878378        0.0000000000000000     
   5.2019898441668599E-002  0.23054036028262692        0.0000000000000000     
   5.2288677965590016E-002  0.23902042764868264        0.0000000000000000     
   5.2512784946536044E-002  0.24755512797092177        0.0000000000000000     
   5.2692219384506668E-002  0.25614446124934420        0.0000000000000000     
   5.2826981279501875E-002  0.26478842748394998        0.0000000000000000     
   4.5194353501173457E-002  0.23045955336326857        0.0000000000000000     
   4.5421953704335806E-002  0.23893477347682190        0.0000000000000000     
   4.5614331288417909E-002  0.24744709814039020        0.0000000000000000     
   4.5771486253419771E-002  0.25599652735397349        0.0000000000000000     
   4.5893418599341394E-002  0.26458306111757179        0.0000000000000000     
   3.8489263696933444E-002  0.23038706337617526        0.0000000000000000     
   3.8678288375119683E-002  0.23885622772690293        0.0000000000000000     
   3.8839974640434448E-002  0.24734791485286925        0.0000000000000000     
   3.8974322492877717E-002  0.25586212475407399        0.0000000000000000     
   3.9081331932449503E-002  0.26439885743051739        0.0000000000000000     
   3.1904629028948576E-002  0.23032289032134698        0.0000000000000000     
   3.2057681977941656E-002  0.23878479039892581        0.0000000000000000     
   3.2189715002585634E-002  0.24725757810835874        0.0000000000000000     
   3.2300728102880483E-002  0.25574125344964582        0.0000000000000000     
   3.2390721278826209E-002  0.26423581642278698        0.0000000000000000     
   2.5440449497218846E-002  0.23026703419878378        0.0000000000000000     
   2.5560134512801730E-002  0.23872046149289050        0.0000000000000000     
   2.5663552374871466E-002  0.24717608790685885        0.0000000000000000     
   2.5750703083428066E-002  0.25563391344068881        0.0000000000000000     
   2.5821586638471526E-002  0.26409393809438042        0.0000000000000000     
   5.2826981279501875E-002  0.26478842748394998        0.0000000000000000     
   5.2947975282805003E-002  0.27343757941141422        0.0000000000000000     
   5.3086106045699327E-002  0.28204246976841213        0.0000000000000000     
   5.3241373568184848E-002  0.29060309855494360        0.0000000000000000     
   5.3413777850261593E-002  0.29911946577100867        0.0000000000000000     
   4.5893418599341394E-002  0.26458306111757179        0.0000000000000000     
   4.6004319336541422E-002  0.27315653561074588        0.0000000000000000     
   4.6128379475378511E-002  0.28166678701305670        0.0000000000000000     
   4.6265599015852678E-002  0.29011381532450425        0.0000000000000000     
   4.6415977957963914E-002  0.29849762054508855        0.0000000000000000     
   3.9081331932449503E-002  0.26439885743051739        0.0000000000000000     
   3.9179806029718316E-002  0.27290673023604500        0.0000000000000000     
   3.9288547855252660E-002  0.28133436052450234        0.0000000000000000     
   3.9407557409052552E-002  0.28968174829588944        0.0000000000000000     
   3.9536834691117989E-002  0.29794889355020648        0.0000000000000000     
   3.2390721278826209E-002  0.26423581642278698        0.0000000000000000     
   3.2474435362335699E-002  0.27268816328731155        0.0000000000000000     
   3.2566611185321788E-002  0.28104519030274899        0.0000000000000000     
   3.2667248747784504E-002  0.28930689746909927        0.0000000000000000     
   3.2776348049723826E-002  0.29747328478636237        0.0000000000000000     
   2.5821586638471526E-002  0.26409393809438042        0.0000000000000000     
   2.5888207334393554E-002  0.27250083476454567        0.0000000000000000     
   2.5962569465585887E-002  0.28079927634779678        0.0000000000000000     
   2.6044673032048504E-002  0.28898926284413368        0.0000000000000000     
   2.6134518033781418E-002  0.29707079425355631        0.0000000000000000     
   1.3956529516267252E-002   5.5626879737428900E-002   0.0000000000000000     
   1.4791672031394747E-002   6.1342152017683081E-002   0.0000000000000000     
   1.5585838276696285E-002   6.7203061384069868E-002   0.0000000000000000     
   1.6339028252171862E-002   7.3209607836589280E-002   0.0000000000000000     
   1.7051241957821477E-002   7.9361791375241311E-002   0.0000000000000000     
   1.0478512911938418E-002   5.5406002090538996E-002   0.0000000000000000     
   1.1121639304522406E-002   6.1162623046311947E-002   0.0000000000000000     
   1.1731480543318505E-002   6.7052680639801424E-002   0.0000000000000000     
   1.2308036628326717E-002   7.3076174871007427E-002   0.0000000000000000     
   1.2851307559547038E-002   7.9233105739929977E-002   0.0000000000000000     
   7.1775894645738957E-003   5.5386086062772101E-002   0.0000000000000000     
   7.6038793352526703E-003   6.1124761819315018E-002   0.0000000000000000     
   8.0057695998181060E-003   6.7000428285751382E-002   0.0000000000000000     
   8.3832602582701986E-003   7.3013085462081198E-002   0.0000000000000000     
   8.7363513106089533E-003   7.9162733348304481E-002   0.0000000000000000     
   4.0537591741736864E-003   5.5567131654128216E-002   0.0000000000000000     
   4.2383921235855391E-003   6.1228568336692296E-002   0.0000000000000000     
   4.4087054461950798E-003   6.7046304321919756E-002   0.0000000000000000     
   4.5646991420023085E-003   7.3020339609810581E-002   0.0000000000000000     
   4.7063732110072245E-003   7.9150674200364798E-002   0.0000000000000000     
   1.1070220407377904E-003   5.5949138864607340E-002   0.0000000000000000     
   1.0251776695210115E-003   6.1474042598443759E-002   0.0000000000000000     
   9.4028808244942896E-004   6.7190308748306504E-002   0.0000000000000000     
   8.5235327952304233E-004   7.3097937314195588E-002   0.0000000000000000     
   7.6137326074185159E-004   7.9196928296110997E-002   0.0000000000000000     
   1.7051241957821477E-002   7.9361791375241311E-002   0.0000000000000000     
   1.7731165604911874E-002   8.5668559513062043E-002   0.0000000000000000     
   1.8387485404709785E-002   9.2138859763087527E-002   0.0000000000000000     
   1.9020201357215213E-002   9.8772692125317793E-002   0.0000000000000000     
   1.9629313462428157E-002  0.10557005659975281        0.0000000000000000     
   1.2851307559547038E-002   7.9233105739929977E-002   0.0000000000000000     
   1.3366583515352908E-002   8.5538902043685555E-002   0.0000000000000000     
   1.3859154674117762E-002   9.2008992579390769E-002   0.0000000000000000     
   1.4329021035841598E-002   9.8643377347045591E-002   0.0000000000000000     
   1.4776182600524421E-002  0.10544205634665002        0.0000000000000000     
   8.7363513106089533E-003   7.9162733348304481E-002   0.0000000000000000     
   9.0690797120296773E-003   8.5463831811040558E-002   0.0000000000000000     
   9.3854824177276811E-003   9.1930840716908921E-002   0.0000000000000000     
   9.6855594277029614E-003   9.8563760065909528E-002   0.0000000000000000     
   9.9693107419555251E-003  0.10536258985804235        0.0000000000000000     
   4.7063732110072245E-003   7.9150674200364798E-002   0.0000000000000000     
   4.8386541949421861E-003   8.5443348815127051E-002   0.0000000000000000     
   4.9664686355395471E-003   9.1904404175641982E-002   0.0000000000000000     
   5.0898165327993104E-003   9.8533840281909549E-002   0.0000000000000000     
   5.2086978867214723E-003  0.10533165713392979        0.0000000000000000     
   7.6137326074185159E-004   7.9196928296110997E-002   0.0000000000000000     
   6.7530696409043279E-004   8.5477453055945021E-002   0.0000000000000000     
   6.0211332755336143E-004   9.1929682955589911E-002   0.0000000000000000     
   5.4179235113063675E-004   9.8553617995045695E-002   0.0000000000000000     
   4.9434403482225995E-004  0.10534925817431236        0.0000000000000000     
   1.9629313462428157E-002  0.10557005659975281        0.0000000000000000     
   2.0211170793732688E-002  0.11251684906450665        0.0000000000000000     
   2.0762122424512884E-002  0.11959896539769335        0.0000000000000000     
   2.1282168354768746E-002  0.12681640559931290        0.0000000000000000     
   2.1771308584500271E-002  0.13416916966936532        0.0000000000000000     
   1.4776182600524421E-002  0.10544205634665002        0.0000000000000000     
   1.5201375660795234E-002  0.11239117204047927        0.0000000000000000     
   1.5605336509283037E-002  0.11947686689080853        0.0000000000000000     
   1.5988065145987836E-002  0.12669914089763781        0.0000000000000000     
   1.6349561570909624E-002  0.13405799406096713        0.0000000000000000     
   9.9693107419555251E-003  0.10536258985804235        0.0000000000000000     
   1.0238782894851845E-002  0.11231300249385490        0.0000000000000000     
   1.0496022420758403E-002  0.11940067037389464        0.0000000000000000     
   1.0741029319675195E-002  0.12662559349816155        0.0000000000000000     
   1.0973803591602223E-002  0.13398777186665564        0.0000000000000000     
   5.2086978867214723E-003  0.10533165713392979        0.0000000000000000     
   5.3233924959025323E-003  0.11228234042463353        0.0000000000000000     
   5.4341801589389838E-003  0.11937037584695163        0.0000000000000000     
   5.5410608758308302E-003  0.12659576340088410        0.0000000000000000     
   5.6440346465780680E-003  0.13395850308643090        0.0000000000000000     
   4.9434403482225995E-004  0.10534925817431236        0.0000000000000000     
   4.5520446394728821E-004  0.11229918583281520        0.0000000000000000     
   4.1980972382478032E-004  0.11938598330997958        0.0000000000000000     
   3.8815981445473825E-004  0.12660965060580548        0.0000000000000000     
   3.6025473583715982E-004  0.13397018772029290        0.0000000000000000     
   2.1771308584500271E-002  0.13416916966936532        0.0000000000000000     
   2.2232135583666580E-002  0.14164514319266791        0.0000000000000000     
   2.2667241822226784E-002  0.14923221175403786        0.0000000000000000     
   2.3076627300180889E-002  0.15693037535347529        0.0000000000000000     
   2.3460292017528903E-002  0.16473963399098018        0.0000000000000000     
   1.6349561570909624E-002  0.13405799406096713        0.0000000000000000     
   1.6690747498527274E-002  0.14154072493949105        0.0000000000000000     
   1.7012544643319652E-002  0.14913463209190414        0.0000000000000000     
   1.7314953005286762E-002  0.15683971551820644        0.0000000000000000     
   1.7597972584428592E-002  0.16465597521839792        0.0000000000000000     
   1.0973803591602223E-002  0.13398777186665564        0.0000000000000000     
   1.1193865504909048E-002  0.14147423673772452        0.0000000000000000     
   1.1400735327965225E-002  0.14907201936971573        0.0000000000000000     
   1.1594413060770756E-002  0.15678111976262935        0.0000000000000000     
   1.1774898703325640E-002  0.16460153791646523        0.0000000000000000     
   5.6440346465780680E-003  0.13395850308643090        0.0000000000000000     
   5.7414896028118931E-003  0.14144567858736840        0.0000000000000000     
   5.8318138761634976E-003  0.14904437358747272        0.0000000000000000     
   5.9150074666328781E-003  0.15675458808674400        0.0000000000000000     
   5.9910703742200372E-003  0.16457632208518222        0.0000000000000000     
   3.6025473583715982E-004  0.13397018772029290        0.0000000000000000     
   3.3361979223581434E-004  0.14145505048842255        0.0000000000000000     
   3.0578028791446925E-004  0.14905169474517505        0.0000000000000000     
   2.7673622287312732E-004  0.15676012049055049        0.0000000000000000     
   2.4648759711178676E-004  0.16458032772454878        0.0000000000000000     
   2.3460292017528903E-002  0.16473963399098018        0.0000000000000000     
   2.3815461800597022E-002  0.17264924976627566        0.0000000000000000     
   2.4139362475711478E-002  0.18064848477908485        0.0000000000000000     
   2.4431994042872263E-002  0.18873733902940787        0.0000000000000000     
   2.4693356502079378E-002  0.19691581251724466        0.0000000000000000     
   1.7597972584428592E-002  0.16465597521839792        0.0000000000000000     
   1.7859719805405388E-002  0.17257283555633493        0.0000000000000000     
   1.8098311092877368E-002  0.18057972089587379        0.0000000000000000     
   1.8313746446844539E-002  0.18867663123701461        0.0000000000000000     
   1.8506025867306895E-002  0.19686356657975723        0.0000000000000000     
   1.1774898703325640E-002  0.16460153791646523        0.0000000000000000     
   1.1941561483084208E-002  0.17252280964778591        0.0000000000000000     
   1.2093770627500793E-002  0.18053447077315363        0.0000000000000000     
   1.2231526136575386E-002  0.18863652129256847        0.0000000000000000     
   1.2354828010307998E-002  0.19682896120603030        0.0000000000000000     
   5.9910703742200372E-003  0.16457632208518222        0.0000000000000000     
   6.0609868336334886E-003  0.17249917204062859        0.0000000000000000     
   6.1257410795817480E-003  0.18051273441092433        0.0000000000000000     
   6.1853331120648126E-003  0.18861700919606944        0.0000000000000000     
   6.2397629310826852E-003  0.19681199639606395        0.0000000000000000     
   2.4648759711178676E-004  0.16458032772454878        0.0000000000000000     
   2.1799585705322842E-004  0.17250192273486289        0.0000000000000000     
   1.9422244912023782E-004  0.18051451180918582        0.0000000000000000     
   1.7516737331281298E-004  0.18861809494751755        0.0000000000000000     
   1.6083062963095527E-004  0.19681267214985806        0.0000000000000000     
   2.4693356502079378E-002  0.19691581251724466        0.0000000000000000     
   2.4924345743198306E-002  0.20516772620228607        0.0000000000000000     
   2.5125857656094531E-002  0.21347690104422307        0.0000000000000000     
   2.5297892240768040E-002  0.22184333704305567        0.0000000000000000     
   2.5440449497218846E-002  0.23026703419878378        0.0000000000000000     
   1.8506025867306895E-002  0.19686356657975723        0.0000000000000000     
   1.8675891408502451E-002  0.20512245266895568        0.0000000000000000     
   1.8824085124669210E-002  0.21343521524946379        0.0000000000000000     
   1.8950607015807176E-002  0.22180185432128166        0.0000000000000000     
   1.9055457081916347E-002  0.23022236988440919        0.0000000000000000     
   1.2354828010307998E-002  0.19682896120603030        0.0000000000000000     
   1.2463981536910782E-002  0.20509236285440172        0.0000000000000000     
   1.2559292004595905E-002  0.21340729857854493        0.0000000000000000     
   1.2640759413363364E-002  0.22177376837845994        0.0000000000000000     
   1.2708383763213160E-002  0.23019177225414683        0.0000000000000000     
   6.2397629310826852E-003  0.19681199639606395        0.0000000000000000     
   6.2886161284233045E-003  0.20507745675862413        0.0000000000000000     
   6.3314782958746102E-003  0.21339315103146633        0.0000000000000000     
   6.3683494334366040E-003  0.22175907921459054        0.0000000000000000     
   6.3992295411092869E-003  0.23017524130799666        0.0000000000000000     
   1.6083062963095527E-004  0.19681267214985806        0.0000000000000000     
   1.4979518304001184E-004  0.20507773438162302        0.0000000000000000     
   1.4064399850532506E-004  0.21339277260822814        0.0000000000000000     
   1.3337707602690001E-004  0.22175778682967334        0.0000000000000000     
   1.2799441560473095E-004  0.23017277704595873        0.0000000000000000     
   2.5440449497218846E-002  0.23026703419878378        0.0000000000000000     
   2.5560134512801730E-002  0.23872046149289050        0.0000000000000000     
   2.5663552374871466E-002  0.24717608790685885        0.0000000000000000     
   2.5750703083428066E-002  0.25563391344068881        0.0000000000000000     
   2.5821586638471526E-002  0.26409393809438042        0.0000000000000000     
   1.9055457081916347E-002  0.23022236988440919        0.0000000000000000     
   1.9143355931417944E-002  0.23866777829727656        0.0000000000000000     
   1.9219024172733194E-002  0.24710909591831379        0.0000000000000000     
   1.9282461805862100E-002  0.25554632274752093        0.0000000000000000     
   1.9333668830804663E-002  0.26397945878489798        0.0000000000000000     
   1.2708383763213160E-002  0.23019177225414683        0.0000000000000000     
   1.2765056185508361E-002  0.23863127810056350        0.0000000000000000     
   1.2813667811612046E-002  0.24706225381266794        0.0000000000000000     
   1.2854218641524209E-002  0.25548469939046003        0.0000000000000000     
   1.2886708675244855E-002  0.26389861483393995        0.0000000000000000     
   6.3992295411092869E-003  0.23017524130799666        0.0000000000000000     
   6.4252352750729822E-003  0.23861096090275141        0.0000000000000000     
   6.4474832915080178E-003  0.24703556158992129        0.0000000000000000     
   6.4659735904143926E-003  0.25544904336950625        0.0000000000000000     
   6.4807061717921076E-003  0.26385140624150638        0.0000000000000000     
   1.2799441560473095E-004  0.23017277704595873        0.0000000000000000     
   1.2389320011180725E-004  0.23860682670384020        0.0000000000000000     
   1.2047061242111427E-004  0.24702901925007381        0.0000000000000000     
   1.1772665253265090E-004  0.25543935468465945        0.0000000000000000     
   1.1566132044641634E-004  0.26383783300759722        0.0000000000000000     
   2.5821586638471526E-002  0.26409393809438042        0.0000000000000000     
   2.5888207334393554E-002  0.27250083476454567        0.0000000000000000     
   2.5962569465585887E-002  0.28079927634779678        0.0000000000000000     
   2.6044673032048504E-002  0.28898926284413368        0.0000000000000000     
   2.6134518033781418E-002  0.29707079425355631        0.0000000000000000     
   1.9333668830804663E-002  0.26397945878489798        0.0000000000000000     
   1.9382326648810351E-002  0.27235101440325399        0.0000000000000000     
   1.9438116661128643E-002  0.28060349997539807        0.0000000000000000     
   1.9501038867759540E-002  0.28873691550133029        0.0000000000000000     
   1.9571093268703037E-002  0.29675126098105059        0.0000000000000000     
   1.2886708675244855E-002  0.26389861483393995        0.0000000000000000     
   1.2917998008504529E-002  0.27224497193894326        0.0000000000000000     
   1.2954946737033769E-002  0.28046474250130554        0.0000000000000000     
   1.2997554860832582E-002  0.28855792652102696        0.0000000000000000     
   1.3045822379900967E-002  0.29652452399810747        0.0000000000000000     
   6.4807061717921076E-003  0.26385140624150638        0.0000000000000000     
   6.4952214134760882E-003  0.27218270737161349        0.0000000000000000     
   6.5130596933012617E-003  0.28038300392551924        0.0000000000000000     
   6.5342210112676307E-003  0.28845229590322369        0.0000000000000000     
   6.5587053673751934E-003  0.29639058330472690        0.0000000000000000     
   1.1566132044641634E-004  0.26383783300759722        0.0000000000000000     
   1.1399686372503366E-004  0.27216422070126461        0.0000000000000000     
   1.1245552993112504E-004  0.28035828424803899        0.0000000000000000     
   1.1103731906468833E-004  0.28842002364792052        0.0000000000000000     
   1.0974223112572568E-004  0.29634943890090903        0.0000000000000000     
   1.1070220407377904E-003   5.5949138864607340E-002   0.0000000000000000     
   1.0251776695210115E-003   6.1474042598443759E-002   0.0000000000000000     
   9.4028808244942896E-004   6.7190308748306504E-002   0.0000000000000000     
   8.5235327952304233E-004   7.3097937314195588E-002   0.0000000000000000     
   7.6137326074185159E-004   7.9196928296110997E-002   0.0000000000000000     
  -1.9821119006947258E-003   5.6302793348786545E-002   0.0000000000000000     
  -2.3159082134931262E-003   6.1706898441545303E-002   0.0000000000000000     
  -2.6420748039432153E-003   6.7334318346104399E-002   0.0000000000000000     
  -2.9606116720449892E-003   7.3185053062463853E-002   0.0000000000000000     
  -3.2715188177984507E-003   7.9259102590623604E-002   0.0000000000000000     
  -5.5331326150847944E-003   5.6398780761242912E-002   0.0000000000000000     
  -6.0650097120090903E-003   6.1772849702972796E-002   0.0000000000000000     
  -6.5809755255072178E-003   6.7380209896506144E-002   0.0000000000000000     
  -7.0810300555791787E-003   7.3220861341842927E-002   0.0000000000000000     
  -7.5651733022249670E-003   7.9294804038983174E-002   0.0000000000000000     
  -9.5460401024324171E-003   5.6237101101976439E-002   0.0000000000000000     
  -1.0222126826026879E-002   6.1671896382726236E-002   0.0000000000000000     
  -1.0876414082242580E-002   6.7327983399511723E-002   0.0000000000000000     
  -1.1508901871079521E-002   7.3205362152332865E-002   0.0000000000000000     
  -1.2119590192537701E-002   7.9304032641189709E-002   0.0000000000000000     
  -1.4020834362737593E-002   5.5817754370987134E-002   0.0000000000000000     
  -1.4787259555546491E-002   6.1404038480805626E-002   0.0000000000000000     
  -1.5528390474149303E-002   6.7177638855121138E-002   0.0000000000000000     
  -1.6244227118546020E-002   7.3138555493933680E-002   0.0000000000000000     
  -1.6934769488736644E-002   7.9286788397243207E-002   0.0000000000000000     
   7.6137326074185159E-004   7.9196928296110997E-002   0.0000000000000000     
   6.7530696409043279E-004   8.5477453055945021E-002   0.0000000000000000     
   6.0211332755336143E-004   9.1929682955589911E-002   0.0000000000000000     
   5.4179235113063675E-004   9.8553617995045695E-002   0.0000000000000000     
   4.9434403482225995E-004  0.10534925817431236        0.0000000000000000     
  -3.2715188177984507E-003   7.9259102590623604E-002   0.0000000000000000     
  -3.5642892661627863E-003   8.5531748434156452E-002   0.0000000000000000     
  -3.8284160420971772E-003   9.1978272096635089E-002   0.0000000000000000     
  -4.0638991456016264E-003   9.8598673578059556E-002   0.0000000000000000     
  -4.2707385766761344E-003  0.10539295287842980        0.0000000000000000     
  -7.5651733022249670E-003   7.9294804038983174E-002   0.0000000000000000     
  -8.0234617814546709E-003   8.5571838850423312E-002   0.0000000000000000     
  -8.4459520092783676E-003   9.2021766638659838E-002   0.0000000000000000     
  -8.8326439856960537E-003   9.8644587403692710E-002   0.0000000000000000     
  -9.1835377107077325E-003  0.10544030114552196        0.0000000000000000     
  -1.2119590192537701E-002   7.9304032641189709E-002   0.0000000000000000     
  -1.2702210581785224E-002   8.5597724304745659E-002   0.0000000000000000     
  -1.3250494573990206E-002   9.2060166581664118E-002   0.0000000000000000     
  -1.3764442169152640E-002   9.8691359471945184E-002   0.0000000000000000     
  -1.4244053367272530E-002  0.10549130297558879        0.0000000000000000     
  -1.6934769488736644E-002   7.9286788397243207E-002   0.0000000000000000     
  -1.7600535667154447E-002   8.5609404797123423E-002   0.0000000000000000     
  -1.8242043736232696E-002   9.2093471925648013E-002   0.0000000000000000     
  -1.8859293695971394E-002   9.8738989782816963E-002   0.0000000000000000     
  -1.9452285546370535E-002  0.10554595836863032        0.0000000000000000     
   4.9434403482225995E-004  0.10534925817431236        0.0000000000000000     
   4.5520446394728821E-004  0.11229918583281520        0.0000000000000000     
   4.1980972382478032E-004  0.11938598330997958        0.0000000000000000     
   3.8815981445473825E-004  0.12660965060580548        0.0000000000000000     
   3.6025473583715982E-004  0.13397018772029290        0.0000000000000000     
  -4.2707385766761344E-003  0.10539295287842980        0.0000000000000000     
  -4.4578922950914987E-003  0.11234217594127210        0.0000000000000000     
  -4.6343182606185225E-003  0.11942740871011268        0.0000000000000000     
  -4.8000164732572024E-003  0.12664865118495156        0.0000000000000000     
  -4.9549869330075390E-003  0.13400590336578866        0.0000000000000000     
  -9.1835377107077325E-003  0.10544030114552196        0.0000000000000000     
  -9.5080088752914470E-003  0.11238994797287648        0.0000000000000000     
  -9.8154331704252400E-003  0.11947456799448516        0.0000000000000000     
  -1.0105810596109117E-002  0.12669416121034804        0.0000000000000000     
  -1.0379141152343070E-002  0.13404872762046513        0.0000000000000000     
  -1.4244053367272530E-002  0.10549130297558879        0.0000000000000000     
  -1.4695145276652553E-002  0.11244250192762829        0.0000000000000000     
  -1.5123535005595372E-002  0.11952746116309705        0.0000000000000000     
  -1.5529222554100997E-002  0.12674618068199509        0.0000000000000000     
  -1.5912207922169425E-002  0.13409866048432237        0.0000000000000000     
  -1.9452285546370535E-002  0.10554595836863032        0.0000000000000000     
  -2.0019301499174812E-002  0.11249983780552757        0.0000000000000000     
  -2.0558623766128915E-002  0.11958608821594832        0.0000000000000000     
  -2.1070252347232851E-002  0.12680470959989257        0.0000000000000000     
  -2.1554187242486613E-002  0.13415570195736035        0.0000000000000000     
   3.6025473583715982E-004  0.13397018772029290        0.0000000000000000     
   3.3361979223581434E-004  0.14145505048842255        0.0000000000000000     
   3.0578028791446925E-004  0.14905169474517505        0.0000000000000000     
   2.7673622287312732E-004  0.15676012049055049        0.0000000000000000     
   2.4648759711178676E-004  0.16458032772454878        0.0000000000000000     
  -4.9549869330075390E-003  0.13400590336578866        0.0000000000000000     
  -5.1021413780536493E-003  0.14148731061631939        0.0000000000000000     
  -5.2443915465796445E-003  0.14908101830023915        0.0000000000000000     
  -5.3817374385855292E-003  0.15678702641754785        0.0000000000000000     
  -5.5141790540712979E-003  0.16460533496824550        0.0000000000000000     
  -1.0379141152343070E-002  0.13404872762046513        0.0000000000000000     
  -1.0638191359290963E-002  0.14152741714649125        0.0000000000000000     
  -1.0885727737116645E-002  0.14911937971008130        0.0000000000000000     
  -1.1121750285820126E-002  0.15682461531123520        0.0000000000000000     
  -1.1346259005401397E-002  0.16464312394995304        0.0000000000000000     
  -1.5912207922169425E-002  0.13409866048432237        0.0000000000000000     
  -1.6274530151476119E-002  0.14157537007893811        0.0000000000000000     
  -1.6618228283696527E-002  0.14916677897470154        0.0000000000000000     
  -1.6943302318830664E-002  0.15687288717161257        0.0000000000000000     
  -1.7249752256878512E-002  0.16469369466967135        0.0000000000000000     
  -2.1554187242486613E-002  0.13415570195736035        0.0000000000000000     
  -2.2011157754609122E-002  0.14163116941365994        0.0000000000000000     
  -2.2441893186319294E-002  0.14922321609409983        0.0000000000000000     
  -2.2846393537617138E-002  0.15693184199867996        0.0000000000000000     
  -2.3224658808502649E-002  0.16475704712740039        0.0000000000000000     
   2.4648759711178676E-004  0.16458032772454878        0.0000000000000000     
   2.1799585705322842E-004  0.17250192273486289        0.0000000000000000     
   1.9422244912023782E-004  0.18051451180918582        0.0000000000000000     
   1.7516737331281298E-004  0.18861809494751755        0.0000000000000000     
   1.6083062963095527E-004  0.19681267214985806        0.0000000000000000     
  -5.5141790540712979E-003  0.16460533496824550        0.0000000000000000     
  -5.6372462818860668E-003  0.17252514105899810        0.0000000000000000     
  -5.7464690108789537E-003  0.18053564179647158        0.0000000000000000     
  -5.8418472410499611E-003  0.18863683718066596        0.0000000000000000     
  -5.9233809723990838E-003  0.19682872721158115        0.0000000000000000     
  -1.1346259005401397E-002  0.16464312394995304        0.0000000000000000     
  -1.1554574418413899E-002  0.17256290634154339        0.0000000000000000     
  -1.1742017047411053E-002  0.18057196320131502        0.0000000000000000     
  -1.1908586892392863E-002  0.18867029452926781        0.0000000000000000     
  -1.2054283953359335E-002  0.19685790032540185        0.0000000000000000     
  -1.7249752256878512E-002  0.16469369466967135        0.0000000000000000     
  -1.7533988552530258E-002  0.17261521858249879        0.0000000000000000     
  -1.7792421660476052E-002  0.18062347602371603        0.0000000000000000     
  -1.8025051580715896E-002  0.18871846699332309        0.0000000000000000     
  -1.8231878313249794E-002  0.19690019149131996        0.0000000000000000     
  -2.3224658808502649E-002  0.16475704712740039        0.0000000000000000     
  -2.3575488684235143E-002  0.17268207778186423        0.0000000000000000     
  -2.3897682850073949E-002  0.18069018026367475        0.0000000000000000     
  -2.4191241306019049E-002  0.18878135457283188        0.0000000000000000     
  -2.4456164052070462E-002  0.19695560070933563        0.0000000000000000     
   1.6083062963095527E-004  0.19681267214985806        0.0000000000000000     
   1.4979518304001184E-004  0.20507773438162302        0.0000000000000000     
   1.4064399850532506E-004  0.21339277260822814        0.0000000000000000     
   1.3337707602690001E-004  0.22175778682967334        0.0000000000000000     
   1.2799441560473095E-004  0.23017277704595873        0.0000000000000000     
  -5.9233809723990838E-003  0.19682872721158115        0.0000000000000000     
  -5.9932151931204082E-003  0.20509132930791180        0.0000000000000000     
  -6.0534948914080112E-003  0.21340466088835236        0.0000000000000000     
  -6.1042200672618979E-003  0.22176872195290284        0.0000000000000000     
  -6.1453907206820623E-003  0.23018351250156324        0.0000000000000000     
  -1.2054283953359335E-002  0.19685790032540185        0.0000000000000000     
  -1.2181148893939267E-002  0.20511637512200395        0.0000000000000000     
  -1.2291222377761462E-002  0.21342731345136109        0.0000000000000000     
  -1.2384504404825926E-002  0.22179071531347327        0.0000000000000000     
  -1.2460994975132648E-002  0.23020658070834044        0.0000000000000000     
  -1.8231878313249794E-002  0.19690019149131996        0.0000000000000000     
  -1.8414005919416568E-002  0.20515287182389944        0.0000000000000000     
  -1.8572538460555028E-002  0.21346073029725432        0.0000000000000000     
  -1.8707475936665184E-002  0.22182376691138461        0.0000000000000000     
  -1.8818818347747023E-002  0.23024198166629037        0.0000000000000000     
  -2.4456164052070462E-002  0.19695560070933563        0.0000000000000000     
  -2.4691786269552304E-002  0.20520081941359827        0.0000000000000000     
  -2.4897443139788707E-002  0.21350491142603203        0.0000000000000000     
  -2.5073134662779668E-002  0.22186787674663694        0.0000000000000000     
  -2.5218860838525193E-002  0.23028971537541296        0.0000000000000000     
   1.2799441560473095E-004  0.23017277704595873        0.0000000000000000     
   1.2389320011180725E-004  0.23860682670384020        0.0000000000000000     
   1.2047061242111427E-004  0.24702901925007381        0.0000000000000000     
   1.1772665253265090E-004  0.25543935468465945        0.0000000000000000     
   1.1566132044641634E-004  0.26383783300759722        0.0000000000000000     
  -6.1453907206820623E-003  0.23018351250156324        0.0000000000000000     
  -6.1792618381039596E-003  0.23861826209609266        0.0000000000000000     
  -6.2080884059630397E-003  0.24704220029825014        0.0000000000000000     
  -6.2318704242593044E-003  0.25545532710803570        0.0000000000000000     
  -6.2506078929927458E-003  0.26385764252544935        0.0000000000000000     
  -1.2460994975132648E-002  0.23020658070834044        0.0000000000000000     
  -1.2524521638303117E-002  0.23864465367177143        0.0000000000000000     
  -1.2578911943958817E-002  0.24707467823957494        0.0000000000000000     
  -1.2624165892099748E-002  0.25549665441175101        0.0000000000000000     
  -1.2660283482725909E-002  0.26391058218829966        0.0000000000000000     
  -1.8818818347747023E-002  0.23024198166629037        0.0000000000000000     
  -1.8911886200485669E-002  0.23868600143087654        0.0000000000000000     
  -1.8992000001566225E-002  0.24712645307404821        0.0000000000000000     
  -1.9059159750988694E-002  0.25556333659580532        0.0000000000000000     
  -1.9113365448753066E-002  0.26399665199614797        0.0000000000000000     
  -2.5218860838525193E-002  0.23028971537541296        0.0000000000000000     
  -2.5341355524651610E-002  0.23874230537340799        0.0000000000000000     
  -2.5447352578785255E-002  0.24719752480166995        0.0000000000000000     
  -2.5536852000926129E-002  0.25565537366019875        0.0000000000000000     
  -2.5609853791074229E-002  0.26411585194899445        0.0000000000000000     
   1.1566132044641634E-004  0.26383783300759722        0.0000000000000000     
   1.1399686372503366E-004  0.27216422070126461        0.0000000000000000     
   1.1245552993112504E-004  0.28035828424803899        0.0000000000000000     
   1.1103731906468833E-004  0.28842002364792052        0.0000000000000000     
   1.0974223112572568E-004  0.29634943890090903        0.0000000000000000     
  -6.2506078929927458E-003  0.26385764252544935        0.0000000000000000     
  -6.2683690290851260E-003  0.27218926888766776        0.0000000000000000     
  -6.2892220494581959E-003  0.28039032853186757        0.0000000000000000     
  -6.3131669541119572E-003  0.28846082145804880        0.0000000000000000     
  -6.3402037430464056E-003  0.29640074766621144        0.0000000000000000     
  -1.2660283482725909E-002  0.26391058218829966        0.0000000000000000     
  -1.2694569653290881E-002  0.27225760889059403        0.0000000000000000     
  -1.2734329341248249E-002  0.28047888184000752        0.0000000000000000     
  -1.2779562546598013E-002  0.28857440103654014        0.0000000000000000     
  -1.2830269269340173E-002  0.29654416648019188        0.0000000000000000     
  -1.9113365448753066E-002  0.26399665199614797        0.0000000000000000     
  -1.9164605008892228E-002  0.27236924071004337        0.0000000000000000     
  -1.9222866345439030E-002  0.28062394417245884        0.0000000000000000     
  -1.9288149458393480E-002  0.28876076238339454        0.0000000000000000     
  -1.9360454347755570E-002  0.29677969534285026        0.0000000000000000     
  -2.5609853791074229E-002  0.26411585194899445        0.0000000000000000     
  -2.5678475095889167E-002  0.27252416434601584        0.0000000000000000     
  -2.5754833062030545E-002  0.28082551552922175        0.0000000000000000     
  -2.5838927689498352E-002  0.28901990549861195        0.0000000000000000     
  -2.5930758978292598E-002  0.29710733425418673        0.0000000000000000     
  -1.4020834362737593E-002   5.5817754370987134E-002   0.0000000000000000     
  -1.4787259555546491E-002   6.1404038480805626E-002   0.0000000000000000     
  -1.5528390474149303E-002   6.7177638855121138E-002   0.0000000000000000     
  -1.6244227118546020E-002   7.3138555493933680E-002   0.0000000000000000     
  -1.6934769488736644E-002   7.9286788397243207E-002   0.0000000000000000     
  -1.8519763510394669E-002   5.5481048793181241E-002   0.0000000000000000     
  -1.9382787542728441E-002   6.1209593715869509E-002   0.0000000000000000     
  -2.0216067027548704E-002   6.7093193267542844E-002   0.0000000000000000     
  -2.1019601964855458E-002   7.3131847448201184E-002   0.0000000000000000     
  -2.1793392354648698E-002   7.9325556257844571E-002   0.0000000000000000     
  -2.2605075659798000E-002   5.5567292593464997E-002   0.0000000000000000     
  -2.3631090429733246E-002   6.1328879806576447E-002   0.0000000000000000     
  -2.4618606068762115E-002   6.7238663640985241E-002   0.0000000000000000     
  -2.5567622576884608E-002   7.3296644096691330E-002   0.0000000000000000     
  -2.6478139954100734E-002   7.9502821173694768E-002   0.0000000000000000     
  -2.6276770810947581E-002   5.6076485771838422E-002   0.0000000000000000     
  -2.7532168216560890E-002   6.1761896752926433E-002   0.0000000000000000     
  -2.8736007597789524E-002   6.7614049975448329E-002   0.0000000000000000     
  -2.9888288954633486E-002   7.3632945439404116E-002   0.0000000000000000     
  -3.0989012287092773E-002   7.9818583144793800E-002   0.0000000000000000     
  -2.9534848963843417E-002   5.7008628328301503E-002   0.0000000000000000     
  -3.1086020903211390E-002   6.2508644554919460E-002   0.0000000000000000     
  -3.2568271614630939E-002   6.8219352270932135E-002   0.0000000000000000     
  -3.3981601098102082E-002   7.4140751476339528E-002   0.0000000000000000     
  -3.5326009353624802E-002   8.0272842171141640E-002   0.0000000000000000     
  -1.6934769488736644E-002   7.9286788397243207E-002   0.0000000000000000     
  -1.7600535667154447E-002   8.5609404797123423E-002   0.0000000000000000     
  -1.8242043736232696E-002   9.2093471925648013E-002   0.0000000000000000     
  -1.8859293695971394E-002   9.8738989782816963E-002   0.0000000000000000     
  -1.9452285546370535E-002  0.10554595836863032        0.0000000000000000     
  -2.1793392354648698E-002   7.9325556257844571E-002   0.0000000000000000     
  -2.2545077203494773E-002   8.5673904097518544E-002   0.0000000000000000     
  -2.3282295517960062E-002   9.2176475368268590E-002   0.0000000000000000     
  -2.4005047298044542E-002   9.8833270070094736E-002   0.0000000000000000     
  -2.4713332543748225E-002  0.10564428820299697        0.0000000000000000     
  -2.6478139954100734E-002   7.9502821173694768E-002   0.0000000000000000     
  -2.7362475356738646E-002   8.5858245975892894E-002   0.0000000000000000     
  -2.8232945941126516E-002   9.2363969607182989E-002   0.0000000000000000     
  -2.9089551707264336E-002   9.9019992067565121E-002   0.0000000000000000     
  -2.9932292655152092E-002  0.10582631335703925        0.0000000000000000     
  -3.0989012287092773E-002   7.9818583144793800E-002   0.0000000000000000     
  -3.2052730126886080E-002   8.6162430432246473E-002   0.0000000000000000     
  -3.3093995005732062E-002   9.2655954642391278E-002   0.0000000000000000     
  -3.4112806923630758E-002   9.9299155775228160E-002   0.0000000000000000     
  -3.5109165880582140E-002  0.10609203383075719        0.0000000000000000     
  -3.5326009353624802E-002   8.0272842171141640E-002   0.0000000000000000     
  -3.6615841513937042E-002   8.6586457466579295E-002   0.0000000000000000     
  -3.7865442711776706E-002   9.3052430473893361E-002   0.0000000000000000     
  -3.9074812947143822E-002   9.9670761193083837E-002   0.0000000000000000     
  -4.0243952220038355E-002  0.10644144962415071        0.0000000000000000     
  -1.9452285546370535E-002  0.10554595836863032        0.0000000000000000     
  -2.0019301499174812E-002  0.11249983780552757        0.0000000000000000     
  -2.0558623766128915E-002  0.11958608821594832        0.0000000000000000     
  -2.1070252347232851E-002  0.12680470959989257        0.0000000000000000     
  -2.1554187242486613E-002  0.13415570195736035        0.0000000000000000     
  -2.4713332543748225E-002  0.10564428820299697        0.0000000000000000     
  -2.5397953579225224E-002  0.11259810278750493        0.0000000000000000     
  -2.6049712728629645E-002  0.11968328684414818        0.0000000000000000     
  -2.6668609991961498E-002  0.12689984037292676        0.0000000000000000     
  -2.7254645369220780E-002  0.13424776337384065        0.0000000000000000     
  -2.9932292655152092E-002  0.10582631335703925        0.0000000000000000     
  -3.0748577553170765E-002  0.11277344405449097        0.0000000000000000     
  -3.1525815169701328E-002  0.11985189473880584        0.0000000000000000     
  -3.2264005504743766E-002  0.12706166540998384        0.0000000000000000     
  -3.2963148558298086E-002  0.13440275606802496        0.0000000000000000     
  -3.5109165880582140E-002  0.10609203383075719        0.0000000000000000     
  -3.6071173421011460E-002  0.11302586160648571        0.0000000000000000     
  -3.6986931089343963E-002  0.12009191189992127        0.0000000000000000     
  -3.7856438885579650E-002  0.12729018471106374        0.0000000000000000     
  -3.8679696809718528E-002  0.13462068003991323        0.0000000000000000     
  -4.0243952220038355E-002  0.10644144962415071        0.0000000000000000     
  -4.1365741182747273E-002  0.11335535544348918        0.0000000000000000     
  -4.2433060487557538E-002  0.12040333832749447        0.0000000000000000     
  -4.3445910134469148E-002  0.12758539827616658        0.0000000000000000     
  -4.4404290123482099E-002  0.13490153528950549        0.0000000000000000     
  -2.1554187242486613E-002  0.13415570195736035        0.0000000000000000     
  -2.2011157754609122E-002  0.14163116941365994        0.0000000000000000     
  -2.2441893186319294E-002  0.14922321609409983        0.0000000000000000     
  -2.2846393537617138E-002  0.15693184199867996        0.0000000000000000     
  -2.3224658808502649E-002  0.16475704712740039        0.0000000000000000     
  -2.7254645369220780E-002  0.13424776337384065        0.0000000000000000     
  -2.7807434329404881E-002  0.14172030258228877        0.0000000000000000     
  -2.8326592341511182E-002  0.14931070473367009        0.0000000000000000     
  -2.8812119405539693E-002  0.15701896982798452        0.0000000000000000     
  -2.9264015521490400E-002  0.16484509786523216        0.0000000000000000     
  -3.2963148558298086E-002  0.13440275606802496        0.0000000000000000     
  -3.3622720036578298E-002  0.14186825701645658        0.0000000000000000     
  -3.4242195645798425E-002  0.14945125855880606        0.0000000000000000     
  -3.4821575385958453E-002  0.15715176069507336        0.0000000000000000     
  -3.5360859257058383E-002  0.16496976342525854        0.0000000000000000     
  -3.8679696809718528E-002  0.13462068003991323        0.0000000000000000     
  -3.9457014876129383E-002  0.14207503271616334        0.0000000000000000     
  -4.0188703099181010E-002  0.14964487756950778        0.0000000000000000     
  -4.0874761478873430E-002  0.15733021459994648        0.0000000000000000     
  -4.1515190015206607E-002  0.16513104380747956        0.0000000000000000     
  -4.4404290123482099E-002  0.13490153528950549        0.0000000000000000     
  -4.5310318848058126E-002  0.14234062968140909        0.0000000000000000     
  -4.6166114701658954E-002  0.14989156176577523        0.0000000000000000     
  -4.6971677684284598E-002  0.15755433154260393        0.0000000000000000     
  -4.7727007795935042E-002  0.16532893901189516        0.0000000000000000     
  -2.3224658808502649E-002  0.16475704712740039        0.0000000000000000     
  -2.3575488684235143E-002  0.17268207778186423        0.0000000000000000     
  -2.3897682850073949E-002  0.18069018026367475        0.0000000000000000     
  -2.4191241306019049E-002  0.18878135457283188        0.0000000000000000     
  -2.4456164052070462E-002  0.19695560070933563        0.0000000000000000     
  -2.9264015521490400E-002  0.16484509786523216        0.0000000000000000     
  -2.9683388118437827E-002  0.17277013417332207        0.0000000000000000     
  -3.0071344625456450E-002  0.18077512408016336        0.0000000000000000     
  -3.0427885042546295E-002  0.18886006758575605        0.0000000000000000     
  -3.0753009369707339E-002  0.19702496469010011        0.0000000000000000     
  -3.5360859257058383E-002  0.16496976342525854        0.0000000000000000     
  -3.5862000160047557E-002  0.17288603799055449        0.0000000000000000     
  -3.6326950995875303E-002  0.18088135563215418        0.0000000000000000     
  -3.6755711764541586E-002  0.18895571635005759        0.0000000000000000     
  -3.7148282466046428E-002  0.19710912014426482        0.0000000000000000     
  -4.1515190015206607E-002  0.16513104380747956        0.0000000000000000     
  -4.2111324809064349E-002  0.17302978923356155        0.0000000000000000     
  -4.2664501961330453E-002  0.18100887491964723        0.0000000000000000     
  -4.3174721472004914E-002  0.18906830086573662        0.0000000000000000     
  -4.3641983341087737E-002  0.19720806707182964        0.0000000000000000     
  -4.7727007795935042E-002  0.16532893901189516        0.0000000000000000     
  -4.8431362065488197E-002  0.17320138790234321        0.0000000000000000     
  -4.9083997521821937E-002  0.18115768194264251        0.0000000000000000     
  -4.9684914164936297E-002  0.18919782113279299        0.0000000000000000     
  -5.0234111994831243E-002  0.19732180547279465        0.0000000000000000     
  -2.4456164052070462E-002  0.19695560070933563        0.0000000000000000     
  -2.4691786269552304E-002  0.20520081941359827        0.0000000000000000     
  -2.4897443139788707E-002  0.21350491142603203        0.0000000000000000     
  -2.5073134662779668E-002  0.22186787674663694        0.0000000000000000     
  -2.5218860838525193E-002  0.23028971537541296        0.0000000000000000     
  -3.0753009369707339E-002  0.19702496469010011        0.0000000000000000     
  -3.1044233464364954E-002  0.20526126086287197        0.0000000000000000     
  -3.1299073183944488E-002  0.21356040157374798        0.0000000000000000     
  -3.1517528528445950E-002  0.22192238682272813        0.0000000000000000     
  -3.1699599497869345E-002  0.23034721660981242        0.0000000000000000     
  -3.7148282466046428E-002  0.19710912014426482        0.0000000000000000     
  -3.7501091023872973E-002  0.20533523914349208        0.0000000000000000     
  -3.7810565361504365E-002  0.21362774547645588        0.0000000000000000     
  -3.8076705478940598E-002  0.22198663914315614        0.0000000000000000     
  -3.8299511376181664E-002  0.23041192014359288        0.0000000000000000     
  -4.3641983341087737E-002  0.19720806707182964        0.0000000000000000     
  -4.4062358948076377E-002  0.20542275425545858        0.0000000000000000     
  -4.4431919672468331E-002  0.21370694313415567        0.0000000000000000     
  -4.4750665514263599E-002  0.22206063370792092        0.0000000000000000     
  -4.5018596473462166E-002  0.23048382597675432        0.0000000000000000     
  -5.0234111994831243E-002  0.19732180547279465        0.0000000000000000     
  -5.0728037236975151E-002  0.20552380619877150        0.0000000000000000     
  -5.1163136116836386E-002  0.21379799454684745        0.0000000000000000     
  -5.1539408634414939E-002  0.22214437051702254        0.0000000000000000     
  -5.1856854789710832E-002  0.23056293410929676        0.0000000000000000     
  -2.5218860838525193E-002  0.23028971537541296        0.0000000000000000     
  -2.5341355524651610E-002  0.23874230537340799        0.0000000000000000     
  -2.5447352578785255E-002  0.24719752480166995        0.0000000000000000     
  -2.5536852000926129E-002  0.25565537366019875        0.0000000000000000     
  -2.5609853791074229E-002  0.26411585194899445        0.0000000000000000     
  -3.1699599497869345E-002  0.23034721660981242        0.0000000000000000     
  -3.1853093411627814E-002  0.23880906459063347        0.0000000000000000     
  -3.1985817589134519E-002  0.24728210442082391        0.0000000000000000     
  -3.2097772030389465E-002  0.25576633610038380        0.0000000000000000     
  -3.2188956735392647E-002  0.26426175962931303        0.0000000000000000     
  -3.8299511376181664E-002  0.23041192014359288        0.0000000000000000     
  -3.8487263662241158E-002  0.23888177817382067        0.0000000000000000     
  -3.8648242946132637E-002  0.24737440292989410        0.0000000000000000     
  -3.8782449227856113E-002  0.25588979441181309        0.0000000000000000     
  -3.8889882507411586E-002  0.26442795261957780        0.0000000000000000     
  -4.5018596473462166E-002  0.23048382597675432        0.0000000000000000     
  -4.5243866276491636E-002  0.23896044612296957        0.0000000000000000     
  -4.5434628649779603E-002  0.24747442032888034        0.0000000000000000     
  -4.5590883593326081E-002  0.25602574859448668        0.0000000000000000     
  -4.5712631107131051E-002  0.26461443091978859        0.0000000000000000     
  -5.1856854789710832E-002  0.23056293410929676        0.0000000000000000     
  -5.2122901254379246E-002  0.23904506843808018        0.0000000000000000     
  -5.2344974700075417E-002  0.24758215661778279        0.0000000000000000     
  -5.2523075126799344E-002  0.25617419864840457        0.0000000000000000     
  -5.2657202534551022E-002  0.26482119452994551        0.0000000000000000     
  -2.5609853791074229E-002  0.26411585194899445        0.0000000000000000     
  -2.5678475095889167E-002  0.27252416434601584        0.0000000000000000     
  -2.5754833062030545E-002  0.28082551552922175        0.0000000000000000     
  -2.5838927689498352E-002  0.28901990549861195        0.0000000000000000     
  -2.5930758978292598E-002  0.29710733425418673        0.0000000000000000     
  -3.2188956735392647E-002  0.26426175962931303        0.0000000000000000     
  -3.2274041449382708E-002  0.27271597338343873        0.0000000000000000     
  -3.2367695917598270E-002  0.28107657573858774        0.0000000000000000     
  -3.2469920140039341E-002  0.28934356669476019        0.0000000000000000     
  -3.2580714116705906E-002  0.29751694625195602        0.0000000000000000     
  -3.8889882507411586E-002  0.26442795261957780        0.0000000000000000     
  -3.8989165604473845E-002  0.27293826140723931        0.0000000000000000     
  -3.9098921338717708E-002  0.28137010462884893        0.0000000000000000     
  -3.9219149710143127E-002  0.28972348228440692        0.0000000000000000     
  -3.9349850718750148E-002  0.29799839437391290        0.0000000000000000     
  -4.5712631107131051E-002  0.26461443091978859        0.0000000000000000     
  -4.5823847561162603E-002  0.27319102841741760        0.0000000000000000     
  -4.5948509325388839E-002  0.28170610220000547        0.0000000000000000     
  -4.6086616399809731E-002  0.29015965226755208        0.0000000000000000     
  -4.6238168784425306E-002  0.29855167862005738        0.0000000000000000     
  -5.2657202534551022E-002  0.26482119452994551        0.0000000000000000     
  -5.2778087319448962E-002  0.27347427441397376        0.0000000000000000     
  -5.2916459877611677E-002  0.28208456845205715        0.0000000000000000     
  -5.3072320209039153E-002  0.29065207664419579        0.0000000000000000     
  -5.3245668313731398E-002  0.29917679899038951        0.0000000000000000     
  -2.9534848963843417E-002   5.7008628328301503E-002   0.0000000000000000     
  -3.1086020903211390E-002   6.2508644554919460E-002   0.0000000000000000     
  -3.2568271614630939E-002   6.8219352270932135E-002   0.0000000000000000     
  -3.3981601098102082E-002   7.4140751476339528E-002   0.0000000000000000     
  -3.5326009353624802E-002   8.0272842171141640E-002   0.0000000000000000     
  -3.2811627119782423E-002   5.8051472811500270E-002   0.0000000000000000     
  -3.4663258919678142E-002   6.3358972231721600E-002   0.0000000000000000     
  -3.6429941545152993E-002   6.8921083839708686E-002   0.0000000000000000     
  -3.8111674996206948E-002   7.4737807635461492E-002   0.0000000000000000     
  -3.9708459272840037E-002   8.0809143618980034E-002   0.0000000000000000     
  -3.6539422280061518E-002   5.8892771770080739E-002   0.0000000000000000     
  -3.8634492695954578E-002   6.4102728802498954E-002   0.0000000000000000     
  -4.0635560815222294E-002   6.9585757994050021E-002   0.0000000000000000     
  -4.2542626637864636E-002   7.5341859344733933E-002   0.0000000000000000     
  -4.4355690163881648E-002   8.1371032854550746E-002   0.0000000000000000     
  -4.0718234444680715E-002   5.9532525204042924E-002   0.0000000000000000     
  -4.2999722232040689E-002   6.4739914267251480E-002   0.0000000000000000     
  -4.5185129424838842E-002   7.0213374733956141E-002   0.0000000000000000     
  -4.7274456023075166E-002   7.5952906604156906E-002   0.0000000000000000     
  -4.9267702026749675E-002   8.1958509877853747E-002   0.0000000000000000     
  -4.5348063613639987E-002   5.9970733113386805E-002   0.0000000000000000     
  -4.7758947527936468E-002   6.5270528625979207E-002   0.0000000000000000     
  -5.0078647374002645E-002   7.0803934059427046E-002   0.0000000000000000     
  -5.2307163151838525E-002   7.6570949413730341E-002   0.0000000000000000     
  -5.4444494861444065E-002   8.2571574688889079E-002   0.0000000000000000     
  -3.5326009353624802E-002   8.0272842171141640E-002   0.0000000000000000     
  -3.6615841513937042E-002   8.6586457466579295E-002   0.0000000000000000     
  -3.7865442711776706E-002   9.3052430473893361E-002   0.0000000000000000     
  -3.9074812947143822E-002   9.9670761193083837E-002   0.0000000000000000     
  -4.0243952220038355E-002  0.10644144962415071        0.0000000000000000     
  -3.9708459272840037E-002   8.0809143618980034E-002   0.0000000000000000     
  -4.1233105553406153E-002   8.7085774408297983E-002   0.0000000000000000     
  -4.2698425016259256E-002   9.3518382621449028E-002   0.0000000000000000     
  -4.4104417661399324E-002  0.10010696825843317        0.0000000000000000     
  -4.5451083488826351E-002  0.10685153131925040        0.0000000000000000     
  -4.4355690163881648E-002   8.1371032854550746E-002   0.0000000000000000     
  -4.6085818280808037E-002   8.7615828586809164E-002   0.0000000000000000     
  -4.7744077876178515E-002   9.4018796604817975E-002   0.0000000000000000     
  -4.9330468949993080E-002  0.10057993690857719        0.0000000000000000     
  -5.0844991502251739E-002  0.10729924949808681        0.0000000000000000     
  -4.9267702026749675E-002   8.1958509877853747E-002   0.0000000000000000     
  -5.1173979696142659E-002   8.8176620002112807E-002   0.0000000000000000     
  -5.3002401291534461E-002   9.4553672424000187E-002   0.0000000000000000     
  -5.4752966812925082E-002  0.10108966714351590        0.0000000000000000     
  -5.6425676260314528E-002  0.10778460416065989        0.0000000000000000     
  -5.4444494861444065E-002   8.2571574688889079E-002   0.0000000000000000     
  -5.6497589799410025E-002   8.8768148654208970E-002   0.0000000000000000     
  -5.8473395262327123E-002   9.5123010078995707E-002   0.0000000000000000     
  -6.0371911250195351E-002  0.10163615896324928        0.0000000000000000     
  -6.2193137763014703E-002  0.10830759530696972        0.0000000000000000     
  -4.0243952220038355E-002  0.10644144962415071        0.0000000000000000     
  -4.1365741182747273E-002  0.11335535544348918        0.0000000000000000     
  -4.2433060487557538E-002  0.12040333832749447        0.0000000000000000     
  -4.3445910134469148E-002  0.12758539827616658        0.0000000000000000     
  -4.4404290123482099E-002  0.13490153528950549        0.0000000000000000     
  -4.5451083488826351E-002  0.10685153131925040        0.0000000000000000     
  -4.6736715490669010E-002  0.11374207143855435        0.0000000000000000     
  -4.7959606659055964E-002  0.12076858825099858        0.0000000000000000     
  -4.9119756993987213E-002  0.12793108175658316        0.0000000000000000     
  -5.0217166495462769E-002  0.13522955195530809        0.0000000000000000     
  -5.0844991502251739E-002  0.10729924949808681        0.0000000000000000     
  -5.2288530997067435E-002  0.11416615546473419        0.0000000000000000     
  -5.3661972898553144E-002  0.12117007589990675        0.0000000000000000     
  -5.4965317206708823E-002  0.12831101080360446        0.0000000000000000     
  -5.6198563921534488E-002  0.13558896017582733        0.0000000000000000     
  -5.6425676260314528E-002  0.10778460416065989        0.0000000000000000     
  -5.8021187701942575E-002  0.11462760752202875        0.0000000000000000     
  -5.9540159206049055E-002  0.12160780127421893        0.0000000000000000     
  -6.0982590772633953E-002  0.12872518541723044        0.0000000000000000     
  -6.2348482401697276E-002  0.13597975995106326        0.0000000000000000     
  -6.2193137763014703E-002  0.10830759530696972        0.0000000000000000     
  -6.3934685605294417E-002  0.11512642761043800        0.0000000000000000     
  -6.5594165581543712E-002  0.12208176437393513        0.0000000000000000     
  -6.7171577691762616E-002  0.12917360559746108        0.0000000000000000     
  -6.8666921935951100E-002  0.13640195128101584        0.0000000000000000     
  -4.4404290123482099E-002  0.13490153528950549        0.0000000000000000     
  -4.5310318848058126E-002  0.14234062968140909        0.0000000000000000     
  -4.6166114701658954E-002  0.14989156176577523        0.0000000000000000     
  -4.6971677684284598E-002  0.15755433154260393        0.0000000000000000     
  -4.7727007795935042E-002  0.16532893901189516        0.0000000000000000     
  -5.0217166495462769E-002  0.13522955195530809        0.0000000000000000     
  -5.1255951962402950E-002  0.14265009173105286        0.0000000000000000     
  -5.2240230193728115E-002  0.15017879396769712        0.0000000000000000     
  -5.3170001189438251E-002  0.15781565866524078        0.0000000000000000     
  -5.4045264949533385E-002  0.16556068582368388        0.0000000000000000     
  -5.6198563921534488E-002  0.13558896017582733        0.0000000000000000     
  -5.7367234229202292E-002  0.14298846268395377        0.0000000000000000     
  -5.8476849315884351E-002  0.15049405699536203        0.0000000000000000     
  -5.9527409181580698E-002  0.15810574311005227        0.0000000000000000     
  -6.0518913826291293E-002  0.16582352102802431        0.0000000000000000     
  -6.2348482401697276E-002  0.13597975995106326        0.0000000000000000     
  -6.3644165648456139E-002  0.14335574254011169        0.0000000000000000     
  -6.4875972068127660E-002  0.15083735084877006        0.0000000000000000     
  -6.6043901660711890E-002  0.15842458487703828        0.0000000000000000     
  -6.7147954426208772E-002  0.16611744462491637        0.0000000000000000     
  -6.8666921935951100E-002  0.13640195128101584        0.0000000000000000     
  -7.0086746220164475E-002  0.14375193129952676        0.0000000000000000     
  -7.1437598450458051E-002  0.15120867552792114        0.0000000000000000     
  -7.2719478626831840E-002  0.15877218396619891        0.0000000000000000     
  -7.3932386749285803E-002  0.16644245661436013        0.0000000000000000     
  -4.7727007795935042E-002  0.16532893901189516        0.0000000000000000     
  -4.8431362065488197E-002  0.17320138790234321        0.0000000000000000     
  -4.9083997521821937E-002  0.18115768194264251        0.0000000000000000     
  -4.9684914164936297E-002  0.18919782113279299        0.0000000000000000     
  -5.0234111994831243E-002  0.19732180547279465        0.0000000000000000     
  -5.4045264949533385E-002  0.16556068582368388        0.0000000000000000     
  -5.4863006219767640E-002  0.17340368561504671        0.0000000000000000     
  -5.5620209745895204E-002  0.18133446821134963        0.0000000000000000     
  -5.6316875527916060E-002  0.18935303361259251        0.0000000000000000     
  -5.6953003565830204E-002  0.19745938181877543        0.0000000000000000     
  -6.0518913826291293E-002  0.16582352102802431        0.0000000000000000     
  -6.1447151562351261E-002  0.17363953398981924        0.0000000000000000     
  -6.2307910702095674E-002  0.18154592523597815        0.0000000000000000     
  -6.3101191245524546E-002  0.18954269476650090        0.0000000000000000     
  -6.3826993192637876E-002  0.19762984258138760        0.0000000000000000     
  -6.7147954426208772E-002  0.16611744462491637        0.0000000000000000     
  -6.8183798093239031E-002  0.17390893302666086        0.0000000000000000     
  -6.9147100390423363E-002  0.18179205301652809        0.0000000000000000     
  -7.0037861317761768E-002  0.18976680459451820        0.0000000000000000     
  -7.0856080875254260E-002  0.19783318776063114        0.0000000000000000     
  -7.3932386749285803E-002  0.16644245661436013        0.0000000000000000     
  -7.5072945812430944E-002  0.17421188272557142        0.0000000000000000     
  -7.6137778810878257E-002  0.18207285155299954        0.0000000000000000     
  -7.7126885744627699E-002  0.19002536309664439        0.0000000000000000     
  -7.8040266613679327E-002  0.19806941735650604        0.0000000000000000     
  -5.0234111994831243E-002  0.19732180547279465        0.0000000000000000     
  -5.0728037236975151E-002  0.20552380619877150        0.0000000000000000     
  -5.1163136116836386E-002  0.21379799454684745        0.0000000000000000     
  -5.1539408634414939E-002  0.22214437051702254        0.0000000000000000     
  -5.1856854789710832E-002  0.23056293410929676        0.0000000000000000     
  -5.6953003565830204E-002  0.19745938181877543        0.0000000000000000     
  -5.7525890908127569E-002  0.20564672187266869        0.0000000000000000     
  -5.8032834603298084E-002  0.21390826281704259        0.0000000000000000     
  -5.8473834651341705E-002  0.22224400465189706        0.0000000000000000     
  -5.8848891052258469E-002  0.23065394737723216        0.0000000000000000     
  -6.3826993192637876E-002  0.19762984258138760        0.0000000000000000     
  -6.4483684979091918E-002  0.20579982817638812        0.0000000000000000     
  -6.5069635040542959E-002  0.21404511104725243        0.0000000000000000     
  -6.5584843376990928E-002  0.22236569119398053        0.0000000000000000     
  -6.6029309988435897E-002  0.23076156861657240        0.0000000000000000     
  -7.0856080875254260E-002  0.19783318776063114        0.0000000000000000     
  -7.1601419449868198E-002  0.20598312510992978        0.0000000000000000     
  -7.2273537428570997E-002  0.21420853923747707        0.0000000000000000     
  -7.2872434811362644E-002  0.22250943014327293        0.0000000000000000     
  -7.3398111598243110E-002  0.23088579782731747        0.0000000000000000     
  -7.8040266613679327E-002  0.19806941735650604        0.0000000000000000     
  -7.8879094320456408E-002  0.20619661267329367        0.0000000000000000     
  -7.9644541767382226E-002  0.21439854738771641        0.0000000000000000     
  -8.0336608954456781E-002  0.22267522149977434        0.0000000000000000     
  -8.0955295881680087E-002  0.23102663500946741        0.0000000000000000     
  -5.1856854789710832E-002  0.23056293410929676        0.0000000000000000     
  -5.2122901254379246E-002  0.23904506843808018        0.0000000000000000     
  -5.2344974700075417E-002  0.24758215661778279        0.0000000000000000     
  -5.2523075126799344E-002  0.25617419864840457        0.0000000000000000     
  -5.2657202534551022E-002  0.26482119452994551        0.0000000000000000     
  -5.8848891052258469E-002  0.23065394737723216        0.0000000000000000     
  -5.9163547515912893E-002  0.23913756024304772        0.0000000000000000     
  -5.9423347752169495E-002  0.24769431249934354        0.0000000000000000     
  -5.9628291761028275E-002  0.25632420414611956        0.0000000000000000     
  -5.9778379542489241E-002  0.26502723518337584        0.0000000000000000     
  -6.6029309988435897E-002  0.23076156861657240        0.0000000000000000     
  -6.6404983981101451E-002  0.23923983666176735        0.0000000000000000     
  -6.6713814461211246E-002  0.24780758867630476        0.0000000000000000     
  -6.6955801428765213E-002  0.25646482466018450        0.0000000000000000     
  -6.7130944883763408E-002  0.26521154461340668        0.0000000000000000     
  -7.3398111598243110E-002  0.23088579782731747        0.0000000000000000     
  -7.3847210649944942E-002  0.23935189769423909        0.0000000000000000     
  -7.4216374827200601E-002  0.24792198514866645        0.0000000000000000     
  -7.4505604130010158E-002  0.25659606019059950        0.0000000000000000     
  -7.4714898558373571E-002  0.26537412282003808        0.0000000000000000     
  -8.0955295881680087E-002  0.23102663500946741        0.0000000000000000     
  -8.1490227522443323E-002  0.23947374334046301        0.0000000000000000     
  -8.1931028850137658E-002  0.24803750191642868        0.0000000000000000     
  -8.2277699864763090E-002  0.25671791073736433        0.0000000000000000     
  -8.2530240566319663E-002  0.26551496980327000        0.0000000000000000     
  -5.2657202534551022E-002  0.26482119452994551        0.0000000000000000     
  -5.2778087319448962E-002  0.27347427441397376        0.0000000000000000     
  -5.2916459877611677E-002  0.28208456845205715        0.0000000000000000     
  -5.3072320209039153E-002  0.29065207664419579        0.0000000000000000     
  -5.3245668313731398E-002  0.29917679899038951        0.0000000000000000     
  -5.9778379542489241E-002  0.26502723518337584        0.0000000000000000     
  -5.9910440210753237E-002  0.27375944251845263        0.0000000000000000     
  -6.0061302880021150E-002  0.28247686305869041        0.0000000000000000     
  -6.0230967550292940E-002  0.29117949680408900        0.0000000000000000     
  -6.0419434221568646E-002  0.29986734375464841        0.0000000000000000     
  -6.7130944883763408E-002  0.26521154461340668        0.0000000000000000     
  -6.7279461566495780E-002  0.27401797585239962        0.0000000000000000     
  -6.7441568217252210E-002  0.28285434569359169        0.0000000000000000     
  -6.7617264836032698E-002  0.29172065413698289        0.0000000000000000     
  -6.7806551422837272E-002  0.30061690118257323        0.0000000000000000     
  -7.4714898558373571E-002  0.26537412282003808        0.0000000000000000     
  -7.4885151386676535E-002  0.27424987441581450        0.0000000000000000     
  -7.5057255889304828E-002  0.28321701635676094        0.0000000000000000     
  -7.5231212066258393E-002  0.29227554864287741        0.0000000000000000     
  -7.5407019917537288E-002  0.30142547127416386        0.0000000000000000     
  -8.2530240566319663E-002  0.26551496980327000        0.0000000000000000     
  -8.2727509671295552E-002  0.27445513820869744        0.0000000000000000     
  -8.2908365896179018E-002  0.28356487504819827        0.0000000000000000     
  -8.3072809240970061E-002  0.29284418032177262        0.0000000000000000     
  -8.3220839705668681E-002  0.30229305402942042        0.0000000000000000     
  -4.5348063613639987E-002   5.9970733113386805E-002   0.0000000000000000     
  -4.7758947527936468E-002   6.5270528625979207E-002   0.0000000000000000     
  -5.0078647374002645E-002   7.0803934059427046E-002   0.0000000000000000     
  -5.2307163151838525E-002   7.6570949413730341E-002   0.0000000000000000     
  -5.4444494861444065E-002   8.2571574688889079E-002   0.0000000000000000     
  -5.0224281280378778E-002   6.0414687863284890E-002   0.0000000000000000     
  -5.2756142802236193E-002   6.5818687294451853E-002   0.0000000000000000     
  -5.5201501372286861E-002   7.1421038985577473E-002   0.0000000000000000     
  -5.7560356990530769E-002   7.7221742936661758E-002   0.0000000000000000     
  -5.9832709656967922E-002   8.3220799147704735E-002   0.0000000000000000     
  -5.5142258938336526E-002   6.1071681818909637E-002   0.0000000000000000     
  -5.7835282273534121E-002   6.6508505688439107E-002   0.0000000000000000     
  -6.0439078129264606E-002   7.2128292527522120E-002   0.0000000000000000     
  -6.2953646505527996E-002   7.7931042336158662E-002   0.0000000000000000     
  -6.5378987402324298E-002   8.3916755114348790E-002   0.0000000000000000     
  -6.0101996587513216E-002   6.1941714980261062E-002   0.0000000000000000     
  -6.2996365941830237E-002   6.7339983807940998E-002   0.0000000000000000     
  -6.5791377644935894E-002   7.2925694685260986E-002   0.0000000000000000     
  -6.8487031696830222E-002   7.8698847612221068E-002   0.0000000000000000     
  -7.1083328097513165E-002   8.4659442588821215E-002   0.0000000000000000     
  -6.5103494227908856E-002   6.3024787347339142E-002   0.0000000000000000     
  -6.8239393807124557E-002   6.8313121652957512E-002   0.0000000000000000     
  -7.1258399919300733E-002   7.3813245458794113E-002   0.0000000000000000     
  -7.4160512564437411E-002   7.9525158764848933E-002   0.0000000000000000     
  -7.6945731742534551E-002   8.5448861571122026E-002   0.0000000000000000     
  -5.4444494861444065E-002   8.2571574688889079E-002   0.0000000000000000     
  -5.6497589799410025E-002   8.8768148654208970E-002   0.0000000000000000     
  -5.8473395262327123E-002   9.5123010078995707E-002   0.0000000000000000     
  -6.0371911250195351E-002  0.10163615896324928        0.0000000000000000     
  -6.2193137763014703E-002  0.10830759530696972        0.0000000000000000     
  -5.9832709656967922E-002   8.3220799147704735E-002   0.0000000000000000     
  -6.2024225095639533E-002   8.9397492357086994E-002   0.0000000000000000     
  -6.4140569030586791E-002   9.5731107303189150E-002   0.0000000000000000     
  -6.6181741461809690E-002  0.10222164398601119        0.0000000000000000     
  -6.8147742389308250E-002  0.10886910240555313        0.0000000000000000     
  -6.5378987402324298E-002   8.3916755114348790E-002   0.0000000000000000     
  -6.7721462089860532E-002   9.0071728924736333E-002   0.0000000000000000     
  -6.9987431838343744E-002   9.6382261829965205E-002   0.0000000000000000     
  -7.2176896647773964E-002  0.10284835383003546        0.0000000000000000     
  -7.4289856518151148E-002  0.10947000492494703        0.0000000000000000     
  -7.1083328097513165E-002   8.4659442588821215E-002   0.0000000000000000     
  -7.3589300782073000E-002   9.0790858357156973E-002   0.0000000000000000     
  -7.6013983685598002E-002   9.7076473659323939E-002   0.0000000000000000     
  -7.8357376808088117E-002  0.10351628849532209        0.0000000000000000     
  -8.0619480149543399E-002  0.11011030286515139        0.0000000000000000     
  -7.6945731742534551E-002   8.5448861571122026E-002   0.0000000000000000     
  -7.9627741172276986E-002   9.1554880654348927E-002   0.0000000000000000     
  -8.2220224572349537E-002   9.7813742791265271E-002   0.0000000000000000     
  -8.4723181942752218E-002  0.10422544798187106        0.0000000000000000     
  -8.7136613283485001E-002  0.11078999622616627        0.0000000000000000     
  -6.2193137763014703E-002  0.10830759530696972        0.0000000000000000     
  -6.3934685605294417E-002  0.11512642761043800        0.0000000000000000     
  -6.5594165581543712E-002  0.12208176437393513        0.0000000000000000     
  -6.7171577691762616E-002  0.12917360559746108        0.0000000000000000     
  -6.8666921935951100E-002  0.13640195128101584        0.0000000000000000     
  -6.8147742389308250E-002  0.10886910240555313        0.0000000000000000     
  -7.0032507078422179E-002  0.11566289569827377        0.0000000000000000     
  -7.1829970794491202E-002  0.12259243700063195        0.0000000000000000     
  -7.3540133537515318E-002  0.12965772631262770        0.0000000000000000     
  -7.5162995307494540E-002  0.13685876363426094        0.0000000000000000     
  -7.4289856518151148E-002  0.10947000492494703        0.0000000000000000     
  -7.6318134492625117E-002  0.11623729175384791        0.0000000000000000     
  -7.8253553614345592E-002  0.12314029095588609        0.0000000000000000     
  -8.0096113883312628E-002  0.13017900253106154        0.0000000000000000     
  -8.1845815299526212E-002  0.13735342647937432        0.0000000000000000     
  -8.0619480149543399E-002  0.11011030286515139        0.0000000000000000     
  -8.2791567847903189E-002  0.11684961577716038        0.0000000000000000     
  -8.4864914041106909E-002  0.12372532623969748        0.0000000000000000     
  -8.6839518729154547E-002  0.13073743425276274        0.0000000000000000     
  -8.8715381912046060E-002  0.13788593981635602        0.0000000000000000     
  -8.7136613283485001E-002  0.11078999622616627        0.0000000000000000     
  -8.9452807144256463E-002  0.11749986776821120        0.0000000000000000     
  -9.1664052074775126E-002  0.12434754285206615        0.0000000000000000     
  -9.3770348075041005E-002  0.13133302147773107        0.0000000000000000     
  -9.5771695145054112E-002  0.13845630364520603        0.0000000000000000     
  -6.8666921935951100E-002  0.13640195128101584        0.0000000000000000     
  -7.0086746220164475E-002  0.14375193129952676        0.0000000000000000     
  -7.1437598450458051E-002  0.15120867552792114        0.0000000000000000     
  -7.2719478626831840E-002  0.15877218396619891        0.0000000000000000     
  -7.3932386749285803E-002  0.16644245661436013        0.0000000000000000     
  -7.5162995307494540E-002  0.13685876363426094        0.0000000000000000     
  -7.6705153241271612E-002  0.14418183576616533        0.0000000000000000     
  -7.8173204475689220E-002  0.15161322950897452        0.0000000000000000     
  -7.9567149010747365E-002  0.15915294486268841        0.0000000000000000     
  -8.0886986846446032E-002  0.16680098182730713        0.0000000000000000     
  -8.1845815299526212E-002  0.13735342647937432        0.0000000000000000     
  -8.3509564008721782E-002  0.14465026274399381        0.0000000000000000     
  -8.5094266156634776E-002  0.15205621126808944        0.0000000000000000     
  -8.6599921743265224E-002  0.15957127205166119        0.0000000000000000     
  -8.8026530768613109E-002  0.16719544509470904        0.0000000000000000     
  -8.8715381912046060E-002  0.13788593981635602        0.0000000000000000     
  -9.0499978522514998E-002  0.14515721223301217        0.0000000000000000     
  -9.2200783493294788E-002  0.15253762080526587        0.0000000000000000     
  -9.3817796824385430E-002  0.16002716553311711        0.0000000000000000     
  -9.5351018515786978E-002  0.16762584641656586        0.0000000000000000     
  -9.5771695145054112E-002  0.13845630364520603        0.0000000000000000     
  -9.7676396782651234E-002  0.14570268423322047        0.0000000000000000     
  -9.9492756485669215E-002  0.15305745812050386        0.0000000000000000     
 -0.10122077425410803       0.16052062530705624        0.0000000000000000     
 -0.10286045008796768       0.16809218579287757        0.0000000000000000     
  -7.3932386749285803E-002  0.16644245661436013        0.0000000000000000     
  -7.5072945812430944E-002  0.17421188272557142        0.0000000000000000     
  -7.6137778810878257E-002  0.18207285155299954        0.0000000000000000     
  -7.7126885744627699E-002  0.19002536309664439        0.0000000000000000     
  -7.8040266613679327E-002  0.19806941735650604        0.0000000000000000     
  -8.0886986846446032E-002  0.16680098182730713        0.0000000000000000     
  -8.2130697775575606E-002  0.17454864088425529        0.0000000000000000     
  -8.3296261590926429E-002  0.18238722251495737        0.0000000000000000     
  -8.4383678292498487E-002  0.19031672671941355        0.0000000000000000     
  -8.5392947880291781E-002  0.19833715349762368        0.0000000000000000     
  -8.8026530768613109E-002  0.16719544509470904        0.0000000000000000     
  -8.9373157038321618E-002  0.17491946530041641        0.0000000000000000     
  -9.0638864358033991E-002  0.18273406757196659        0.0000000000000000     
  -9.1823652727750213E-002  0.19063925190935960        0.0000000000000000     
  -9.2927522147470298E-002  0.19863501831259539        0.0000000000000000     
  -9.5351018515786978E-002  0.16762584641656586        0.0000000000000000     
  -9.6800323600668967E-002  0.17532435597405502        0.0000000000000000     
  -9.8165587112200900E-002  0.18311338672402724        0.0000000000000000     
  -9.9446809050382862E-002  0.19099293866648262        0.0000000000000000     
 -0.10064398941521482       0.19896301180142117        0.0000000000000000     
 -0.10286045008796768       0.16809218579287757        0.0000000000000000     
 -0.10441219746261760       0.17576331290517092        0.0000000000000000     
 -0.10587642985342718       0.18352517997113926        0.0000000000000000     
 -0.10725314726039648       0.19137778699078264        0.0000000000000000     
 -0.10854234968352544       0.19932113396410106        0.0000000000000000     
  -7.8040266613679327E-002  0.19806941735650604        0.0000000000000000     
  -7.8879094320456408E-002  0.20619661267329367        0.0000000000000000     
  -7.9644541767382226E-002  0.21439854738771641        0.0000000000000000     
  -8.0336608954456781E-002  0.22267522149977434        0.0000000000000000     
  -8.0955295881680087E-002  0.23102663500946741        0.0000000000000000     
  -8.5392947880291781E-002  0.19833715349762368        0.0000000000000000     
  -8.6326775729918162E-002  0.20644016817700564        0.0000000000000000     
  -8.7187867216989401E-002  0.21461743608497716        0.0000000000000000     
  -8.7976222341505539E-002  0.22286895722153818        0.0000000000000000     
  -8.8691841103466590E-002  0.23119473158668871        0.0000000000000000     
  -9.2927522147470298E-002  0.19863501831259539        0.0000000000000000     
  -9.3954529817315030E-002  0.20671366893159163        0.0000000000000000     
  -9.4908732937405302E-002  0.21486750591626580        0.0000000000000000     
  -9.5790131507741044E-002  0.22309652926661794        0.0000000000000000     
  -9.6598725528322285E-002  0.23140073898264804        0.0000000000000000     
 -0.10064398941521482       0.19896301180142117        0.0000000000000000     
 -0.10176235658264708       0.20701711493705158        0.0000000000000000     
 -0.10280713892862990       0.21514875688158233        0.0000000000000000     
 -0.10377833645316330       0.22335793763501363        0.0000000000000000     
 -0.10467594915624723       0.23164465719734531        0.0000000000000000     
 -0.10854234968352544       0.19932113396410106        0.0000000000000000     
 -0.10975025602591429       0.20735050619338546        0.0000000000000000     
 -0.11088308519066324       0.21546118898092687        0.0000000000000000     
 -0.11194083717777227       0.22365318232672524        0.0000000000000000     
 -0.11292351198724140       0.23192648623078063        0.0000000000000000     
  -8.0955295881680087E-002  0.23102663500946741        0.0000000000000000     
  -8.1490227522443323E-002  0.23947374334046301        0.0000000000000000     
  -8.1931028850137658E-002  0.24803750191642868        0.0000000000000000     
  -8.2277699864763090E-002  0.25671791073736433        0.0000000000000000     
  -8.2530240566319663E-002  0.26551496980327000        0.0000000000000000     
  -8.8691841103466590E-002  0.23119473158668871        0.0000000000000000     
  -8.9320833596558000E-002  0.23962032007310347        0.0000000000000000     
  -8.9849309914465242E-002  0.24817128357345702        0.0000000000000000     
  -9.0277270057188358E-002  0.25684762208774936        0.0000000000000000     
  -9.0604714024727320E-002  0.26564933561598059        0.0000000000000000     
  -9.6598725528322285E-002  0.23140073898264804        0.0000000000000000     
  -9.7325827870250292E-002  0.23980657436482489        0.0000000000000000     
  -9.7962751404626236E-002  0.24834047471361709        0.0000000000000000     
  -9.8509496131450186E-002  0.25700244002902478        0.0000000000000000     
  -9.8966062050722073E-002  0.26579247031104786        0.0000000000000000     
 -0.10467594915624723       0.23164465719734531        0.0000000000000000     
 -0.10550521034352021       0.24003250621562722        0.0000000000000000     
 -0.10627135332062067       0.24854507533690895        0.0000000000000000     
 -0.10697437808754860       0.25718236456119048        0.0000000000000000     
 -0.10761428464430398       0.26594437388847192        0.0000000000000000     
 -0.11292351198724140       0.23192648623078063        0.0000000000000000     
 -0.11385898101636778       0.24029811562551054        0.0000000000000000     
 -0.11477511566244850       0.24878508544333250        0.0000000000000000     
 -0.11567191592548358       0.25738739568424651        0.0000000000000000     
 -0.11654938180547300       0.26610504634825261        0.0000000000000000     
  -8.2530240566319663E-002  0.26551496980327000        0.0000000000000000     
  -8.2727509671295552E-002  0.27445513820869744        0.0000000000000000     
  -8.2908365896179018E-002  0.28356487504819827        0.0000000000000000     
  -8.3072809240970061E-002  0.29284418032177262        0.0000000000000000     
  -8.3220839705668681E-002  0.30229305402942042        0.0000000000000000     
  -9.0604714024727320E-002  0.26564933561598059        0.0000000000000000     
  -9.0861815058151010E-002  0.27463954369560517        0.0000000000000000     
  -9.1078746398528310E-002  0.28388136586407786        0.0000000000000000     
  -9.1255508045859274E-002  0.29337480212139860        0.0000000000000000     
  -9.1392100000143806E-002  0.30311985246756734        0.0000000000000000     
  -9.8966062050722073E-002  0.26579247031104786        0.0000000000000000     
  -9.9343346185041037E-002  0.27480886734109478        0.0000000000000000     
  -9.9652245557006205E-002  0.28414993290057405        0.0000000000000000     
  -9.9892760166617495E-002  0.29381566698948552        0.0000000000000000     
 -0.10006489001387499       0.30380606960782924        0.0000000000000000     
 -0.10761428464430398       0.26594437388847192        0.0000000000000000     
 -0.10817210305196572       0.27496310914516631        0.0000000000000000     
 -0.10862886337161265       0.28437057615768674        0.0000000000000000     
 -0.10898456560324486       0.29416677492603338        0.0000000000000000     
 -0.10923920974686224       0.30435170545020607        0.0000000000000000     
 -0.11654938180547300       0.26610504634825261        0.0000000000000000     
 -0.11734808565892499       0.27510226910781954        0.0000000000000000     
 -0.11800859984234774       0.28454329563541603        0.0000000000000000     
 -0.11853092435574125       0.29442812593104212        0.0000000000000000     
 -0.11891505919910553       0.30475675999469781        0.0000000000000000     
 </DataArray>
 <DataArray  type="Float64" Name="stress" NumberOfComponents="3" format="ascii">
   6004039670.1867857        28148130.435187340        12829148.804191718     
   5803734224.8040895        4293102.1337692738        11259652.377565859     
   5605742815.3375549       -11848473.113773584        10255617.560740191     
   5410065441.7871771       -20276595.307453156        9817044.3537236843     
   5216702104.1529646       -20991264.447244883        9943932.7565048039     
   5649462853.2510586        19055228.552417755        178156107.44897050     
   5456444847.9808750        4571699.1328325272        174061410.34656286     
   5264552340.6713648       -6160170.4178295135        172844321.20969963     
   5073785331.3225393       -13140380.099558830        174504840.03839877     
   4884143819.9343863       -16368929.912370443        179042966.83265132     
   5278635554.5577564        5087182.1423690319        346939944.07345229     
   5099511121.8450899        1956991.3381178379        338933418.68052381     
   4920323649.1376181       -1383332.7821505070        336116647.60890514     
   4741073136.4353418       -4933790.2184336185        338489630.85858762     
   4561759583.7382565       -8694380.9707415104        346052368.42957801     
   4891557774.1068840       -13756008.794950485        519180658.67763227     
   4732933046.3967390       -3551021.2503569126        505875677.37946445     
   4573056740.7363119        2482039.7932662964        500072596.75834697     
   4411928857.1255856        4343174.3359181881        501771416.81428760     
   4249549395.5645723        2032382.3776075840        510972137.54728353     
   4488229511.8984442       -37474344.259537220        694878251.26152742     
   4356710621.6358309       -11952338.632608652        674888186.44337606     
   4222751615.4674382        5435947.3084030151        664712168.65803134     
   4086352493.3932743        14690513.563511610        664350197.90549314     
   3947513255.4133339        15811360.132690430        673802274.18577051     
   5216702104.1529646       -20991264.447244883        9943932.7565048039     
   5048821483.5120344       -11683123.086393356        1201786.6974642568     
   4880194736.0116310       -4862071.2571299076       -803854.81101691735     
   4710821861.6517811       -528108.95934557915        3927008.2310651252     
   4540702860.4324493        1318763.8068249226        15394375.823709104     
   4884143819.9343863       -16368929.912370443        179042966.83265132     
   4731556690.4646244       -7469386.7576808929        172351855.35697165     
   4578511169.6662560       -97814.698328971863        170782755.20227388     
   4425007257.5392733        5745786.2656431198        174335666.36855930     
   4271044954.0837011        10061416.134310007        183010588.85582918     
   4561759583.7382565       -8694380.9707415104        346052368.42957801     
   4419853107.6408672       -1587287.3618423939        341747982.98992527     
   4277775975.7457290        4950953.5878994465        340951115.64168149     
   4135528188.0528507        10920341.878510714        343661766.38484740     
   3993109744.5622277        16320877.509967327        349879935.21941167     
   4249549395.5645723        2032382.3776075840        510972137.54728353     
   4113710735.0407581        5963175.1010754108        509390169.59633237     
   3977989154.2500601        10284233.601591825        509701226.50721365     
   3842384653.1924791        14995557.879173279        511905308.27991605     
   3706897231.8680167        20097147.933811903        516002414.91445601     
   3947513255.4133339        15811360.132690430        673802274.18577051     
   3813129572.6643028        15182000.631092548        675278415.17618990     
   3679150705.1792479        15902025.342745781        677033087.79885685     
   3545576652.9581757        17971434.267664194        679066292.05378342     
   3412407416.0010743        21390227.405830145        681378027.94095385     
   4540702860.4324493        1318763.8068249226        15394375.823709104     
   4339969289.8283644       -6105076.1242363453        10461630.496935073     
   4139924917.3704443       -11231588.901437044        8731403.0137756262     
   3940569743.0586915       -14060774.524729490        10203693.374234606     
   3741903766.8930960       -14592632.994176865        14878501.578303043     
   4271044954.0837011        10061416.134310007        183010588.85582918     
   4079736911.4794908        3116579.6057646275        176195805.35571793     
   3888849846.1472225       -2424999.3496332169        173318370.91900584     
   3698383758.0869088       -6563320.7318649292        174378285.54568231     
   3508338647.2985282       -9298384.5409638882        179375549.23575217     
   3993109744.5622277        16320877.509967327        349879935.21941167     
   3813326747.7286801        10484899.715196609        340870189.19270998     
   3633696507.2928653        5158109.9128365517        336532623.44917876     
   3454219023.2547717        340508.10290002823        336867237.98882329     
   3274894295.6144085       -3967905.7146060467        341874032.81163967     
   3706897231.8680167        20097147.933811903        516002414.91445601     
   3540738798.5759368        15999884.204042673        504484782.00789958     
   3374464900.8073654        11517738.885960102        498374160.60430485     
   3208075538.5622988        6650711.9795678854        497670550.70365685     
   3041570711.8407450        1398803.4848767519        502373952.30596083     
   3412407416.0010743        21390227.405830145        681378027.94095385     
   3261973064.0212517        19661533.072298050        667039583.80130219     
   3111155026.6907210        16653887.569731116        658842982.38438094     
   2959953304.0094833        12367290.898135662        656788223.69018781     
   2808367895.9775248        6801743.0574891567        660875307.71872199     
   3741903766.8930960       -14592632.994176865        14878501.578303043     
   3572188825.9994183       -7114121.2468230724        8304755.4146897793     
   3401339671.3344254       -3416322.0705120564        6395369.6684143208     
   3229356302.8981342       -3499235.4651895761        9150344.3394600134     
   3056238720.6905365       -7362861.4309096336        16569679.427833265     
   3508338647.2985282       -9298384.5409638882        179375549.23575217     
   3349610573.0144482       -3017632.8478019238        171490554.79317060     
   3190211436.5469742        1026244.9007090330        167669041.95313475     
   3030141237.8961039        2833248.7045739889        167911010.71565941     
   2869399977.0618305        2403378.5637490749        172216461.08075160     
   3274894295.6144085       -3967905.7146060467        341874032.81163967     
   3125436291.3262930        600046.94028675556        333218133.60931003     
   2975770376.4426837        4474964.2768661976        328024837.19475621     
   2825896550.9635925        7656846.2951736450        326294143.56799018     
   2675814814.8890157        10145692.995195389        328026052.72900671     
   3041570711.8407450        1398803.4848767519        502373952.30596083     
   2899665980.9349451        3738918.1173927784        493487491.86310744     
   2758016491.0215640        6929836.0579807758        487462755.39326459     
   2616622242.1006041        10971557.306633234        484299742.89643151     
   2475483234.1720676        15864081.863364816        483998454.37260461     
   2808367895.9775248        6801743.0574891567        660875307.71872199     
   2672299641.8404031        6398980.6835439205        652298629.55458272     
   2536949780.2836094        8390860.2440371513        645982796.54867256     
   2402318311.3071461        12777381.738965154        641927808.70099580     
   2268405234.9110150        19558545.168323159        640133666.01155782     
   3056238720.6905365       -7362861.4309096336        16569679.427833265     
   2890249231.1295867       -9622525.3637259007        11195771.812125918     
   2725041560.3325806       -9276126.7500724792        6689915.1126172012     
   2560615708.2995615       -6323665.5897786617        3052109.3293288928     
   2396971675.0305033       -765141.88297176361        282354.46225714881     
   2869399977.0618305        2403378.5637490749        172216461.08075160     
   2706727562.1468863        1042304.2747077942        165497554.49388492     
   2544494215.1796842        1144789.8114774227        160254826.03148791     
   2382699936.1602592        2710835.1741678715        156488275.69354656     
   2221344725.0885925        5740440.3627094030        154197903.48006463     
   2675814814.8890157        10145692.995195389        328026052.72900671     
   2518196980.9293394        10204460.242687464        319562271.21875250     
   2360675464.1012216        10584284.595369220        313182795.04121929     
   2203250264.4046574        11285166.053237796        308887624.19637620     
   2045921381.8396463        12307104.616273403        306676758.68424511     
   2475483234.1720676        15864081.863364816        483998454.37260461     
   2324657487.4769597        17863942.540243983        473389921.98673004     
   2173585307.0971837        19042357.601582289        465473822.14180642     
   2022266693.0327575        19399327.047418237        460250154.83783185     
   1870701645.2836740        18934850.877726197        457718920.07480234     
   2268405234.9110150        19558545.168323159        640133666.01155782     
   2126109081.7897224        24020751.167316556        626980506.79781485     
   1983223744.1675761        26519008.830121398        617127907.33326519     
   1839749222.0445533        27053318.156686544        610575867.61790359     
   1695685515.4206831        25623679.147073328        607324387.65174031     
   2396971675.0305033       -765141.88297176361        282354.46225714881     
   2253853505.4010668        7125896.4647212029       -6510298.8396698460     
   2107431377.8092031        4003741.6043469906       -11133000.009631535     
   1957705292.2549160       -10131606.464116335       -13585749.047635602     
   1804675248.7381985       -35280147.740681171       -13868545.953684611     
   2221344725.0885925        5740440.3627094030        154197903.48006463     
   2082508841.6296782        12898578.612196088        143844240.52205935     
   1941501627.4386959        12818947.754787207        134783822.50899112     
   1798323082.5156510        5501547.7904875278        127016649.44089837     
   1652973206.8605182       -9053621.2807383537        120542721.31776063     
   2045921381.8396463        12307104.616273403        306676758.68424511     
   1908862906.8741024        17980879.464394450        294083484.50556183     
   1770765728.4068491        20192309.306812167        281906748.08484697     
   1631629846.4378822        18941394.143526852        270146549.42206973     
   1491455260.9672117        14228133.974563241        258802888.51723528     
   1870701645.2836740        18934850.877726197        457718920.07480234     
   1732915701.1343474        22372799.021349311        444207433.11087644     
   1595223680.7136648        26123826.260455787        430235776.71789026     
   1457625584.0216265        30187932.595053375        415803950.89585292     
   1320121411.0582306        34565118.025125623        400911955.64476275     
   1695685515.4206831        25623679.147073328        607324387.65174031     
   1554667224.4104068        26074337.283041775        594216086.33798420     
   1414875484.3591325        30613498.615683496        579770908.40816104     
   1276310295.2668622        39241163.145004570        563988853.86228251     
   1138971657.1335957        51957330.871005356        546869922.70033944     
   1804675248.7381985       -35280147.740681171       -13868545.953684611     
   1773227467.7257657       -16703801.040532708       -8247074.7851811545     
   1749864002.4067590        28820264.637714982       -41424821.324722923     
   1734584852.7812471        101292049.29426658       -113401785.57227020     
   1727390018.8491609        200711552.92891574       -224177967.52786529     
   1652973206.8605182       -9053621.2807383537        120542721.31776063     
   1529779806.7936392       -13913546.400802672        136100136.42150283     
   1410767606.4311318       -4836139.1729282141        125291586.53450261     
   1295936605.7729886        18178600.402822018        88117071.656780452     
   1185286804.8192339        55130672.326511145        24576591.788323559     
   1491455260.9672117        14228133.974563241        258802888.51723528     
   1312039821.0381703       -3410989.2080087662        279742612.23561853     
   1132902464.8244083       -20123166.672955334        286749623.68056470     
   954043192.32595634       -35908398.420215189        279823922.85209078     
   775462003.54278564       -50766684.449876547        258965509.75018299     
   1320121411.0582306        34565118.025125623        400911955.64476275     
   1120007510.4593201        14803870.537750721        422680352.65719056     
   916268577.58661127       -17040817.862283647        442949290.11348689     
   708904612.44012070       -60968947.174926549        461718768.01365376     
   497915615.01983565       -116980517.40021479        478988786.35770082     
   1138971657.1335957        51957330.871005356        546869922.70033944     
   953682875.05709791        40731032.836478710        564913357.68622184     
   760865944.71773636        4410907.2590729892        593890585.83326769     
   560520866.11550069       -57003045.861244440        633801607.14148331     
   352647639.25039053       -143510826.52448148        684646421.61088026     
   1727390018.8491609        200711552.92891574       -224177967.52786529     
   1456777244.1370502        184522012.16754085       -96660492.080483750     
   1153959057.8004937        60981099.324669242        60020679.442505620     
   818935459.83946824       -169911185.59978765        245865547.04108489     
   451706450.25395429       -508154842.60581750        460874110.71523613     
   1185286804.8192339        55130672.326511145        24576591.788323559     
   978085782.48705924        12034273.399164081        155848717.49954727     
   733022392.68950629       -157270017.07946566        312944693.15803826     
   450096635.42659360       -452782199.10927260        495864518.76380169     
   129308510.69833052       -874502272.69031382        704608194.31684780     
   775462003.54278564       -50766684.449876547        258965509.75018299     
   622130316.08106363       -123632666.79609409        387392503.91084391     
   425279305.31307918       -341563060.16318917        538303501.89045715     
   184908971.23879996       -704557864.55123901        711698503.68903446     
  -98980686.141718090       -1212617079.9601376        907577509.30656910     
   497915615.01983565       -116980517.40021479        478988786.35770082     
   388910844.91909760       -222478808.41811666        597970867.15341318     
   230729795.67118990       -491898029.92657298        736097105.63975310     
   23372467.276084602       -925238181.92566574        893367501.81676018     
  -233161140.26617008       -1522499264.4153092        1069782055.6843911     
   352647639.25039053       -143510826.52448148        684646421.61088026     
   278427369.00115651       -284504151.46690518        787583807.22725451     
   149373863.76384121       -608274926.36959958        906325504.40596032     
  -34512876.461556792       -1114823151.2325616        1040871513.1469905     
  -273232851.67502528       -1804148826.0557752        1191221833.4503510     
   4488229511.8984442       -37474344.259537220        694878251.26152742     
   4356710621.6358309       -11952338.632608652        674888186.44337606     
   4222751615.4674382        5435947.3084030151        664712168.65803134     
   4086352493.3932743        14690513.563511610        664350197.90549314     
   3947513255.4133339        15811360.132690430        673802274.18577051     
   4096689420.4460754       -25198718.384971142        815271764.92489088     
   3983748025.8429070       -10323608.107645273        798192009.49074554     
   3869649291.7464080        693703.85857653618        788045564.15020132     
   3754393218.1565771        7853217.5136926174        784832428.90325332     
   3637979805.0734134        11154932.857699633        788552603.74990976     
   3723575596.1453934       -7395212.3649024963        928678475.40634155     
   3620981020.2325120       -5636200.5279200077        916005601.83738494     
   3518511881.2387309       -3459065.6272456646        907385301.42282283     
   3416168179.1640663       -863807.66286563873        902817574.16264713     
   3313949914.0085068        2149573.3652029037        902302420.05686462     
   3368888038.9964056        15936173.800676346        1035098382.7058808     
   3268409604.8046322        2109884.1065571308        1028328963.4832977     
   3169339383.9444098       -7022361.1490602493        1022731380.4758981     
   3071677376.4157352       -11460561.966172099        1018305633.6836759     
   2975423582.2186155       -11204718.344780445        1015051723.1066374     
   3032626748.9991074        44795440.111762047        1134531486.8235061     
   2926033779.5592766        12914645.795790195        1135162094.4284763     
   2822131799.8634353       -9996182.7068735361        1134083801.3094196     
   2720920809.9115877       -23937045.396223426        1131296607.4663401     
   2622400809.7037349       -28907942.272270918        1126800512.8992279     
   3947513255.4133339        15811360.132690430        673802274.18577051     
   3813129572.6643028        15182000.631092548        675278415.17618990     
   3679150705.1792479        15902025.342745781        677033087.79885685     
   3545576652.9581757        17971434.267664194        679066292.05378342     
   3412407416.0010743        21390227.405830145        681378027.94095385     
   3637979805.0734134        11154932.857699633        788552603.74990976     
   3506683141.7442670        8860057.7223982811        786531969.14397264     
   3375797697.8608656        7935914.0729122162        786991782.99040186     
   3245323473.4232059        8382501.9092344046        789932045.28918743     
   3115260468.4312897        10199821.231376529        795352756.04033232     
   3313949914.0085068        2149573.3652029037        902302420.05686462     
   3192031461.0138426        76539.870586037636        896792481.39997303     
   3070530631.6466904       -604414.86566293240        895964908.01554751     
   2949447425.9070492        106709.15645849705        899819699.90359569     
   2828781843.7949147        2209911.9369391203        908356857.06410944     
   2975423582.2186155       -11204718.344780445        1015051723.1066374     
   2869174530.4730282       -11168552.924342513        1006059951.9441804     
   2763349506.5367193       -9718961.4729768038        1003952462.8742986     
   2657948510.4096856       -6855943.9906951189        1008729255.8969978     
   2552971542.0919333       -2579500.4774719477        1020390331.0122734     
   2622400809.7037349       -28907942.272270918        1126800512.8992279     
   2538112350.1218247       -24875220.662389517        1114334380.7766004     
   2454254322.5309587       -19407725.749025702        1110954447.5666587     
   2370826726.9311352       -12505457.532188654        1116660713.2694068     
   2287829563.3223577       -4168416.0118710995        1131453177.8848374     
   3412407416.0010743        21390227.405830145        681378027.94095385     
   3261973064.0212517        19661533.072298050        667039583.80130219     
   3111155026.6907210        16653887.569731116        658842982.38438094     
   2959953304.0094833        12367290.898135662        656788223.69018781     
   2808367895.9775248        6801743.0574891567        660875307.71872199     
   3115260468.4312897        10199821.231376529        795352756.04033232     
   2980119602.4697971        10769697.544072270        783865699.31923306     
   2844749439.2261486        10575249.582929373        777470580.50959456     
   2709149978.7003384        9616477.3479146957        776167399.61142600     
   2573321220.8923745        7893380.8390517235        779956156.62472475     
   2828781843.7949147        2209911.9369391203        908356857.06410944     
   2705934735.8195596        4178440.4862190485        899901307.17486894     
   2583012718.6306067        5897271.6568262577        895487790.38583696     
   2460015792.2280512        7366405.4487614632        895116306.69700325     
   2336943956.6118937        8585841.8620297909        898786856.10837293     
   2552971542.0919333       -2579500.4774719477        1020390331.0122734     
   2439418464.0705409       -112238.10127198696        1015146407.3682168     
   2325944864.9041009        2619953.7914423943        1012894612.0131017     
   2212550744.5926156        5617075.2006736994        1013634944.9469194     
   2099236103.1360850        8879126.1264089346        1017367406.1696801     
   2287829563.3223577       -4168416.0118710995        1131453177.8848374     
   2180570787.2227392       -2102338.2183982134        1129600999.8992739     
   2073545878.0466278        743295.98675918579        1129691045.3913846     
   1966754835.7940254        4368486.6036138535        1131723314.3611720     
   1860197660.4649358        8773233.6321756840        1135697806.8086302     
   2808367895.9775248        6801743.0574891567        660875307.71872199     
   2672299641.8404031        6398980.6835439205        652298629.55458272     
   2536949780.2836094        8390860.2440371513        645982796.54867256     
   2402318311.3071461        12777381.738965154        641927808.70099580     
   2268405234.9110150        19558545.168323159        640133666.01155782     
   2573321220.8923745        7893380.8390517235        779956156.62472475     
   2444317828.6869168        8662850.3744601011        771958880.29442298     
   2315837111.5857182        11174570.257394671        766864752.92808890     
   2187879069.5887690        15428540.487829566        764673774.52572405     
   2060443702.6960814        21424761.065798521        765385945.08732510     
   2336943956.6118937        8585841.8620297909        898786856.10837293     
   2216840580.0687661        11078089.425978661        891140644.55649829     
   2097064161.1538239        14660195.750541806        887039885.77431858     
   1977614699.8670554        19332160.835700154        886484579.76184189     
   1858492196.2084758        25093984.681469083        889474726.51906490     
   2099236103.1360850        8879126.1264089346        1017367406.1696801     
   1989867895.9859507        13644697.838093638        1009843922.3408017     
   1880630928.9879303        18847736.723490477        1006508195.0873638     
   1771525202.1420135        24488242.782572031        1007360224.4093509     
   1662550715.4482079        30566216.015345812        1012400010.3067731     
   1860197660.4649358        8773233.6321756840        1135697806.8086302     
   1763399776.4384682        16362675.610818267        1128068713.6473382     
   1666537415.0880384        23737193.176252067        1125269680.8672130     
   1569610576.4136360        30896786.328441203        1127300708.4682515     
   1472619260.4152668        37841455.067414105        1134161796.4504571     
   2268405234.9110150        19558545.168323159        640133666.01155782     
   2126109081.7897224        24020751.167316556        626980506.79781485     
   1983223744.1675761        26519008.830121398        617127907.33326519     
   1839749222.0445533        27053318.156686544        610575867.61790359     
   1695685515.4206831        25623679.147073328        607324387.65174031     
   2060443702.6960814        21424761.065798521        765385945.08732510     
   1926738478.3493936        25701261.486109138        753774795.56189823     
   1792616889.0601346        28589878.764527321        745514348.17051709     
   1658078934.8283021        30090612.901027620        740604602.91317666     
   1523124615.6538937        30203463.895608723        739045559.78988850     
   1858492196.2084758        25093984.681469083        889474726.51906490     
   1733521164.5931067        29227758.710114241        879607209.49996805     
   1608306587.5934522        32549714.791160882        873140536.99975777     
   1482848465.2095096        35059852.924579620        870074709.01843989     
   1357146797.4412904        36758173.110406578        870409725.55601478     
   1662550715.4482079        30566216.015345812        1012400010.3067731     
   1546457140.5208631        34600242.839338899        1004477748.6120050     
   1430292839.7675200        38398516.910009563        1000006473.8209815     
   1314057813.1881914        41961038.227387071        998986185.93369043     
   1197752060.7828636        45287806.791444063        1001416884.9501444     
   1472619260.4152668        37841455.067414105        1134161796.4504571     
   1365546406.1326597        41818713.873765767        1128386412.8980234     
   1258575645.5823505        46136285.121102035        1126112158.6341794     
   1151706978.7643383        50794168.809432983        1127339033.6589220     
   1044940405.6786263        55792364.938758373        1132067037.9722672     
   1695685515.4206831        25623679.147073328        607324387.65174031     
   1554667224.4104068        26074337.283041775        594216086.33798420     
   1414875484.3591325        30613498.615683496        579770908.40816104     
   1276310295.2668622        39241163.145004570        563988853.86228251     
   1138971657.1335957        51957330.871005356        546869922.70033944     
   1523124615.6538937        30203463.895608723        739045559.78988850     
   1380140452.1636136        27824579.227985084        730075122.78140485     
   1237518071.8351569        26651638.433120072        721582324.20519233     
   1095257474.6685281        26684641.511016309        713567164.06124830     
   953358660.66373754        27923588.461689770        706029642.34957039     
   1357146797.4412904        36758173.110406578        870409725.55601478     
   1217381090.1805084        33105044.252024829        864568257.08944798     
   1077112398.2843776        27775299.942508042        861018942.10347855     
   936340721.75290799        20768940.181848645        859761780.59810269     
   795066060.58609438        12085964.970045298        860796772.57332778     
   1197752060.7828636        45287806.791444063        1001416884.9501444     
   1066389138.4610838        41915732.355163634        997695489.26212180     
   933658463.70679486        33984483.143858731        998080762.10302413     
   799560036.51998043        21494059.157472283        1002572703.4728477     
   664093856.90066600        4444460.3960719109        1011171313.3715997     
   1044940405.6786263        55792364.938758373        1132067037.9722672     
   927164597.00535679        54256643.537431926        1129456819.2994184     
   807156268.10240996        45279188.037167162        1132767784.2038224     
   684915418.96977460        28859998.437941939        1141999932.6854784     
   560442049.60744882        4999074.7397485971        1157153264.7443919     
   1138971657.1335957        51957330.871005356        546869922.70033944     
   953682875.05709791        40731032.836478710        564913357.68622184     
   760865944.71773636        4410907.2590729892        593890585.83326769     
   560520866.11550069       -57003045.861244440        633801607.14148331     
   352647639.25039053       -143510826.52448148        684646421.61088026     
   953358660.66373754        27923588.461689770        706029642.34957039     
   793775626.32093978        11282291.876597553        723774066.70784879     
   625539614.90356112       -34202261.623775035        751607965.05793774     
   448650626.41158068       -108530072.03949264        789531337.39982772     
   263108660.84501100       -211701139.37049651        837544183.73352957     
   795066060.58609438        12085964.970045298        860796772.57332778     
   658776433.49309516       -10694032.310792834        876929886.02366495     
   512709000.51378679       -66066715.879316986        902308154.29644752     
   356863761.64816135       -154032085.73556423        936931577.39166760     
   191240716.89622831       -274590141.87951577        980800155.30932629     
   664093856.90066600        4444460.3960719109        1011171313.3715997     
   548685296.57355094       -25197939.725691468        1024380815.6336665     
   422374101.54841572       -91182455.507534176        1045991153.5488006     
   285160271.82524288       -193509086.94949880        1076002327.1170125     
   137043807.40404230       -332177834.05155110        1114414336.3382978     
   560442049.60744882        4999074.7397485971        1157153264.7443919     
   463502215.56232119       -32229430.368095726        1166126855.5378473     
   354534918.00744879       -109549480.50842847        1182656962.8150036     
   233540156.94282109       -226961075.68127561        1206743586.5758646     
   100517932.36844686       -384464215.88662249        1238386726.8204327     
   352647639.25039053       -143510826.52448148        684646421.61088026     
   278427369.00115651       -284504151.46690518        787583807.22725451     
   149373863.76384121       -608274926.36959958        906325504.40596032     
  -34512876.461556792       -1114823151.2325616        1040871513.1469905     
  -273232851.67502528       -1804148826.0557752        1191221833.4503510     
   263108660.84501100       -211701139.37049651        837544183.73352957     
   224219708.99066508       -351156605.48126560        886458119.85371780     
   141051666.36906868       -638209040.81619167        946390791.13880658     
   13604532.980230629       -1072858445.3752787        1017342197.5887921     
  -158121691.17584753       -1655104819.1584666        1099312339.2036808     
   191240716.89622831       -274590141.87951577        980800155.30932629     
   174010008.01552382       -416609671.78503424        988003810.19098794     
   123054352.58841002       -671045690.17858374        1001440623.8401175     
   38373750.614899278       -1037898197.0601319        1021110596.2566935     
  -80031797.905019641       -1517167192.4296894        1047013727.4407692     
   137043807.40404230       -332177834.05155110        1114414336.3382978     
   127798266.07575169       -480863350.37817222        1092220878.2390707     
   95381922.421887875       -706784874.45669770        1071475002.5098742     
   39794776.442461371       -1009942406.2871037        1052176709.1507111     
  -38963171.862539828       -1390335945.8694103        1034325998.1615789     
   100517932.36844686       -384464215.88662249        1238386726.8204327     
   85584483.171332091       -543917641.26071775        1199109323.9979641     
   58034375.869479984       -745426593.65060425        1156493927.1480818     
   17867610.462904930       -988991073.05623078        1110540536.2708120     
  -34915813.048393190       -1274611079.4776177        1061249151.3661461     
   3032626748.9991074        44795440.111762047        1134531486.8235061     
   2926033779.5592766        12914645.795790195        1135162094.4284763     
   2822131799.8634353       -9996182.7068735361        1134083801.3094196     
   2720920809.9115877       -23937045.396223426        1131296607.4663401     
   2622400809.7037349       -28907942.272270918        1126800512.8992279     
   2681169505.1058655        1354353.9941083193        1211124984.5245044     
   2583401670.7468162        6174720.2620995045        1212064059.2576370     
   2484474946.7676158        7132121.1295846701        1213031101.5652525     
   2384389333.1682620        4226556.5965591669        1214026111.4473577     
   2283144829.9487572       -2541973.3369677067        1215049088.9039450     
   2325558855.2316537       -43332753.917837977        1303061791.3647387     
   2241578636.8062882       -322482.81000971794        1299817807.3011935     
   2152589649.3966236        25991891.683488965        1298338659.1106484     
   2058591893.0026598        35610369.562662363        1298624346.7931035     
   1959585367.6244020        28532950.827514052        1300674870.3485596     
   1965794799.3764768       -89265883.624073029        1410341907.3442135     
   1900564677.7376878       -6576963.4205416441        1398423338.5591526     
   1826475907.7504599        46583128.954846263        1390006473.9456074     
   1743528489.4147856        70214393.502088666        1385091313.5035799     
   1651722422.7306700        64316830.221189976        1383677857.2330613     
   1601877337.5403306       -136445035.12459874        1532965332.4629228     
   1560359793.5410221       -12588721.569494665        1507880653.0315163     
   1506133721.8291221        68905832.943644702        1488034546.0701337     
   1439199122.4046326        108038628.41481811        1473427011.5787816     
   1359555995.2675583        104809664.84404212        1464058049.5574582     
   2622400809.7037349       -28907942.272270918        1126800512.8992279     
   2538112350.1218247       -24875220.662389517        1114334380.7766004     
   2454254322.5309587       -19407725.749025702        1110954447.5666587     
   2370826726.9311352       -12505457.532188654        1116660713.2694068     
   2287829563.3223577       -4168416.0118710995        1131453177.8848374     
   2283144829.9487572       -2541973.3369677067        1215049088.9039450     
   2218810933.4357471        575063.64026105404        1207241356.0723569     
   2154852883.6190271        4944922.9384576082        1205908400.0655417     
   2091270680.4985917        10567604.557613611        1211050220.8834941     
   2028064324.0744495        17443108.497734666        1222666818.5262194     
   1959585367.6244020        28532950.827514052        1300674870.3485596     
   1907744828.2148168        28495941.382446647        1297461853.9641287     
   1856225550.2067690        29529803.275829673        1298112192.3165553     
   1805027533.6002560        31634536.507671356        1302625885.4058399     
   1754150778.3952808        34810141.077962399        1311002933.2319763     
   1651722422.7306700        64316830.221189976        1383677857.2330613     
   1604914034.4590399        58887412.564179540        1384995874.4519098     
   1558372322.2941918        54346915.263111174        1387565824.3197041     
   1512097286.2361274        50695338.317991436        1391387706.8364377     
   1466088926.2848427        47932681.728800833        1396461522.0021107     
   1359555995.2675583        104809664.84404212        1464058049.5574582     
   1310318552.1684163        91749477.185466647        1469843417.5357060     
   1261293199.8812954        79396258.900300026        1474269296.0749838     
   1212479938.4062083        67750009.988575876        1477335685.1752872     
   1163878767.7431479        56810730.450275600        1479042584.8366168     
   2287829563.3223577       -4168416.0118710995        1131453177.8848374     
   2180570787.2227392       -2102338.2183982134        1129600999.8992739     
   2073545878.0466278        743295.98675918579        1129691045.3913846     
   1966754835.7940254        4368486.6036138535        1131723314.3611720     
   1860197660.4649358        8773233.6321756840        1135697806.8086302     
   2028064324.0744495        17443108.497734666        1222666818.5262194     
   1925927771.6497087        13846384.596129060        1216925340.2555521     
   1824211085.2485340        11649214.106421232        1214488610.9559767     
   1722914264.8709190        10851597.028572798        1215356630.6274974     
   1622037310.5168750        11453533.362630248        1219529399.2701049     
   1754150778.3952808        34810141.077962399        1311002933.2319763     
   1661029379.6266110        26718494.475636065        1301589153.6262717     
   1568513845.9815636        20646398.285393119        1296842648.4850764     
   1476604177.4601409        16593852.507230103        1296763417.8083942     
   1385300374.0623431        14560857.141141713        1301351461.5962238     
   1466088926.2848427        47932681.728800833        1396461522.0021107     
   1385875611.1534462        36513991.420123041        1383592440.0114317     
   1306454160.2457294        27734848.523712754        1376753157.9786842     
   1227824573.5616953        21595253.039577246        1375943675.9038708     
   1149986851.1013405        18095204.967712760        1381163993.7869880     
   1163878767.7431479        56810730.450275600        1479042584.8366168     
   1100466466.2302177        43232875.429590821        1462935199.4110332     
   1038032028.0410292        32914564.821378469        1454220139.4368029     
   976575453.17558181        25855798.625638843        1452897404.9139237     
   916096741.63386726        22056576.842342675        1458966995.8423948     
   1860197660.4649358        8773233.6321756840        1135697806.8086302     
   1763399776.4384682        16362675.610818267        1128068713.6473382     
   1666537415.0880384        23737193.176252067        1125269680.8672130     
   1569610576.4136360        30896786.328441203        1127300708.4682515     
   1472619260.4152668        37841455.067414105        1134161796.4504571     
   1622037310.5168750        11453533.362630248        1219529399.2701049     
   1537292038.5617006        17470694.714591742        1212324374.7377350     
   1452506496.3840036        23353621.991488874        1209923363.8698113     
   1367680683.9837842        29102315.193301082        1212326366.6663401     
   1282814601.3610425        34716774.320048690        1219533383.1273093     
   1385300374.0623431        14560857.141141713        1301351461.5962238     
   1312533294.9878330        18983412.109243572        1294598747.3111322     
   1239750152.7922411        23352423.340407908        1292623999.9737620     
   1166950947.4755754        27667890.834653974        1295427219.5841210     
   1094135679.0378325        31929814.591980875        1303008406.1422067     
   1149986851.1013405        18095204.967712760        1381163993.7869880     
   1089123545.7168646        20900827.794754267        1374891831.3675210     
   1028268384.3127530        23733597.223018885        1373371589.1790617     
   967421366.88901210        26593513.252513826        1376603267.2216117     
   906582493.44563031        29480575.883208781        1384586865.4951611     
   916096741.63386726        22056576.842342675        1458966995.8423948     
   867062790.74879658        23222941.771145135        1453203626.9069126     
   818061190.94553161        24497143.639300048        1452166131.4857087     
   769091942.22408342        25879182.446841568        1455854509.5787926     
   720155044.58444524        27369058.193755180        1464268761.1861665     
   1472619260.4152668        37841455.067414105        1134161796.4504571     
   1365546406.1326597        41818713.873765767        1128386412.8980234     
   1258575645.5823505        46136285.121102035        1126112158.6341794     
   1151706978.7643383        50794168.809432983        1127339033.6589220     
   1044940405.6786263        55792364.938758373        1132067037.9722672     
   1282814601.3610425        34716774.320048690        1219533383.1273093     
   1184951975.3517425        36589673.525440574        1214579669.6471460     
   1087233401.8251586        38942747.673222363        1213695239.3042421     
   989658880.78129172        41775996.763393402        1216880092.0985799     
   892228412.22013426        45089420.795933992        1224134228.0301709     
   1094135679.0378325        31929814.591980875        1303008406.1422067     
   1007106578.0123036        32185343.209583819        1298925314.6098061     
   920263488.21990025        33060909.270941794        1299479660.0633175     
   833606409.66063142        34556512.776076138        1304671442.5027416     
   747135342.33449161        36672153.724977762        1314500661.9280698     
   906582493.44563031        29480575.883208781        1384586865.4951611     
   832010214.11433232        28605722.926168203        1381423347.7860031     
   757665904.76656461        28490769.914225250        1383465420.9114215     
   683549565.40235567        29135716.847477645        1390713084.8714075     
   609661196.02168465        30540563.725862235        1403166339.6659706     
   720155044.58444524        27369058.193755180        1464268761.1861665     
   659662883.65782344        25850812.675161362        1462073769.1757419     
   599440651.46515906        25232329.603097677        1465652521.8485441     
   539488348.00646043        25513608.977584213        1475005019.2045836     
   479805973.28172493        26694650.798614219        1490131261.2438536     
   1044940405.6786263        55792364.938758373        1132067037.9722672     
   927164597.00535679        54256643.537431926        1129456819.2994184     
   807156268.10240996        45279188.037167162        1132767784.2038224     
   684915418.96977460        28859998.437941939        1141999932.6854784     
   560442049.60744882        4999074.7397485971        1157153264.7443919     
   892228412.22013426        45089420.795933992        1224134228.0301709     
   789823333.54921842        43652059.886702925        1221530353.3890507     
   685125805.53260255        34573201.158471942        1224806235.0589292     
   578135828.17029893        17852844.611288369        1233961873.0397921     
   468853401.46229625       -6509009.7549056411        1248997267.3316588     
   747135342.33449161        36672153.724977762        1314500661.9280698     
   659982630.04803479        35297644.222440362        1311833214.0166707     
   570477539.29987967        26081873.180909544        1315004095.1500058     
   478620070.09002471        9024840.6003755033        1324013305.3280826     
   384410222.41846520       -15873453.519166753        1338860844.5508904     
   609661196.02168465        30540563.725862235        1403166339.6659706     
   537642486.50182152        29193396.544692248        1400365401.1822729     
   463211469.40424383        19805204.104469597        1403361364.4770608     
   386368144.72896075        2375986.4052389413        1412154229.5503232     
   307112512.47597510       -23094256.553010568        1426743996.4020777     
   479805973.28172493        26694650.798614219        1490131261.2438536     
   422802902.91056204        25339316.853400275        1487126914.8858628     
   363327595.84569311        15743193.929163471        1489878043.0400946     
   301380052.08710486       -2093717.9741364419        1498384645.7065523     
   236960271.63480172       -28171418.856486037        1512646722.8852298     
   560442049.60744882        4999074.7397485971        1157153264.7443919     
   463502215.56232119       -32229430.368095726        1166126855.5378473     
   354534918.00744879       -109549480.50842847        1182656962.8150036     
   233540156.94282109       -226961075.68127561        1206743586.5758646     
   100517932.36844686       -384464215.88662249        1238386726.8204327     
   468853401.46229625       -6509009.7549056411        1248997267.3316588     
   391086921.18915278       -40305848.551787570        1246949607.3789549     
   303158097.93569422       -107977163.94972794        1251302241.6184607     
   205066931.70190042       -209522955.94878614        1262055170.0501859     
   96813422.487777218       -344943224.54893368        1279208392.6741257     
   384410222.41846520       -15873453.519166753        1338860844.5508904     
   322513603.65592772       -47229673.683449745        1327967907.8030117     
   252319762.44247273       -106243302.01745504        1322319042.9558573     
   173828698.77811170       -192914338.52115059        1321914250.0094349     
   87040412.662835300       -307242783.19455993        1326753528.9637303     
   307112512.47597510       -23094256.553010568        1426743996.4020777     
   257782262.96262008       -53000905.763173372        1409181756.8100204     
   202019911.52777714       -104347894.71163060        1395707366.8271976     
   139825458.17144454       -177135223.39838853        1386320826.4536057     
   71198902.893614396       -271362891.82346654        1381022135.6892588     
   236960271.63480172       -28171418.856486037        1512646722.8852298     
   196892899.10924911       -57619544.790892631        1490591154.3999851     
   152258545.19161132       -102290942.03224722        1471467213.2324750     
   103057209.88191116       -162185610.58047634        1455274899.3827162     
   49288893.180132002       -237303550.43563822        1442014212.8506944     
   100517932.36844686       -384464215.88662249        1238386726.8204327     
   85584483.171332091       -543917641.26071775        1199109323.9979641     
   58034375.869479984       -745426593.65060425        1156493927.1480818     
   17867610.462904930       -988991073.05623078        1110540536.2708120     
  -34915813.048393190       -1274611079.4776177        1061249151.3661461     
   96813422.487777218       -344943224.54893368        1279208392.6741257     
   79865800.537674457       -485655468.19320464        1224205529.5008974     
   51530802.079982340       -664325633.52942050        1166666408.6074085     
   11808427.114729345       -880953720.55751288        1106591029.9936759     
  -39301324.358100355       -1135539729.2775331        1043979393.6597185     
   87040412.662835300       -307242783.19455993        1326753528.9637303     
   70369293.123035997       -428526642.55999893        1257459367.3030760     
   43540078.672811896       -583670818.29353189        1186430684.2293406     
   6552769.3121782243       -772675310.39510417        1113667479.7425051     
  -40592634.958897054       -995540118.86478889        1039169753.8425896     
   71198902.893614396       -271362891.82346654        1381022135.6892588     
   57094960.927425936       -372531164.36109811        1298870837.4045360     
   34062205.647965372       -503462147.94295609        1215786754.0138903     
   2100637.0552358925       -664155842.56904793        1131769885.5172825     
  -38789744.850752950       -854612248.23934913        1046820231.9147692     
   49288893.180132002       -237303550.43563822        1442014212.8506944     
   40042803.950851709       -317669033.59644657        1348439939.8052495     
   23097183.005446047       -423699622.47767556        1254734617.9610329     
  -1547969.6560594738       -555395317.07923591        1160898247.3180203     
  -33892654.033701152       -712756117.40125012        1066930827.8762283     
   1601877337.5403306       -136445035.12459874        1532965332.4629228     
   1560359793.5410221       -12588721.569494665        1507880653.0315163     
   1506133721.8291221        68905832.943644702        1488034546.0701337     
   1439199122.4046326        108038628.41481811        1473427011.5787816     
   1359555995.2675583        104809664.84404212        1464058049.5574582     
   1315832794.6115131        163587910.71293050        1698781005.0963755     
   1253011592.3020716        167208887.25728768        1646357853.4598207     
   1187453954.4356179        161708411.94493553        1600055316.1171591     
   1119159881.0121543        147086484.77588105        1559873393.0683863     
   1048129372.0316771        123343105.75011662        1525812084.3135040     
   976159876.79752767        447532344.08490765        1814993378.0040567     
   894555135.67470276        331674019.46753639        1746865861.6771972     
   820186051.15044367        239934550.17871869        1685741001.4680924     
   753052623.22475028        172313936.21845293        1631618797.3767362     
   693154851.89762056        128812177.58673352        1584499249.4031341     
   582858584.09837782        715388264.99133563        1881602451.1859634     
   484990423.65891659        480806675.06126475        1809404677.6836460     
   404330011.97360134        303584247.64500809        1745091602.1229339     
   340877349.04242438        183720982.74254987        1688663224.5038402     
   294632434.86539000        121216880.35389900        1640119544.8263607     
   135928916.51406074        967155673.43221509        1898608224.6421082     
   24317456.254713386        614606854.03846812        1833974301.4791594     
  -60114163.094914898        352657504.34378529        1778107118.0816889     
  -117365941.53482158        181307624.34817499        1731006674.4496915     
  -147437879.06501365        100557214.05161253        1692672970.5831714     
   1359555995.2675583        104809664.84404212        1464058049.5574582     
   1310318552.1684163        91749477.185466647        1469843417.5357060     
   1261293199.8812954        79396258.900300026        1474269296.0749838     
   1212479938.4062083        67750009.988575876        1477335685.1752872     
   1163878767.7431479        56810730.450275600        1479042584.8366168     
   1048129372.0316771        123343105.75011662        1525812084.3135040     
   998430386.59967875        102990522.03928697        1518941887.9674878     
   949484103.70296943        85146946.779420406        1514759009.1241572     
   901290523.34155083        69812379.970522135        1513263447.7835057     
   853849645.51541817        56986821.612576872        1514455203.9455395     
   693154851.89762056        128812177.58673352        1584499249.4031341     
   654556629.68035936        104635889.48793845        1565604202.4099967     
   617251721.72164583        84770648.917638168        1553443279.8611929     
   581240128.02148211        69216455.875834957        1548016481.7567306     
   546521848.57987022        57973310.362541035        1549323808.0966034     
   294632434.86539000        121216880.35389900        1640119544.8263607     
   278697281.41045308        96685579.531410977        1609830360.8632295     
   264596053.93732381        78267365.314951390        1590322108.2860954     
   252328752.44600767        65962237.704534367        1581594787.0949535     
   241895376.93650147        59770196.700151458        1583648397.2898068     
  -147437879.06501365        100557214.05161253        1692672970.5831714     
  -129147658.21003762        79139592.169709831        1651620363.3271909     
  -108482899.64999035        65637095.971379459        1625395494.3988602     
  -85443603.384875715        60049725.456607573        1613998363.7981801     
  -60029769.414682791        62377480.625427216        1617428971.5251482     
   1163878767.7431479        56810730.450275600        1479042584.8366168     
   1100466466.2302177        43232875.429590821        1462935199.4110332     
   1038032028.0410292        32914564.821378469        1454220139.4368029     
   976575453.17558181        25855798.625638843        1452897404.9139237     
   916096741.63386726        22056576.842342675        1458966995.8423948     
   853849645.51541817        56986821.612576872        1514455203.9455395     
   810197736.33029270        47366613.073404104        1499971438.2563703     
   767157075.74820578        39783899.877693683        1492382345.8722708     
   724727663.76915741        34238682.025444210        1491687926.7932456     
   682909500.39314985        30730959.516662329        1497888181.0192916     
   546521848.57987022        57973310.362541035        1549323808.0966034     
   521208468.44746637        51884189.322350278        1536035944.9696922     
   496139722.19740015        46610514.556618035        1529145103.0015743     
   471315609.82967156        42152286.065344587        1528651282.1922519     
   446736131.34428012        38509503.848529711        1534554482.5417230     
   241895376.93650147        59770196.700151458        1583648397.2898068     
   233498662.58173972        56785604.176426336        1571128719.5510018     
   224979967.38861328        53394408.858156078        1564508410.8247151     
   216339291.35711810        49596610.745321274        1563787471.1109450     
   207576634.48726004        45392209.837945290        1568965900.4096866     
  -60029769.414682791        62377480.625427216        1617428971.5251482     
  -52931681.266892031        62070857.635624230        1605249762.0003061     
  -46322188.678163484        60135582.782280512        1598472269.3416955     
  -40201291.648504376        56571656.065373100        1597096493.5493202     
  -34568990.177904040        51379077.484934330        1601122434.6231866     
   916096741.63386726        22056576.842342675        1458966995.8423948     
   867062790.74879658        23222941.771145135        1453203626.9069126     
   818061190.94553161        24497143.639300048        1452166131.4857087     
   769091942.22408342        25879182.446841568        1455854509.5787926     
   720155044.58444524        27369058.193755180        1464268761.1861665     
   682909500.39314985        30730959.516662329        1497888181.0192916     
   645321637.90103257        29526294.624683261        1491089705.4201145     
   607804263.52124083        28556590.107116938        1488917200.4137213     
   570357377.25377750        27821845.963981599        1491370666.0001142     
   532980979.09864330        27322062.195273817        1498450102.1792829     
   446736131.34428012        38509503.848529711        1534554482.5417230     
   420308920.32653844        34848178.060194075        1526765393.4811225     
   393990334.45164174        31548936.081338078        1523502372.0918059     
   367780373.71958685        28611777.911956191        1524765418.3737676     
   341679038.13036877        26036703.552034020        1530554532.3270123     
   207576634.48726004        45392209.837945290        1568965900.4096866     
   192024638.02531895        39188592.077694751        1560230691.0899358     
   176619403.73673454        33474181.561965089        1555921646.5199580     
   161360931.62150517        28248978.290753506        1556038766.6997614     
   146249221.67963129        23512982.264060345        1560582051.6293440     
  -34568990.177904040        51379077.484934330        1601122434.6231866     
  -39531209.002628595        42547536.677177034        1591485598.2465460     
  -44308528.623478092        34332326.549004637        1586175023.6981812     
  -48900949.040457271        26733447.100399286        1585190710.9780922     
  -53308470.253568217        19750898.331354726        1588532660.0862761     
   720155044.58444524        27369058.193755180        1464268761.1861665     
   659662883.65782344        25850812.675161362        1462073769.1757419     
   599440651.46515906        25232329.603097677        1465652521.8485441     
   539488348.00646043        25513608.977584213        1475005019.2045836     
   479805973.28172493        26694650.798614219        1490131261.2438536     
   532980979.09864330        27322062.195273817        1498450102.1792829     
   487813421.96238965        24961512.838555709        1495327517.5248358     
   442889606.67404717        23413436.308205575        1498413722.7577767     
   398209533.23361385        22677832.604225144        1507708717.8781097     
   353773201.64108831        22754701.726595402        1523212502.8858311     
   341679038.13036877        26036703.552034020        1530554532.3270123     
   313079071.08209741        23206746.246507525        1526473803.6614707     
   284696658.99567866        21101972.147156507        1529036910.0874798     
   256531801.87111109        19722381.253975898        1538243851.6050413     
   228584499.70839149        19067973.566955209        1554094628.2141526     
   146249221.67963129        23512982.264060345        1560582051.6293440     
   135459831.01694077        20586512.898995869        1555512627.5856416     
   124861808.43004960        18297937.119929235        1557522083.8376541     
   114455153.91894577        16647254.926821239        1566610420.3853805     
   104239867.48363954        15634466.319703482        1582777637.2288160     
  -53308470.253568217        19750898.331354726        1588532660.0862761     
  -45044298.233082160        17100812.796014316        1582443989.2973585     
  -36614945.022849940        15001331.226495836        1583869244.0083051     
  -28020410.622880746        13452453.622766962        1592808424.2191310     
  -19260695.033172656        12454179.984833684        1609261529.9298234     
   479805973.28172493        26694650.798614219        1490131261.2438536     
   422802902.91056204        25339316.853400275        1487126914.8858628     
   363327595.84569311        15743193.929163471        1489878043.0400946     
   301380052.08710486       -2093717.9741364419        1498384645.7065523     
   236960271.63480172       -28171418.856486037        1512646722.8852298     
   353773201.64108831        22754701.726595402        1523212502.8858311     
   311683783.38144600        21156321.045409545        1518012724.9547246     
   267781838.34858739        13516184.453508183        1518585600.3054888     
   222067366.54250824       -165708.04913240671        1524931128.9381089     
   174540367.96320656       -19889356.462512024        1537049310.8525977     
   228584499.70839149        19067973.566955209        1554094628.2141526     
   201457815.75924039        17241270.809500270        1547469080.2838464     
   173178314.95736572        11571845.209630623        1546633364.4050393     
   143745997.30275756        2059696.7673185393        1551587480.5777400     
   113160862.79542823       -11295174.517399624        1562331428.8019338     
   104239867.48363954        15634466.319703482        1582777637.2288160     
   92125000.043947950        13594166.145664116        1575495980.8732131     
   79517025.672022000        9910176.1975102033        1574021335.3387520     
   66415944.367863521        4582496.4752465636        1578353700.6254299     
   52821756.131466739       -2388873.0211421810        1588493076.7332559     
  -19260695.033172656        12454179.984833684        1609261529.9298234     
  -16314663.764435202        10215007.053900752        1602093426.7228358     
  -13202029.507439006        8531177.4171629213        1600749513.1066260     
  -9922792.2621876914        7402691.0746095292        1605229789.0811985     
  -6476952.0286746155        6829548.0262613073        1615534254.6465421     
   236960271.63480172       -28171418.856486037        1512646722.8852298     
   196892899.10924911       -57619544.790892631        1490591154.3999851     
   152258545.19161132       -102290942.03224722        1471467213.2324750     
   103057209.88191116       -162185610.58047634        1455274899.3827162     
   49288893.180132002       -237303550.43563822        1442014212.8506944     
   174540367.96320656       -19889356.462512024        1537049310.8525977     
   144329219.99341005       -42317290.635890678        1510762230.1333804     
   110722439.93341380       -76063998.443261534        1487505189.0406017     
   73720027.783226803       -121129479.88460442        1467278187.5742667     
   33321983.542842232       -177513734.95994049        1450081225.7343864     
   113160862.79542823       -11295174.517399624        1562331428.8019338     
   93087117.406250656       -26618563.522269826        1533179410.0342619     
   70789089.228752598       -49356228.488208279        1507155843.2017400     
   46266778.262938924       -79508169.415200233        1484260728.3043704     
   19520184.508803844       -117074386.30326068        1464494065.3421316     
   52821756.131466739       -2388873.0211421810        1588493076.7332559     
   43166591.347770125       -10523363.450039493        1557842694.1026547     
   32458493.077626459       -22167632.167091191        1530419175.7159142     
   20697461.321044184       -37321679.172271423        1506222521.5730095     
   7883496.0780176818       -55985504.465601876        1485252731.6739590     
  -6476952.0286746155        6829548.0262613073        1615534254.6465421     
  -5432358.1820414383        5968309.5807682239        1584752082.3385508     
  -4269348.5199697502        5501790.5200715661        1557295186.5831058     
  -2987923.0424611755        5429990.8441641871        1533163567.3802042     
  -1588081.7495221868        5752910.5530241597        1512357224.7298510     
   49288893.180132002       -237303550.43563822        1442014212.8506944     
   40042803.950851709       -317669033.59644657        1348439939.8052495     
   23097183.005446047       -423699622.47767556        1254734617.9610329     
  -1547969.6560594738       -555395317.07923591        1160898247.3180203     
  -33892654.033701152       -712756117.40125012        1066930827.8762283     
   33321983.542842232       -177513734.95994049        1450081225.7343864     
   29210355.315968260       -236865205.98351490        1349107150.0102501     
   19360420.221721932       -315344366.56499857        1247364321.0550871     
   3772178.2601214945       -412951216.70432299        1144852738.8688781     
  -17554370.568854183       -529685756.40157324        1041572403.4516422     
   19520184.508803844       -117074386.30326068        1464494065.3421316     
   18721004.620757423       -155958448.98866820        1358408282.5961916     
   14144742.714087069       -207432785.06948808        1250916042.1869650     
   5791398.7888084948       -271497394.54566151        1142017344.1144433     
  -6339027.1550858319       -348152277.41723317        1031712188.3786358     
   7883496.0780176818       -55985504.465601876        1485252731.6739590     
   8574751.8652065657       -74948762.611943483        1376343337.5630815     
   7450150.4825410247       -99964877.991134346        1265389781.3566527     
   4509691.9300012514       -131033850.60323998        1152392063.0546882     
  -246623.79239881784       -168155680.44821081        1037350182.6571765     
  -1588081.7495221868        5752910.5530241597        1512357224.7298510     
  -1228402.9506649640        6163853.1467183754        1402912314.9109116     
  -723356.47292718478        7059354.6700144447        1290785538.5641735     
  -72942.316298556048        8439415.1229466833        1175976895.6896398     
   722839.51921355771        10304034.505489146        1058486386.2873111     
   135928916.51406074        967155673.43221509        1898608224.6421082     
   24317456.254713386        614606854.03846812        1833974301.4791594     
  -60114163.094914898        352657504.34378529        1778107118.0816889     
  -117365941.53482158        181307624.34817499        1731006674.4496915     
  -147437879.06501365        100557214.05161253        1692672970.5831714     
  -570018228.34754384        260650752.26588595        1456519649.6841638     
  -601657078.03756690        106357696.93660817        1455263119.6754827     
  -620026142.33878684       -3702740.4299964607        1461005912.4782352     
  -625125421.25120115       -69530559.833913252        1473748028.0924256     
  -616954914.77481437       -91125761.275160387        1493489466.5180495     
  -1159778269.5220635       -410998037.79431599        1089569881.8161104     
  -1116494271.3685901       -368550257.87688124        1135462346.8539593     
  -1073850543.3472278       -328236711.73314893        1186586717.7492058     
  -1031847085.4579762       -290057399.36311847        1242942994.5018494     
  -990483897.70083797       -254012320.76679850        1304531177.1118860     
  -1633351207.0094950       -1047790696.7483932        797758921.03795362     
  -1520194123.7383523       -810117010.40198743        874571983.01459956     
  -1421587366.1202381       -620944409.56567383        954849533.89460194     
  -1337530934.1551487       -480272894.23944712        1038591573.6779606     
  -1268024827.8430872       -388102464.42331016        1125798102.3646774     
  -1990737040.8098416       -1649727224.5963433        581086767.34968877     
  -1812756635.1468585       -1218342560.6387200        672592028.15739870     
  -1663236610.6578164       -881825833.92757165        765794360.91442072     
  -1542176967.3427145       -640177044.46288764        860693765.62076366     
  -1449577705.2015567       -493396192.24468124        957290242.27642190     
  -147437879.06501365        100557214.05161253        1692672970.5831714     
  -129147658.21003762        79139592.169709831        1651620363.3271909     
  -108482899.64999035        65637095.971379459        1625395494.3988602     
  -85443603.384875715        60049725.456607573        1613998363.7981801     
  -60029769.414682791        62377480.625427216        1617428971.5251482     
  -616954914.77481437       -91125761.275160387        1493489466.5180495     
  -557624424.74398267       -76676964.724017844        1484455665.4029732     
  -497918003.88697594       -60975065.418960601        1483886697.9955828     
  -437835652.20379758       -44020063.359995633        1491782564.2958877     
  -377377369.69444174       -25811958.547108099        1508143264.3038790     
  -990483897.70083797       -254012320.76679850        1304531177.1118860     
  -908292865.97975087       -209151024.02829498        1325184474.1123295     
  -827724510.31138444       -169698647.46552706        1347939700.2005045     
  -748778830.69574249       -135655191.07850897        1372796855.3764083     
  -671455827.13282120       -107020654.86722459        1399755939.6400425     
  -1268024827.8430872       -388102464.42331016        1125798102.3646774     
  -1181152981.9173400       -318282585.74311221        1173806789.4552617     
  -1097902418.9232159       -260533650.16832238        1217554501.0136166     
  -1018273138.8607094       -214855657.69892561        1257041237.0397427     
  -942265141.72982287       -181248608.33493024        1292266997.5336368     
  -1449577705.2015567       -493396192.24468124        957290242.27642190     
  -1376204772.5567558       -404071649.86848903        1030322611.4317708     
  -1308451729.7224689       -333480073.52733994        1092731100.4349272     
  -1246318576.6987004       -281621463.22125590        1144515709.2858946     
  -1189805313.4854467       -248495818.95021918        1185676437.9846733     
  -60029769.414682791        62377480.625427216        1617428971.5251482     
  -52931681.266892031        62070857.635624230        1605249762.0003061     
  -46322188.678163484        60135582.782280512        1598472269.3416955     
  -40201291.648504376        56571656.065373100        1597096493.5493202     
  -34568990.177904040        51379077.484934330        1601122434.6231866     
  -377377369.69444174       -25811958.547108099        1508143264.3038790     
  -354831868.40335125       -19317906.062196806        1503227997.2101433     
  -332886617.47413778       -14824688.116877154        1503224252.0970070     
  -311541616.90681106       -12332304.711179271        1508132028.9644749     
  -290796866.70136470       -11840755.845081091        1517951327.8125339     
  -671455827.13282120       -107020654.86722459        1399755939.6400425     
  -634863469.51453650       -94146093.952427343        1401974351.0407987     
  -598983017.06094897       -83644550.253289193        1408614089.5365186     
  -563814469.77206039       -75516023.769814461        1419675155.1271963     
  -529357827.64787090       -69760514.502001852        1435157547.8128386     
  -942265141.72982287       -181248608.33493024        1292266997.5336368     
  -893026484.60045207       -162413706.03508449        1301488823.4922693     
  -844611387.43859625       -146324003.62695378        1314641781.6602237     
  -797019850.24425101       -132979501.11052865        1331725872.0375030     
  -750251873.01743007       -122380198.48584925        1352741094.6241047     
  -1189805313.4854467       -248495818.95021918        1185676437.9846733     
  -1129320913.6610956       -224120742.31015173        1201771414.5645547     
  -1069771728.6070756       -202863048.23785964        1221307328.4681220     
  -1011157758.3233849       -184722736.73332715        1244284179.6953773     
  -953479002.81003237       -169699807.79659301        1270701968.2463200     
  -34568990.177904040        51379077.484934330        1601122434.6231866     
  -39531209.002628595        42547536.677177034        1591485598.2465460     
  -44308528.623478092        34332326.549004637        1586175023.6981812     
  -48900949.040457271        26733447.100399286        1585190710.9780922     
  -53308470.253568217        19750898.331354726        1588532660.0862761     
  -290796866.70136470       -11840755.845081091        1517951327.8125339     
  -282403111.54443353       -15248941.717372090        1515066012.1564388     
  -273537305.73364133       -17083625.410126865        1516876717.3651626     
  -264199449.26899025       -17344806.923349783        1523383443.4386945     
  -254389542.15047619       -16032486.257031724        1534586190.3770437     
  -529357827.64787090       -69760514.502001852        1435157547.8128386     
  -506551644.11917502       -67428409.121802181        1439358762.9022791     
  -482986258.48662496       -62565630.062091589        1448625757.8930705     
  -458661670.75023198       -55172177.322901592        1462958532.7852175     
  -433577880.90998936       -45248050.904213071        1482357087.5787158     
  -750251873.01743007       -122380198.48584925        1352741094.6241047     
  -711976806.72684968       -113990865.53610222        1364363850.4840589     
  -672655386.88243568       -102113687.40691084        1381422145.2819066     
  -632287613.48418653       -86748664.098268881        1403915979.0176508     
  -590873486.53209913       -67895795.610166728        1431845351.6912825     
  -953479002.81003237       -169699807.79659301        1270701968.2463200     
  -898678599.36746538       -154936310.96029794        1290081274.9017792     
  -842544690.92106712       -135727797.44456723        1315265879.5316739     
  -785077277.47085202       -112074267.24944714        1346255782.1359975     
  -726276359.01680708       -83975720.374893188        1383050982.7147560     
  -53308470.253568217        19750898.331354726        1588532660.0862761     
  -45044298.233082160        17100812.796014316        1582443989.2973585     
  -36614945.022849940        15001331.226495836        1583869244.0083051     
  -28020410.622880746        13452453.622766962        1592808424.2191310     
  -19260695.033172656        12454179.984833684        1609261529.9298234     
  -254389542.15047619       -16032486.257031724        1534586190.3770437     
  -225752834.95754224       -9181588.0739645362        1535164265.6340771     
  -197660351.49904239       -4144769.0056800768        1541707061.5888784     
  -170112091.77499336       -922029.05223081261        1554214578.2414412     
  -143108055.78538984        486631.78640065342        1572686815.5917678     
  -433577880.90998936       -45248050.904213071        1482357087.5787158     
  -388994937.97920245       -30224058.833115086        1488774269.8034945     
  -345665623.70703733       -19378828.957424223        1499606967.9239278     
  -303589938.09350634       -12712361.277178884        1514855181.9400160     
  -262767881.13859865       -10224655.792346507        1534518911.8517537     
  -590873486.53209913       -67895795.610166728        1431845351.6912825     
  -534770607.29805660       -46026599.481414676        1443274001.8055911     
  -480630761.64682823       -30700848.628713399        1457568963.0134494     
  -428453949.57840377       -21918543.052020520        1474730235.3148515     
  -378240171.09279585       -19679682.751388520        1494757818.7097979     
  -726276359.01680708       -83975720.374893188        1383050982.7147560     
  -663079842.91411042       -56589210.018884182        1398663461.6403849     
  -602555765.31840193       -38110828.019502461        1415593046.8574483     
  -544704126.22969770       -28540574.376802325        1433839738.3659480     
  -489524925.64797711       -27878449.090712428        1453403536.1658862     
  -19260695.033172656        12454179.984833684        1609261529.9298234     
  -16314663.764435202        10215007.053900752        1602093426.7228358     
  -13202029.507439006        8531177.4171629213        1600749513.1066260     
  -9922792.2621876914        7402691.0746095292        1605229789.0811985     
  -6476952.0286746155        6829548.0262613073        1615534254.6465421     
  -143108055.78538984        486631.78640065342        1572686815.5917678     
  -125033878.04271154       -415052.64714094996        1567380775.3077765     
  -106172435.55333972        1307478.7416319251        1567578929.9904873     
  -86523728.317274526        5654225.9527142383        1573281279.6398971     
  -66087756.334522836        12625188.986085609        1584487824.2560077     
  -262767881.13859865       -10224655.792346507        1534518911.8517537     
  -230479827.27649146       -10063132.834830403        1531799039.8756063     
  -196783846.90926188       -5208521.5269063413        1534263368.2420793     
  -161679940.03690422        4339178.1314425468        1541911896.9511671     
  -125168106.65942314        18579966.140204288        1554744626.0028732     
  -378240171.09279585       -19679682.751388520        1494757818.7097979     
  -332652511.46577919       -18729233.509180516        1495348220.4263282     
  -285036263.57520175       -11016823.388439506        1500802827.8613968     
  -235391427.42107013        3457547.6108167619        1511121641.0150037     
  -183718003.00338125        24693879.488597274        1526304659.8871479     
  -489524925.64797711       -27878449.090712428        1453403536.1658862     
  -431551930.61056894       -26413354.670174569        1458028316.9599335     
  -370929685.55116820       -16117426.842993975        1467197308.8484395     
  -307658190.46977204        3009334.3908385187        1480910511.8314028     
  -241737445.36639243        30966929.031281039        1499167925.9088192     
  -6476952.0286746155        6829548.0262613073        1615534254.6465421     
  -5432358.1820414383        5968309.5807682239        1584752082.3385508     
  -4269348.5199697502        5501790.5200715661        1557295186.5831058     
  -2987923.0424611755        5429990.8441641871        1533163567.3802042     
  -1588081.7495221868        5752910.5530241597        1512357224.7298510     
  -66087756.334522836        12625188.986085609        1584487824.2560077     
  -54171001.214890331        20062588.849493183        1554562323.0542684     
  -41048850.255821273        31517974.844355877        1527759675.9002354     
  -26721303.457308505        46991346.970698327        1504079882.7939031     
  -11188360.819371372        66482705.228453949        1483522943.7352920     
  -125168106.65942314        18579966.140204288        1554744626.0028732     
  -102957540.28061908        34142499.308352515        1526943939.2687206     
  -78454598.038374424        57346285.354636364        1502063684.0774419     
  -51659279.932689711        88191324.279052332        1480103860.4290285     
  -22571585.963568598        126677616.08158933        1461064468.3234823     
  -183718003.00338125        24693879.488597274        1526304659.8871479     
  -151791975.37922680        48208040.957345657        1501896930.9819210     
  -116486591.86763483        82986722.050891355        1480207211.1147244     
  -77801852.468599647        129029922.76924437        1461235500.2855601     
  -35737757.182120025        186337643.11241344        1444981798.4944246     
  -241737445.36639243        30966929.031281039        1499167925.9088192     
  -200674306.51071590        62259213.796474397        1479421298.1938562     
  -155144831.74359363        108439284.93315014        1462190257.0120869     
  -105149021.06502888        169507142.44130227        1447474802.3635092     
  -50686874.475020856        245462786.32093272        1435274934.2481198     
  -1588081.7495221868        5752910.5530241597        1512357224.7298510     
  -1228402.9506649640        6163853.1467183754        1402912314.9109116     
  -723356.47292718478        7059354.6700144447        1290785538.5641735     
  -72942.316298556048        8439415.1229466833        1175976895.6896398     
   722839.51921355771        10304034.505489146        1058486386.2873111     
  -11188360.819371372        66482705.228453949        1483522943.7352920     
  -11179990.857093390        86298664.499128520        1375059503.7793088     
  -9092199.4932097420        113046028.44182403        1264529612.0129144     
  -4924986.7277145907        146724797.05655685        1151933268.4361060     
   1321647.4393915758        187334970.34332639        1037270473.0488902     
  -22571585.963568598        126677616.08158933        1461064468.3234823     
  -21156197.073921844        166426090.35841528        1355838894.2403052     
  -15727333.059934869        219552815.04970834        1249162283.0641024     
  -6284993.9216174483        286057790.15542787        1141034634.7948654     
   7170820.3410366178        365941015.67561710        1031455949.4326000     
  -35737757.182120025        186337643.11241344        1444981798.4944246     
  -31157021.601149276        246546130.72457737        1345250486.2939026     
  -20628757.173114777        326579714.49361914        1244683551.7177334     
  -4152963.8980121911        426438394.41955447        1143280994.7659163     
   18270358.224145949        546122170.50234044        1041042815.4384570     
  -50686874.475020856        245462786.32093272        1435274934.2481198     
  -41182464.438765869        326658785.59764278        1343294279.9400933     
  -23796471.832716972        434126726.77366662        1251093417.9737997     
   1471103.3431023657        567866609.84892321        1158672348.3492570     
   34620261.088717461        727878434.82350230        1066031071.0664320     
  -1990737040.8098416       -1649727224.5963433        581086767.34968877     
  -1812756635.1468585       -1218342560.6387200        672592028.15739870     
  -1663236610.6578164       -881825833.92757165        765794360.91442072     
  -1542176967.3427145       -640177044.46288764        860693765.62076366     
  -1449577705.2015567       -493396192.24468124        957290242.27642190     
  -1931531757.8243880       -819902833.76856160        1003493139.4453332     
  -1813293488.6218448       -616140373.84656453        1022146560.0645576     
  -1707435941.6627171       -453646988.06928474        1045675620.0808089     
  -1613959116.9470069       -332422676.43673021        1074080319.4940867     
  -1532863014.4747136       -252467438.94889247        1107360658.3043916     
  -2016946894.6071596       -33464568.871250987        1335866032.3837485     
  -1949369140.5858860       -54599826.601125360        1300427214.9001045     
  -1878092449.8775058       -63405295.373973131        1273042604.2611947     
  -1803116822.4820149       -59880975.189787447        1253712200.4670212     
  -1724442258.3994148       -44026866.048572123        1242436003.5175838     
  -2246982451.1581583        709587570.09559429        1578205446.1649408     
  -2220983591.0389867        466279081.09759402        1507433992.6640379     
  -2175206135.3021812        288899244.15837383        1447895313.4555788     
  -2109650083.9477370        177448059.27793920        1399589408.5395689     
  -2024315436.9756622        131925526.45628536        1362516277.9160006     
  -2621638427.4773855        1409253583.1319690        1730511380.7889047     
  -2628136839.9811411        946496349.24959934        1643166893.3563557     
  -2598776997.9367380        603266630.52776039        1570233747.6639626     
  -2533558901.3441744        379564426.96645844        1511711943.7117260     
  -2432482550.2034512        275389738.56568706        1467601481.4996445     
  -1449577705.2015567       -493396192.24468124        957290242.27642190     
  -1376204772.5567558       -404071649.86848903        1030322611.4317708     
  -1308451729.7224689       -333480073.52733994        1092731100.4349272     
  -1246318576.6987004       -281621463.22125590        1144515709.2858946     
  -1189805313.4854467       -248495818.95021918        1185676437.9846733     
  -1532863014.4747136       -252467438.94889247        1107360658.3043916     
  -1491956898.1245093       -208699537.81866473        1140546247.6946993     
  -1454580174.1601093       -176696277.97444862        1169894314.2211885     
  -1420732842.5815074       -156457659.41622615        1195404857.8838603     
  -1390414903.3887060       -147983682.14400798        1217077878.6827197     
  -1724442258.3994148       -44026866.048572123        1242436003.5175838     
  -1696613366.0913181       -39998728.488574564        1238213726.8050191     
  -1670223368.7443073       -40766907.465524852        1236940284.5170116     
  -1645272266.3583806       -46331402.979422867        1238615676.6535592     
  -1621760058.9335375       -56692215.030270100        1243239903.2146633     
  -2024315436.9756622        131925526.45628536        1362516277.9160006     
  -1990174176.4571779        102030778.12180758        1323325048.7627378     
  -1955381313.4750633        74308037.999429941        1293869011.3223989     
  -1919936848.0293159        48757306.089161634        1274148165.5949891     
  -1883840780.1199389        25378582.390990973        1264162511.5805144     
  -2432482550.2034512        275389738.56568706        1467601481.4996445     
  -2372639329.2220855        217388982.01247692        1395880213.5678461     
  -2310054008.3523741        168528558.42042243        1340680494.6373477     
  -2244726587.5943117        128808467.78953183        1302002324.7081525     
  -2176657066.9479055        98228710.119799137        1279845703.7802606     
  -1189805313.4854467       -248495818.95021918        1185676437.9846733     
  -1129320913.6610956       -224120742.31015173        1201771414.5645547     
  -1069771728.6070756       -202863048.23785964        1221307328.4681220     
  -1011157758.3233849       -184722736.73332715        1244284179.6953773     
  -953479002.81003237       -169699807.79659301        1270701968.2463200     
  -1390414903.3887060       -147983682.14400798        1217077878.6827197     
  -1323215799.7634115       -134302740.92414832        1222051416.7957861     
  -1256349316.0921593       -121730532.88444376        1231217051.7597880     
  -1189815452.3749540       -110267058.02489126        1244574783.5747259     
  -1123614208.6117959       -99912316.345490366        1262124612.2405941     
  -1621760058.9335375       -56692215.030270100        1243239903.2146633     
  -1545700081.4294453       -53061558.207261264        1237795030.1465864     
  -1469370129.0631127       -48530985.176786363        1237293413.4566913     
  -1392770201.8345406       -43100495.938840985        1241735053.1449766     
  -1315900299.7437272       -36770090.493433118        1251119949.2114446     
  -1883840780.1199389        25378582.390990973        1264162511.5805144     
  -1796773758.6591997        19602805.840510011        1249002254.6169548     
  -1708834167.5199349        16735594.885109305        1239536413.5588248     
  -1620022006.7021427        16776949.524801373        1235764988.4061282     
  -1530337276.2058263        19726869.759568095        1237687979.1588550     
  -2176657066.9479055        98228710.119799137        1279845703.7802606     
  -2076436831.4526751        83690351.219161749        1255673090.2068913     
  -1974741431.4626262        74069207.301244140        1237946052.0661993     
  -1871570866.9777701        69365278.366026282        1226664589.3581841     
  -1766925137.9980950        69578564.413528323        1221828702.0828445     
  -953479002.81003237       -169699807.79659301        1270701968.2463200     
  -898678599.36746538       -154936310.96029794        1290081274.9017792     
  -842544690.92106712       -135727797.44456723        1315265879.5316739     
  -785077277.47085202       -112074267.24944714        1346255782.1359975     
  -726276359.01680708       -83975720.374893188        1383050982.7147560     
  -1123614208.6117959       -99912316.345490366        1262124612.2405941     
  -1055810839.3333578       -89139153.115245223        1274355351.8253200     
  -987715871.70772147       -77393995.394342721        1291703921.0646000     
  -919329305.73490179       -64676843.182827473        1314170319.9584379     
  -850651141.41488278       -50987696.480647922        1341754548.5068324     
  -1315900299.7437272       -36770090.493433118        1251119949.2114446     
  -1237058159.8290586       -30576519.429121673        1254986563.9593585     
  -1158966328.2238321       -26883976.062954664        1263283540.0419533     
  -1081624804.9280486       -25692460.394926727        1276010877.4592314     
  -1005033589.9417043       -27001972.425029755        1293168576.2111902     
  -1530337276.2058263        19726869.759568095        1237687979.1588550     
  -1442420560.8545730        20751590.098047853        1231974911.3038914     
  -1356296060.4693973        15802260.549596786        1230004736.4637301     
  -1271963775.0502942        4878881.1142392159        1231777454.6383772     
  -1189423704.5972655       -12018548.208031833        1237293065.8278332     
  -1766925137.9980950        69578564.413528323        1221828702.0828445     
  -1671898042.4099030        64845175.466272593        1205320393.8589237     
  -1579705068.4444168        50664714.443322718        1191867510.3299334     
  -1490346216.1016419        27037181.344672263        1181470051.4958777     
  -1403821485.3815711       -6037423.8296571374        1174128017.3567510     
  -726276359.01680708       -83975720.374893188        1383050982.7147560     
  -663079842.91411042       -56589210.018884182        1398663461.6403849     
  -602555765.31840193       -38110828.019502461        1415593046.8574483     
  -544704126.22969770       -28540574.376802325        1433839738.3659480     
  -489524925.64797711       -27878449.090712428        1453403536.1658862     
  -850651141.41488278       -50987696.480647922        1341754548.5068324     
  -787137801.87320685       -40339540.219326675        1345297749.8284729     
  -724899495.62863028       -33941494.948333621        1351630252.2951293     
  -663936222.68113685       -31793560.667619854        1360752055.9067981     
  -604247983.03073180       -33895737.377205998        1372663160.6634774     
  -1005033589.9417043       -27001972.425029755        1293168576.2111902     
  -936997155.95082784       -31830288.955338240        1286272806.0070610     
  -868838350.04714465       -36250699.109618187        1283638531.8015263     
  -800557172.23064899       -40263202.887859434        1285265753.5945826     
  -732153622.50134611       -43867800.290070802        1291154471.3862286     
  -1189423704.5972655       -12018548.208031833        1237293065.8278332     
  -1112657905.1469729       -31061456.226911068        1221588630.1761491     
  -1034372328.5739608       -45038440.503396153        1211617885.3766413     
  -954566974.87824082       -53949501.037522823        1207380831.4292989     
  -873241844.05981112       -57794637.829277545        1208877468.3341310     
  -1403821485.3815711       -6037423.8296571374        1174128017.3567510     
  -1314120049.4616289       -38033042.034020662        1151245222.3357389     
  -1221501431.2090771       -60304719.129674196        1135568313.0204763     
  -1125965630.6239123       -72852455.116619349        1127097289.4109576     
  -1027512647.7061323       -75676249.994854420        1125832151.5071855     
  -489524925.64797711       -27878449.090712428        1453403536.1658862     
  -431551930.61056894       -26413354.670174569        1458028316.9599335     
  -370929685.55116820       -16117426.842993975        1467197308.8484395     
  -307658190.46977204        3009334.3908385187        1480910511.8314028     
  -241737445.36639243        30966929.031281039        1499167925.9088192     
  -604247983.03073180       -33895737.377205998        1372663160.6634774     
  -533525691.71235400       -31014766.815626472        1375802632.3669603     
  -460425335.16010749       -20206912.141153261        1383878303.3134089     
  -384946913.37398469       -1472173.3537630290        1396890173.5028307     
  -307090426.35399508        25189449.546521083        1414838242.9352345     
  -732153622.50134611       -43867800.290070802        1291154471.3862286     
  -647562068.76337826       -39234963.745866746        1292492251.7463310     
  -560863634.57966185       -27579192.382497072        1299158219.4979181     
  -472058319.95019579       -8900486.1999640763        1311152374.6410010     
  -381146124.87497836        16801154.801740304        1328474717.1755686     
  -873241844.05981112       -57794637.829277545        1208877468.3341310     
  -773661061.76363885       -51073945.460869610        1208097175.0980446     
  -672244583.80983293       -38234267.567019284        1213037057.4019632     
  -568992410.19840002       -19275604.147749782        1223697115.2458909     
  -463904540.92934173        5802044.7969488204        1240077348.6298208     
  -1027512647.7061323       -75676249.994854420        1125832151.5071855     
  -911822670.71313119       -66531711.960641980        1122617402.4221051     
  -794568182.85062325       -52172137.694740564        1125514817.0255473     
  -675749184.11860430       -32597527.197135478        1134524395.3175178     
  -555365674.51708305       -7807880.4678560495        1149646137.2980020     
  -241737445.36639243        30966929.031281039        1499167925.9088192     
  -200674306.51071590        62259213.796474397        1479421298.1938562     
  -155144831.74359363        108439284.93315014        1462190257.0120869     
  -105149021.06502888        169507142.44130227        1447474802.3635092     
  -50686874.475020856        245462786.32093272        1435274934.2481198     
  -307090426.35399508        25189449.546521083        1414838242.9352345     
  -257803517.68760559        56552833.089883208        1399007879.4173448     
  -202143486.90399015        109159957.02399376        1386971498.7333918     
  -140110334.00315034        183010821.34885350        1378729100.8833697     
  -71704058.985095337        278105426.06443262        1374280685.8672805     
  -381146124.87497836        16801154.801740304        1328474717.1755686     
  -319982885.53861237        49331405.381066903        1318785201.7614975     
  -250539737.87924445        109461350.37040004        1314168065.4821053     
  -172816681.89687741        197190989.76972967        1314623308.3373806     
  -86813717.591506898        312520323.57907134        1320150930.3273304     
  -463904540.92934173        5802044.7969488204        1240077348.6298208     
  -387212410.06374735        40594930.669997141        1238753265.2263165     
  -300333584.66936594        109343464.97233281        1243779957.2582200     
  -203268064.74620605        212047647.70393544        1255157424.7255425     
  -96015850.294267505        348707478.86479205        1272885667.6282704     
  -555365674.51708305       -7807880.4678560495        1149646137.2980020     
  -459492091.26299846        30343408.956705838        1158912069.8117990     
  -351525027.27434891        108806300.82982047        1175807174.0617476     
  -231464482.55114785        227580795.15143889        1200331450.0478525     
  -99310457.093386263        386666891.92159200        1232484897.7701013     
  -50686874.475020856        245462786.32093272        1435274934.2481198     
  -41182464.438765869        326658785.59764278        1343294279.9400933     
  -23796471.832716972        434126726.77366662        1251093417.9737997     
   1471103.3431023657        567866609.84892321        1158672348.3492570     
   34620261.088717461        727878434.82350230        1066031071.0664320     
  -71704058.985095337        278105426.06443262        1374280685.8672805     
  -57505122.291242808        380281642.08717114        1293830991.0240068     
  -34287782.788674444        512519200.80562997        1212371089.7111306     
  -2052040.4773654044        674818102.21988821        1129900981.9286625     
   39202104.642672658        867178346.32991409        1046420667.6766174     
  -86813717.591506898        312520323.57907134        1320150930.3273304     
  -70177393.701022506        434999614.50948536        1252558485.2275722     
  -43385846.762857258        591329648.93216074        1183165834.8468897     
  -6439076.7770157456        781510426.84709895        1111972979.1852887     
   40662916.256506383        1005541948.2543025        1038979918.2427524     
  -96015850.294267505        348707478.86479205        1272885667.6282704     
  -79199278.668084711        490812702.86463320        1219476762.5508077     
  -51090663.755275309        670558071.15323007        1163477653.3810828     
  -11690005.555844724        887943583.73055601        1104888340.1191034     
   39002695.930214167        1142969240.5966532        1043708822.7648761     
  -99310457.093386263        386666891.92159200        1232484897.7701013     
  -84570777.192450434        547720907.15256989        1194585822.9936948     
  -57402233.765940368        750204467.46879530        1153306545.3137078     
  -17804826.813859820        994117572.87025297        1108647064.7301359     
   34221443.663791478        1279460223.3569517        1060607381.2429686     
  -2621638427.4773855        1409253583.1319690        1730511380.7889047     
  -2628136839.9811411        946496349.24959934        1643166893.3563557     
  -2598776997.9367380        603266630.52776039        1570233747.6639626     
  -2533558901.3441744        379564426.96645844        1511711943.7117260     
  -2432482550.2034512        275389738.56568706        1467601481.4996445     
  -3400055991.2213211        788760906.74167013        1239069539.6155758     
  -3312621522.0360899        536534421.06548548        1226266794.6333156     
  -3205444599.1315384        350116114.45371008        1222724751.9317677     
  -3078525222.5076590        229505986.90635443        1228443411.5109353     
  -2931863392.1644602        174704038.42340708        1243422773.3708184     
  -4050806938.7062840        206568215.22905993        827163537.52810287     
  -3884155700.5733275        160457643.93668151        870100767.36248648     
  -3713877809.5498838        126435915.61259389        917148060.01814663     
  -3539973265.6359525        104503030.25680280        968305415.49507785     
  -3362442068.8315287        94658987.869314194        1023572833.7932804     
  -4573891269.9322662       -337324491.40585351        494793374.52648604     
  -4342739375.5928450       -181733982.13680983        574668811.54387569     
  -4124076629.1917753       -67773965.995584488        653503671.92309642     
  -3917903030.7290444        4555557.0178208351        731297955.66414714     
  -3724218580.2046657        35254586.903401613        808051662.76703119     
  -4969308984.8992720       -842917213.16307604        241959050.61072513     
  -4688372547.0946426       -490040457.15497148        339970927.17747849     
  -4436041058.0572052       -232513530.37082553        431791587.64661807     
  -4212314517.7869511       -70336432.810615778        517421032.01815122     
  -4017192926.2838707       -3509164.4743344784        596859260.29207504     
  -2432482550.2034512        275389738.56568706        1467601481.4996445     
  -2372639329.2220855        217388982.01247692        1395880213.5678461     
  -2310054008.3523741        168528558.42042243        1340680494.6373477     
  -2244726587.5943117        128808467.78953183        1302002324.7081525     
  -2176657066.9479055        98228710.119799137        1279845703.7802606     
  -2931863392.1644602        174704038.42340708        1243422773.3708184     
  -2828470583.5783024        139655100.34717941        1196035286.9900320     
  -2723237558.2056494        110740218.22593939        1160329360.8861706     
  -2616164316.0465069        87959392.059671760        1136304995.0592365     
  -2507250857.1008697        71312621.848384976        1123962189.5092273     
  -3362442068.8315287        94658987.869314194        1023572833.7932804     
  -3229328211.8530879        78413306.506313682        999466932.01134777     
  -3095276021.1900072        65295404.092117667        982202601.78196287     
  -2960285496.8422852        55305280.626730204        971779843.10512948     
  -2824356638.8099174        48442936.110150814        968198655.98084021     
  -3724218580.2046657        35254586.903401613        808051662.76703119     
  -3575212214.0464473        33663600.489874363        806175148.63178992     
  -3426169397.3054419        32194116.018971682        806300217.32471955     
  -3277090129.9816399        30846133.490719080        808426868.84582293     
  -3127974412.0750489        29619652.905094028        812555103.19509673     
  -4017192926.2838707       -3509164.4743344784        596859260.29207504     
  -3866122590.1583738        5405982.2978668213        616159936.85136175     
  -3715917686.5519457        11436354.006521225        632622207.51444471     
  -3566578215.4645762        14581950.651635170        646246072.28132403     
  -3418104176.8962708        14842772.233203411        657031531.15199828     
  -2176657066.9479055        98228710.119799137        1279845703.7802606     
  -2076436831.4526751        83690351.219161749        1255673090.2068913     
  -1974741431.4626262        74069207.301244140        1237946052.0661993     
  -1871570866.9777701        69365278.366026282        1226664589.3581841     
  -1766925137.9980950        69578564.413528323        1221828702.0828445     
  -2507250857.1008697        71312621.848384976        1123962189.5092273     
  -2389749271.7602992        61443238.867109537        1105575551.0503492     
  -2271318046.5173063        54672655.560580969        1092959227.2122765     
  -2151957181.3718934        51000871.928781152        1086113217.9950130     
  -2031666676.3240514        50427887.971748829        1085037523.3985560     
  -2824356638.8099174        48442936.110150814        968198655.98084021     
  -2691503020.2293510        42663734.066630483        954961547.27866101     
  -2558265286.3387537        38164916.389887691        946819492.38542295     
  -2424643437.1381221        34946483.079918027        943772491.30112004     
  -2290637472.6274614        33008434.136731625        945820544.02575791     
  -3127974412.0750489        29619652.905094028        812555103.19509673     
  -2981698076.8598323        27351836.817718744        803831078.89183474     
  -2835583150.9269705        24545989.789153337        799526847.58564043     
  -2689629634.2764635        21202111.819410920        799642409.27651632     
  -2543837526.9083104        17320202.908483624        804177763.96445954     
  -3418104176.8962708        14842772.233203411        657031531.15199828     
  -3260334441.6517348        15507547.120385408        652184145.88986135     
  -3103271640.2819543        13815875.758396745        651081292.81292450     
  -2946915772.7869115        9767758.1472753286        653722971.92119229     
  -2791266839.1666145        3363194.2869989872        660109183.21465302     
  -1766925137.9980950        69578564.413528323        1221828702.0828445     
  -1671898042.4099030        64845175.466272593        1205320393.8589237     
  -1579705068.4444168        50664714.443322718        1191867510.3299334     
  -1490346216.1016419        27037181.344672263        1181470051.4958777     
  -1403821485.3815711       -6037423.8296571374        1174128017.3567510     
  -2031666676.3240514        50427887.971748829        1085037523.3985560     
  -1929192577.5844798        43161909.167520761        1067935986.9211781     
  -1828536958.0581288        29834332.985891819        1054091933.5246176     
  -1729699817.7449923        10445159.426880360        1043505363.2088696     
  -1632681156.6450741       -15005611.509524405        1036176275.9739383     
  -2290637472.6274614        33008434.136731625        945820544.02575791     
  -2180139061.0625525        23383058.377719998        929310695.43933058     
  -2070443486.3013835        11081559.939607382        916260388.31960654     
  -1961550748.3439317       -3896061.1775817871        906669622.66657686     
  -1853460847.1902099       -21549804.973868251        900538398.48024309     
  -2543837526.9083104        17320202.908483624        804177763.96445954     
  -2424737492.8441277        5508623.0968654156        789444519.41338634     
  -2305424653.1741815       -5593604.6955411434        778372874.71489942     
  -2185899007.8984694       -15986480.468733191        770962829.86898911     
  -2066160557.0169938       -25670004.222706437        767214384.87566245     
  -2791266839.1666145        3363194.2869989872        660109183.21465302     
  -2662987872.9291949       -10461396.675030351        648337458.84334207     
  -2533480458.6765275       -20191160.919560909        640429392.71049964     
  -2402744596.4085970       -25826098.446553349        636384984.81611800     
  -2270780286.1254163       -27366209.256042838        636204235.16019988     
  -1403821485.3815711       -6037423.8296571374        1174128017.3567510     
  -1314120049.4616289       -38033042.034020662        1151245222.3357389     
  -1221501431.2090771       -60304719.129674196        1135568313.0204763     
  -1125965630.6239123       -72852455.116619349        1127097289.4109576     
  -1027512647.7061323       -75676249.994854420        1125832151.5071855     
  -1632681156.6450741       -15005611.509524405        1036176275.9739383     
  -1522814210.2354362       -36224019.093635142        1018335836.6040558     
  -1410879634.4415512       -50550328.730248094        1006314394.0696777     
  -1296877429.2634342       -57984540.419418752        1000111948.3707956     
  -1180807594.7010651       -58526654.161093056        999728499.50741458     
  -1853460847.1902099       -21549804.973868251        900538398.48024309     
  -1727390929.9201608       -33179763.826509893        886749169.65506625     
  -1600102936.2142324       -40749467.892897367        877392048.79513478     
  -1471596866.0724361       -44258917.173048913        872467035.90045989     
  -1341872719.4947650       -43708111.666961908        871974130.97102964     
  -2066160557.0169938       -25670004.222706437        767214384.87566245     
  -1927850208.5158057       -28900276.232651353        756485221.48875189     
  -1789171336.5271173       -30902136.617601156        748801277.19684935     
  -1650123941.0509243       -31675585.377538264        744162551.99994385     
  -1510708022.0872278       -31220622.512449443        742569045.89803827     
  -2270780286.1254163       -27366209.256042838        636204235.16019988     
  -2124192046.0223830       -23385556.312112689        627543992.10513318     
  -1978084835.3802083       -21008334.904383302        620542079.27481747     
  -1832458654.1989024       -20234545.032875299        615198496.66925538     
  -1687313502.4784594       -21064186.697587669        611513244.28844953     
  -1027512647.7061323       -75676249.994854420        1125832151.5071855     
  -911822670.71313119       -66531711.960641980        1122617402.4221051     
  -794568182.85062325       -52172137.694740564        1125514817.0255473     
  -675749184.11860430       -32597527.197135478        1134524395.3175178     
  -555365674.51708305       -7807880.4678560495        1149646137.2980020     
  -1180807594.7010651       -58526654.161093056        999728499.50741458     
  -1051806007.0500638       -50560703.603043079        994424586.88627946     
  -921820265.24058390       -39314239.183401138        993520192.80805039     
  -790850369.27261806       -24787260.902131468        997015317.27271903     
  -658896319.14617455       -6979768.7592700720        1004909960.2802861     
  -1341872719.4947650       -43708111.666961908        871974130.97102964     
  -1204452793.0304041       -38388730.138473153        863903971.98431790     
  -1066629069.1185882       -31723357.118468046        858520686.39488542     
  -928401547.75931382       -23711992.606932044        855824274.20272350     
  -789770228.95258486       -14354636.603886425        855814735.40784359     
  -1510708022.0872278       -31220622.512449443        742569045.89803827     
  -1369763028.6541424       -30015791.566915989        731055557.71621680     
  -1228994594.4846330       -29399491.499957204        720516297.78605068     
  -1088402719.5786884       -29371722.311543047        710951266.10753477     
  -947987403.93630981       -29932484.001703799        702360462.68067408     
  -1687313502.4784594       -21064186.697587669        611513244.28844953     
  -1547736713.9212863       -25441887.888380468        595879344.08198428     
  -1408916841.3387148       -32342642.327839077        579507026.98155117     
  -1270853884.7307394       -41766450.015945554        562396292.98714781     
  -1133547844.0973544       -53713310.952703834        544547142.09877157     
  -555365674.51708305       -7807880.4678560495        1149646137.2980020     
  -459492091.26299846        30343408.956705838        1158912069.8117990     
  -351525027.27434891        108806300.82982047        1175807174.0617476     
  -231464482.55114785        227580795.15143889        1200331450.0478525     
  -99310457.093386263        386666891.92159200        1232484897.7701013     
  -658896319.14617455       -6979768.7592700720        1004909960.2802861     
  -544379322.51942468        23663697.983853310        1018442730.6052179     
  -418934112.58950520        90734542.404217631        1040419990.8686876     
  -282560689.35641634        194232764.50181070        1070841741.0706977     
  -135259052.82016140        334158364.27663112        1109707981.2112379     
  -789770228.95258486       -14354636.603886425        855814735.40784359     
  -654280338.37493050        9479851.6312735677        872254864.87395716     
  -509027501.92549753        65857492.772377282        897954802.48099291     
  -354011719.60428303        154778286.81940308        932914548.22894716     
  -189232991.41129804        276242233.77234852        977134102.11781979     
  -947987403.93630981       -29932484.001703799        702360462.68067408     
  -789195138.82951689       -12208130.101022035        720348472.61801076     
  -621805195.28233540        34175151.934276611        748411608.89865828     
  -445817573.29476887        109217362.10420305        786549871.52260602     
  -261232272.86681658        212918500.40873796        834763260.48985386     
  -1133547844.0973544       -53713310.952703834        544547142.09877157     
  -949123723.88318372       -41400247.213051736        562723553.83738363     
  -757267192.66001558       -4312480.1100751162        591790410.12167609     
  -557978250.42784524        57549990.356239587        631747710.95165849     
  -351256897.18668848        144187164.18584809        682595456.32732761     
  -99310457.093386263        386666891.92159200        1232484897.7701013     
  -84570777.192450434        547720907.15256989        1194585822.9936948     
  -57402233.765940368        750204467.46879530        1153306545.3137078     
  -17804826.813859820        994117572.87025297        1108647064.7301359     
   34221443.663791478        1279460223.3569517        1060607381.2429686     
  -135259052.82016140        334158364.27663112        1109707981.2112379     
  -126396032.70767584        484034571.07652158        1088585955.0527084     
  -94516923.512267649        710631074.81948626        1068903118.5215102     
  -39621725.233960748        1013947875.5054631        1050659471.6176564     
   38289562.127271116        1393984973.1344917        1033855014.3411212     
  -189232991.41129804        276242233.77234852        977134102.11781979     
  -172476938.14177722        419071540.02482712        985140887.72740412     
  -122117570.23200452        673911895.07814944        999406255.49523473     
  -38154887.681977093        1040763298.9322959        1019930205.4213085     
   79411109.508296371        1519625751.5873086        1046712737.5056523     
  -261232272.86681658        212918500.40873796        834763260.48985386     
  -222813493.49478626        352831813.99742538        884250621.01777160     
  -140204173.92515650        640046928.24477720        944815956.23486042     
  -13404314.157942832        1074563843.1507585        1016459266.1411188     
   157586085.80687177        1656382558.7153771        1099180550.7365446     
  -351256897.18668848        144187164.18584809        682595456.32732761     
  -277405698.76667166        285315392.99438071        785915154.92381680     
  -148776734.59170982        609036174.31940794        905132220.74039257     
   34629995.338169992        1115349508.1608174        1040246653.7770498     
   272814491.02299184        1804255394.5187223        1191258454.0338089     
  -4969308984.8992720       -842917213.16307604        241959050.61072513     
  -4688372547.0946426       -490040457.15497148        339970927.17747849     
  -4436041058.0572052       -232513530.37082553        431791587.64661807     
  -4212314517.7869511       -70336432.810615778        517421032.01815122     
  -4017192926.2838707       -3509164.4743344784        596859260.29207504     
  -5084773328.0331249       -468521241.10802507        301089702.52752048     
  -4858894389.2783489       -269210336.82200289        343390662.16428667     
  -4649044375.7707844       -123329183.35997152        384969189.02693981     
  -4455223287.5103989       -30877780.721918821        425825283.11548805     
  -4277431124.4972196        8143871.0921528339        465958944.42992705     
  -5292834477.1193962       -121904310.83869553        300173339.95235455     
  -5106387942.2044840       -71471729.711762190        301435410.09911823     
  -4923394309.0167828       -32548821.008849382        307443830.79527408     
  -4743853577.5562859       -5135584.7299599648        318198602.04081762     
  -4567765747.8229895        10767979.124918938        333699723.83576059     
  -5593492432.1581116        196933577.64489722        239209962.88522258     
  -5430853205.8730536        103175364.17575455        214105170.98197275     
  -5259090857.7952108        39827556.682550430        199215512.95161140     
  -5078205387.9245853        6890155.1652815342        194540988.79414526     
  -4888196796.2611866        4363159.6239376068        200081598.50957167     
  -5986747193.1492615        487992424.34275961        118199571.32613088     
  -5832290180.2840385        254730944.84053969        81399944.812843725     
  -5656134022.1060677        93799949.714219570        60284235.495961383     
  -5458278718.6153154        5199438.9637804031        54852443.375462092     
  -5238724269.8117905       -11070587.410732031        65104568.451366335     
  -4017192926.2838707       -3509164.4743344784        596859260.29207504     
  -3866122590.1583738        5405982.2978668213        616159936.85136175     
  -3715917686.5519457        11436354.006521225        632622207.51444471     
  -3566578215.4645762        14581950.651635170        646246072.28132403     
  -3418104176.8962708        14842772.233203411        657031531.15199828     
  -4277431124.4972196        8143871.0921528339        465958944.42992705     
  -4131993275.5628819        11839077.037418842        474991704.01252055     
  -3987418909.0594778        12656008.212909460        483734788.76587534     
  -3843708024.9870071        10594664.618629456        492188198.68998832     
  -3700860623.3454657        5655046.2545757294        500351933.78486454     
  -4567765747.8229895        10767979.124918938        333699723.83576059     
  -4420678297.3170567        11427870.872066736        332466841.54447913     
  -4274452379.1539202        9215988.1432244778        333493015.49092185     
  -4129087993.3335867        4132330.9383790493        336778245.67509121     
  -3984585139.8560505       -3823100.7424705029        342322532.09698528     
  -4888196796.2611866        4363159.6239376068        200081598.50957167     
  -4732177655.4208927        4172363.8018300533        188585349.44723821     
  -4577018096.8352699        1116293.7974724770        181896887.68959072     
  -4422718120.5043182       -4805050.3891203403        180016213.23663297     
  -4269277726.4280367       -13591668.757933140        182943326.08836621     
  -5238724269.8117905       -11070587.410732031        65104568.451366335     
  -5066491349.8743896       -9927444.1733217239        43347227.720799044     
  -4895116062.1035318       -11643074.824374914        28946405.361877069     
  -4724598406.4991980       -16217479.363848925        21902101.374608818     
  -4554938383.0614166       -23650657.791826725        22214315.759004302     
  -3418104176.8962708        14842772.233203411        657031531.15199828     
  -3260334441.6517348        15507547.120385408        652184145.88986135     
  -3103271640.2819543        13815875.758396745        651081292.81292450     
  -2946915772.7869115        9767758.1472753286        653722971.92119229     
  -2791266839.1666145        3363194.2869989872        660109183.21465302     
  -3700860623.3454657        5655046.2545757294        500351933.78486454     
  -3532978456.7841549        6536040.6382672787        494727030.55316401     
  -3365346972.6676340        6581426.8726525307        493086491.64997602     
  -3197966170.9959192        5791204.9576964378        495430317.07530016     
  -3030836051.7689953        4165374.8934348822        501758506.82913595     
  -3984585139.8560505       -3823100.7424705029        342322532.09698528     
  -3805905307.2827816       -2520316.4537017345        336452404.23066282     
  -3627019905.7243557       -532302.21441149712        334806472.83616191     
  -3447928935.1807837        2140941.9753670692        337384737.91349113     
  -3268632395.6520548        5499416.1156666279        344187199.46263665     
  -4269277726.4280367       -13591668.757933140        182943326.08836621     
  -4079114993.1476283       -11661524.155535936        177360266.92235810     
  -3888290439.4521179       -7525311.5027976036        176241236.37148467     
  -3696804065.3414993       -1183030.7996912003        179586234.43575209     
  -3504655870.8157878        7365317.9537103176        187395261.11514974     
  -4554938383.0614166       -23650657.791826725        22214315.759004302     
  -4352607514.3786917       -20887582.467247963        17450618.628255084     
  -4149158573.8509140       -14397600.992468357        17390782.255946804     
  -3944591561.4781003       -4180713.3675720692        22034806.642098360     
  -3738906477.2602234        9763080.4075160027        31382691.786683805     
  -2791266839.1666145        3363194.2869989872        660109183.21465302     
  -2662987872.9291949       -10461396.675030351        648337458.84334207     
  -2533480458.6765275       -20191160.919560909        640429392.71049964     
  -2402744596.4085970       -25826098.446553349        636384984.81611800     
  -2270780286.1254163       -27366209.256042838        636204235.16019988     
  -3030836051.7689953        4165374.8934348822        501758506.82913595     
  -2891298181.8245773       -4991267.8590298891        491685447.19615901     
  -2751017192.8881793       -11670847.304889321        485332205.66635495     
  -2609993084.9598036       -15873363.444166541        482698782.23972446     
  -2468225858.0394597       -17598816.276868224        483785176.91626692     
  -3268632395.6520548        5499416.1156666279        344187199.46263665     
  -3118246593.8157525        887430.02825284004        335246587.37417060     
  -2967603002.0107613       -2865256.1635130644        329881953.25358248     
  -2816701620.2370625       -5758642.4596021175        328093297.10088342     
  -2665542448.4946647       -7792728.8600186110        329880618.91605419     
  -3504655870.8157878        7365317.9537103176        187395261.11514974     
  -3343833108.9027390        7174696.9867756367        179020879.37736756     
  -3183237886.0442576        6225612.5046000481        174078635.47218511     
  -3022870202.2403593        4518064.5071578026        172568529.39958447     
  -2862730057.4910307        2052052.9944810867        174490561.15956321     
  -3738906477.2602234        9763080.4075160027        31382691.786683805     
  -3568057727.0855269        13870533.016551256        23008323.205766428     
  -3397921844.9886913        15601758.699405909        17922252.322145998     
  -3228498830.9696960        14956757.456103921        16124479.135834852     
  -3059788685.0285649        11935529.286610484        17615003.646802403     
  -2270780286.1254163       -27366209.256042838        636204235.16019988     
  -2124192046.0223830       -23385556.312112689        627543992.10513318     
  -1978084835.3802083       -21008334.904383302        620542079.27481747     
  -1832458654.1989024       -20234545.032875299        615198496.66925538     
  -1687313502.4784594       -21064186.697587669        611513244.28844953     
  -2468225858.0394597       -17598816.276868224        483785176.91626692     
  -2317714256.2042046       -16035005.010081649        474841647.41891527     
  -2167506684.3774095       -15484627.104844570        467815490.95478499     
  -2017603142.5590806       -15947682.561150551        462706707.52387196     
  -1868003630.7492030       -17424171.378968716        459515297.12618613     
  -2665542448.4946647       -7792728.8600186110        329880618.91605419     
  -2510367362.6172872       -8423722.5774387121        320860302.33755547     
  -2355319307.2959661       -9478151.4817192554        314016401.60075164     
  -2200398282.5307035       -10956015.572855830        309348916.70563543     
  -2045604288.3214941       -12857314.850840688        306857847.65220261     
  -2862730057.4910307        2052052.9944810867        174490561.15956321     
  -2702151365.2616320       -551709.01419627666        165599956.86106250     
  -2541522704.1358762       -2988908.0350130796        159144811.21271801     
  -2380844074.1137724       -5259544.0680065155        155125124.21453553     
  -2220115475.1953115       -7363617.1131438017        153540895.86650094     
  -3059788685.0285649        11935529.286610484        17615003.646802403     
  -2893066264.1372089        7581035.6797366142        9060610.9894338846     
  -2726116874.8971262        3983103.2353175879        3200719.7906945669     
  -2558940517.3082786        1141731.9534364939        35330.050577245464     
  -2391537191.3706803       -943078.16595220566       -435558.23092080210     
  -1687313502.4784594       -21064186.697587669        611513244.28844953     
  -1547736713.9212863       -25441887.888380468        595879344.08198428     
  -1408916841.3387148       -32342642.327839077        579507026.98155117     
  -1270853884.7307394       -41766450.015945554        562396292.98714781     
  -1133547844.0973544       -53713310.952703834        544547142.09877157     
  -1868003630.7492030       -17424171.378968716        459515297.12618613     
  -1729901495.4284616       -22596440.662512302        444866618.02885348     
  -1591657902.0897615       -27297183.219527125        430005369.04964209     
  -1453272850.7331200       -31526399.050080001        414931550.18855137     
  -1314746341.3585303       -35284088.154130518        399645161.44558185     
  -2045604288.3214941       -12857314.850840688        306857847.65220261     
  -1907474386.2026205       -18373426.216722488        294242492.65529680     
  -1768304652.0732560       -20423430.880968690        281940414.78860897     
  -1628095085.9334040       -19007328.843591869        269951614.05212814     
  -1486845687.7830563       -14125120.104558945        258276090.44586235     
  -2220115475.1953115       -7363617.1131438017        153540895.86650094     
  -2080455386.2437720       -12772844.551038980        144006967.96132481     
  -1938857091.2891951       -11721385.312137485        135312164.19845358     
  -1795320590.3315766       -4209239.3964338303        127456484.57788803     
  -1649845883.3709321        9763593.1960192919        120439929.09961702     
  -2391537191.3706803       -943078.16595220566       -435558.23092080210     
  -2248844495.5519257       -5794695.6654559374       -5839956.0530788032     
  -2103315219.7375712       -1191046.5130072832       -9879382.7208272833     
  -1954949363.9276686        12867869.291290998       -12553838.234188180     
  -1803746928.1221747        36382051.747560740       -13863322.593155891     
  -1133547844.0973544       -53713310.952703834        544547142.09877157     
  -949123723.88318372       -41400247.213051736        562723553.83738363     
  -757267192.66001558       -4312480.1100751162        591790410.12167609     
  -557978250.42784524        57549990.356239587        631747710.95165849     
  -351256897.18668848        144187164.18584809        682595456.32732761     
  -1314746341.3585303       -35284088.154130518        399645161.44558185     
  -1115730465.4313309       -15201356.242041826        421274451.30879855     
  -913102018.25810754        16923279.823457360        441444723.75039983     
  -706860999.83886480        61089820.042364329        460155978.77038974     
  -497007410.17359817        117298264.41466749        477408216.36877644     
  -1486845687.7830563       -14125120.104558945        258276090.44586235     
  -1308522233.1922450        3142026.8651430607        278901778.71021169     
  -1130406047.1183996        19718278.778315604        285718987.58566034     
  -952497129.56149793        35603635.634998083        278727717.07219601     
  -774795480.52154565        50798097.435182184        257927967.16982681     
  -1649845883.3709321        9763593.1960192919        120439929.09961702     
  -1527499027.1659429        13629902.108463526        135605536.04163823     
  -1409179279.2408688        4072516.7545478344        124613201.62745778     
  -1294886639.5957184       -18908562.865794301        87462925.857065290     
  -1184621108.2304988       -55313336.752568126        24154708.730481621     
  -1803746928.1221747        36382051.747560740       -13863322.593155891     
  -1772660847.3523984        16262269.488010168       -8614276.6969379615     
  -1749421714.6255438       -30014006.247935057       -41872634.124213882     
  -1734029529.9415669       -102446775.46014512       -113638394.87499391     
  -1726484293.3004887       -201036038.14868277       -223911558.94927034     
  -351256897.18668848        144187164.18584809        682595456.32732761     
  -277405698.76667166        285315392.99438071        785915154.92381680     
  -148776734.59170982        609036174.31940794        905132220.74039257     
   34629995.338169992        1115349508.1608174        1040246653.7770498     
   272814491.02299184        1804255394.5187223        1191258454.0338089     
  -497007410.17359817        117298264.41466749        477408216.36877644     
  -388128668.92143959        223141366.42508125        596748455.76066458     
  -230163304.08318987        492606547.05576277        735278313.21830714     
  -23111315.658863544        925693806.30672359        892997788.74168742     
   233027296.35153461        1522403144.1779344        1069906882.3308297     
  -774795480.52154565        50798097.435182184        257927967.16982681     
  -621482765.44962895        124178001.94373211        386649081.49345732     
  -424774568.96049160        342209511.17637289        537852064.72849393     
  -184670891.05411789        704892625.13312376        711536916.87494433     
   98828268.269500136        1212227343.8140001        907703637.93280470     
  -1184621108.2304988       -55313336.752568126        24154708.730481621     
  -977467988.35123456       -11574700.449630260        155617032.12218413     
  -732610529.22358060        157845066.68127257        312853475.27096498     
  -450048730.84755117        452945964.64011687        495864038.17683446     
  -129782593.22314125        873727993.42685056        704648720.83974624     
  -1726484293.3004887       -201036038.14868277       -223911558.94927034     
  -1456084337.6262531       -184116740.75501651       -96347692.353139400     
  -1153671184.8725016       -60486786.429630578        60282544.845735155     
  -819244835.03920865        169853824.82758272        245979152.64733443     
  -452805288.12637186        506905093.01656401        460742131.05167407     
 </DataArray>
 <DataArray  type="Float64" Name="VM" NumberOfComponents="1" format="ascii">
   5990056422.7581615     
   5801621643.8525972     
   5611704547.1165581     
   5420258855.0148258     
   5227257722.3113680     
   5648394517.2053795     
   5462486446.5759211     
   5276135452.4958296     
   5089351387.2909737     
   4902167495.6550484     
   5310204119.5339441     
   5132218370.2019329     
   4955332115.3354292     
   4779635548.6769638     
   4605284409.5553322     
   4980307286.3027134     
   4815101782.9473658     
   4653141026.4243975     
   4494585296.9447660     
   4339736750.3877411     
   4665015464.9290676     
   4516587801.9086285     
   4374269413.4751272     
   4238224327.6037087     
   4108859192.1793890     
   5227257722.3113680     
   5054673600.0897827     
   4882627785.7558804     
   4711090848.4688969     
   4540121920.3572636     
   4902167495.6550484     
   4744696177.8222466     
   4588105560.5160913     
   4432434530.9450216     
   4277783549.7120662     
   4605284409.5553322     
   4460100294.9727268     
   4315895704.2617846     
   4172752268.6362467     
   4030790078.3026495     
   4339736750.3877411     
   4204349632.0195327     
   4069763989.2226977     
   3936072550.4390378     
   3803389067.3364196     
   4108859192.1793890     
   3981243462.7262101     
   3853961370.3306341     
   3727078046.3659678     
   3600669075.9996409     
   4540121920.3572636     
   4343062846.4986563     
   4145579708.1957574     
   3947658472.3125968     
   3749309947.6335497     
   4277783549.7120662     
   4089582257.4654613     
   3901628792.9456978     
   3713971262.3367829     
   3526708829.6196113     
   4030790078.3026495     
   3853591302.5611110     
   3677607446.0404954     
   3502983242.1929970     
   3329951415.0279336     
   3803389067.3364196     
   3639223888.5639071     
   3477558084.5410342     
   3318657083.4885888     
   3162916147.4711781     
   3600669075.9996409     
   3451310602.3766088     
   3306050869.5963902     
   3165277589.8141336     
   3029545052.1626930     
   3749309947.6335497     
   3575780126.1582651     
   3403067146.7219014     
   3231146211.5209479     
   3060061380.8559179     
   3526708829.6196113     
   3364258465.5463772     
   3202891638.4609723     
   3042656919.1610270     
   2883668025.0328388     
   3329951415.0279336     
   3177983627.4610243     
   3027327827.2989054     
   2878109812.5135236     
   2730520671.3828316     
   3162916147.4711781     
   3021229034.7978625     
   2881050190.2836552     
   2742583204.7460213     
   2606100756.7988014     
   3029545052.1626930     
   2898380036.3826890     
   2768894855.9804001     
   2641366147.8399072     
   2516146154.5979238     
   3060061380.8559179     
   2895137430.8472791     
   2729716037.9557452     
   2563788840.3482556     
   2397354387.4307837     
   2883668025.0328388     
   2721345672.6416993     
   2559020132.4672761     
   2396721295.6240096     
   2234498785.7969456     
   2730520671.3828316     
   2573340914.1337643     
   2417057095.3682604     
   2261815582.8065290     
   2107823118.7556837     
   2606100756.7988014     
   2456647728.4013557     
   2309424852.0387931     
   2164763015.6137276     
   2023111847.3623679     
   2516146154.5979238     
   2376796111.2936192     
   2241389549.2092199     
   2110461189.2561316     
   1984712819.0417740     
   2397354387.4307837     
   2250327271.1887732     
   2105520663.0436170     
   1962931755.8432462     
   1822729727.9994438     
   2234498785.7969456     
   2090985782.2055485     
   1949154925.4153912     
   1809005888.1775548     
   1670616481.1371989     
   2107823118.7556837     
   1967031561.2618937     
   1827204802.0965815     
   1688374029.2586944     
   1550599050.4665146     
   2023111847.3623679     
   1885918324.2029436     
   1749015771.8644934     
   1612532085.9850459     
   1476643600.6953290     
   1984712819.0417740     
   1853756026.0015430     
   1722758965.3127515     
   1592066022.5039711     
   1462182686.8778491     
   1822729727.9994438     
   1781695358.5880976     
   1737115752.7375002     
   1697623318.4214642     
   1681731713.1089878     
   1670616481.1371989     
   1554758581.8298995     
   1429757056.6539907     
   1295962070.7965884     
   1159487200.8142757     
   1550599050.4665146     
   1400251144.5481889     
   1246333246.6916170     
   1086577320.0107479     
   918953543.84531677     
   1476643600.6953290     
   1331927765.8526587     
   1201692424.2607675     
   1090429636.4894705     
   1004062547.7368126     
   1462182686.8778491     
   1352666573.7684672     
   1278162124.5520735     
   1246795017.9845436     
   1265617097.2506235     
   1681731713.1089878     
   1384005273.0497696     
   1129503411.0247452     
   1009960887.8322338     
   1152827705.7653849     
   1159487200.8142757     
   1008906605.2732756     
   985465003.74273551     
   1161481514.4285667     
   1544012184.1678517     
   918953543.84531677     
   964087990.18397522     
   1145469114.8106160     
   1476623331.2925816     
   1957371322.5741971     
   1004062547.7368126     
   1166181958.6762307     
   1426258142.5484648     
   1809020050.8994591     
   2334669441.8959751     
   1265617097.2506235     
   1448634845.1536634     
   1716813639.5713801     
   2110873412.6217740     
   2663397232.6091309     
   4665015464.9290676     
   4516587801.9086285     
   4374269413.4751272     
   4238224327.6037087     
   4108859192.1793890     
   4345196734.1043139     
   4221707357.9009061     
   4102992708.4049182     
   3989226976.1654129     
   3880706855.8225412     
   4059548949.5404348     
   3955899730.6012077     
   3855146280.3342671     
   3757445329.3958101     
   3663003418.8457012     
   3809233437.4864678     
   3721288916.8038430     
   3633862424.4411955     
   3547023468.9036207     
   3460866918.0244832     
   3595061732.9978423     
   3519919135.3254390     
   3442553786.0345368     
   3362827661.8187208     
   3280650556.6263499     
   4108859192.1793890     
   3981243462.7262101     
   3853961370.3306341     
   3727078046.3659678     
   3600669075.9996409     
   3880706855.8225412     
   3757889481.8265686     
   3636942566.8602972     
   3518091626.4080076     
   3401607670.2464638     
   3663003418.8457012     
   3549863490.3855314     
   3440679285.9467616     
   3335858491.2333312     
   3235907412.7757564     
   3460866918.0244832     
   3361666496.1295743     
   3269069207.5900369     
   3183640081.6018953     
   3106098038.1719742     
   3280650556.6263499     
   3198592271.5722084     
   3126344796.7227006     
   3064541968.0968518     
   3014013436.1221905     
   3600669075.9996409     
   3451310602.3766088     
   3306050869.5963902     
   3165277589.8141336     
   3029545052.1626930     
   3401607670.2464638     
   3269934272.7880425     
   3142611777.3651729     
   3020073029.0814228     
   2902882537.3598585     
   3235907412.7757564     
   3120939082.1660819     
   3010390656.1966333     
   2904704820.7605166     
   2804419651.1779323     
   3106098038.1719742     
   3007092106.3911686     
   2912352828.1785588     
   2822295464.6645517     
   2737396754.3765292     
   3014013436.1221905     
   2930439034.0253453     
   2850729271.0175076     
   2775237810.7916336     
   2704352211.1810985     
   3029545052.1626930     
   2898380036.3826890     
   2768894855.9804001     
   2641366147.8399072     
   2516146154.5979238     
   2902882537.3598585     
   2782328426.2631636     
   2664881341.0282264     
   2550975308.8849821     
   2441145160.1980829     
   2804419651.1779323     
   2696727918.8782701     
   2593775033.2468743     
   2496130364.9029541     
   2404471219.2249689     
   2737396754.3765292     
   2644232122.4775558     
   2557510221.2808561     
   2477870767.7721119     
   2406045018.9681506     
   2704352211.1810985     
   2626520443.1552048     
   2556764958.6357775     
   2495707657.6265345     
   2444029940.0531898     
   2516146154.5979238     
   2376796111.2936192     
   2241389549.2092199     
   2110461189.2561316     
   1984712819.0417740     
   2441145160.1980829     
   2316892625.1813774     
   2197820948.7049360     
   2084640045.9761395     
   1978227040.3166945     
   2404471219.2249689     
   2297043639.2604337     
   2196015217.3797078     
   2102182273.9196942     
   2016470090.8286431     
   2406045018.9681506     
   2316494272.3952031     
   2234352204.2974038     
   2160391083.5903974     
   2095453352.6257606     
   2444029940.0531898     
   2372578362.9062862     
   2309212200.9676671     
   2254592846.6697173     
   2209398306.8569379     
   1984712819.0417740     
   1853756026.0015430     
   1722758965.3127515     
   1592066022.5039711     
   1462182686.8778491     
   1978227040.3166945     
   1861770421.4707770     
   1749634977.8056204     
   1642744272.7689843     
   1542233716.2010038     
   2016470090.8286431     
   1919699461.1975243     
   1831689472.0103781     
   1753650321.4098239     
   1686884768.3543785     
   2095453352.6257606     
   2020008195.3829811     
   1956946293.2498641     
   1907361668.1428173     
   1872295687.1477544     
   2209398306.8569379     
   2153901403.0947852     
   2113407822.5363035     
   2088699813.6380684     
   2080463800.2976596     
   1462182686.8778491     
   1352666573.7684672     
   1278162124.5520735     
   1246795017.9845436     
   1265617097.2506235     
   1542233716.2010038     
   1480809955.9588866     
   1452104704.7284317     
   1460081314.2186620     
   1508040026.7297778     
   1686884768.3543785     
   1657758668.5409746     
   1656378080.6175330     
   1685101907.7446754     
   1746537261.9461823     
   1872295687.1477544     
   1861070766.0346358     
   1872837341.9707968     
   1909786971.1248760     
   1974944042.9555504     
   2080463800.2976596     
   2076142331.8295686     
   2091068551.7075846     
   2127850349.8225009     
   2190289294.0364289     
   1265617097.2506235     
   1448634845.1536634     
   1716813639.5713801     
   2110873412.6217740     
   2663397232.6091309     
   1508040026.7297778     
   1615470725.8653460     
   1790026086.3241496     
   2066582083.1068568     
   2475505870.7099977     
   1746537261.9461823     
   1790193269.0904589     
   1885913506.5511947     
   2060711966.3207827     
   2339977135.9302802     
   1974944042.9555504     
   1971764387.9354796     
   2005051897.8222640     
   2093558024.5994396     
   2256074263.8821621     
   2190289294.0364289     
   2159470195.9383368     
   2148190813.9209390     
   2167024307.5321550     
   2227127683.7203503     
   3595061732.9978423     
   3519919135.3254390     
   3442553786.0345368     
   3362827661.8187208     
   3280650556.6263499     
   3403749650.1909032     
   3326461842.2850661     
   3251042972.9700313     
   3177551069.1836820     
   3106057522.7724404     
   3256498838.1155171     
   3177101942.9805841     
   3104096925.2490101     
   3037274608.0194302     
   2976598989.5218625     
   3164646724.0212893     
   3080820149.9854922     
   3008231251.0152097     
   2945816474.1285591     
   2893057777.4315023     
   3138971900.6899247     
   3045592928.7348161     
   2968525868.8635001     
   2905243334.9565663     
   2854344211.7820945     
   3280650556.6263499     
   3198592271.5722084     
   3126344796.7227006     
   3064541968.0968518     
   3014013436.1221905     
   3106057522.7724404     
   3048629430.9039984     
   2999234073.7089524     
   2958268568.6581206     
   2926211862.7924881     
   2976598989.5218625     
   2938734617.3028760     
   2906358050.6729445     
   2879674725.3004279     
   2858912474.3558025     
   2893057777.4315023     
   2870426495.7025628     
   2850052965.1224322     
   2832001269.2583776     
   2816337170.0065284     
   2854344211.7820945     
   2843668519.5064144     
   2831507056.7800961     
   2817820845.4460001     
   2802574057.0816483     
   3014013436.1221905     
   2930439034.0253453     
   2850729271.0175076     
   2775237810.7916336     
   2704352211.1810985     
   2926211862.7924881     
   2850516482.7826629     
   2780571689.5363259     
   2716823543.9143410     
   2659758265.0940628     
   2858912474.3558025     
   2792446104.7868137     
   2733803277.8543353     
   2683452773.2381954     
   2641901751.3695593     
   2816337170.0065284     
   2759413841.9517131     
   2712509015.7308707     
   2676035753.4646459     
   2650439563.4627886     
   2802574057.0816483     
   2754243523.7635684     
   2718215614.9160633     
   2694782107.5969119     
   2684263001.1437912     
   2704352211.1810985     
   2626520443.1552048     
   2556764958.6357775     
   2495707657.6265345     
   2444029940.0531898     
   2659758265.0940628     
   2597288133.0063934     
   2543254384.7116909     
   2498159398.7746468     
   2462532921.3150001     
   2641901751.3695593     
   2593481330.0966191     
   2553665017.6842737     
   2522825399.8823562     
   2501341553.4998555     
   2650439563.4627886     
   2614353840.3675480     
   2586879048.5905066     
   2568266701.3172593     
   2558764684.7823339     
   2684263001.1437912     
   2658496526.8343544     
   2641239004.7059131     
   2632642348.7001872     
   2632852332.2093267     
   2444029940.0531898     
   2372578362.9062862     
   2309212200.9676671     
   2254592846.6697173     
   2209398306.8569379     
   2462532921.3150001     
   2405764806.4467483     
   2358054612.0352716     
   2319960651.3154521     
   2292027128.5089450     
   2501341553.4998555     
   2458557789.3825817     
   2425591747.2934117     
   2402871196.4862847     
   2390793377.7565670     
   2558764684.7823339     
   2528685513.7685418     
   2509026220.4338031     
   2500084367.5897875     
   2502124583.9633551     
   2632852332.2093267     
   2613761596.3382750     
   2605619393.8090615     
   2608611459.5997124     
   2622897567.7061491     
   2209398306.8569379     
   2153901403.0947852     
   2113407822.5363035     
   2088699813.6380684     
   2080463800.2976596     
   2292027128.5089450     
   2251145974.3533921     
   2224265412.1460390     
   2211837268.6791282     
   2214249347.3049388     
   2390793377.7565670     
   2361407696.2219534     
   2344984664.1088190     
   2341767035.2657890     
   2351971553.1100416     
   2502124583.9633551     
   2481387889.4423418     
   2472661010.2727246     
   2476066777.6180844     
   2491734189.0673084     
   2622897567.7061491     
   2608319424.8210168     
   2604946180.3760614     
   2612840401.5076261     
   2632094153.1420326     
   2080463800.2976596     
   2076142331.8295686     
   2091068551.7075846     
   2127850349.8225009     
   2190289294.0364289     
   2214249347.3049388     
   2198860296.0616469     
   2198538139.6646857     
   2215235495.8324161     
   2251860594.4268231     
   2351971553.1100416     
   2326365012.4910851     
   2312432299.6705933     
   2311566192.0223565     
   2325842101.2080169     
   2491734189.0673084     
   2457702820.8705525     
   2432442813.6524239     
   2416888984.1008949     
   2412404249.0443187     
   2632094153.1420326     
   2592106802.1220169     
   2558293972.6075768     
   2531227855.3337603     
   2511703360.1879010     
   2190289294.0364289     
   2159470195.9383368     
   2148190813.9209390     
   2167024307.5321550     
   2227127683.7203503     
   2251860594.4268231     
   2185649692.4292216     
   2135778249.3938978     
   2111931035.2147143     
   2125099004.4702597     
   2325842101.2080169     
   2227634220.1929097     
   2142623098.2999563     
   2079158243.9656038     
   2047427074.5386791     
   2412404249.0443187     
   2285717679.8626876     
   2169376798.3434858     
   2070075304.8040063     
   1996550610.9109886     
   2511703360.1879010     
   2360107669.9324250     
   2216510320.7970123     
   2085823780.0024717     
   1974851126.7462239     
   3138971900.6899247     
   3045592928.7348161     
   2968525868.8635001     
   2905243334.9565663     
   2854344211.7820945     
   3193821115.8449793     
   3085444009.1011806     
   2987424686.0922484     
   2899854304.5605989     
   2822909265.3127651     
   3255597191.4231639     
   3125405072.0741515     
   3009759284.0155048     
   2907500401.3985291     
   2817744320.1971664     
   3325028971.3712435     
   3170968306.3157067     
   3044492080.9414859     
   2939740618.2186298     
   2852326023.2863054     
   3411237593.0507555     
   3233229417.1432915     
   3103896826.3822279     
   3009498110.9624143     
   2939745053.5503998     
   2854344211.7820945     
   2843668519.5064144     
   2831507056.7800961     
   2817820845.4460001     
   2802574057.0816483     
   2822909265.3127651     
   2797533698.6078343     
   2776942376.1491671     
   2761191034.0604744     
   2750340384.7205052     
   2817744320.1971664     
   2779253945.1212692     
   2752347905.5395741     
   2737054019.5406146     
   2733418398.6259403     
   2852326023.2863054     
   2799059777.8645263     
   2764561600.0604391     
   2748763878.3029747     
   2751627600.9395232     
   2939745053.5503998     
   2866480831.8461623     
   2819384473.6069527     
   2798394110.7073708     
   2803474355.6648531     
   2802574057.0816483     
   2754243523.7635684     
   2718215614.9160633     
   2694782107.5969119     
   2684263001.1437912     
   2750340384.7205052     
   2714780026.4577098     
   2690949170.1036739     
   2678989990.0459685     
   2679053997.5711122     
   2733418398.6259403     
   2706571083.5938630     
   2690735229.3317218     
   2685958379.5213757     
   2692289907.4640012     
   2751627600.9395232     
   2729436430.4438310     
   2717446223.7335401     
   2715663193.6914892     
   2724094003.4613461     
   2803474355.6648531     
   2782161114.0097208     
   2770178411.7373347     
   2767533627.4176168     
   2774236849.9230723     
   2684263001.1437912     
   2658496526.8343544     
   2641239004.7059131     
   2632642348.7001872     
   2632852332.2093267     
   2679053997.5711122     
   2658628103.0709653     
   2646414172.6944237     
   2642493630.6494951     
   2646943748.1493692     
   2692289907.4640012     
   2675119564.4529700     
   2665890503.4601440     
   2664636359.7986412     
   2671388741.5507469     
   2724094003.4613461     
   2708106988.3603716     
   2699829486.2727246     
   2699267864.4386930     
   2706427896.5869975     
   2774236849.9230723     
   2757450669.2243719     
   2748184270.8669353     
   2746434423.2948556     
   2752197815.8635674     
   2632852332.2093267     
   2613761596.3382750     
   2605619393.8090615     
   2608611459.5997124     
   2622897567.7061491     
   2646943748.1493692     
   2633328996.6837935     
   2630980972.7074575     
   2640002144.1678109     
   2660479700.6951590     
   2671388741.5507469     
   2661138540.3727927     
   2662583601.9049034     
   2675765415.8568220     
   2700719563.0529442     
   2706427896.5869975     
   2697191711.4860620     
   2700234378.1816239     
   2715561889.7403917     
   2743179869.8859806     
   2752197815.8635674     
   2741437334.4111338     
   2743727448.8188581     
   2759068517.4501624     
   2787460129.2702036     
   2622897567.7061491     
   2608319424.8210168     
   2604946180.3760614     
   2612840401.5076261     
   2632094153.1420326     
   2660479700.6951590     
   2646523793.1918707     
   2643213401.8721714     
   2650584008.3094397     
   2668687537.7462382     
   2700719563.0529442     
   2687264554.8019671     
   2684091081.7986841     
   2691215749.5418525     
   2708661960.0453420     
   2743179869.8859806     
   2730198200.0712824     
   2727317846.0776520     
   2734543643.6347513     
   2751881682.3387833     
   2787460129.2702036     
   2775004002.3167262     
   2772644354.1429062     
   2780380323.6730309     
   2798211145.0170879     
   2632094153.1420326     
   2592106802.1220169     
   2558293972.6075768     
   2531227855.3337603     
   2511703360.1879010     
   2668687537.7462382     
   2622200763.9334440     
   2581565851.2482038     
   2547106692.1528063     
   2519274354.6751003     
   2708661960.0453420     
   2657775181.3796816     
   2612565256.9836998     
   2573175174.6390824     
   2539803410.7821040     
   2751881682.3387833     
   2698712643.5068240     
   2651190873.1400204     
   2609350994.0469379     
   2573240159.5188179     
   2798211145.0170879     
   2744888894.0463824     
   2697327729.5430112     
   2655527482.4232984     
   2619488094.9631095     
   2511703360.1879010     
   2360107669.9324250     
   2216510320.7970123     
   2085823780.0024717     
   1974851126.7462239     
   2519274354.6751003     
   2350350525.7978873     
   2184874216.7846522     
   2025873649.4152997     
   1877816836.4630105     
   2539803410.7821040     
   2358688703.3576369     
   2177277049.7218556     
   1996979611.3134382     
   1819981693.2437885     
   2573240159.5188179     
   2385224613.9496927     
   2194180286.8596530     
   2000450831.8372035     
   1804583366.5628481     
   2619488094.9631095     
   2429925094.2654376     
   2235718538.6049938     
   2036869367.9826922     
   1833379267.1805322     
   3411237593.0507555     
   3233229417.1432915     
   3103896826.3822279     
   3009498110.9624143     
   2939745053.5503998     
   2627885793.7660718     
   2605890692.8109827     
   2604950126.2969313     
   2620677530.9942732     
   2650330006.7637944     
   2144487353.7884603     
   2199711054.2792530     
   2265475948.5264630     
   2341851550.2244658     
   2428866046.8085952     
   1990866444.2125366     
   2007578911.5399561     
   2063726912.3404391     
   2147856738.8506579     
   2251366480.1950431     
   2100820382.9830515     
   1979653192.2727449     
   1958726837.2152712     
   2005804434.2364891     
   2092537461.9592075     
   2939745053.5503998     
   2866480831.8461623     
   2819384473.6069527     
   2798394110.7073708     
   2803474355.6648531     
   2650330006.7637944     
   2623908015.7821755     
   2612860293.2039924     
   2617366983.9323850     
   2637579838.4757648     
   2428866046.8085952     
   2438670000.1208954     
   2454442110.1704197     
   2476128015.9162054     
   2503676651.9855151     
   2251366480.1950431     
   2292150274.9057522     
   2331210815.9564490     
   2367428860.3585606     
   2399956747.2071714     
   2092537461.9592075     
   2164676001.6488123     
   2229146940.6461024     
   2282844543.1890488     
   2323620248.0276594     
   2803474355.6648531     
   2782161114.0097208     
   2770178411.7373347     
   2767533627.4176168     
   2774236849.9230723     
   2637579838.4757648     
   2626500992.2740951     
   2623956514.0197387     
   2629972412.2165241     
   2644577181.1967773     
   2503676651.9855151     
   2499748275.1292100     
   2503648609.5627470     
   2515441320.6285625     
   2535190234.6363993     
   2399956747.2071714     
   2400094632.7552009     
   2407496881.0716538     
   2422275434.8134003     
   2444537629.0963097     
   2323620248.0276594     
   2324920469.6684475     
   2333092922.6229362     
   2348298965.8086095     
   2370688825.2923622     
   2774236849.9230723     
   2757450669.2243719     
   2748184270.8669353     
   2746434423.2948556     
   2752197815.8635674     
   2644577181.1967773     
   2638551262.0791688     
   2640679160.0025663     
   2650964173.6760273     
   2669411341.4796972     
   2535190234.6363993     
   2538158019.5185413     
   2550004236.0106473     
   2570768783.9016800     
   2600493456.2854085     
   2444537629.0963097     
   2454223336.9897838     
   2473698967.7757688     
   2503078720.1995854     
   2542472580.8068972     
   2370688825.2923622     
   2384390829.1315608     
   2409091085.3746862     
   2445022270.8960400     
   2492394381.5544639     
   2752197815.8635674     
   2741437334.4111338     
   2743727448.8188581     
   2759068517.4501624     
   2787460129.2702036     
   2669411341.4796972     
   2668176126.4866424     
   2677470733.4395518     
   2697319223.0934677     
   2727742886.1933689     
   2600493456.2854085     
   2605728310.6458564     
   2619088551.7989354     
   2640611250.5287971     
   2670338866.9414759     
   2542472580.8068972     
   2551980389.9319038     
   2567238700.3760324     
   2588271609.3861952     
   2615131369.5783591     
   2492394381.5544639     
   2504821847.7694578     
   2520569977.0726523     
   2539618114.3710165     
   2562012916.0202446     
   2787460129.2702036     
   2775004002.3167262     
   2772644354.1429062     
   2780380323.6730309     
   2798211145.0170879     
   2727742886.1933689     
   2717651418.3570809     
   2717227303.5255599     
   2726471988.6951489     
   2745390018.3752155     
   2670338866.9414759     
   2662729382.4190450     
   2664510894.6271396     
   2675693869.5254235     
   2696299398.3429370     
   2615131369.5783591     
   2610168012.2176490     
   2614470162.7912436     
   2628060272.8320231     
   2650984071.4190392     
   2562012916.0202446     
   2559897599.3363242     
   2567074989.2195730     
   2583578196.3757272     
   2609481791.4141526     
   2798211145.0170879     
   2744888894.0463824     
   2697327729.5430112     
   2655527482.4232984     
   2619488094.9631095     
   2745390018.3752155     
   2693402284.1284881     
   2646907827.8995180     
   2605944505.5999970     
   2570566073.0223880     
   2696299398.3429370     
   2647631880.4010334     
   2604328845.0648322     
   2566539421.8987875     
   2534471177.8598332     
   2650984071.4190392     
   2607636014.9850841     
   2569662025.6469049     
   2537393973.7685757     
   2511289586.6293640     
   2609481791.4141526     
   2573461160.4213901     
   2542961626.7360640     
   2518563560.5425215     
   2501060833.0854039     
   2619488094.9631095     
   2429925094.2654376     
   2235718538.6049938     
   2036869367.9826922     
   1833379267.1805322     
   2570566073.0223880     
   2383464534.4060345     
   2193398123.6093912     
   2000781298.4015408     
   1806277567.2246034     
   2534471177.8598332     
   2355114326.9057670     
   2175574176.1975675     
   1997384926.6813633     
   1822921906.5003738     
   2511289586.6293640     
   2344895309.0304322     
   2182092624.2758832     
   2026058299.6498020     
   1881466399.9504983     
   2501060833.0854039     
   2352694867.3736219     
   2212479874.0075574     
   2085474548.5729899     
   1978654333.2127666     
   2100820382.9830515     
   1979653192.2727449     
   1958726837.2152712     
   2005804434.2364891     
   2092537461.9592075     
   2416688368.2620840     
   2384275503.9937358     
   2372102953.0152354     
   2374825858.0039706     
   2388546359.6151981     
   3058645544.0604849     
   2961404868.3073349     
   2876470561.6495738     
   2803966201.2577052     
   2744204683.9984298     
   3823489605.5731206     
   3605947061.1495771     
   3425288663.5857239     
   3276128224.1515961     
   3154626449.4236956     
   4640856167.8547125     
   4288411457.8065543     
   4010265580.0408263     
   3792157393.3125715     
   3622741216.8436127     
   2092537461.9592075     
   2164676001.6488123     
   2229146940.6461024     
   2282844543.1890488     
   2323620248.0276594     
   2388546359.6151981     
   2420879467.7254076     
   2448665815.1453328     
   2471366949.0245004     
   2488620048.3343062     
   2744204683.9984298     
   2722453697.4290609     
   2704308045.1580596     
   2689859855.1453252     
   2679237745.4873619     
   3154626449.4236956     
   3070477178.9074917     
   2999438175.7130909     
   2941514298.3769889     
   2896831015.5743504     
   3622741216.8436127     
   3469568520.2089396     
   3338612591.2588615     
   3229575672.9666262     
   3142500621.9728689     
   2323620248.0276594     
   2324920469.6684475     
   2333092922.6229362     
   2348298965.8086095     
   2370688825.2923622     
   2488620048.3343062     
   2464032216.9360251     
   2447035377.8760238     
   2437933830.3161483     
   2437027712.8012176     
   2679237745.4873619     
   2628002402.1707830     
   2585107120.7403255     
   2550951827.8609977     
   2525957887.0723791     
   2896831015.5743504     
   2818514132.1356111     
   2749244298.0186343     
   2689475249.0739341     
   2639720571.1465926     
   3142500621.9728689     
   3036859635.5475931     
   2940899315.6069665     
   2855088287.6871290     
   2780000335.6373653     
   2370688825.2923622     
   2384390829.1315608     
   2409091085.3746862     
   2445022270.8960400     
   2492394381.5544639     
   2437027712.8012176     
   2429097141.1578717     
   2431177956.3005180     
   2443567277.2947564     
   2466525931.8908014     
   2525957887.0723791     
   2493671331.3178706     
   2469903638.3475842     
   2455075150.9631701     
   2449599688.4479609     
   2639720571.1465926     
   2581516370.1480107     
   2529813474.1484094     
   2485145569.5446515     
   2448113649.4579554     
   2780000335.6373653     
   2695599050.0209408     
   2615284842.8605690     
   2539640144.1305909     
   2469414009.7284775     
   2492394381.5544639     
   2504821847.7694578     
   2520569977.0726523     
   2539618114.3710165     
   2562012916.0202446     
   2466525931.8908014     
   2453352507.8363137     
   2445964052.8902354     
   2444514617.3988223     
   2449162218.5950603     
   2449599688.4479609     
   2410942791.0571647     
   2380731365.5834541     
   2359238031.1780791     
   2346720040.5869775     
   2448113649.4579554     
   2383536867.1912041     
   2330111962.7943525     
   2288212328.9803181     
   2258224311.8436670     
   2469414009.7284775     
   2377913942.8198547     
   2300127449.8336143     
   2236542335.9255962     
   2187748827.4732456     
   2562012916.0202446     
   2559897599.3363242     
   2567074989.2195730     
   2583578196.3757272     
   2609481791.4141526     
   2449162218.5950603     
   2438762607.1929884     
   2438945163.2632565     
   2449801227.7138658     
   2471432021.7525272     
   2346720040.5869775     
   2325312366.8580570     
   2315879249.9253845     
   2318637180.7824330     
   2333772389.2616677     
   2258224311.8436670     
   2222643115.0682049     
   2200465534.4452496     
   2192135974.0900955     
   2198023697.2109666     
   2187748827.4732456     
   2134476850.4012022     
   2095938219.1607633     
   2072946843.7276235     
   2066207755.6817188     
   2609481791.4141526     
   2573461160.4213901     
   2542961626.7360640     
   2518563560.5425215     
   2501060833.0854039     
   2471432021.7525272     
   2440473219.6817517     
   2417832433.1422467     
   2404464051.4257288     
   2401742617.0594440     
   2333772389.2616677     
   2310452567.1805811     
   2298540728.0512037     
   2299463222.8004732     
   2315325476.4410925     
   2198023697.2109666     
   2184222794.5361161     
   2185397336.0557561     
   2203552837.7046404     
   2241653667.0439405     
   2066207755.6817188     
   2062820355.1216784     
   2078755475.1563597     
   2116703206.8560483     
   2180557494.6949105     
   2501060833.0854039     
   2352694867.3736219     
   2212479874.0075574     
   2085474548.5729899     
   1978654333.2127666     
   2401742617.0594440     
   2278548882.2349358     
   2165861423.9552164     
   2070458191.5374322     
   2001131808.3268647     
   2315325476.4410925     
   2220672183.6336098     
   2139357988.0859773     
   2079731697.5839942     
   2051905852.1185670     
   2241653667.0439405     
   2178855747.9252820     
   2132500501.6188915     
   2112177848.0844572     
   2128686292.9147327     
   2180557494.6949105     
   2152806878.6544662     
   2144647554.7407956     
   2166467584.3799558     
   2229140786.4571018     
   4640856167.8547125     
   4288411457.8065543     
   4010265580.0408263     
   3792157393.3125715     
   3622741216.8436127     
   4412509006.2300816     
   4189254916.8844185     
   4000612657.6820807     
   3842362575.1486921     
   3711718389.9218369     
   4397848769.0265064     
   4243451504.4107170     
   4099014961.9552159     
   3965490596.5174646     
   3844003953.1036000     
   4497315317.5772724     
   4369659246.8249483     
   4244325325.9303122     
   4119735821.8480511     
   3995145200.8311496     
   4625090018.7203970     
   4502246690.0077820     
   4388668951.8330202     
   4272637968.1182818     
   4146381224.6712461     
   3622741216.8436127     
   3469568520.2089396     
   3338612591.2588615     
   3229575672.9666262     
   3142500621.9728689     
   3711718389.9218369     
   3564584261.2533960     
   3430590443.7916937     
   3309945004.2808819     
   3203133464.7589283     
   3844003953.1036000     
   3699288322.6298494     
   3561077124.7715783     
   3429742921.4759479     
   3305810518.1307793     
   3995145200.8311496     
   3854008982.8540211     
   3714880323.3199515     
   3577990884.6167459     
   3443615563.6193371     
   4146381224.6712461     
   4013326861.8944182     
   3879601031.7900443     
   3745077092.0852222     
   3609634595.4340239     
   3142500621.9728689     
   3036859635.5475931     
   2940899315.6069665     
   2855088287.6871290     
   2780000335.6373653     
   3203133464.7589283     
   3086811086.8758202     
   2978209759.9014716     
   2877880862.5287766     
   2786500385.1909170     
   3305810518.1307793     
   3177529376.9759841     
   3055031140.6544113     
   2938872123.9274039     
   2829743707.1896067     
   3443615563.6193371     
   3303219592.1467490     
   3166775338.8163328     
   3034776248.0161748     
   2907847101.0410228     
   3609634595.4340239     
   3457833631.8959322     
   3308335036.9605498     
   3161527148.9583802     
   3017913493.2080007     
   2780000335.6373653     
   2695599050.0209408     
   2615284842.8605690     
   2539640144.1305909     
   2469414009.7284775     
   2786500385.1909170     
   2688564003.9051189     
   2594671479.7557521     
   2505343864.6933336     
   2421230549.3609633     
   2829743707.1896067     
   2719445994.6650848     
   2613121136.1405210     
   2511215564.2042994     
   2414280018.5127439     
   2907847101.0410228     
   2786109683.1935501     
   2668278748.9292388     
   2554724302.8576875     
   2445913690.9029670     
   3017913493.2080007     
   2885269426.1242170     
   2756488060.3750172     
   2631872453.4333239     
   2511835355.9275322     
   2469414009.7284775     
   2377913942.8198547     
   2300127449.8336143     
   2236542335.9255962     
   2187748827.4732456     
   2421230549.3609633     
   2318649709.5859241     
   2227065833.8792539     
   2147260151.8135884     
   2080142890.6224654     
   2414280018.5127439     
   2299269050.8200779     
   2192313162.9074216     
   2094282953.7516489     
   2006215025.0985780     
   2445913690.9029670     
   2319167074.5921125     
   2197478066.9255848     
   2081580513.2536607     
   1972377898.4166353     
   2511835355.9275322     
   2375815166.6323981     
   2242079863.3986683     
   2111076208.9309342     
   1983374400.5593963     
   2187748827.4732456     
   2134476850.4012022     
   2095938219.1607633     
   2072946843.7276235     
   2066207755.6817188     
   2080142890.6224654     
   2005570489.0272288     
   1943271640.5513287     
   1894353274.6225612     
   1859872634.7317212     
   2006215025.0985780     
   1909170770.3699675     
   1820999778.8321941     
   1742923695.0544918     
   1676264534.4689057     
   1972377898.4166353     
   1854552201.0044134     
   1741433729.2486355     
   1633973691.3288898     
   1533339855.4884393     
   1983374400.5593963     
   1849858226.8470192     
   1716976936.8906822     
   1585119474.5270863     
   1454827823.7321806     
   2066207755.6817188     
   2062820355.1216784     
   2078755475.1563597     
   2116703206.8560483     
   2180557494.6949105     
   1859872634.7317212     
   1849720960.5325801     
   1862571237.5845883     
   1900672396.0395682     
   1967107058.1749220     
   1676264534.4689057     
   1648290252.7142708     
   1648010304.5781641     
   1677814830.6812449     
   1740335083.1301653     
   1533339855.4884393     
   1473108677.1423492     
   1445482527.7100258     
   1454425955.9548135     
   1503225490.4676118     
   1454827823.7321806     
   1346562015.2940495     
   1273127710.5591044     
   1242609706.6857386     
   1261993562.9944327     
   2180557494.6949105     
   2152806878.6544662     
   2144647554.7407956     
   2166467584.3799558     
   2229140786.4571018     
   1967107058.1749220     
   1966342700.8466651     
   2002188369.4169502     
   2093201021.2535901     
   2257842707.9170489     
   1740335083.1301653     
   1785821136.6070223     
   1883561790.0758126     
   2060370626.4711220     
   2341306482.8850226     
   1503225490.4676118     
   1611970630.3949456     
   1788039738.1091633     
   2066116947.1145039     
   2476289030.0976954     
   1261993562.9944327     
   1445854350.6754191     
   1715069387.1433206     
   2110193952.1633332     
   2663611903.2156305     
   4625090018.7203970     
   4502246690.0077820     
   4388668951.8330202     
   4272637968.1182818     
   4146381224.6712461     
   4895311294.2230482     
   4767285992.7926655     
   4636816222.2139339     
   4500709064.8473940     
   4356910764.3857174     
   5258711840.9286070     
   5097836164.9836845     
   4936009055.3978882     
   4773212935.5971775     
   4609539239.4081659     
   5709566631.3512173     
   5495695136.1533060     
   5290381846.8855076     
   5092813136.9834757     
   4902643458.0970478     
   6248414139.0911074     
   5965403527.2185516     
   5704568183.5341921     
   5461706689.5734978     
   5234412535.5736656     
   4146381224.6712461     
   4013326861.8944182     
   3879601031.7900443     
   3745077092.0852222     
   3609634595.4340239     
   4356910764.3857174     
   4218919166.8473115     
   4080702460.9639730     
   3942292999.5719061     
   3803733172.0180697     
   4609539239.4081659     
   4463703478.8985558     
   4317878431.9015760     
   4172134495.8177810     
   4026568518.0309801     
   4902643458.0970478     
   4745520038.9331608     
   4588405456.6957455     
   4431300575.4072657     
   4274259609.7829342     
   5234412535.5736656     
   5062091740.4688129     
   4889561974.5760880     
   4716663135.9792566     
   4543322150.7629662     
   3609634595.4340239     
   3457833631.8959322     
   3308335036.9605498     
   3161527148.9583802     
   3017913493.2080007     
   3803733172.0180697     
   3638589794.2713590     
   3475220167.3228774     
   3313894211.2966094     
   3154979221.6388755     
   4026568518.0309801     
   3849016775.1217809     
   3672823046.6356263     
   3498154617.1668444     
   3325260596.7019095     
   4274259609.7829342     
   4084864307.8185492     
   3896508885.5629449     
   3709277815.2645869     
   3523326677.6193590     
   4543322150.7629662     
   4342306597.7881565     
   4142088066.4462609     
   3942687593.0878773     
   3744192146.2503104     
   3017913493.2080007     
   2885269426.1242170     
   2756488060.3750172     
   2631872453.4333239     
   2511835355.9275322     
   3154979221.6388755     
   3011720867.2525740     
   2871021970.0000129     
   2733108274.7501664     
   2598298490.0575285     
   3325260596.7019095     
   3172286345.2211452     
   3020701765.1021080     
   2870636939.1949115     
   2722291147.1760964     
   3523326677.6193590     
   3361756646.6894760     
   3200588995.3211141     
   3039862149.3560286     
   2879660211.6521139     
   3744192146.2503104     
   3575235285.5189300     
   3405890993.2080498     
   3236123649.7715335     
   3065925686.7069716     
   2511835355.9275322     
   2375815166.6323981     
   2242079863.3986683     
   2111076208.9309342     
   1983374400.5593963     
   2598298490.0575285     
   2451798463.4668159     
   2306797773.6408291     
   2163583408.7351894     
   2022536940.5082912     
   2722291147.1760964     
   2567045503.4951043     
   2412698427.6774302     
   2259392682.7783303     
   2107331595.2992561     
   2879660211.6521139     
   2717057515.2247620     
   2554942548.1575146     
   2393348162.3464942     
   2232340315.8709588     
   3065925686.7069716     
   2896906730.1826577     
   2728116240.0960941     
   2559511575.0029349     
   2391065910.7875433     
   1983374400.5593963     
   1849858226.8470192     
   1716976936.8906822     
   1585119474.5270863     
   1454827823.7321806     
   2022536940.5082912     
   1883533671.0640697     
   1745103460.6449285     
   1607384212.5390549     
   1470565213.9175231     
   2107331595.2992561     
   1965575033.0035307     
   1824739653.6789227     
   1684853337.9767337     
   1545971332.5505600     
   2232340315.8709588     
   2089042471.3080933     
   1947179053.3035400     
   1806757391.5691130     
   1667846671.6799936     
   2391065910.7875433     
   2245975531.8082824     
   2102789573.9997652     
   1961535476.8728089     
   1822368575.1290693     
   1454827823.7321806     
   1346562015.2940495     
   1273127710.5591044     
   1242609706.6857386     
   1261993562.9944327     
   1470565213.9175231     
   1326853958.2126884     
   1197545283.6910002     
   1087104882.1873333     
   1001413586.0801978     
   1545971332.5505600     
   1396320280.4531374     
   1243142116.9964933     
   1084203939.4092083     
   917511377.80225766     
   1667846671.6799936     
   1552232359.7486472     
   1427629882.9594936     
   1294431839.8134003     
   1158711240.5020361     
   1822368575.1290693     
   1780910173.7158298     
   1736124988.1177578     
   1696599267.0591557     
   1680621045.9499862     
   1261993562.9944327     
   1445854350.6754191     
   1715069387.1433206     
   2110193952.1633332     
   2663611903.2156305     
   1001413586.0801978     
   1164203441.3876607     
   1425103119.3915532     
   1808638247.3562129     
   2334813434.9835181     
   917511377.80225766     
   962978726.98874235     
   1144883056.1141953     
   1476483813.7881169     
   1957354723.4752228     
   1158711240.5020361     
   1008421402.4093251     
   985344661.22719193     
   1161548576.9528425     
   1543770796.4925668     
   1680621045.9499862     
   1383415954.6079721     
   1129484814.9521701     
   1010287840.5978827     
   1152547024.1840644     
 </DataArray>
 <DataArray  type="Float64" Name="strain" NumberOfComponents="3" format="ascii">
   9.9926587184270499E-002  -2.9551062843680809E-002   5.5592978151497441E-004
   9.6707438236065979E-002  -2.8947119421790957E-002   4.8791826969452057E-004
   9.3488289287861459E-002  -2.8226188628584004E-002   4.4441009429874168E-004
   9.0269140339656884E-002  -2.7388270464060102E-002   4.2540525532802631E-004
   8.7049991391452308E-002  -2.6433364928218905E-002   4.3090375278187487E-004
   9.4062438078088895E-002  -2.7929727123714998E-002   7.7200979894553878E-003
   9.0917888970683758E-002  -2.7206029254357167E-002   7.5426611150177236E-003
   8.7773339863278566E-002  -2.6425431210320649E-002   7.4899205857536510E-003
   8.4628790755873456E-002  -2.5587932991605347E-002   7.5618764016639473E-003
   8.1484241648468292E-002  -2.4693534598211442E-002   7.7585285627482237E-003
   8.7951823331917423E-002  -2.6308391403749298E-002   1.5034064243182932E-002
   8.4982067074060919E-002  -2.5464939086923488E-002   1.4687114809489366E-002
   8.2012310816204387E-002  -2.4624673792057267E-002   1.4565054729719223E-002
   7.9042554558347855E-002  -2.3787595519150599E-002   1.4667884003872131E-002
   7.6072798300491323E-002  -2.2953704268203645E-002   1.4995602631948379E-002
   8.1594742945756166E-002  -2.4687055683783599E-002   2.2497828542697398E-002
   7.8899972546197433E-002  -2.3723848919489643E-002   2.1921279353110126E-002
   7.6205202146638867E-002  -2.2823916373793787E-002   2.1669812526195036E-002
   7.3510431747080177E-002  -2.1987258046695959E-002   2.1743428061952463E-002
   7.0815661347521500E-002  -2.1213873938196071E-002   2.2142125960382286E-002
   7.4991196919605096E-002  -2.3065719963817843E-002   3.0111390887999523E-002
   7.2671605387093552E-002  -2.1982758752055964E-002   2.9245154745879631E-002
   7.0352013854581952E-002  -2.1023158955530474E-002   2.8804193975181358E-002
   6.8032422322070352E-002  -2.0186920574241179E-002   2.8788508575904703E-002
   6.5712830789558779E-002  -1.9474043608188496E-002   2.9198098548050055E-002
   8.7049991391452308E-002  -2.6433364928218905E-002   4.3090375278187487E-004
   8.4205440340632542E-002  -2.5438826135666726E-002   5.2077423556784463E-005
   8.1360889289812832E-002  -2.4482008201010319E-002  -3.4833708477399750E-005
   7.8516338238993066E-002  -2.3562911124247993E-002   1.7017035667948877E-004
   7.5671787188173356E-002  -2.2681534905381828E-002   6.6708961902739450E-004
   8.1484241648468292E-002  -2.4693534598211442E-002   7.7585285627482237E-003
   7.8896625108198809E-002  -2.3782273231617801E-002   7.4685803988021049E-003
   7.6309008567929243E-002  -2.2894186093303431E-002   7.4005860587652017E-003
   7.3721392027659663E-002  -2.2029273183268978E-002   7.5545455426375696E-003
   7.1133775487390138E-002  -2.1187534501513339E-002   7.9304588504192641E-003
   7.6072798300491323E-002  -2.2953704268203645E-002   1.4995602631948379E-002
   7.3672154897490336E-002  -2.2125720327568377E-002   1.4809079262896763E-002
   7.1271511494489320E-002  -2.1306363985596988E-002   1.4774548344472865E-002
   6.8870868091488291E-002  -2.0495635242289076E-002   1.4892009876676722E-002
   6.6470224688487289E-002  -1.9693534097645016E-002   1.5161463859507840E-002
   7.0815661347521500E-002  -2.1213873938196071E-002   2.2142125960382286E-002
   6.8532029708507261E-002  -2.0469167423519202E-002   2.2073574015841070E-002
   6.6248398069493036E-002  -1.9718541877890433E-002   2.2087053148645924E-002
   6.3964766430478784E-002  -1.8961997301309506E-002   2.2182563358796363E-002
   6.1681134791464552E-002  -1.8199533693776554E-002   2.2360104646293094E-002
   6.5712830789558779E-002  -1.9474043608188496E-002   2.9198098548050055E-002
   6.3476249541249585E-002  -1.8812614519469972E-002   2.9262064657634895E-002
   6.1239668292940405E-002  -1.8130719770183809E-002   2.9338100471283796E-002
   5.9003087044631274E-002  -1.7428359360329809E-002   2.9426205988997284E-002
   5.6766505796322086E-002  -1.6705533289908203E-002   2.9526381210774666E-002
   7.5671787188173356E-002  -2.2681534905381828E-002   6.6708961902739450E-004
   7.2363346877760581E-002  -2.1801597717879095E-002   4.5333732153385320E-004
   6.9054906567347918E-002  -2.0886817735209506E-002   3.7836079726361049E-004
   6.5746466256935171E-002  -1.9937194957372284E-002   4.4216004621683291E-004
   6.2438025946522480E-002  -1.8952729384368427E-002   6.4473506839313188E-004
   7.1133775487390138E-002  -2.1187534501513339E-002   7.9304588504192641E-003
   6.7980032293296022E-002  -2.0346741563968040E-002   7.6351515654144442E-003
   6.4826289099201878E-002  -1.9484665886563335E-002   7.5104627398235868E-003
   6.1672545905107803E-002  -1.8601307469298958E-002   7.5563923736462341E-003
   5.8518802711013618E-002  -1.7696666312175369E-002   7.7729404668825941E-003
   6.6470224688487289E-002  -1.9693534097645016E-002   1.5161463859507840E-002
   6.3503021296902024E-002  -1.8891885410056791E-002   1.4771041531684098E-002
   6.0535817905316910E-002  -1.8082514037917052E-002   1.4583080349464414E-002
   5.7568614513731693E-002  -1.7265419981225522E-002   1.4597580312849009E-002
   5.4601411122146504E-002  -1.6440603239982143E-002   1.4814541421837718E-002
   6.1681134791464552E-002  -1.8199533693776554E-002   2.2360104646293094E-002
   5.8932313888578731E-002  -1.7437029256145639E-002   2.1861007220342316E-002
   5.6183492985692959E-002  -1.6680362189270825E-002   2.1596213626186543E-002
   5.3434672082807139E-002  -1.5929532493152029E-002   2.1565723863825131E-002
   5.0685851179921367E-002  -1.5184540167789112E-002   2.1769537933258302E-002
   5.6766505796322086E-002  -1.6705533289908203E-002   2.9526381210774666E-002
   5.4267910068326042E-002  -1.5982173102234626E-002   2.8905048631389763E-002
   5.1769314340330025E-002  -1.5278210340624751E-002   2.8549862569989842E-002
   4.9270718612334050E-002  -1.4593645005078492E-002   2.8460823026574808E-002
   4.6772122884337963E-002  -1.3928477095596137E-002   2.8637930001144618E-002
   6.2438025946522480E-002  -1.8952729384368427E-002   6.4473506839313188E-004
   5.9572051039557761E-002  -1.7979512817444143E-002   3.5987273463655711E-004
   5.6706076132592986E-002  -1.7063637057847331E-002   2.7713268563128723E-004
   5.3840101225628184E-002  -1.6205102105577164E-002   3.9651492137660060E-004
   5.0974126318663493E-002  -1.5403907960634511E-002   7.1801944187277478E-004
   5.8518802711013618E-002  -1.7696666312175369E-002   7.7729404668825941E-003
   5.5841931047813154E-002  -1.6798346745868942E-002   7.4312573743707255E-003
   5.3165059384612690E-002  -1.5933953101056386E-002   7.2656584846358396E-003
   5.0488187721412198E-002  -1.5103485377737619E-002   7.2761437976785748E-003
   4.7811316058211761E-002  -1.4306943575913333E-002   7.4627133134992363E-003
   5.4601411122146504E-002  -1.6440603239982143E-002   1.4814541421837718E-002
   5.2087604620736777E-002  -1.5617180674293352E-002   1.4439452456403434E-002
   4.9573798119327064E-002  -1.4804269144265650E-002   1.4214409611772769E-002
   4.7059991617917345E-002  -1.4001868649898403E-002   1.4139412887946241E-002
   4.4546185116507625E-002  -1.3209979191191823E-002   1.4214462284923624E-002
   5.0685851179921367E-002  -1.5184540167789112E-002   2.1769537933258302E-002
   4.8309071758328784E-002  -1.4436014602718178E-002   2.1384457980734656E-002
   4.5932292336736166E-002  -1.3674585187474810E-002   2.1123386067041467E-002
   4.3555512915143570E-002  -1.2900251922059134E-002   2.0986322192178698E-002
   4.1178733493550966E-002  -1.2113014806470923E-002   2.0973266356146200E-002
   4.6772122884337963E-002  -1.3928477095596137E-002   2.8637930001144618E-002
   4.4506332460588993E-002  -1.3254848531142949E-002   2.8266273947365250E-002
   4.2240542036839968E-002  -1.2544901230684094E-002   2.7992587850442480E-002
   3.9974751613090942E-002  -1.1798635194219646E-002   2.7816871710376487E-002
   3.7708961189341972E-002  -1.1016050421749690E-002   2.7739125527167507E-002
   5.0974126318663493E-002  -1.5403907960634511E-002   7.1801944187277478E-004
   4.8218933145645071E-002  -1.4611621578376699E-002   4.8515011185878976E-004
   4.5463739972626704E-002  -1.3779809914164109E-002   2.8989632154674538E-004
   4.2708546799608255E-002  -1.2908472967994120E-002   1.3225807093758535E-004
   3.9953353626589916E-002  -1.1997610739868714E-002   1.2235360031143117E-005
   4.7811316058211761E-002  -1.4306943575913333E-002   7.4627133134992363E-003
   4.5106914514407903E-002  -1.3516266072822636E-002   7.1715606947350130E-003
   4.2402512970604017E-002  -1.2703391245707130E-002   6.9443757946978102E-003
   3.9698111426800145E-002  -1.1868319094565163E-002   6.7811586133870172E-003
   3.6993709882996328E-002  -1.1011049619397806E-002   6.6819091508028006E-003
   4.4546185116507625E-002  -1.3209979191191823E-002   1.4214462284923624E-002
   4.1918927380942217E-002  -1.2420910567268573E-002   1.3847698419479276E-002
   3.9291669645376850E-002  -1.1626972577249955E-002   1.3571254451786169E-002
   3.6664411909811435E-002  -1.0828165221135992E-002   1.3385130381842969E-002
   3.4037154174246076E-002  -1.0024488498927009E-002   1.3289326209650620E-002
   4.1178733493550966E-002  -1.2113014806470923E-002   2.0973266356146200E-002
   3.8654971745248110E-002  -1.1325555061714065E-002   2.0513563286091635E-002
   3.6131209996945149E-002  -1.0550553908792878E-002   2.0170532292811613E-002
   3.3607448248642202E-002  -9.7880113477068174E-003   1.9944173376306048E-002
   3.1083686500339269E-002  -9.0379273784562675E-003   1.9834486536574769E-002
   3.7708961189341972E-002  -1.1016050421749690E-002   2.7739125527167507E-002
   3.5315047607325456E-002  -1.0230199556160002E-002   2.7169155294571978E-002
   3.2921134025308996E-002  -9.4741352403358570E-003   2.6742209317774823E-002
   3.0527220443292452E-002  -8.7478574742779897E-003   2.6458287596775820E-002
   2.8133306861276020E-002  -8.0513662579855261E-003   2.6317390131575413E-002
   3.9953353626589916E-002  -1.1997610739868714E-002   1.2235360031143117E-005
   3.7528595607694171E-002  -1.1150502585926647E-002  -2.8211294971902667E-004
   3.5103837588798315E-002  -1.0470427862306897E-002  -4.8243000041736650E-004
   3.2679079569902514E-002  -9.9573865690098518E-003  -5.8871579206420943E-004
   3.0254321551006713E-002  -9.6113787060356781E-003  -6.0097032465966649E-004
   3.6993709882996328E-002  -1.1011049619397806E-002   6.6819091508028006E-003
   3.4643987800766995E-002  -1.0197567897945126E-002   6.2332504226225716E-003
   3.2294265718537662E-002  -9.4938590079470253E-003   5.8406323087229484E-003
   2.9944543636308413E-002  -8.8999229494034632E-003   5.5040548091055963E-003
   2.7594821554078997E-002  -8.4157597223148972E-003   5.2235179237696272E-003
   3.4037154174246076E-002  -1.0024488498927009E-002   1.3289326209650620E-002
   3.1724477383913069E-002  -9.2446332099639372E-003   1.2743617661907680E-002
   2.9411800593580090E-002  -8.5172901535873757E-003   1.2215959083676703E-002
   2.7099123803247069E-002  -7.8424593297972967E-003   1.1706350474956356E-002
   2.4786447012914048E-002  -7.2201407385933392E-003   1.1214791835746862E-002
   3.1083686500339269E-002  -9.0379273784562675E-003   1.9834486536574769E-002
   2.8770064357132377E-002  -8.2916985219825823E-003   1.9248988768137978E-002
   2.6456442213925464E-002  -7.5407212992273931E-003   1.8643550324441913E-002
   2.4142820070718506E-002  -6.7849957101905750E-003   1.8018171205486960E-002
   2.1829197927511548E-002  -6.0245217548723917E-003   1.7372851411273052E-002
   2.8133306861276020E-002  -8.0513662579855261E-003   2.6317390131575413E-002
   2.5780748720424906E-002  -7.3387638340013384E-003   2.5749363741312647E-002
   2.3428190579573793E-002  -6.5641524448676047E-003   2.5123406031020312E-002
   2.1075632438722680E-002  -5.7275320905842350E-003   2.4439517000698907E-002
   1.8723074297871567E-002  -4.8289027711512222E-003   2.3697696650348044E-002
   3.0254321551006713E-002  -9.6113787060356781E-003  -6.0097032465966649E-004
   2.9637310133965422E-002  -9.1445340226377070E-003  -3.5737324069118337E-004
   2.9020298716924076E-002  -8.2689822680718783E-003  -1.7950755907379934E-003
   2.8403287299882785E-002  -6.9847234423351251E-003  -4.9140773747983757E-003
   2.7786275882841438E-002  -5.2917575454305421E-003  -9.7143785928741622E-003
   2.7594821554078997E-002  -8.4157597223148972E-003   5.2235179237696272E-003
   2.5565897845231333E-002  -7.8807914739815743E-003   5.8976725782651229E-003
   2.3536974136383504E-002  -7.1344403517044630E-003   5.4293020831617800E-003
   2.1508050427535702E-002  -6.1767063554845764E-003   3.8184064384604866E-003
   1.9479126718688011E-002  -5.0075894853209846E-003   1.0649856441606875E-003
   2.4786447012914048E-002  -7.2201407385933392E-003   1.1214791835746862E-002
   2.1884385296676218E-002  -6.6170489253243314E-003   1.2122179863543470E-002
   1.8982323580438248E-002  -5.9998984353379636E-003   1.2425817026157804E-002
   1.6080261864200349E-002  -5.3686892686333684E-003   1.2125703323590600E-002
   1.3178200147962477E-002  -4.7234214252118711E-003   1.1221838755841262E-002
   2.1829197927511548E-002  -6.0245217548723917E-003   1.7372851411273052E-002
   1.8592772488299915E-002  -5.3533063766674216E-003   1.8316148615144925E-002
   1.5356347049088274E-002  -4.8653565189711173E-003   1.9194469238251098E-002
   1.2119921609876644E-002  -4.5606721817827121E-003   2.0007813280591664E-002
   8.8834961706650006E-003  -4.4392533651027577E-003   2.0756180742167035E-002
   1.8723074297871567E-002  -4.8289027711512222E-003   2.3697696650348044E-002
   1.5691059420102571E-002  -4.0895638280108448E-003   2.4479578833069615E-002
   1.2659044542333575E-002  -3.7308146026041322E-003   2.5735258719441600E-002
   9.6270296645645653E-003  -3.7526550949315771E-003   2.7464736309464277E-002
   6.5950147867955833E-003  -4.1550853049933112E-003   2.9668011603138145E-002
   2.7786275882841438E-002  -5.2917575454305421E-003  -9.7143785928741622E-003
   2.3357010674779799E-002  -4.2085193512262364E-003  -4.1886213234876291E-003
   1.8927745466718215E-002  -4.7534436335913144E-003   2.6008961091752436E-003
   1.4498480258656743E-002  -6.9265303925271360E-003   1.0654173705113679E-002
   1.0069215050594993E-002  -1.0727779628033396E-002   1.9971211464326899E-002
   1.9479126718688011E-002  -5.0075894853209846E-003   1.0649856441606875E-003
   1.6241258341121834E-002  -4.6898576891158950E-003   6.7534444249803816E-003
   1.3003389963555767E-002  -6.2862789147719589E-003   1.3560936703514992E-002
   9.7655215859895894E-003  -9.7968531622875110E-003   2.1487462479764741E-002
   6.5276532084237449E-003  -1.5221580431663551E-002   3.0533021753730072E-002
   1.3178200147962477E-002  -4.7234214252118711E-003   1.1221838755841262E-002
   1.0987001935331531E-002  -5.1711960270068857E-003   1.6787008502803236E-002
   8.7958037227005986E-003  -7.8191141959518817E-003   2.3326485081919812E-002
   6.6046055100695278E-003  -1.2667175932047983E-002   3.0840268493191492E-002
   4.4134072974387206E-003  -1.9715381235293705E-002   3.9328358736617997E-002
   8.8834961706650006E-003  -4.4392533651027577E-003   2.0756180742167035E-002
   7.5942414574088762E-003  -5.6525343648974324E-003   2.5912070909981239E-002
   6.3049867441526963E-003  -9.3519494771321654E-003   3.1897541244389302E-002
   5.0157320308964054E-003  -1.5537498701808185E-002   3.8712591745392939E-002
   3.7264773176403782E-003  -2.4209182038924304E-002   4.6357222412990284E-002
   6.5950147867955833E-003  -4.1550853049933112E-003   2.9668011603138145E-002
   6.0629769073538009E-003  -6.1338727027875350E-003   3.4128631646514362E-002
   5.5309390279120185E-003  -1.0884784758312532E-002   3.9274105190924946E-002
   4.9989011484701945E-003  -1.8407821471568241E-002   4.5104432236369590E-002
   4.4668632690284538E-003  -2.8702982842554459E-002   5.1619612782848545E-002
   7.4991196919605096E-002  -2.3065719963817843E-002   3.0111390887999523E-002
   7.2671605387093552E-002  -2.1982758752055964E-002   2.9245154745879631E-002
   7.0352013854581952E-002  -2.1023158955530474E-002   2.8804193975181358E-002
   6.8032422322070352E-002  -2.0186920574241179E-002   2.8788508575904703E-002
   6.5712830789558779E-002  -1.9474043608188496E-002   2.9198098548050055E-002
   6.8404150599359448E-002  -2.0903425741979897E-002   3.5328443146745270E-002
   6.6447418471253350E-002  -2.0090800264341957E-002   3.4588320411265638E-002
   6.4490686343147252E-002  -1.9336684727755765E-002   3.4148641113175393E-002
   6.2533954215041154E-002  -1.8641079132221343E-002   3.4009405252474312E-002
   6.0577222086935056E-002  -1.8003983477738739E-002   3.4170612829162755E-002
   6.2096569330914397E-002  -1.8741131520142007E-002   4.0242733934274799E-002
   6.0377864673181472E-002  -1.8198841776627894E-002   3.9693576079620013E-002
   5.8659160015448408E-002  -1.7650210499981084E-002   3.9320029728322325E-002
   5.6940455357715428E-002  -1.7095237690201423E-002   3.9122094880381375E-002
   5.5221750699982426E-002  -1.6533923347289148E-002   3.9099771535797467E-002
   5.6068453114270042E-002  -1.6578837298304089E-002   4.4854263250588167E-002
   5.4462943992877752E-002  -1.6306883288913873E-002   4.4560921750942901E-002
   5.2857434871485469E-002  -1.5963736272206389E-002   4.4318359820622252E-002
   5.1251925750093116E-002  -1.5549396248181545E-002   4.4126577459625956E-002
   4.9646416628700826E-002  -1.5063863216839418E-002   4.3985574667954289E-002
   5.0319801949426313E-002  -1.4416543076466171E-002   4.9163031095685261E-002
   4.8702656430342328E-002  -1.4414924801199880E-002   4.9190357425233977E-002
   4.7085510911258288E-002  -1.4277262044431735E-002   4.9143631390074854E-002
   4.5468365392174248E-002  -1.4003554806161663E-002   4.9022852990208074E-002
   4.3851219873090264E-002  -1.3593803086389855E-002   4.8828022225633205E-002
   6.5712830789558779E-002  -1.9474043608188496E-002   2.9198098548050055E-002
   6.3476249541249585E-002  -1.8812614519469972E-002   2.9262064657634895E-002
   6.1239668292940405E-002  -1.8130719770183809E-002   2.9338100471283796E-002
   5.9003087044631274E-002  -1.7428359360329809E-002   2.9426205988997284E-002
   5.6766505796322086E-002  -1.6705533289908203E-002   2.9526381210774666E-002
   6.0577222086935056E-002  -1.8003983477738739E-002   3.4170612829162755E-002
   5.8400418740459120E-002  -1.7385748080014696E-002   3.4083051996238817E-002
   5.6223615393983198E-002  -1.6746723254755791E-002   3.4102977262917417E-002
   5.4046812047507255E-002  -1.6086909001962121E-002   3.4230388629198125E-002
   5.1870008701031284E-002  -1.5406305321633507E-002   3.4465286095081066E-002
   5.5221750699982426E-002  -1.6533923347289148E-002   3.9099771535797467E-002
   5.3200141650877782E-002  -1.5958881640559447E-002   3.8861007527332167E-002
   5.1178532601773158E-002  -1.5362726739327835E-002   3.8825146014007057E-002
   4.9156923552668527E-002  -1.4745458643594269E-002   3.8992186995822478E-002
   4.7135314503563883E-002  -1.4107077353358921E-002   3.9362130472778076E-002
   4.9646416628700826E-002  -1.5063863216839418E-002   4.3985574667954289E-002
   4.7875418272505521E-002  -1.4532015201104184E-002   4.3595931250914481E-002
   4.6104419916310202E-002  -1.3978730223899876E-002   4.3504606724552940E-002
   4.4333421560114904E-002  -1.3404008285226681E-002   4.3711601088869907E-002
   4.2562423203919578E-002  -1.2807849385084197E-002   4.4216914343865182E-002
   4.3851219873090264E-002  -1.3593803086389855E-002   4.8828022225633205E-002
   4.2426248605342359E-002  -1.3105148761648949E-002   4.8287823166986016E-002
   4.1001277337594441E-002  -1.2594733708471889E-002   4.8141359394555217E-002
   3.9576306069846530E-002  -1.2062557926858820E-002   4.8388630908340960E-002
   3.8151334802098646E-002  -1.1508621416809639E-002   4.9029637708342955E-002
   5.6766505796322086E-002  -1.6705533289908203E-002   2.9526381210774666E-002
   5.4267910068326042E-002  -1.5982173102234626E-002   2.8905048631389763E-002
   5.1769314340330025E-002  -1.5278210340624751E-002   2.8549862569989842E-002
   4.9270718612334050E-002  -1.4593645005078492E-002   2.8460823026574808E-002
   4.6772122884337963E-002  -1.3928477095596137E-002   2.8637930001144618E-002
   5.1870008701031284E-002  -1.5406305321633507E-002   3.4465286095081066E-002
   4.9614811553442925E-002  -1.4721103053281115E-002   3.3967513637166769E-002
   4.7359614405854497E-002  -1.4047493036415254E-002   3.3690391822082430E-002
   4.5104417258266062E-002  -1.3385475271036444E-002   3.3633920649828460E-002
   4.2849220110677655E-002  -1.2735049757144346E-002   3.3798100120404739E-002
   4.7135314503563883E-002  -1.4107077353358921E-002   3.9362130472778076E-002
   4.5078020061228227E-002  -1.3460033004327479E-002   3.8995723310910987E-002
   4.3020725618892648E-002  -1.2816775732205930E-002   3.8804470916719604E-002
   4.0963431176557041E-002  -1.2177305536994231E-002   3.8788373290203473E-002
   3.8906136734221414E-002  -1.1541622418692304E-002   3.8947430431362826E-002
   4.2562423203919578E-002  -1.2807849385084197E-002   4.4216914343865182E-002
   4.0657535591682045E-002  -1.2198962955373906E-002   4.3989677652622725E-002
   3.8752647979444471E-002  -1.1586058427996464E-002   4.3892099853901072E-002
   3.6847760367206897E-002  -1.0969135802951852E-002   4.3924180947699842E-002
   3.4942872754969372E-002  -1.0348195080240277E-002   4.4085920934019474E-002
   3.8151334802098646E-002  -1.1508621416809639E-002   4.9029637708342955E-002
   3.6353358144804310E-002  -1.0937892906420332E-002   4.8949376662301869E-002
   3.4555381487510001E-002  -1.0355341123787151E-002   4.8953278633626668E-002
   3.2757404830215692E-002  -9.7609660689098980E-003   4.9041343622317449E-002
   3.0959428172921383E-002  -9.1547677417884166E-003   4.9213571628373975E-002
   4.6772122884337963E-002  -1.3928477095596137E-002   2.8637930001144618E-002
   4.4506332460588993E-002  -1.3254848531142949E-002   2.8266273947365250E-002
   4.2240542036839968E-002  -1.2544901230684094E-002   2.7992587850442480E-002
   3.9974751613090942E-002  -1.1798635194219646E-002   2.7816871710376487E-002
   3.7708961189341972E-002  -1.1016050421749690E-002   2.7739125527167507E-002
   4.2849220110677655E-002  -1.2735049757144346E-002   3.3798100120404739E-002
   4.0695316226242978E-002  -1.2077208303860248E-002   3.3451551479424996E-002
   3.8541412341808329E-002  -1.1392942720305346E-002   3.3230805960217186E-002
   3.6387508457373666E-002  -1.0682253006480017E-002   3.3135863562781379E-002
   3.4233604572939030E-002  -9.9451391623837648E-003   3.3166724287117422E-002
   3.8906136734221414E-002  -1.1541622418692304E-002   3.8947430431362826E-002
   3.6891952554016214E-002  -1.0899568076577520E-002   3.8616094597448261E-002
   3.4877768373811027E-002  -1.0240984209926758E-002   3.8438395050220474E-002
   3.2863584193605758E-002  -9.5658708187402759E-003   3.8414331789679818E-002
   3.0849400013400585E-002  -8.8742279030178950E-003   3.8543904815826147E-002
   3.4942872754969372E-002  -1.0348195080240277E-002   4.4085920934019474E-002
   3.3096241443908714E-002  -9.7219278492948619E-003   4.3759903301434741E-002
   3.1249610132848056E-002  -9.0890256995481457E-003   4.3615355120452434E-002
   2.9402978821787367E-002  -8.4494886310005346E-003   4.3652276391071873E-002
   2.7556347510726734E-002  -7.8033166436519419E-003   4.3870667113293502E-002
   3.0959428172921383E-002  -9.1547677417884166E-003   4.9213571628373975E-002
   2.9308182895920382E-002  -8.5442876220120367E-003   4.8882977591384658E-002
   2.7656937618919381E-002  -7.9370671891693251E-003   4.8761686170912560E-002
   2.6005692341918393E-002  -7.3331064432608263E-003   4.8849697366957559E-002
   2.4354447064917378E-002  -6.7324053842860998E-003   4.9147011179519806E-002
   3.7708961189341972E-002  -1.1016050421749690E-002   2.7739125527167507E-002
   3.5315047607325456E-002  -1.0230199556160002E-002   2.7169155294571978E-002
   3.2921134025308996E-002  -9.4741352403358570E-003   2.6742209317774823E-002
   3.0527220443292452E-002  -8.7478574742779897E-003   2.6458287596775820E-002
   2.8133306861276020E-002  -8.0513662579855261E-003   2.6317390131575413E-002
   3.4233604572939030E-002  -9.9451391623837648E-003   3.3166724287117422E-002
   3.1983801665059347E-002  -9.2053380336451496E-003   3.2663574474348922E-002
   2.9733998757179608E-002  -8.4865864658918849E-003   3.2305621754055741E-002
   2.7484195849299897E-002  -7.7888844591243837E-003   3.2092866126237657E-002
   2.5234392941420186E-002  -7.1122320133426564E-003   3.2025307590895169E-002
   3.0849400013400585E-002  -8.8742279030178950E-003   3.8543904815826147E-002
   2.8745880616334540E-002  -8.1804765111302968E-003   3.8116312411665285E-002
   2.6642361219268398E-002  -7.4990376914479129E-003   3.7836089936656173E-002
   2.4538841822202263E-002  -6.8299114439712219E-003   3.7703237390799060E-002
   2.2435322425136142E-002  -6.1730977686996757E-003   3.7717754774093976E-002
   2.7556347510726734E-002  -7.8033166436519419E-003   4.3870667113293502E-002
   2.5601284461151022E-002  -7.1556149886153331E-003   4.3527369106520220E-002
   2.3646221411575286E-002  -6.5114889170041074E-003   4.3333613865575868E-002
   2.1691158361999585E-002  -5.8709384288178380E-003   4.3289401390459920E-002
   1.9736095312423839E-002  -5.2339635240569171E-003   4.3394731681172923E-002
   2.4354447064917378E-002  -6.7324053842860998E-003   4.9147011179519806E-002
   2.2550013199508834E-002  -6.1307534661005358E-003   4.8896744558914351E-002
   2.0745579334100331E-002  -5.5239401425600521E-003   4.8798193540814438E-002
   1.8941145468691807E-002  -4.9119654136644750E-003   4.8851358125219957E-002
   1.7136711603283311E-002  -4.2948292794138254E-003   4.9056238312131573E-002
   2.8133306861276020E-002  -8.0513662579855261E-003   2.6317390131575413E-002
   2.5780748720424906E-002  -7.3387638340013384E-003   2.5749363741312647E-002
   2.3428190579573793E-002  -6.5641524448676047E-003   2.5123406031020312E-002
   2.1075632438722680E-002  -5.7275320905842350E-003   2.4439517000698907E-002
   1.8723074297871567E-002  -4.8289027711512222E-003   2.3697696650348044E-002
   2.5234392941420186E-002  -7.1122320133426564E-003   3.2025307590895169E-002
   2.2863217973253636E-002  -6.4369592736849834E-003   3.1636588653860875E-002
   2.0492043005087016E-002  -5.7433963852904502E-003   3.1268567382224999E-002
   1.8120868036920389E-002  -5.0315433481590358E-003   3.0921243775987428E-002
   1.5749693068753845E-002  -4.3014001622905251E-003   3.0594617835148052E-002
   2.2435322425136142E-002  -6.1730977686996757E-003   3.7717754774093976E-002
   2.0124159615081683E-002  -5.5351547133687951E-003   3.7464624473876079E-002
   1.7812996805027084E-002  -4.9226403257134205E-003   3.7310820824484073E-002
   1.5501833994972555E-002  -4.3355546057337289E-003   3.7256343825917783E-002
   1.3190671184918012E-002  -3.7738975534297170E-003   3.7301193478177536E-002
   1.9736095312423839E-002  -5.2339635240569171E-003   4.3394731681172923E-002
   1.7563573645908909E-002  -4.6333501530526899E-003   4.3233471201358613E-002
   1.5391051979393954E-002  -4.1018842661363283E-003   4.3250166357797715E-002
   1.3218530312878981E-002  -3.6395658633086980E-003   4.3444817150490068E-002
   1.1046008646364073E-002  -3.2463949445687978E-003   4.3817423579435986E-002
   1.7136711603283311E-002  -4.2948292794138254E-003   4.9056238312131573E-002
   1.5181460065735453E-002  -3.7315455927362517E-003   4.8943128836308136E-002
   1.3226208528187663E-002  -3.2811282065592640E-003   4.9086603982165633E-002
   1.1270956990639867E-002  -2.9435771208831743E-003   4.9486663749704063E-002
   9.3157054530920713E-003  -2.7188923357081007E-003   5.0143308138923648E-002
   1.8723074297871567E-002  -4.8289027711512222E-003   2.3697696650348044E-002
   1.5691059420102571E-002  -4.0895638280108448E-003   2.4479578833069615E-002
   1.2659044542333575E-002  -3.7308146026041322E-003   2.5735258719441600E-002
   9.6270296645645653E-003  -3.7526550949315771E-003   2.7464736309464277E-002
   6.5950147867955833E-003  -4.1550853049933112E-003   2.9668011603138145E-002
   1.5749693068753845E-002  -4.3014001622905251E-003   3.0594617835148052E-002
   1.3173182312632675E-002  -3.7808399336614062E-003   3.1363542890673446E-002
   1.0596671556511561E-002  -3.6977357682473899E-003   3.2569678485843967E-002
   8.0201608003904745E-003  -4.0520876660494476E-003   3.4213024620659199E-002
   5.4436500442693325E-003  -4.8438956270666633E-003   3.6293581295119615E-002
   1.3190671184918012E-002  -3.7738975534297170E-003   3.7301193478177536E-002
   1.1033077386438883E-002  -3.4721160393120232E-003   3.8000295061025480E-002
   8.8754835879596983E-003  -3.6646569338908835E-003   3.9100020019512724E-002
   6.7178897894805099E-003  -4.3515202371668775E-003   4.0600368353638928E-002
   4.5602959910013841E-003  -5.5327059491397379E-003   4.2501340063404142E-002
   1.1046008646364073E-002  -3.2463949445687978E-003   4.3817423579435986E-002
   9.2707446415209727E-003  -3.1633921449626123E-003   4.4389835344125550E-002
   7.4954806366779331E-003  -3.6315780995343147E-003   4.5326283320448024E-002
   5.7202166318348754E-003  -4.6509528082845277E-003   4.6626767508403874E-002
   3.9449526269917934E-003  -6.2215162712127292E-003   4.8291287907992912E-002
   9.3157054530920713E-003  -2.7188923357081007E-003   5.0143308138923648E-002
   7.8861840778791659E-003  -2.8546682506132015E-003   5.0532163739973379E-002
   6.4566627026662882E-003  -3.5984992651777181E-003   5.1248468388650159E-002
   5.0271413274533966E-003  -4.9503853794020322E-003   5.2292222084954126E-002
   3.5976199522405605E-003  -6.9103265932859426E-003   5.3663424828885420E-002
   6.5950147867955833E-003  -4.1550853049933112E-003   2.9668011603138145E-002
   6.0629769073538009E-003  -6.1338727027875350E-003   3.4128631646514362E-002
   5.5309390279120185E-003  -1.0884784758312532E-002   3.9274105190924946E-002
   4.9989011484701945E-003  -1.8407821471568241E-002   4.5104432236369590E-002
   4.4668632690284538E-003  -2.8702982842554459E-002   5.1619612782848545E-002
   5.4436500442693325E-003  -4.8438956270666633E-003   3.6293581295119615E-002
   5.4927781772507456E-003  -6.9737086363077516E-003   3.8413185193661104E-002
   5.5419063102321031E-003  -1.1342075678781871E-002   4.1010267616014950E-002
   5.5910344432135717E-003  -1.7948996754489133E-002   4.4084828562180989E-002
   5.6401625761948737E-003  -2.6794471863428537E-002   4.7636868032159496E-002
   4.5602959910013841E-003  -5.5327059491397379E-003   4.2501340063404142E-002
   4.9832151591839013E-003  -7.8135445698281902E-003   4.2813498441609477E-002
   5.4061343273664186E-003  -1.1799366599251779E-002   4.3395760366405092E-002
   5.8290534955489810E-003  -1.7490172037410028E-002   4.4248125837790052E-002
   6.2519726637314532E-003  -2.4885960884303060E-002   4.5370594855766666E-002
   3.9449526269917934E-003  -6.2215162712127292E-003   4.8291287907992912E-002
   4.5342878531533896E-003  -8.6533805033482958E-003   4.7329571390359731E-002
   5.1236230793149529E-003  -1.2256657519721069E-002   4.6430583442094553E-002
   5.7129583054765414E-003  -1.7031347320330702E-002   4.5594324063197481E-002
   6.3022935316380535E-003  -2.2977449905177472E-002   4.4820793253668417E-002
   3.5976199522405605E-003  -6.9103265932859426E-003   5.3663424828885420E-002
   4.1459962591591237E-003  -9.4932164368686234E-003   5.1961404039911785E-002
   4.6943725660776869E-003  -1.2713948440190803E-002   5.0114736843083540E-002
   5.2427488729962363E-003  -1.6572522603251705E-002   4.8123423238401852E-002
   5.7911251799148689E-003  -2.1068938926051661E-002   4.5987463225866332E-002
   5.0319801949426313E-002  -1.4416543076466171E-002   4.9163031095685261E-002
   4.8702656430342328E-002  -1.4414924801199880E-002   4.9190357425233977E-002
   4.7085510911258288E-002  -1.4277262044431735E-002   4.9143631390074854E-002
   4.5468365392174248E-002  -1.4003554806161663E-002   4.9022852990208074E-002
   4.3851219873090264E-002  -1.3593803086389855E-002   4.8828022225633205E-002
   4.4679386648460551E-002  -1.3383274958960856E-002   5.2482082662728524E-002
   4.3025820911136436E-002  -1.2814096349365756E-002   5.2522775901164276E-002
   4.1372255173812336E-002  -1.2303506048345000E-002   5.2564681067827607E-002
   3.9718689436488236E-002  -1.1851504055898656E-002   5.2607798162718836E-002
   3.8065123699164122E-002  -1.1458090372026580E-002   5.2652127185837616E-002
   3.8975978023450084E-002  -1.2350006841455569E-002   5.6466010959138682E-002
   3.7361256360821521E-002  -1.1213267897531604E-002   5.6325438316385049E-002
   3.5746534698192944E-002  -1.0329750052258301E-002   5.6261341894794765E-002
   3.4131813035564354E-002  -9.6994533056355952E-003   5.6273721694367812E-002
   3.2517091372935798E-002  -9.3223776576634443E-003   5.6362577715104251E-002
   3.3209576074394981E-002  -1.1316738723950268E-002   6.1114815984915916E-002
   3.1708962779397505E-002  -9.6124394456974654E-003   6.0598344670896614E-002
   3.0208349484400099E-002  -8.3559940561715278E-003   6.0233613870976324E-002
   2.8707736189402651E-002  -7.5474025553724502E-003   6.0020623585155128E-002
   2.7207122894405217E-002  -7.1866649433001834E-003   5.9959373813432658E-002
   2.7380180801295173E-002  -1.0283470606444967E-002   6.6428497740059989E-002
   2.6068940166864507E-002  -8.0116109938633551E-003   6.5341494964699043E-002
   2.4757699532433813E-002  -6.3822380600848660E-003   6.4481496996372456E-002
   2.3446458898003120E-002  -5.3953518051095273E-003   6.3848503835080533E-002
   2.2135218263572426E-002  -5.0509522289370890E-003   6.3442515480823192E-002
   4.3851219873090264E-002  -1.3593803086389855E-002   4.8828022225633205E-002
   4.2426248605342359E-002  -1.3105148761648949E-002   4.8287823166986016E-002
   4.1001277337594441E-002  -1.2594733708471889E-002   4.8141359394555217E-002
   3.9576306069846530E-002  -1.2062557926858820E-002   4.8388630908340960E-002
   3.8151334802098646E-002  -1.1508621416809639E-002   4.9029637708342955E-002
   3.8065123699164122E-002  -1.1458090372026580E-002   5.2652127185837616E-002
   3.6977306905727814E-002  -1.1084470273174385E-002   5.2313792096468803E-002
   3.5889490112291492E-002  -1.0691849035787508E-002   5.2256030669506806E-002
   3.4801673318855128E-002  -1.0280226659866066E-002   5.2478842904951410E-002
   3.3713856525418820E-002  -9.8496031454100019E-003   5.2982228802802844E-002
   3.2517091372935798E-002  -9.3223776576634443E-003   5.6362577715104251E-002
   3.1653267430001381E-002  -9.0637917846999733E-003   5.6223347005112244E-002
   3.0789443487067001E-002  -8.7889643631033493E-003   5.6251528333717396E-002
   2.9925619544132573E-002  -8.4978953928734231E-003   5.6447121700919735E-002
   2.9061795601198204E-002  -8.1905848740103648E-003   5.6810127106718969E-002
   2.7207122894405217E-002  -7.1866649433001834E-003   5.9959373813432658E-002
   2.6454130178163102E-002  -7.0431132962255408E-003   6.0016487892916096E-002
   2.5701137461920976E-002  -6.8860796904191071E-003   6.0127852387187181E-002
   2.4948144745678833E-002  -6.7155641258807800E-003   6.0293467296245636E-002
   2.4195152029436708E-002  -6.5315666026108665E-003   6.0513332620091467E-002
   2.2135218263572426E-002  -5.0509522289370890E-003   6.3442515480823192E-002
   2.1379895150212935E-002  -5.0224348077509695E-003   6.3693214759880601E-002
   2.0624572036853424E-002  -4.9831950177348094E-003   6.3885002829915966E-002
   1.9869248923493923E-002  -4.9332328588881091E-003   6.4017879690929119E-002
   1.9113925810134422E-002  -4.8725483312111462E-003   6.4091845342920062E-002
   3.8151334802098646E-002  -1.1508621416809639E-002   4.9029637708342955E-002
   3.6353358144804310E-002  -1.0937892906420332E-002   4.8949376662301869E-002
   3.4555381487510001E-002  -1.0355341123787151E-002   4.8953278633626668E-002
   3.2757404830215692E-002  -9.7609660689098980E-003   4.9041343622317449E-002
   3.0959428172921383E-002  -9.1547677417884166E-003   4.9213571628373975E-002
   3.3713856525418820E-002  -9.8496031454100019E-003   5.2982228802802844E-002
   3.2029564271181171E-002  -9.3988657816463927E-003   5.2733431411073922E-002
   3.0345272016943460E-002  -8.9269018578023163E-003   5.2627839808092325E-002
   2.8660979762705787E-002  -8.4337113738783831E-003   5.2665453993858219E-002
   2.6976687508468100E-002  -7.9192943298738716E-003   5.2846273968371216E-002
   2.9061795601198204E-002  -8.1905848740103648E-003   5.6810127106718969E-002
   2.7550230521398669E-002  -7.8598386568724532E-003   5.6402196657138443E-002
   2.6038665441599093E-002  -7.4984625918179323E-003   5.6196514767686646E-002
   2.4527100361799531E-002  -7.1064566788468699E-003   5.6193081438363754E-002
   2.3015535282000010E-002  -6.6838209179593544E-003   5.6391896669169703E-002
   2.4195152029436708E-002  -6.5315666026108665E-003   6.0513332620091467E-002
   2.2915356895456821E-002  -6.3208115320985137E-003   5.9955672400495374E-002
   2.1635561761476924E-002  -6.0700233258334339E-003   5.9659303512409646E-002
   2.0355766627497034E-002  -5.7792019838155224E-003   5.9624225955834408E-002
   1.9075971493517113E-002  -5.4483475060448233E-003   5.9850439730769478E-002
   1.9113925810134422E-002  -4.8725483312111462E-003   6.4091845342920062E-002
   1.8124943393355672E-002  -4.7817844073245741E-003   6.3393858641144774E-002
   1.7135960976576929E-002  -4.6415840598488384E-003   6.3016206042261463E-002
   1.6146978559798169E-002  -4.4519472887839286E-003   6.2958887546270034E-002
   1.5157996143019409E-002  -4.2128740941302922E-003   6.3221903153170445E-002
   3.0959428172921383E-002  -9.1547677417884166E-003   4.9213571628373975E-002
   2.9308182895920382E-002  -8.5442876220120367E-003   4.8882977591384658E-002
   2.7656937618919381E-002  -7.9370671891693251E-003   4.8761686170912560E-002
   2.6005692341918393E-002  -7.3331064432608263E-003   4.8849697366957559E-002
   2.4354447064917378E-002  -6.7324053842860998E-003   4.9147011179519806E-002
   2.6976687508468100E-002  -7.9192943298738716E-003   5.2846273968371216E-002
   2.5534180502455386E-002  -7.3952819475653075E-003   5.2534056238635191E-002
   2.4091673496442617E-002  -6.8733054487285367E-003   5.2430012434358492E-002
   2.2649166490429896E-002  -6.3533648333639024E-003   5.2534142555541410E-002
   2.1206659484417134E-002  -5.8354601014710683E-003   5.2846446602183406E-002
   2.3015535282000010E-002  -6.6838209179593544E-003   5.6391896669169703E-002
   2.1780637855917669E-002  -6.2462762731184396E-003   5.6099279050149067E-002
   2.0545740429835313E-002  -5.8095437082877413E-003   5.6013706665529690E-002
   1.9310843003752985E-002  -5.3736232234669768E-003   5.6135179515311912E-002
   1.8075945577670637E-002  -4.9385148186561478E-003   5.6463697599495627E-002
   1.9075971493517113E-002  -5.4483475060448233E-003   5.9850439730769478E-002
   1.8047554956307305E-002  -5.0972705986717520E-003   5.9578646025925913E-002
   1.7019138419097454E-002  -4.7457819678467829E-003   5.9512768864426011E-002
   1.5990721881887632E-002  -4.3938816135698300E-003   5.9652808246269846E-002
   1.4962305344677794E-002  -4.0415695358413384E-003   5.9998764171456977E-002
   1.5157996143019409E-002  -4.2128740941302922E-003   6.3221903153170445E-002
   1.4334931803624218E-002  -3.9482649242248979E-003   6.2972157165966214E-002
   1.3511867464229027E-002  -3.6820202274059910E-003   6.2927199031047376E-002
   1.2688803124833850E-002  -3.4141400036730579E-003   6.3087028748414348E-002
   1.1865738785438645E-002  -3.1446242530263069E-003   6.3451646318067212E-002
   2.4354447064917378E-002  -6.7324053842860998E-003   4.9147011179519806E-002
   2.2550013199508834E-002  -6.1307534661005358E-003   4.8896744558914351E-002
   2.0745579334100331E-002  -5.5239401425600521E-003   4.8798193540814438E-002
   1.8941145468691807E-002  -4.9119654136644750E-003   4.8851358125219957E-002
   1.7136711603283311E-002  -4.2948292794138254E-003   4.9056238312131573E-002
   2.1206659484417134E-002  -5.8354601014710683E-003   5.2846446602183406E-002
   1.9566251221568506E-002  -5.3149319846680365E-003   5.2631785684709664E-002
   1.7925842958719865E-002  -4.7871212145720876E-003   5.2593460369850492E-002
   1.6285434695871230E-002  -4.2520277911832355E-003   5.2731470657605126E-002
   1.4645026433022568E-002  -3.7096517145017716E-003   5.3045816547974078E-002
   1.8075945577670637E-002  -4.9385148186561478E-003   5.6463697599495627E-002
   1.6624182917490474E-002  -4.4991105032351209E-003   5.6286763633091597E-002
   1.5172420257310294E-002  -4.0503022865838040E-003   5.6310785269410427E-002
   1.3720657597130143E-002  -3.5920901687018884E-003   5.6535762508452138E-002
   1.2268894936949971E-002  -3.1244741495894957E-003   5.6961695350216363E-002
   1.4962305344677794E-002  -4.0415695358413384E-003   5.9998764171456977E-002
   1.3723808287274698E-002  -3.6832890218021913E-003   5.9861678404060134E-002
   1.2485311229871617E-002  -3.3134833585957355E-003   5.9950168239494936E-002
   1.1246814172468539E-002  -2.9321525462204841E-003   6.0264233677760994E-002
   1.0008317115065434E-002  -2.5392965846773863E-003   6.0803874718858723E-002
   1.1865738785438645E-002  -3.1446242530263069E-003   6.3451646318067212E-002
   1.0865127330921251E-002  -2.8674675403697614E-003   6.3356529997615485E-002
   9.8645158764038288E-003  -2.5766644306075004E-003   6.3511609280103576E-002
   8.8639044218864205E-003  -2.2722149237392325E-003   6.3916884165531956E-002
   7.8632929673690122E-003  -1.9541190197650549E-003   6.4572354653900321E-002
   1.7136711603283311E-002  -4.2948292794138254E-003   4.9056238312131573E-002
   1.5181460065735453E-002  -3.7315455927362517E-003   4.8943128836308136E-002
   1.3226208528187663E-002  -3.2811282065592640E-003   4.9086603982165633E-002
   1.1270956990639867E-002  -2.9435771208831743E-003   4.9486663749704063E-002
   9.3157054530920713E-003  -2.7188923357081007E-003   5.0143308138923648E-002
   1.4645026433022568E-002  -3.7096517145017716E-003   5.3045816547974078E-002
   1.2945461926386792E-002  -3.2215823363010432E-003   5.2932981980192195E-002
   1.1245897419751016E-002  -2.8494090083551471E-003   5.3074936852553600E-002
   9.5463329131152061E-003  -2.5931317306633547E-003   5.3471681165057655E-002
   7.8467684064794652E-003  -2.4527505032265751E-003   5.4123214917705220E-002
   1.2268894936949971E-002  -3.1244741495894957E-003   5.6961695350216363E-002
   1.0823222279688377E-002  -2.7116190798661677E-003   5.6846105940722397E-002
   9.3775496224267792E-003  -2.4176898101509053E-003   5.6983510789833589E-002
   7.9318769651652004E-003  -2.2426863404438648E-003   5.7373909897550250E-002
   6.4862043079035869E-003  -2.1866086707451049E-003   5.8017303263871917E-002
   1.0008317115065434E-002  -2.5392965846773863E-003   6.0803874718858723E-002
   8.8147411256402318E-003  -2.2016558234309036E-003   6.0682500717898498E-002
   7.6211651362150497E-003  -1.9859706119467260E-003   6.0812325794005972E-002
   6.4275891467898173E-003  -1.8922409502241545E-003   6.1193349947180675E-002
   5.2340131573646378E-003  -1.9204668382633849E-003   6.1825573177423369E-002
   7.8632929673690122E-003  -1.9541190197650549E-003   6.4572354653900321E-002
   6.9200184642423668E-003  -1.6916925669961391E-003   6.4442166311720728E-002
   5.9767439611157352E-003  -1.5542514137424079E-003   6.4561381865070766E-002
   5.0334694579890968E-003  -1.5417955600044650E-003   6.4930001313950603E-002
   4.0901949548624583E-003  -1.6543250057821091E-003   6.5548024658359960E-002
   9.3157054530920713E-003  -2.7188923357081007E-003   5.0143308138923648E-002
   7.8861840778791659E-003  -2.8546682506132015E-003   5.0532163739973379E-002
   6.4566627026662882E-003  -3.5984992651777181E-003   5.1248468388650159E-002
   5.0271413274533966E-003  -4.9503853794020322E-003   5.2292222084954126E-002
   3.5976199522405605E-003  -6.9103265932859426E-003   5.3663424828885420E-002
   7.8467684064794652E-003  -2.4527505032265751E-003   5.4123214917705220E-002
   6.7196445959114837E-003  -2.6271987484755566E-003   5.4034482986421384E-002
   5.5925207853435438E-003  -3.3154098888406036E-003   5.4223097136799958E-002
   4.4653969747756039E-003  -4.5173839243226044E-003   5.4689057368841387E-002
   3.3382731642076224E-003  -6.2331208549211148E-003   5.5432363682545449E-002
   6.4862043079035869E-003  -2.1866086707451049E-003   5.8017303263871917E-002
   5.6113750960160441E-003  -2.3997292463371345E-003   5.7545276004797169E-002
   4.7365458841284874E-003  -3.0323205125032809E-003   5.7300491861420486E-002
   3.8617166722409481E-003  -4.0843824692430690E-003   5.7282950833742179E-002
   2.9868874603533879E-003  -5.5559151165568421E-003   5.7492652921761644E-002
   5.2340131573646378E-003  -1.9204668382633849E-003   6.1825573177423369E-002
   4.5613755781928680E-003  -2.1722597441993230E-003   6.1064542795100887E-002
   3.8887379990211052E-003  -2.7492311361660624E-003   6.0480652562511894E-002
   3.2161004198493518E-003  -3.6513810141636984E-003   6.0073902479656251E-002
   2.5434628406775725E-003  -4.8787093781925139E-003   5.9844292546534547E-002
   4.0901949548624583E-003  -1.6543250057821091E-003   6.5548024658359960E-002
   3.5696460424419485E-003  -1.9447902420611229E-003   6.4592283357332692E-002
   3.0490971300214248E-003  -2.4661417598288438E-003   6.3763579240073920E-002
   2.5285482176009011E-003  -3.2183795590841613E-003   6.3061912306584367E-002
   2.0079993051803913E-003  -4.2015036398279637E-003   6.2487282556863422E-002
   3.5976199522405605E-003  -6.9103265932859426E-003   5.3663424828885420E-002
   4.1459962591591237E-003  -9.4932164368686234E-003   5.1961404039911785E-002
   4.6943725660776869E-003  -1.2713948440190803E-002   5.0114736843083540E-002
   5.2427488729962363E-003  -1.6572522603251705E-002   4.8123423238401852E-002
   5.7911251799148689E-003  -2.1068938926051661E-002   4.5987463225866332E-002
   3.3382731642076224E-003  -6.2331208549211148E-003   5.5432363682545449E-002
   3.7593740165939304E-003  -8.4935868059084485E-003   5.3048906278372221E-002
   4.1804748689801413E-003  -1.1329747902556919E-002   5.0555544372987704E-002
   4.6015757213663869E-003  -1.4741604144865528E-002   4.7952277966392620E-002
   5.0226765737526602E-003  -1.8729155532835051E-002   4.5239107058587802E-002
   2.9868874603533879E-003  -5.5559151165568421E-003   5.7492652921761644E-002
   3.3154547648505950E-003  -7.4939571749484957E-003   5.4489905916466630E-002
   3.6440220693478576E-003  -9.9455473649229242E-003   5.1411996316604758E-002
   3.9725893738451583E-003  -1.2910685686479295E-002   4.8258924122175223E-002
   4.3011566783423272E-003  -1.6389372139618663E-002   4.5030689333178886E-002
   2.5434628406775725E-003  -4.8787093781925139E-003   5.9844292546534547E-002
   2.8142385039292561E-003  -6.4943275439887649E-003   5.6284402954196566E-002
   3.0850141671808703E-003  -8.5613468272890958E-003   5.2684092673935243E-002
   3.3557898304325045E-003  -1.1079767228093645E-002   4.9043361705748911E-002
   3.6265654936841960E-003  -1.4049588746402053E-002   4.5362210049640000E-002
   2.0079993051803913E-003  -4.2015036398279637E-003   6.2487282556863422E-002
   2.2557252338297612E-003  -5.4946979130283680E-003   5.8432397391560809E-002
   2.5034511624791450E-003  -7.1771462896551563E-003   5.4371833444978090E-002
   2.7511770911285219E-003  -9.2488487697069688E-003   5.0305590717114212E-002
   2.9989030197778987E-003  -1.1709805353185665E-002   4.6233669207969896E-002
   2.7380180801295173E-002  -1.0283470606444967E-002   6.6428497740059989E-002
   2.6068940166864507E-002  -8.0116109938633551E-003   6.5341494964699043E-002
   2.4757699532433813E-002  -6.3822380600848660E-003   6.4481496996372456E-002
   2.3446458898003120E-002  -5.3953518051095273E-003   6.3848503835080533E-002
   2.2135218263572426E-002  -5.0509522289370890E-003   6.3442515480823192E-002
   2.1112607023293900E-002  -3.8526987945087243E-003   7.3613843554176273E-002
   2.0047482102081418E-002  -3.4782431738888953E-003   7.1342173649925567E-002
   1.8982357180868957E-002  -3.2421295730958311E-003   6.9335730365076897E-002
   1.7917232259656499E-002  -3.1443579921294207E-003   6.7594513699630071E-002
   1.6852107338444035E-002  -3.1849284309897752E-003   6.6118523653585171E-002
   1.4031669559534256E-002   2.5780730174274902E-003   7.8649713046842457E-002
   1.3250882163907365E-002   1.0551246460854258E-003   7.5697520672678542E-002
   1.2470094768280468E-002  -1.0202108610690708E-004   7.3048776730284010E-002
   1.1689307372653574E-002  -8.9336417914953614E-004   7.0703481219658568E-002
   1.0908519977026677E-002  -1.3189046330425447E-003   6.8661634140802480E-002
   6.1373684100162855E-003   9.0088448293637047E-003   8.1536106218058416E-002
   5.6791403523422865E-003   5.5884924660598301E-003   7.8407536032957997E-002
   5.2209122946683152E-003   3.0380874008821279E-003   7.5620636091993806E-002
   4.7626842369943231E-003   1.3576296338303762E-003   7.3175406395166412E-002
   4.3044561793203389E-003   5.4711916490469970E-004   7.1071846942475633E-002
  -2.5702964252600630E-003   1.5439616641299947E-002   8.2273023067824691E-002
  -2.6677433326137839E-003   1.0121860286034234E-002   7.9472219730763571E-002
  -2.7651902399675084E-003   6.1781958878709964E-003   7.7051308450206524E-002
  -2.8626371473212345E-003   3.6086234468103578E-003   7.5010289226153298E-002
  -2.9600840546749572E-003   2.4131429628519441E-003   7.3349162058604089E-002
   2.2135218263572426E-002  -5.0509522289370890E-003   6.3442515480823192E-002
   2.1379895150212935E-002  -5.0224348077509695E-003   6.3693214759880601E-002
   2.0624572036853424E-002  -4.9831950177348094E-003   6.3885002829915966E-002
   1.9869248923493923E-002  -4.9332328588881091E-003   6.4017879690929119E-002
   1.9113925810134422E-002  -4.8725483312111462E-003   6.4091845342920062E-002
   1.6852107338444035E-002  -3.1849284309897752E-003   6.6118523653585171E-002
   1.6125553833131544E-002  -3.2756432323436113E-003   6.5820815145257811E-002
   1.5399000327819056E-002  -3.3283047388578402E-003   6.5639557062046813E-002
   1.4672446822506570E-002  -3.3429129505323854E-003   6.5574749403951915E-002
   1.3945893317194084E-002  -3.3194678673674760E-003   6.5626392170973380E-002
   1.0908519977026677E-002  -1.3189046330425447E-003   6.8661634140802480E-002
   1.0386097713899631E-002  -1.5288516569361560E-003   6.7842848771099862E-002
   9.8636754507725726E-003  -1.6734144599809264E-003   6.7315875460651695E-002
   9.3412531876455283E-003  -1.7525930421768282E-003   6.7080714209458325E-002
   8.8188309245184650E-003  -1.7663874035236671E-003   6.7137365017519476E-002
   4.3044561793203389E-003   5.4711916490469970E-004   7.1071846942475633E-002
   4.1615267925171635E-003   2.1793991847125077E-004   6.9759315637406616E-002
   4.0185974057139733E-003  -1.8524181104095927E-005   6.8913958025730804E-002
   3.8756680189107892E-003  -1.6227313382113223E-004   6.8535774107447989E-002
   3.7327386321076008E-003  -2.1330693967998304E-004   6.8624763882558296E-002
  -2.9600840546749572E-003   2.4131429628519441E-003   7.3349162058604089E-002
  -2.5481589310158426E-003   1.9647314938786853E-003   7.1570215744178267E-002
  -2.1362338073567366E-003   1.6363660977729427E-003   7.0433804757283947E-002
  -1.7243086836976331E-003   1.4280467745345048E-003   6.9939929097921141E-002
  -1.3123835600385159E-003   1.3397735241638675E-003   7.0088588766089754E-002
   1.9113925810134422E-002  -4.8725483312111462E-003   6.4091845342920062E-002
   1.8124943393355672E-002  -4.7817844073245741E-003   6.3393858641144774E-002
   1.7135960976576929E-002  -4.6415840598488384E-003   6.3016206042261463E-002
   1.6146978559798169E-002  -4.4519472887839286E-003   6.2958887546270034E-002
   1.5157996143019409E-002  -4.2128740941302922E-003   6.3221903153170445E-002
   1.3945893317194084E-002  -3.3194678673674760E-003   6.5626392170973380E-002
   1.3266462540137858E-002  -3.2615451304280618E-003   6.4998762324442710E-002
   1.2587031763081628E-002  -3.1727203807794674E-003   6.4669901654465067E-002
   1.1907600986025403E-002  -3.0529936184217170E-003   6.4639810161040645E-002
   1.1228170208969185E-002  -2.9023648433547100E-003   6.4908487844169305E-002
   8.8188309245184650E-003  -1.7663874035236671E-003   6.7137365017519476E-002
   8.4273868608460215E-003  -1.7413058535314940E-003   6.6561557615353331E-002
   8.0359427971735797E-003  -1.7038567017100339E-003   6.6262954463401552E-002
   7.6444987335011370E-003  -1.6540399480592816E-003   6.6241555561664250E-002
   7.2530546698286874E-003  -1.5918555925792388E-003   6.6497360910141329E-002
   3.7327386321076008E-003  -2.1330693967998304E-004   6.8624763882558296E-002
   3.6077163554801969E-003  -2.2106657663492624E-004   6.8082244513876747E-002
   3.4826940788527743E-003  -2.3499302264046520E-004   6.7795364469070987E-002
   3.3576718022253621E-003  -2.5508627769690265E-004   6.7764123748140948E-002
   3.2326495255979408E-003  -2.8134634180387863E-004   6.7988522351086420E-002
  -1.3123835600385159E-003   1.3397735241638675E-003   7.0088588766089754E-002
  -1.1925489759596550E-003   1.2991727002615305E-003   6.9560823020013263E-002
  -1.0727143918807941E-003   1.2338706564288260E-003   6.9267131671473470E-002
  -9.5287980780193841E-004   1.1438673926654069E-003   6.9207514720470542E-002
  -8.3304522372307233E-004   1.0291629089717591E-003   6.9381972167004757E-002
   1.5157996143019409E-002  -4.2128740941302922E-003   6.3221903153170445E-002
   1.4334931803624218E-002  -3.9482649242248979E-003   6.2972157165966214E-002
   1.3511867464229027E-002  -3.6820202274059910E-003   6.2927199031047376E-002
   1.2688803124833850E-002  -3.4141400036730579E-003   6.3087028748414348E-002
   1.1865738785438645E-002  -3.1446242530263069E-003   6.3451646318067212E-002
   1.1228170208969185E-002  -2.9023648433547100E-003   6.4908487844169305E-002
   1.0607729158560460E-002  -2.7345032790937751E-003   6.4613887234871631E-002
   9.9872881081517623E-003  -2.5630781491542548E-003   6.4519745351261260E-002
   9.3668470577430510E-003  -2.3880894535358611E-003   6.4626062193338288E-002
   8.7464060073343536E-003  -2.2095371922386531E-003   6.4932837761102258E-002
   7.2530546698286874E-003  -1.5918555925792388E-003   6.6497360910141329E-002
   6.8309077818080044E-003  -1.5207416339627911E-003   6.6159833717515312E-002
   6.4087608937873387E-003  -1.4441360709025741E-003   6.6018436123978258E-002
   5.9866140057666661E-003  -1.3620389033986643E-003   6.6073168129529930E-002
   5.5644671177459762E-003  -1.2744501314512768E-003   6.6324029734170536E-002
   3.2326495255979408E-003  -2.8134634180387863E-004   6.7988522351086420E-002
   3.0044676733668417E-003  -3.0697998883168209E-004   6.7609996613897216E-002
   2.7762858211357504E-003  -3.2519399265092119E-004   6.7423271349198177E-002
   2.5481039689046522E-003  -3.3598835326163409E-004   6.7428346556989663E-002
   2.3199221166735531E-003  -3.3936307066381732E-004   6.7625222237271576E-002
  -8.3304522372307233E-004   1.0291629089717591E-003   6.9381972167004757E-002
  -8.7159116676302842E-004   9.0678165629942686E-004   6.8964375924016996E-002
  -9.1013710980299145E-004   7.9374808560080112E-004   6.8734251026921184E-002
  -9.4868305284295101E-004   6.9006219687560780E-004   6.8691597475717334E-002
  -9.8722899588291058E-004   5.9572399012375321E-004   6.8836415270405293E-002
   1.1865738785438645E-002  -3.1446242530263069E-003   6.3451646318067212E-002
   1.0865127330921251E-002  -2.8674675403697614E-003   6.3356529997615485E-002
   9.8645158764038288E-003  -2.5766644306075004E-003   6.3511609280103576E-002
   8.8639044218864205E-003  -2.2722149237392325E-003   6.3916884165531956E-002
   7.8632929673690122E-003  -1.9541190197650549E-003   6.4572354653900321E-002
   8.7464060073343536E-003  -2.2095371922386531E-003   6.4932837761102258E-002
   8.0054161351803821E-003  -2.0230418958360197E-003   6.4797525759409558E-002
   7.2644262630264245E-003  -1.8242240949001426E-003   6.4931261319503664E-002
   6.5234363908724391E-003  -1.6130837894309837E-003   6.5334044441384756E-002
   5.7824465187184954E-003  -1.3896209794288517E-003   6.6005875125052682E-002
   5.5644671177459762E-003  -1.2744501314512768E-003   6.6324029734170536E-002
   5.1019507868024193E-003  -1.1786162513020282E-003   6.6147198158663725E-002
   4.6394344558588624E-003  -1.0717837591924517E-003   6.6258266103790792E-002
   4.1769181249153055E-003  -9.5395265512262378E-004   6.6657233569551791E-002
   3.7144017939717486E-003  -8.2512293909270396E-004   6.7344100555946612E-002
   2.3199221166735531E-003  -3.3936307066381732E-004   6.7625222237271576E-002
   2.1547312857873669E-003  -3.3419060676810608E-004   6.7405547195377807E-002
   1.9895404549011807E-003  -3.1934342348476086E-004   6.7492623632965015E-002
   1.8243496240149901E-003  -2.9482152081437493E-004   6.7886451550033158E-002
   1.6591587931288083E-003  -2.6062489875647299E-004   6.8587030946582028E-002
  -9.8722899588291058E-004   5.9572399012375321E-004   6.8836415270405293E-002
  -8.3624236786477429E-004   5.1023503776564949E-004   6.8572572869552206E-002
  -6.8525573984664495E-004   4.3309691222251367E-004   6.8634333907026557E-002
  -5.3426911182851387E-004   3.6430961349385310E-004   6.9021698382829011E-002
  -3.8328248381037933E-004   3.0387314157975798E-004   6.9734666296959014E-002
   7.8632929673690122E-003  -1.9541190197650549E-003   6.4572354653900321E-002
   6.9200184642423668E-003  -1.6916925669961391E-003   6.4442166311720728E-002
   5.9767439611157352E-003  -1.5542514137424079E-003   6.4561381865070766E-002
   5.0334694579890968E-003  -1.5417955600044650E-003   6.4930001313950603E-002
   4.0901949548624583E-003  -1.6543250057821091E-003   6.5548024658359960E-002
   5.7824465187184954E-003  -1.3896209794288517E-003   6.6005875125052682E-002
   5.0889481177970528E-003  -1.2058135661504044E-003   6.5780551414704735E-002
   4.3954497168755824E-003  -1.1136394508511338E-003   6.5805376013237854E-002
   3.7019513159541328E-003  -1.1130986335314147E-003   6.6080348920651386E-002
   3.0084529150326694E-003  -1.2041911141912331E-003   6.6605470136945899E-002
   3.7144017939717486E-003  -8.2512293909270396E-004   6.7344100555946612E-002
   3.2714239086065050E-003  -7.1993456530453082E-004   6.7056993478966681E-002
   2.8284460232412753E-003  -6.7302748795965150E-004   6.7020779124218374E-002
   2.3854681378760335E-003  -6.8440170705847889E-004   6.7235457491702066E-002
   1.9424902525108020E-003  -7.5405722260046826E-004   6.7701028581417133E-002
   1.6591587931288083E-003  -2.6062489875647299E-004   6.8587030946582028E-002
   1.4674458366708120E-003  -2.3405556445867115E-004   6.8271492504505898E-002
   1.2757328802128157E-003  -2.3241552506827329E-004   6.8207591198012590E-002
   1.0840199237548260E-003  -2.5570478058520828E-004   6.8395327027101965E-002
   8.9230696729682320E-004  -3.0392333100970337E-004   6.8834699991774426E-002
  -3.8328248381037933E-004   3.0387314157975798E-004   6.9734666296959014E-002
  -3.2298609801009043E-004   2.5182343638718852E-004   6.9424048491322887E-002
  -2.6268971220979806E-004   2.0819643782324371E-004   6.9365812234620461E-002
  -2.0239332640950916E-004   1.7299214588776396E-004   6.9559957526851929E-002
  -1.4209694060921679E-004   1.4621056058106152E-004   7.0006484368016819E-002
   4.0901949548624583E-003  -1.6543250057821091E-003   6.5548024658359960E-002
   3.5696460424419485E-003  -1.9447902420611229E-003   6.4592283357332692E-002
   3.0490971300214248E-003  -2.4661417598288438E-003   6.3763579240073920E-002
   2.5285482176009011E-003  -3.2183795590841613E-003   6.3061912306584367E-002
   2.0079993051803913E-003  -4.2015036398279637E-003   6.2487282556863422E-002
   3.0084529150326694E-003  -1.2041911141912331E-003   6.6605470136945899E-002
   2.6170734530696210E-003  -1.4269342772318949E-003   6.5466363305779818E-002
   2.2256939911065379E-003  -1.8213455070547613E-003   6.4458558191759413E-002
   1.8343145291434687E-003  -2.3874248036595408E-003   6.3582054794884893E-002
   1.4429350671804064E-003  -3.1251721670465527E-003   6.2836853115156743E-002
   1.9424902525108020E-003  -7.5405722260046826E-004   6.7701028581417133E-002
   1.6845447743821934E-003  -9.0907831240241710E-004   6.6437774434818020E-002
   1.4265992962535848E-003  -1.1765492542805678E-003   6.5310086538742068E-002
   1.1686538181249831E-003  -1.5564700482346983E-003   6.4317964893189389E-002
   9.1070833999636752E-004  -2.0488406942650306E-003   6.3461409498159038E-002
   8.9230696729682320E-004  -3.0392333100970337E-004   6.8834699991774426E-002
   7.7206000637969948E-004  -3.9122234757284213E-004   6.7506516744448367E-002
   6.5181304546256362E-004  -5.3175300150631877E-004   6.6318164281022954E-002
   5.3156608454542689E-004  -7.2551529280974469E-004   6.5269642601497077E-002
   4.1131912362830404E-004  -9.7250922148345298E-004   6.4360951705871555E-002
  -1.4209694060921679E-004   1.4621056058106152E-004   7.0006484368016819E-002
  -1.2038085093786510E-004   1.2663361725634426E-004   6.8672590234670539E-002
  -9.8664761266520351E-005   1.1304325126770820E-004   6.7482791418601251E-002
  -7.6948671595173865E-005   1.0543946261504233E-004   6.6437087919808846E-002
  -5.5232581923823909E-005   1.0382225129801359E-004   6.5535479738293545E-002
   2.0079993051803913E-003  -4.2015036398279637E-003   6.2487282556863422E-002
   2.2557252338297612E-003  -5.4946979130283680E-003   5.8432397391560809E-002
   2.5034511624791450E-003  -7.1771462896551563E-003   5.4371833444978090E-002
   2.7511770911285219E-003  -9.2488487697069688E-003   5.0305590717114212E-002
   2.9989030197778987E-003  -1.1709805353185665E-002   4.6233669207969896E-002
   1.4429350671804064E-003  -3.1251721670465527E-003   6.2836853115156743E-002
   1.6711652851837122E-003  -4.0938052096384236E-003   5.8461309833777508E-002
   1.8993955031870249E-003  -5.3525415438585855E-003   5.4052453912387111E-002
   2.1276257211903064E-003  -6.9013811697059904E-003   4.9610285350984717E-002
   2.3558559391936296E-003  -8.7403240871819499E-003   4.5134804149571162E-002
   9.1070833999636752E-004  -2.0488406942650306E-003   6.3461409498159038E-002
   1.0918089886226313E-003  -2.6929125062482573E-003   5.8864358912501635E-002
   1.2729096372488917E-003  -3.5279367980619036E-003   5.4206361828101818E-002
   1.4540102858751156E-003  -4.5539135697050676E-003   4.9487418244959211E-002
   1.6351109345014020E-003  -5.7708428211784568E-003   4.4707528163074217E-002
   4.1131912362830404E-004  -9.7250922148345298E-004   6.4360951705871555E-002
   5.1765634414649344E-004  -1.2920198028584240E-003   5.9641544627733530E-002
   6.2399356466468891E-004  -1.7033320522649442E-003   5.4833557192121615E-002
   7.3033078518288741E-004  -2.2064459697040059E-003   4.9936989399036492E-002
   8.3666800570107377E-004  -2.8013615551748527E-003   4.4951841248477648E-002
  -5.5232581923823909E-005   1.0382225129801359E-004   6.5535479738293545E-002
  -5.1292648244674610E-005   1.0887290053196441E-004   6.0792866979472837E-002
  -4.7352714565525311E-005   1.2127269353154335E-004   5.5934040004447516E-002
  -4.3412780886376012E-005   1.4102163029727083E-004   5.0958998813217721E-002
  -3.9472847207219774E-005   1.6811971082875132E-004   4.5867743405783479E-002
  -2.5702964252600630E-003   1.5439616641299947E-002   8.2273023067824691E-002
  -2.6677433326137839E-003   1.0121860286034234E-002   7.9472219730763571E-002
  -2.7651902399675084E-003   6.1781958878709964E-003   7.7051308450206524E-002
  -2.8626371473212345E-003   3.6086234468103578E-003   7.5010289226153298E-002
  -2.9600840546749572E-003   2.4131429628519441E-003   7.3349162058604089E-002
  -1.0803557567121827E-002   7.1942703461691515E-003   6.3115851486313768E-002
  -1.0559406451975822E-002   4.7809136724646373E-003   6.3061401852604254E-002
  -1.0315255336829799E-002   3.0384183711939933E-003   6.3310256207390198E-002
  -1.0071104221683787E-002   1.9667844423574520E-003   6.3862414550671778E-002
  -9.8269531065377710E-003   1.5660118859547323E-003   6.4717876882448816E-002
  -1.7274647636396145E-002  -1.0510759489616162E-003   4.7214694878698116E-002
  -1.6765486566758761E-002  -5.6003294110507085E-004   4.9203368363671576E-002
  -1.6256325497121388E-002  -1.0135914548300984E-004   5.1418757769132253E-002
  -1.5747164427484011E-002   3.2494543790457381E-004   5.3860863095080147E-002
  -1.5238003357846641E-002   7.1888080905754825E-004   5.6529684341515063E-002
  -2.1983566633082950E-002  -9.2964222440924116E-003   3.4569553244977992E-002
  -2.1285983676962602E-002  -5.9009795546746957E-003   3.7898119263965982E-002
  -2.0588400720842264E-002  -3.2411366621600407E-003   4.1376813135432754E-002
  -1.9890817764721912E-002  -1.3168935665483737E-003   4.5005634859378293E-002
  -1.9193234808601571E-002  -1.2825026783973292E-004   4.8784584435802691E-002
  -2.4930314557182309E-002  -1.7541768539223179E-002   2.5180426585153182E-002
  -2.4120897782587376E-002  -1.1241926168244376E-002   2.9145654553487277E-002
  -2.3311481007992414E-002  -6.3809141788371132E-003   3.3184422306291567E-002
  -2.2502064233397474E-002  -2.9587325710012206E-003   3.7296729843566426E-002
  -2.1692647458802540E-002  -9.7538134473690308E-004   4.1482577165311618E-002
  -2.9600840546749572E-003   2.4131429628519441E-003   7.3349162058604089E-002
  -2.5481589310158426E-003   1.9647314938786853E-003   7.1570215744178267E-002
  -2.1362338073567366E-003   1.6363660977729427E-003   7.0433804757283947E-002
  -1.7243086836976331E-003   1.4280467745345048E-003   6.9939929097921141E-002
  -1.3123835600385159E-003   1.3397735241638675E-003   7.0088588766089754E-002
  -9.8269531065377710E-003   1.5660118859547323E-003   6.4717876882448816E-002
  -8.9103555887796206E-003   1.5101727116529490E-003   6.4326412167462169E-002
  -7.9937580710214631E-003   1.4733389291188698E-003   6.4301756913141925E-002
  -7.0771605532633152E-003   1.4555105383523941E-003   6.4643911119488473E-002
  -6.1605630355051552E-003   1.4566875393537404E-003   6.5352874786501425E-002
  -1.5238003357846641E-002   7.1888080905754825E-004   5.6529684341515063E-002
  -1.4092459312854373E-002   1.0556139294271710E-003   5.7424660544867612E-002
  -1.2946915267862104E-002   1.3103117604648037E-003   5.8410720342021862E-002
  -1.1801371222869830E-002   1.4829743021702296E-003   5.9487863732977694E-002
  -1.0655827177877565E-002   1.5736015545436965E-003   6.0656090717735173E-002
  -1.9193234808601571E-002  -1.2825026783973292E-004   4.8784584435802691E-002
  -1.8094470103240109E-002   6.0105514720149716E-004   5.0864960876394680E-002
  -1.6995705397878653E-002   1.1472845918107065E-003   5.2760695043923389E-002
  -1.5896940692517195E-002   1.5104380659881197E-003   5.4471786938388847E-002
  -1.4798175987155731E-002   1.6905155697336111E-003   5.5998236559790929E-002
  -2.1692647458802540E-002  -9.7538134473690308E-004   4.1482577165311618E-002
  -2.0916387959936819E-002   1.4649636497562901E-004   4.4647313162043401E-002
  -2.0140128461071116E-002   9.8425742315667863E-004   4.7351681018846847E-002
  -1.9363868962205391E-002   1.5379018298059023E-003   4.9595680735722097E-002
  -1.8587609463339684E-002   1.8074295849235811E-003   5.1379312312669179E-002
  -1.3123835600385159E-003   1.3397735241638675E-003   7.0088588766089754E-002
  -1.1925489759596550E-003   1.2991727002615305E-003   6.9560823020013263E-002
  -1.0727143918807941E-003   1.2338706564288260E-003   6.9267131671473470E-002
  -9.5287980780193841E-004   1.1438673926654069E-003   6.9207514720470542E-002
  -8.3304522372307233E-004   1.0291629089717591E-003   6.9381972167004757E-002
  -6.1605630355051552E-003   1.4566875393537404E-003   6.5352874786501425E-002
  -5.8172749430782031E-003   1.4521942409801425E-003   6.5139879879106216E-002
  -5.4739868506512440E-003   1.4173549520894030E-003   6.5139717590870311E-002
  -5.1306987582242876E-003   1.3521696726810674E-003   6.5352387921793917E-002
  -4.7874106657973398E-003   1.2566384027554722E-003   6.5777890871876465E-002
  -1.0655827177877565E-002   1.5736015545436965E-003   6.0656090717735173E-002
  -1.0110327355480137E-002   1.6052157816988932E-003   6.0752221878434612E-002
  -9.5648275330827027E-003   1.6008392477499245E-003   6.1039943879915806E-002
  -9.0193277106852682E-003   1.5604719526967278E-003   6.1519256722178506E-002
  -8.4738278882878406E-003   1.4841138965393241E-003   6.2190160405223002E-002
  -1.4798175987155731E-002   1.6905155697336111E-003   5.5998236559790929E-002
  -1.4071706213165447E-002   1.7582373224175191E-003   5.6397849017998339E-002
  -1.3345236439175168E-002   1.7843235434104182E-003   5.6967810538609699E-002
  -1.2618766665184872E-002   1.7687742327124438E-003   5.7708121121625128E-002
  -1.1892296891194587E-002   1.7115893903229956E-003   5.8618780767044534E-002
  -1.8587609463339684E-002   1.8074295849235811E-003   5.1379312312669179E-002
  -1.7701411516134170E-002   1.9112588631362837E-003   5.2076761297797369E-002
  -1.6815213568928629E-002   1.9678078390710507E-003   5.2923317566951955E-002
  -1.5929015621723112E-002   1.9770765127281389E-003   5.3918981120133019E-002
  -1.5042817674517574E-002   1.9390648841069447E-003   5.5063751957340534E-002
  -8.3304522372307233E-004   1.0291629089717591E-003   6.9381972167004757E-002
  -8.7159116676302842E-004   9.0678165629942686E-004   6.8964375924016996E-002
  -9.1013710980299145E-004   7.9374808560080112E-004   6.8734251026921184E-002
  -9.4868305284295101E-004   6.9006219687560780E-004   6.8691597475717334E-002
  -9.8722899588291058E-004   5.9572399012375321E-004   6.8836415270405293E-002
  -4.7874106657973398E-003   1.2566384027554722E-003   6.5777890871876465E-002
  -4.6304738171536984E-003   1.1578665290992995E-003   6.5652860526779017E-002
  -4.4735369685100553E-003   1.0829594384994257E-003   6.5731324419157050E-002
  -4.3166001198664218E-003   1.0319171309557881E-003   6.6013282549010094E-002
  -4.1596632712227778E-003   1.0047396064685188E-003   6.6498734916338564E-002
  -8.4738278882878406E-003   1.4841138965393241E-003   6.2190160405223002E-002
  -8.1053853563772399E-003   1.4089514018991722E-003   6.2372213059098763E-002
  -7.7369428244666253E-003   1.3721707913982653E-003   6.2773782842033055E-002
  -7.3685002925560246E-003   1.3737720650361333E-003   6.3394869754026098E-002
  -7.0000577606454239E-003   1.4137552228130623E-003   6.4235473795077686E-002
  -1.1892296891194587E-002   1.7115893903229956E-003   5.8618780767044534E-002
  -1.1296325784433649E-002   1.6600362746992114E-003   5.9122433520975883E-002
  -1.0700354677672707E-002   1.6613821442969974E-003   5.9861626295549288E-002
  -1.0104383570911766E-002   1.7156269991164515E-003   6.0836359090764874E-002
  -9.5084124641508193E-003   1.8227708391577169E-003   6.2046631906622247E-002
  -1.5042817674517574E-002   1.9390648841069447E-003   5.5063751957340534E-002
  -1.4203295101322934E-002   1.9111211474990286E-003   5.5903521912410437E-002
  -1.3363772528128284E-002   1.9505934971958822E-003   5.6994854779705867E-002
  -1.2524249954933632E-002   2.0574819331968079E-003   5.8337750559226562E-002
  -1.1684727381738987E-002   2.2317864555024824E-003   5.9932209250972757E-002
  -9.8722899588291058E-004   5.9572399012375321E-004   6.8836415270405293E-002
  -8.3624236786477429E-004   5.1023503776564949E-004   6.8572572869552206E-002
  -6.8525573984664495E-004   4.3309691222251367E-004   6.8634333907026557E-002
  -5.3426911182851387E-004   3.6430961349385310E-004   6.9021698382829011E-002
  -3.8328248381037933E-004   3.0387314157975798E-004   6.9734666296959014E-002
  -4.1596632712227778E-003   1.0047396064685188E-003   6.6498734916338564E-002
  -3.7166393089225480E-003   9.7573770688830219E-004   6.6523784844143341E-002
  -3.2736153466223061E-003   9.1922227406721069E-004   6.6807306002184735E-002
  -2.8305913843220685E-003   8.3519330800445324E-004   6.7349298390462456E-002
  -2.3875674220218343E-003   7.2365080870029352E-004   6.8149762008976600E-002
  -7.0000577606454239E-003   1.4137552228130623E-003   6.4235473795077686E-002
  -6.3321286721544651E-003   1.4412403760107606E-003   6.4513551691484761E-002
  -5.6641995836635012E-003   1.4053476359114497E-003   6.4982968610036870E-002
  -4.9962704951725442E-003   1.3060770025145503E-003   6.5643724550734028E-002
  -4.3283414066815785E-003   1.1434284758205515E-003   6.6495819513575999E-002
  -9.5084124641508193E-003   1.8227708391577169E-003   6.2046631906622247E-002
  -8.6827104575605361E-003   1.9067430451333717E-003   6.2541873411575619E-002
  -7.8570084509702372E-003   1.8914729977555847E-003   6.3161321730582809E-002
  -7.0313064443799601E-003   1.7769606970250099E-003   6.3904976863643562E-002
  -6.2056044377896552E-003   1.5632061429408373E-003   6.4772838810757905E-002
  -1.1684727381738987E-002   2.2317864555024824E-003   5.9932209250972757E-002
  -1.0768384665140754E-002   2.3722457142558162E-003   6.0608750004416678E-002
  -9.8520419485425212E-003   2.3775983596003025E-003   6.1342365363822760E-002
  -8.9356992319442816E-003   2.2478443915351157E-003   6.2133055329191084E-002
  -8.0193565153460558E-003   1.9829838100613451E-003   6.2980819900521734E-002
  -3.8328248381037933E-004   3.0387314157975798E-004   6.9734666296959014E-002
  -3.2298609801009043E-004   2.5182343638718852E-004   6.9424048491322887E-002
  -2.6268971220979806E-004   2.0819643782324371E-004   6.9365812234620461E-002
  -2.0239332640950916E-004   1.7299214588776396E-004   6.9559957526851929E-002
  -1.4209694060921679E-004   1.4621056058106152E-004   7.0006484368016819E-002
  -2.3875674220218343E-003   7.2365080870029352E-004   6.8149762008976600E-002
  -2.0818227041428210E-003   6.1825184609454187E-004   6.7919833596670309E-002
  -1.7760779862638215E-003   5.5265349012723064E-004   6.7928420299587788E-002
  -1.4703332683848134E-003   5.2685574079827657E-004   6.8175522117728871E-002
  -1.1645885505058087E-003   5.4085859810737436E-004   6.8661139051093667E-002
  -4.3283414066815785E-003   1.1434284758205515E-003   6.6495819513575999E-002
  -3.7910147904340391E-003   9.8468025580195073E-004   6.6377958394609610E-002
  -3.2536881741864997E-003   8.9711054243120369E-004   6.6484745957156768E-002
  -2.7163615579389499E-003   8.8071933570856367E-004   6.6816182201217239E-002
  -2.1790349416914070E-003   9.3550663563385372E-004   6.7372267126791174E-002
  -6.2056044377896552E-003   1.5632061429408373E-003   6.4772838810757905E-002
  -5.4505623568837508E-003   1.3511086655092208E-003   6.4798422885140886E-002
  -4.6955202759778316E-003   1.2415675947353502E-003   6.5034789207327193E-002
  -3.9404781950719194E-003   1.2345829306189635E-003   6.5481937777316826E-002
  -3.1854361141660076E-003   1.3301546731601943E-003   6.6139868595109744E-002
  -8.0193565153460558E-003   1.9829838100613451E-003   6.2980819900521734E-002
  -7.0604654034919431E-003   1.7175370752166019E-003   6.3181227068263790E-002
  -6.1015742916378339E-003   1.5860246470392747E-003   6.3578550050099047E-002
  -5.1426831797837264E-003   1.5884465255295022E-003   6.4172788846027451E-002
  -4.1837920679296120E-003   1.7248027106866459E-003   6.4963943456048834E-002
  -1.4209694060921679E-004   1.4621056058106152E-004   7.0006484368016819E-002
  -1.2038085093786510E-004   1.2663361725634426E-004   6.8672590234670539E-002
  -9.8664761266520351E-005   1.1304325126770820E-004   6.7482791418601251E-002
  -7.6948671595173865E-005   1.0543946261504233E-004   6.6437087919808846E-002
  -5.5232581923823909E-005   1.0382225129801359E-004   6.5535479738293545E-002
  -1.1645885505058087E-003   5.4085859810737436E-004   6.8661139051093667E-002
  -1.0031629644956380E-003   6.0523148689933803E-004   6.7364367332351627E-002
  -8.4173737848546731E-004   7.3054383201837103E-004   6.6202919289010204E-002
  -6.8031179247530008E-004   9.1679563346484805E-004   6.5176794921069134E-002
  -5.1888620646512590E-004   1.1639868912377560E-003   6.4285994228529320E-002
  -2.1790349416914070E-003   9.3550663563385372E-004   6.7372267126791174E-002
  -1.8866715012187474E-003   1.0838293565423041E-003   6.6167570701644557E-002
  -1.5943080607460887E-003   1.3480444127691449E-003   6.5089426310022486E-002
  -1.3019446202734235E-003   1.7281518043143207E-003   6.4137833951924572E-002
  -1.0095811798007566E-003   2.2241515311776650E-003   6.3312793627350900E-002
  -3.1854361141660076E-003   1.3301546731601943E-003   6.6139868595109744E-002
  -2.7709064611071751E-003   1.5624272261852284E-003   6.5082200342549912E-002
  -2.3563768080483707E-003   1.9655449935196967E-003   6.4142312481638056E-002
  -1.9418471549895494E-003   2.5395079751637378E-003   6.3320205012374273E-002
  -1.5273175019307342E-003   3.2843161711174906E-003   6.2615877934758396E-002
  -4.1837920679296120E-003   1.7248027106866459E-003   6.4963943456048834E-002
  -3.6558678441609704E-003   2.0410250958281528E-003   6.4108256255067109E-002
  -3.1279436203923115E-003   2.5830455742704705E-003   6.3361577803857094E-002
  -2.6000193966236596E-003   3.3508641460135158E-003   6.2723908102418735E-002
  -2.0720951728550110E-003   4.3444808110573163E-003   6.2195247150751864E-002
  -5.5232581923823909E-005   1.0382225129801359E-004   6.5535479738293545E-002
  -5.1292648244674610E-005   1.0887290053196441E-004   6.0792866979472837E-002
  -4.7352714565525311E-005   1.2127269353154335E-004   5.5934040004447516E-002
  -4.3412780886376012E-005   1.4102163029727083E-004   5.0958998813217721E-002
  -3.9472847207219774E-005   1.6811971082875132E-004   4.5867743405783479E-002
  -5.1888620646512590E-004   1.1639868912377560E-003   6.4285994228529320E-002
  -6.1782650344719900E-004   1.4942110292709421E-003   5.9585911830436711E-002
  -7.1676680042928251E-004   1.9295614714964493E-003   5.4796283187226291E-002
  -8.1570709741136081E-004   2.4700382179145206E-003   4.9917108298897922E-002
  -9.1464739439343912E-004   3.1156412685251489E-003   4.4948387165451908E-002
  -1.0095811798007566E-003   2.2241515311776650E-003   6.3312793627350900E-002
  -1.1847337363574406E-003   2.8795491580098642E-003   5.8753018750413222E-002
  -1.3598862929141229E-003   3.7378502494614801E-003   5.4130365599444438E-002
  -1.5350388494707636E-003   4.7990548055318848E-003   4.9444834174444167E-002
  -1.7101914060274753E-003   6.0631628262217685E-003   4.4696424475412666E-002
  -1.5273175019307342E-003   3.2843161711174906E-003   6.2615877934758396E-002
  -1.7520143469753750E-003   4.2648872867487031E-003   5.8294187739402446E-002
  -1.9767111920200088E-003   5.5461390274258934E-003   5.3936287241101777E-002
  -2.2014080370646423E-003   7.1280713931493028E-003   4.9542176439856381E-002
  -2.4261048821092694E-003   9.0106843839182771E-003   4.5111855335666473E-002
  -2.0720951728550110E-003   4.3444808110573163E-003   6.2195247150751864E-002
  -2.3196683353009784E-003   5.6502254154878750E-003   5.8209418797404044E-002
  -2.5672414977469492E-003   7.3544278053913614E-003   5.4214048112197988E-002
  -2.8148146601929096E-003   9.4570879807665403E-003   5.0209135095134472E-002
  -3.0623878226388873E-003   1.1958205941614786E-002   4.6194679746212053E-002
  -2.4930314557182309E-002  -1.7541768539223179E-002   2.5180426585153182E-002
  -2.4120897782587376E-002  -1.1241926168244376E-002   2.9145654553487277E-002
  -2.3311481007992414E-002  -6.3809141788371132E-003   3.3184422306291567E-002
  -2.2502064233397474E-002  -2.9587325710012206E-003   3.7296729843566426E-002
  -2.1692647458802540E-002  -9.7538134473690308E-004   4.1482577165311618E-002
  -2.8092681794896990E-002  -4.0073884403540871E-003   4.3484702709297773E-002
  -2.7140856274464591E-002  -1.2025387876668514E-003   4.4293017602797496E-002
  -2.6189030754032193E-002   9.7639657382550538E-004   4.5312610203501719E-002
  -2.5237205233599801E-002   2.5294176441228652E-003   4.6543480511410426E-002
  -2.4285379713167431E-002   3.4565244232253600E-003   4.7985628526523633E-002
  -3.3448458732429742E-002   9.5269916585149494E-003   5.7887528069962432E-002
  -3.2216486543425807E-002   8.8368485929106733E-003   5.6351845979004528E-002
  -3.0984514354421899E-002   8.3337073264879782E-003   5.5165179517985101E-002
  -2.9752542165417978E-002   8.0175678592469494E-003   5.4327528686904256E-002
  -2.8520569976414056E-002   7.8884301911875399E-003   5.3838893485761971E-002
  -4.0997645369780608E-002   2.3061371757384028E-002   6.8388902667147436E-002
  -3.9347788589471085E-002   1.8876235973488170E-002   6.5322139682108316E-002
  -3.7697931809161554E-002   1.5691018079150468E-002   6.2742130249741748E-002
  -3.6048075028851982E-002   1.3505718074371006E-002   6.0648874370047984E-002
  -3.4398218248542466E-002   1.2320335959149734E-002   5.9042372043026689E-002
  -5.0740241706949601E-002   3.6595751856253078E-002   7.4988826500852535E-002
  -4.8534762412600352E-002   2.8915623354065695E-002   7.1203898712108749E-002
  -4.6329283118251102E-002   2.3048328831813028E-002   6.8043462398771709E-002
  -4.4123803823901867E-002   1.8993868289495178E-002   6.5507517560841458E-002
  -4.1918324529552617E-002   1.6752241727112038E-002   6.3596064198317925E-002
  -2.1692647458802540E-002  -9.7538134473690308E-004   4.1482577165311618E-002
  -2.0916387959936819E-002   1.4649636497562901E-004   4.4647313162043401E-002
  -2.0140128461071116E-002   9.8425742315667863E-004   4.7351681018846847E-002
  -1.9363868962205391E-002   1.5379018298059023E-003   4.9595680735722097E-002
  -1.8587609463339684E-002   1.8074295849235811E-003   5.1379312312669179E-002
  -2.4285379713167431E-002   3.4565244232253600E-003   4.7985628526523633E-002
  -2.3822450612981834E-002   3.9814588603114681E-003   4.9423670733436967E-002
  -2.3359521512796248E-002   4.3279629045597373E-003   5.0695420282918166E-002
  -2.2896592412610661E-002   4.4960365559704348E-003   5.1800877174967279E-002
  -2.2433663312425061E-002   4.4856798145433974E-003   5.2740041409584520E-002
  -2.8520569976414056E-002   7.8884301911875399E-003   5.3838893485761971E-002
  -2.8076895792412432E-002   7.8164213556470158E-003   5.3655928161550834E-002
  -2.7633221608410832E-002   7.6716683859627890E-003   5.3600745662403838E-002
  -2.7189547424409228E-002   7.4541712821348544E-003   5.3673345988320895E-002
  -2.6745873240407607E-002   7.1639300441631859E-003   5.3873729139302079E-002
  -3.4398218248542466E-002   1.2320335959149734E-002   5.9042372043026689E-002
  -3.3679723498228668E-002   1.1651383850982681E-002   5.7344085446385307E-002
  -3.2961228747914878E-002   1.1015373867365817E-002   5.6067657157303954E-002
  -3.2242733997601074E-002   1.0412306008299274E-002   5.5213087175782861E-002
  -3.1524239247287270E-002   9.8421802737828773E-003   5.4780375501822291E-002
  -4.1918324529552617E-002   1.6752241727112038E-002   6.3596064198317925E-002
  -4.0630933730430474E-002   1.5486346346318375E-002   6.0488142587939997E-002
  -3.9343542931308352E-002   1.4359079348768913E-002   5.8096154767618396E-002
  -3.8056152132186188E-002   1.3370440734463755E-002   5.6420100737353276E-002
  -3.6768761333064087E-002   1.2520430503402846E-002   5.5459980497144623E-002
  -1.8587609463339684E-002   1.8074295849235811E-003   5.1379312312669179E-002
  -1.7701411516134170E-002   1.9112588631362837E-003   5.2076761297797369E-002
  -1.6815213568928629E-002   1.9678078390710507E-003   5.2923317566951955E-002
  -1.5929015621723112E-002   1.9770765127281389E-003   5.3918981120133019E-002
  -1.5042817674517574E-002   1.9390648841069447E-003   5.5063751957340534E-002
  -2.2433663312425061E-002   4.4856798145433974E-003   5.2740041409584520E-002
  -2.1382082958102781E-002   4.3776999834145847E-003   5.2955561394484069E-002
  -2.0330502603780436E-002   4.2529043657200671E-003   5.3352738909590816E-002
  -1.9278922249458107E-002   4.1112929614599142E-003   5.3931573954904784E-002
  -1.8227341895135814E-002   3.9528657706341397E-003   5.4692066530425743E-002
  -2.6745873240407607E-002   7.1639300441631859E-003   5.3873729139302079E-002
  -2.5496360232787781E-002   6.8441411036928718E-003   5.3637784639685410E-002
  -2.4246847225167949E-002   6.5380008923691252E-003   5.3616047916456619E-002
  -2.2997334217548137E-002   6.2455094101920190E-003   5.3808518969615658E-002
  -2.1747821209928291E-002   5.9666666571614180E-003   5.4215197799162604E-002
  -3.1524239247287270E-002   9.8421802737828773E-003   5.4780375501822291E-002
  -3.0044243340189215E-002   9.3105822239711658E-003   5.4123431033401379E-002
  -2.8564247433091126E-002   8.8230974190181624E-003   5.3713244587549072E-002
  -2.7084251525993051E-002   8.3797258589240701E-003   5.3549816164265553E-002
  -2.5604255618894945E-002   7.9804675436885991E-003   5.3633145763550383E-002
  -3.6768761333064087E-002   1.2520430503402846E-002   5.5459980497144623E-002
  -3.5025732280307059E-002   1.1777023344249404E-002   5.4412500575631961E-002
  -3.3282703227549990E-002   1.1108193945667200E-002   5.3644328922868634E-002
  -3.1539674174792968E-002   1.0513942307655955E-002   5.3155465538854640E-002
  -2.9796645122035892E-002   9.9942684302159468E-003   5.2945910423589926E-002
  -1.5042817674517574E-002   1.9390648841069447E-003   5.5063751957340534E-002
  -1.4203295101322934E-002   1.9111211474990286E-003   5.5903521912410437E-002
  -1.3363772528128284E-002   1.9505934971958822E-003   5.6994854779705867E-002
  -1.2524249954933632E-002   2.0574819331968079E-003   5.8337750559226562E-002
  -1.1684727381738987E-002   2.2317864555024824E-003   5.9932209250972757E-002
  -1.8227341895135814E-002   3.9528657706341397E-003   5.4692066530425743E-002
  -1.7151151556646406E-002   3.7934016447460361E-003   5.5222065245763868E-002
  -1.6074961218156977E-002   3.6486794352995622E-003   5.5973836579466002E-002
  -1.4998770879667559E-002   3.5186991422940517E-003   5.6947380531532310E-002
  -1.3922580541178141E-002   3.4034607657302818E-003   5.8142697101962737E-002
  -2.1747821209928291E-002   5.9666666571614180E-003   5.4215197799162604E-002
  -2.0464753400005371E-002   5.6756821419932657E-003   5.4382751104905536E-002
  -1.9181685590082428E-002   5.3467653734032491E-003   5.4742286735151309E-002
  -1.7898617780159509E-002   4.9799163513914637E-003   5.5293804689900028E-002
  -1.6615549970236589E-002   4.5751350759580256E-003   5.6037304969151575E-002
  -2.5604255618894945E-002   7.9804675436885991E-003   5.3633145763550383E-002
  -2.4144100631399788E-002   7.5579626392403287E-003   5.3385579489835300E-002
  -2.2683945643904607E-002   7.0448513115069326E-003   5.3300205246761635E-002
  -2.1223790656409433E-002   6.4411335604887916E-003   5.3377023034329681E-002
  -1.9763635668914266E-002   5.7468093861857972E-003   5.3616032852539443E-002
  -2.9796645122035892E-002   9.9942684302159468E-003   5.2945910423589926E-002
  -2.8189193250829747E-002   9.4402431364873918E-003   5.2230550400553355E-002
  -2.6581741379623561E-002   8.7429372496107965E-003   5.1647592114297119E-002
  -2.4974289508417395E-002   7.9023507695860813E-003   5.1197035564821372E-002
  -2.3366837637211230E-002   6.9184836964135688E-003   5.0878880752125877E-002
  -1.1684727381738987E-002   2.2317864555024824E-003   5.9932209250972757E-002
  -1.0768384665140754E-002   2.3722457142558162E-003   6.0608750004416678E-002
  -9.8520419485425212E-003   2.3775983596003025E-003   6.1342365363822760E-002
  -8.9356992319442816E-003   2.2478443915351157E-003   6.2133055329191084E-002
  -8.0193565153460558E-003   1.9829838100613451E-003   6.2980819900521734E-002
  -1.3922580541178141E-002   3.4034607657302818E-003   5.8142697101962737E-002
  -1.2917265663456814E-002   3.2633633390439232E-003   5.8296235825900489E-002
  -1.1911950785735502E-002   3.0588058956709241E-003   5.8570644266122268E-002
  -1.0906635908014181E-002   2.7897884356120201E-003   5.8965922422627923E-002
  -9.9013210302928319E-003   2.4563109588668919E-003   5.9482070295417355E-002
  -1.6615549970236589E-002   4.5751350759580256E-003   5.6037304969151575E-002
  -1.5457467821070440E-002   4.1544809638318358E-003   5.5738488260305974E-002
  -1.4299385671904320E-002   3.7400134317420869E-003   5.5624336378066144E-002
  -1.3141303522738186E-002   3.3317324796889210E-003   5.5694849322431912E-002
  -1.1983221373572080E-002   2.9296381076722167E-003   5.5950027093403243E-002
  -1.9763635668914266E-002   5.7468093861857972E-003   5.3616032852539443E-002
  -1.8388991137981658E-002   5.0455985886196791E-003   5.2935507307633134E-002
  -1.7014346607049032E-002   4.4212209678132011E-003   5.2503441699654457E-002
  -1.5639702076116400E-002   3.8736765237658236E-003   5.2319836028602955E-002
  -1.4265057545183799E-002   3.4029652564777635E-003   5.2384690294479008E-002
  -2.3366837637211230E-002   6.9184836964135688E-003   5.0878880752125877E-002
  -2.1711835614190378E-002   5.9367162134078000E-003   4.9887292967882024E-002
  -2.0056833591169582E-002   5.1024285038841488E-003   4.9207960230887304E-002
  -1.8401831568148778E-002   4.4156205678425736E-003   4.8840882541141495E-002
  -1.6746829545127934E-002   3.8762924052830883E-003   4.8786059898644707E-002
  -8.0193565153460558E-003   1.9829838100613451E-003   6.2980819900521734E-002
  -7.0604654034919431E-003   1.7175370752166019E-003   6.3181227068263790E-002
  -6.1015742916378339E-003   1.5860246470392747E-003   6.3578550050099047E-002
  -5.1426831797837264E-003   1.5884465255295022E-003   6.4172788846027451E-002
  -4.1837920679296120E-003   1.7248027106866459E-003   6.4963943456048834E-002
  -9.9013210302928319E-003   2.4563109588668919E-003   5.9482070295417355E-002
  -8.7370210277944345E-003   2.1507156783013293E-003   5.9618114069234951E-002
  -7.5727210252960250E-003   1.9653448067813162E-003   5.9968059810247720E-002
  -6.4084210227975972E-003   1.9001983443072065E-003   6.0531907518455996E-002
  -5.2441210202991903E-003   1.9552762908786603E-003   6.1309657193860168E-002
  -1.1983221373572080E-002   2.9296381076722167E-003   5.5950027093403243E-002
  -1.0596526327326971E-002   2.5838942813857790E-003   5.6007997575674345E-002
  -9.2098312810818782E-003   2.3446649665233577E-003   5.6296856178243121E-002
  -7.8231362348367764E-003   2.2119501630849109E-003   5.6816602901110042E-002
  -6.4364411885916746E-003   2.1857498710705636E-003   5.7567237744274635E-002
  -1.4265057545183799E-002   3.4029652564777635E-003   5.2384690294479008E-002
  -1.2638981302089633E-002   3.0170728844703676E-003   5.2350877587581938E-002
  -1.1012905058995453E-002   2.7239851262655101E-003   5.2564939154085069E-002
  -9.3868288159012526E-003   2.5237019818628373E-003   5.3026874993988608E-002
  -7.7607525728071065E-003   2.4162234512625225E-003   5.3736685107292237E-002
  -1.6746829545127934E-002   3.8762924052830883E-003   4.8786059898644707E-002
  -1.4864385952082310E-002   3.4502514875549561E-003   4.8646754104957890E-002
  -1.2981942359036686E-002   3.1033052860074406E-003   4.8772308737773717E-002
  -1.1099498765991062E-002   2.8354538006407637E-003   4.9162723797092439E-002
  -9.2170551729454375E-003   2.6466970314544813E-003   4.9817999282913417E-002
  -4.1837920679296120E-003   1.7248027106866459E-003   6.4963943456048834E-002
  -3.6558678441609704E-003   2.0410250958281528E-003   6.4108256255067109E-002
  -3.1279436203923115E-003   2.5830455742704705E-003   6.3361577803857094E-002
  -2.6000193966236596E-003   3.3508641460135158E-003   6.2723908102418735E-002
  -2.0720951728550110E-003   4.3444808110573163E-003   6.2195247150751864E-002
  -5.2441210202991903E-003   1.9552762908786603E-003   6.1309657193860168E-002
  -4.5794894602428429E-003   2.2315648066027483E-003   6.0623674774751612E-002
  -3.9148579001864713E-003   2.8300500515865135E-003   6.0102098278446980E-002
  -3.2502263401301065E-003   3.7507320258299767E-003   5.9744927704946021E-002
  -2.5855947800737522E-003   4.9936107293326870E-003   5.9552163054248819E-002
  -6.4364411885916746E-003   2.1857498710705636E-003   5.7567237744274635E-002
  -5.5797051192155410E-003   2.4221045173775102E-003   5.7147358742998228E-002
  -4.7229690498394074E-003   3.0770545289028894E-003   5.6947282837557900E-002
  -3.8662329804632720E-003   4.1505999056465487E-003   5.6967010027953166E-002
  -3.0094969110871384E-003   5.6427406476087238E-003   5.7206540314184318E-002
  -7.7607525728071065E-003   2.4162234512625225E-003   5.3736685107292237E-002
  -6.6565148210791080E-003   2.6126442281520224E-003   5.3679308159807045E-002
  -5.5522770693510965E-003   3.3240590062190434E-003   5.3897131481189534E-002
  -4.4480393176231110E-003   4.5504677854632872E-003   5.4390155071440176E-002
  -3.3438015658950855E-003   6.2918705658845386E-003   5.5158378930558388E-002
  -9.2170551729454375E-003   2.6466970314544813E-003   4.9817999282913417E-002
  -7.8099185658335041E-003   2.8031839389267565E-003   5.0219523025177959E-002
  -6.4027819587215845E-003   3.5710634835354194E-003   5.0951644209342395E-002
  -4.9956453516096580E-003   4.9503356652797204E-003   5.2014362835406946E-002
  -3.5885087444977315E-003   6.9410004841601314E-003   5.3407678903371059E-002
  -2.0720951728550110E-003   4.3444808110573163E-003   6.2195247150751864E-002
  -2.3196683353009784E-003   5.6502254154878750E-003   5.8209418797404044E-002
  -2.5672414977469492E-003   7.3544278053913614E-003   5.4214048112197988E-002
  -2.8148146601929096E-003   9.4570879807665403E-003   5.0209135095134472E-002
  -3.0623878226388873E-003   1.1958205941614786E-002   4.6194679746212053E-002
  -2.5855947800737522E-003   4.9936107293326870E-003   5.9552163054248819E-002
  -2.8598269152899022E-003   6.6255529795757329E-003   5.6066009611040302E-002
  -3.1340590505060575E-003   8.7134255940372052E-003   5.2536080554148989E-002
  -3.4082911857221980E-003   1.1257228572718297E-002   4.8962375883575382E-002
  -3.6825233209383593E-003   1.4256961915618538E-002   4.5344895599320090E-002
  -3.0094969110871384E-003   5.6427406476087238E-003   5.7206540314184318E-002
  -3.3446213008978022E-003   7.6008805436632021E-003   5.4277534359861462E-002
  -3.6797456907084244E-003   1.0072423382683632E-002   5.1270519510031892E-002
  -4.0148700805190908E-003   1.3057369164670062E-002   4.8185495764695843E-002
  -4.3499944703297398E-003   1.6555717889622512E-002   4.5022463123852607E-002
  -3.3438015658950855E-003   6.2918705658845386E-003   5.5158378930558388E-002
  -3.7740514921245777E-003   8.5762081077509766E-003   5.2843993043868331E-002
  -4.2043014183540724E-003   1.1431421171330211E-002   5.0417364979846925E-002
  -4.6345513445835247E-003   1.4857509756621822E-002   4.7878494738494481E-002
  -5.0648012708130316E-003   1.8854473863626486E-002   4.5227382319811299E-002
  -3.5885087444977315E-003   6.9410004841601314E-003   5.3407678903371059E-002
  -4.1481174889703570E-003   9.5515356718384181E-003   5.1765385663060104E-002
  -4.7077262334429826E-003   1.2790418959976291E-002   4.9976616963594012E-002
  -5.2673349779155942E-003   1.6657650348573513E-002   4.8041372804972560E-002
  -5.8269437223882337E-003   2.1153229837630239E-002   4.5959653187195304E-002
  -5.0740241706949601E-002   3.6595751856253078E-002   7.4988826500852535E-002
  -4.8534762412600352E-002   2.8915623354065695E-002   7.1203898712108749E-002
  -4.6329283118251102E-002   2.3048328831813028E-002   6.8043462398771709E-002
  -4.4123803823901867E-002   1.8993868289495178E-002   6.5507517560841458E-002
  -4.1918324529552617E-002   1.6752241727112038E-002   6.3596064198317925E-002
  -6.0611404387397039E-002   3.0146295068467777E-002   5.3693013383341620E-002
  -5.7893030805928933E-002   2.5505347961271879E-002   5.3138227767443674E-002
  -5.5174657224460855E-002   2.1862491569886192E-002   5.2984739250376597E-002
  -5.2456283642992763E-002   1.9217725894310870E-002   5.3232547832140535E-002
  -4.9737910061524705E-002   1.7571050934545751E-002   5.3881653512735467E-002
  -6.8546290054583375E-002   2.3696838280682420E-002   3.5843753292884459E-002
  -6.5538216562572194E-002   2.2095072568477994E-002   3.7704366585707749E-002
  -6.2530143070561039E-002   2.0676654307959320E-002   3.9743082600786357E-002
  -5.9522069578549885E-002   1.9441583499126475E-002   4.1959901338120040E-002
  -5.6513996086538718E-002   1.8389860141979547E-002   4.4354822797708818E-002
  -7.4544898708508500E-002   1.7247381492897104E-002   2.1441046229481061E-002
  -7.1470319682530037E-002   1.8684797175684061E-002   2.4902315166901282E-002
  -6.8395740656551671E-002   1.9490817046032467E-002   2.8318492450000843E-002
  -6.5321161630573180E-002   1.9665441103942236E-002   3.1689578078779708E-002
  -6.2246582604594772E-002   1.9208669349413357E-002   3.5015572053238020E-002
  -7.8607230349172497E-002   1.0797924705111761E-002   1.0484892193131423E-002
  -7.5689340165802504E-002   1.5274521782890349E-002   1.4732073511024069E-002
  -7.2771449982432623E-002   1.8304979784105599E-002   1.8710968798020117E-002
  -6.9853559799062770E-002   1.9889298708757826E-002   2.2421578054119887E-002
  -6.6935669615692833E-002   2.0027478556847111E-002   2.5863901279323254E-002
  -4.1918324529552617E-002   1.6752241727112038E-002   6.3596064198317925E-002
  -4.0630933730430474E-002   1.5486346346318375E-002   6.0488142587939997E-002
  -3.9343542931308352E-002   1.4359079348768913E-002   5.8096154767618396E-002
  -3.8056152132186188E-002   1.3370440734463755E-002   5.6420100737353276E-002
  -3.6768761333064087E-002   1.2520430503402846E-002   5.5459980497144623E-002
  -4.9737910061524705E-002   1.7571050934545751E-002   5.3881653512735467E-002
  -4.7839451894707598E-002   1.6469937923677833E-002   5.1828195769568056E-002
  -4.5940993727890525E-002   1.5461858094793904E-002   5.0280938971734065E-002
  -4.4042535561073480E-002   1.4546811447893732E-002   4.9239883119233586E-002
  -4.2144077394256421E-002   1.3724797982977432E-002   4.8705028212066515E-002
  -5.6513996086538718E-002   1.8389860141979547E-002   4.4354822797708818E-002
  -5.4214203396749698E-002   1.7453529501037332E-002   4.3310233720491739E-002
  -5.1914410706960713E-002   1.6564636840818665E-002   4.2562112743885057E-002
  -4.9614618017171735E-002   1.5723182161323596E-002   4.2110459867888944E-002
  -4.7314825327382716E-002   1.4929165462552102E-002   4.1955275092503075E-002
  -6.2246582604594772E-002   1.9208669349413357E-002   3.5015572053238020E-002
  -5.9755188236556830E-002   1.8437121078396811E-002   3.4934256440710895E-002
  -5.7263793868518889E-002   1.7667415586843403E-002   3.4939676084071183E-002
  -5.4772399500480927E-002   1.6899552874753518E-002   3.5031830983318996E-002
  -5.2281005132442958E-002   1.6133532942126813E-002   3.5210721138454193E-002
  -6.6935669615692833E-002   2.0027478556847111E-002   2.5863901279323254E-002
  -6.4462406414128898E-002   1.9420712655756317E-002   2.6700263930225676E-002
  -6.1989143212565032E-002   1.8770194332868417E-002   2.7413628992292605E-002
  -5.9515880011001117E-002   1.8075923588183468E-002   2.8003996465524039E-002
  -5.7042616809437202E-002   1.7337900421701413E-002   2.8471366349919924E-002
  -3.6768761333064087E-002   1.2520430503402846E-002   5.5459980497144623E-002
  -3.5025732280307059E-002   1.1777023344249404E-002   5.4412500575631961E-002
  -3.3282703227549990E-002   1.1108193945667200E-002   5.3644328922868634E-002
  -3.1539674174792968E-002   1.0513942307655955E-002   5.3155465538854640E-002
  -2.9796645122035892E-002   9.9942684302159468E-003   5.2945910423589926E-002
  -4.2144077394256421E-002   1.3724797982977432E-002   4.8705028212066515E-002
  -4.0136370723673868E-002   1.2972800339919988E-002   4.7908273878848467E-002
  -3.8128664053091343E-002   1.2267801158596214E-002   4.7361566512531983E-002
  -3.6120957382508798E-002   1.1609800439005821E-002   4.7064906113117227E-002
  -3.4113250711926266E-002   1.0998798181149405E-002   4.7018292680604090E-002
  -4.7314825327382716E-002   1.4929165462552102E-002   4.1955275092503075E-002
  -4.5071702340822341E-002   1.4168577335590599E-002   4.1381667048741980E-002
  -4.2828579354262000E-002   1.3427408371525229E-002   4.1028844670034995E-002
  -4.0585456367701625E-002   1.2705658570355910E-002   4.0896807956381870E-002
  -3.8342333381141354E-002   1.2003327932082836E-002   4.0985556907782841E-002
  -5.2281005132442958E-002   1.6133532942126813E-002   3.5210721138454193E-002
  -4.9831727131752462E-002   1.5364354331261140E-002   3.4832680085312838E-002
  -4.7382449131061946E-002   1.4587015584454077E-002   3.4646163395377752E-002
  -4.4933171130371444E-002   1.3801516701705832E-002   3.4651171068649039E-002
  -4.2483893129680927E-002   1.3007857683016280E-002   3.4847703105126582E-002
  -5.7042616809437202E-002   1.7337900421701413E-002   2.8471366349919924E-002
  -5.4416445096464178E-002   1.6560131326931765E-002   2.8261312988560661E-002
  -5.1790273383491223E-002   1.5746622797383050E-002   2.8213522688560061E-002
  -4.9164101670518233E-002   1.4897374833055813E-002   2.8327995449918333E-002
  -4.6537929957545243E-002   1.4012387433949725E-002   2.8604731272634965E-002
  -2.9796645122035892E-002   9.9942684302159468E-003   5.2945910423589926E-002
  -2.8189193250829747E-002   9.4402431364873918E-003   5.2230550400553355E-002
  -2.6581741379623561E-002   8.7429372496107965E-003   5.1647592114297119E-002
  -2.4974289508417395E-002   7.9023507695860813E-003   5.1197035564821372E-002
  -2.3366837637211230E-002   6.9184836964135688E-003   5.0878880752125877E-002
  -3.4113250711926266E-002   1.0998798181149405E-002   4.7018292680604090E-002
  -3.2369019172245599E-002   1.0365328040714411E-002   4.6277226099917718E-002
  -3.0624787632564938E-002   9.6399236733888394E-003   4.5677317119400096E-002
  -2.8880556092884275E-002   8.8225850791729676E-003   4.5218565739051017E-002
  -2.7136324553203611E-002   7.9133122580666293E-003   4.4900971958870661E-002
  -3.8342333381141354E-002   1.2003327932082836E-002   4.0985556907782841E-002
  -3.6452566309597811E-002   1.1290412944941430E-002   4.0270130135704324E-002
  -3.4562799238054429E-002   1.0536910097167042E-002   3.9704616827182952E-002
  -3.2673032166510955E-002   9.7428193887599632E-003   3.9289016982218330E-002
  -3.0783265094967489E-002   8.9081408197199119E-003   3.9023330600810535E-002
  -4.2483893129680927E-002   1.3007857683016280E-002   3.4847703105126582E-002
  -4.0439834662886448E-002   1.2215497849168394E-002   3.4209262507913410E-002
  -3.8395776196091982E-002   1.1433896520945220E-002   3.3729491237645640E-002
  -3.6351717729297489E-002   1.0663053698346792E-002   3.3408389294322861E-002
  -3.4307659262503030E-002   9.9029693813731945E-003   3.3245956677945374E-002
  -4.6537929957545243E-002   1.4012387433949725E-002   2.8604731272634965E-002
  -4.4330824232111432E-002   1.3140582753395469E-002   2.8094623216544823E-002
  -4.2123718506677649E-002   1.2330882944723287E-002   2.7751940350788318E-002
  -3.9916612781243851E-002   1.1583288007933762E-002   2.7576682675365116E-002
  -3.7709507055810054E-002   1.0897797943026366E-002   2.7568850190275329E-002
  -2.3366837637211230E-002   6.9184836964135688E-003   5.0878880752125877E-002
  -2.1711835614190378E-002   5.9367162134078000E-003   4.9887292967882024E-002
  -2.0056833591169582E-002   5.1024285038841488E-003   4.9207960230887304E-002
  -1.8401831568148778E-002   4.4156205678425736E-003   4.8840882541141495E-002
  -1.6746829545127934E-002   3.8762924052830883E-003   4.8786059898644707E-002
  -2.7136324553203611E-002   7.9133122580666293E-003   4.4900971958870661E-002
  -2.5199116741789096E-002   7.0103373996165952E-003   4.4127886252842419E-002
  -2.3261908930374615E-002   6.2118926933702884E-003   4.3606957076352704E-002
  -2.1324701118960142E-002   5.5179781393268588E-003   4.3338184429401141E-002
  -1.9387493307545620E-002   4.9285937374871081E-003   4.3321568311987968E-002
  -3.0783265094967489E-002   8.9081408197199119E-003   3.9023330600810535E-002
  -2.8623950012870131E-002   8.0839585858256402E-003   3.8425797351719540E-002
  -2.6464634930772720E-002   7.3213568828562059E-003   3.8020322114455843E-002
  -2.4305319848675358E-002   6.6203357108113661E-003   3.7806904889019929E-002
  -2.2146004766577944E-002   5.9808950696911278E-003   3.7785545675411286E-002
  -3.4307659262503030E-002   9.9029693813731945E-003   3.3245956677945374E-002
  -3.1986335427433503E-002   9.1575797720348379E-003   3.2781026264512583E-002
  -2.9665011592363951E-002   8.4308210723422344E-003   3.2448055345196805E-002
  -2.7343687757294382E-002   7.7226932822956514E-003   3.2247043919997567E-002
  -2.5022363922224882E-002   7.0331964018953141E-003   3.2177991988914995E-002
  -3.7709507055810054E-002   1.0897797943026366E-002   2.7568850190275329E-002
  -3.5286272985479150E-002   1.0231200958243369E-002   2.7193572991222437E-002
  -3.2863038915148218E-002   9.5402852618279854E-003   2.6890156768575424E-002
  -3.0439804844817328E-002   8.8250508537799227E-003   2.6658601522334402E-002
  -2.8016570774486382E-002   8.0854977340991674E-003   2.6498907252499482E-002
  -1.6746829545127934E-002   3.8762924052830883E-003   4.8786059898644707E-002
  -1.4864385952082310E-002   3.4502514875549561E-003   4.8646754104957890E-002
  -1.2981942359036686E-002   3.1033052860074406E-003   4.8772308737773717E-002
  -1.1099498765991062E-002   2.8354538006407637E-003   4.9162723797092439E-002
  -9.2170551729454375E-003   2.6466970314544813E-003   4.9817999282913417E-002
  -1.9387493307545620E-002   4.9285937374871081E-003   4.3321568311987968E-002
  -1.7277296599485847E-002   4.4163516418662674E-003   4.3091732098405444E-002
  -1.5167099891426061E-002   3.9538640064795683E-003   4.3052541688348850E-002
  -1.3056903183366310E-002   3.5411308313275658E-003   4.3203997081817824E-002
  -1.0946706475306558E-002   3.1781521164097049E-003   4.3546098278812395E-002
  -2.2146004766577944E-002   5.9808950696911278E-003   3.7785545675411286E-002
  -1.9882269566481033E-002   5.3824517961774676E-003   3.7435838785987108E-002
  -1.7618534366384130E-002   4.8044227269518069E-003   3.7202563077111700E-002
  -1.5354799166287236E-002   4.2468078620143679E-003   3.7085718548784688E-002
  -1.3091063966190315E-002   3.7096072013648174E-003   3.7085305201006558E-002
  -2.5022363922224882E-002   7.0331964018953141E-003   3.2177991988914995E-002
  -2.2679304853067794E-002   6.3485519504887789E-003   3.1679074167702728E-002
  -2.0336245783910765E-002   5.6549814474238791E-003   3.1222372904062198E-002
  -1.7993186714753761E-002   4.9524848927010590E-003   3.0807888197993176E-002
  -1.5650127645596645E-002   4.2410622863198189E-003   3.0435620049495876E-002
  -2.8016570774486382E-002   8.0854977340991674E-003   2.6498907252499482E-002
  -2.5668402459246203E-002   7.3146521048000901E-003   2.5821438243552652E-002
  -2.3320234144006052E-002   6.5055401678962566E-003   2.5111971169200553E-002
  -2.0972065828765929E-002   5.6581619233879374E-003   2.4370506029443073E-002
  -1.8623897513525722E-002   4.7725173712750424E-003   2.3597042824280101E-002
  -9.2170551729454375E-003   2.6466970314544813E-003   4.9817999282913417E-002
  -7.8099185658335041E-003   2.8031839389267565E-003   5.0219523025177959E-002
  -6.4027819587215845E-003   3.5710634835354194E-003   5.0951644209342395E-002
  -4.9956453516096580E-003   4.9503356652797204E-003   5.2014362835406946E-002
  -3.5885087444977315E-003   6.9410004841601314E-003   5.3407678903371059E-002
  -1.0946706475306558E-002   3.1781521164097049E-003   4.3546098278812395E-002
  -9.1913071985763456E-003   3.1162915789946788E-003   4.4132518326226111E-002
  -7.4359079218461743E-003   3.6069129363511532E-003   4.5084866270976465E-002
  -5.6805086451159927E-003   4.6500161884789268E-003   4.6403142113063567E-002
  -3.9251093683858457E-003   6.2456013353779927E-003   4.8087345852486973E-002
  -1.3091063966190315E-002   3.7096072013648174E-003   3.7085305201006558E-002
  -1.0952071564405211E-002   3.4293992190625455E-003   3.7797710811204810E-002
  -8.8130791626201792E-003   3.6427623891671090E-003   3.8911374774176360E-002
  -6.6740867608350660E-003   4.3496967116781332E-003   4.0426297089921043E-002
  -4.5350943590500431E-003   5.5502021865956319E-003   4.2342477758438857E-002
  -1.5650127645596645E-002   4.2410622863198189E-003   3.0435620049495876E-002
  -1.3092211663320173E-002   3.7425068591305510E-003   3.1215100480113799E-002
  -1.0534295681043641E-002   3.6786118419829539E-003   3.2431169718941860E-002
  -7.9763796987671626E-003   4.0493772348772286E-003   3.4083827765979596E-002
  -5.4184637164906325E-003   4.8548030378130491E-003   3.6173074621227000E-002
  -1.8623897513525722E-002   4.7725173712750424E-003   2.3597042824280101E-002
  -1.5611727495321137E-002   4.0556144991983900E-003   2.4384687332953292E-002
  -1.2599557477116552E-002   3.7144612947988265E-003   2.5644251105272631E-002
  -9.5873874589119529E-003   3.7490577580765530E-003   2.7375734141238534E-002
  -6.5752174407073816E-003   4.1594038890309104E-003   2.9579136440850862E-002
  -3.5885087444977315E-003   6.9410004841601314E-003   5.3407678903371059E-002
  -4.1481174889703570E-003   9.5515356718384181E-003   5.1765385663060104E-002
  -4.7077262334429826E-003   1.2790418959976291E-002   4.9976616963594012E-002
  -5.2673349779155942E-003   1.6657650348573513E-002   4.8041372804972560E-002
  -5.8269437223882337E-003   2.1153229837630239E-002   4.5959653187195304E-002
  -3.9251093683858457E-003   6.2456013353779927E-003   4.8087345852486973E-002
  -4.5267734005105392E-003   8.6992230148137395E-003   4.7172058052284027E-002
  -5.1284374326352258E-003   1.2316435864552777E-002   4.6319135135932110E-002
  -5.7301014647599957E-003   1.7097239884594190E-002   4.5528577103431778E-002
  -6.3317654968846060E-003   2.3041635074938505E-002   4.4800383954781919E-002
  -4.5350943590500431E-003   5.5502021865956319E-003   4.2342477758438857E-002
  -4.9699733358204226E-003   7.8469103577893384E-003   4.2689438468187513E-002
  -5.4048523125908229E-003   1.1842452769129180E-002   4.3307604404793504E-002
  -5.8397312893610984E-003   1.7536829420614818E-002   4.4196975568256705E-002
  -6.2746102661316028E-003   2.4930040312246993E-002   4.5357551958578268E-002
  -5.4184637164906325E-003   4.8548030378130491E-003   3.6173074621227000E-002
  -5.4777172949002310E-003   6.9945977007643545E-003   3.8317526910770103E-002
  -5.5369708733098277E-003   1.1368469673705403E-002   4.0942024770177284E-002
  -5.5962244517195076E-003   1.7976418956635692E-002   4.4046568199448480E-002
  -5.6554780301290228E-003   2.6818445549555259E-002   4.7631157198583601E-002
  -6.5752174407073816E-003   4.1594038890309104E-003   2.9579136440850862E-002
  -6.0500052777497648E-003   6.1422850437397036E-003   3.4056323380032061E-002
  -5.5247931147922036E-003   1.0894486578282014E-002   3.9222396232083678E-002
  -4.9995809518345868E-003   1.8416008492656108E-002   4.5077354997005492E-002
  -4.4743687888770811E-003   2.8706850786863747E-002   5.1621199674798390E-002
  -7.8607230349172497E-002   1.0797924705111761E-002   1.0484892193131423E-002
  -7.5689340165802504E-002   1.5274521782890349E-002   1.4732073511024069E-002
  -7.2771449982432623E-002   1.8304979784105599E-002   1.8710968798020117E-002
  -6.9853559799062770E-002   1.9889298708757826E-002   2.2421578054119887E-002
  -6.6935669615692833E-002   2.0027478556847111E-002   2.5863901279323254E-002
  -8.2403615928345275E-002   1.7615179288365201E-002   1.3047220442859220E-002
  -7.9635521470529144E-002   1.9807632999358366E-002   1.4880262027119090E-002
  -7.6867427012713221E-002   2.1189735489521064E-002   1.6681998191167391E-002
  -7.4099332554897063E-002   2.1761486758853348E-002   1.8452428935004483E-002
  -7.1331238097081098E-002   2.1522886807355313E-002   2.0191554258630173E-002
  -8.7604386397796469E-002   2.4432433871618725E-002   1.3007511397935365E-002
  -8.4749107054849254E-002   2.4340744215826382E-002   1.3062201104295124E-002
  -8.1893827711902137E-002   2.4074491194936425E-002   1.3322566001128543E-002
  -7.9038548368954964E-002   2.3633674808948762E-002   1.3788606088435431E-002
  -7.6183269026007749E-002   2.3018295057863597E-002   1.4460321366216292E-002
  -9.4209541757526355E-002   3.1249688454872179E-002   1.0365765058359646E-002
  -9.1030096918763001E-002   2.8873855432294510E-002   9.2778907425521522E-003
  -8.7850652079999592E-002   2.6959246900351893E-002   8.6326722279031608E-003
  -8.4671207241236154E-002   2.5505862859044284E-002   8.4301095144129617E-003
  -8.1491762402472800E-002   2.4513703308371562E-002   8.6702026020814386E-003
 -0.10221908200753482        3.8066943038125634E-002   5.1219814241323380E-003
  -9.8478491062270024E-002   3.3406966648762526E-002   3.5273309418898946E-003
  -9.4737900117005558E-002   2.9844002605767334E-002   2.6123168714916600E-003
  -9.0997309171740814E-002   2.7378050909139577E-002   2.3769392129366906E-003
  -8.7256718226476182E-002   2.6009111558880083E-002   2.8211979662258746E-003
  -6.6935669615692833E-002   2.0027478556847111E-002   2.5863901279323254E-002
  -6.4462406414128898E-002   1.9420712655756317E-002   2.6700263930225676E-002
  -6.1989143212565032E-002   1.8770194332868417E-002   2.7413628992292605E-002
  -5.9515880011001117E-002   1.8075923588183468E-002   2.8003996465524039E-002
  -5.7042616809437202E-002   1.7337900421701413E-002   2.8471366349919924E-002
  -7.1331238097081098E-002   2.1522886807355313E-002   2.0191554258630173E-002
  -6.8925749977901796E-002   2.0857284328438058E-002   2.0582973840542557E-002
  -6.6520261858722507E-002   2.0148028015512548E-002   2.0961840846521265E-002
  -6.4114773739543260E-002   1.9395117868578858E-002   2.1328155276566160E-002
  -6.1709285620363971E-002   1.8598553887636926E-002   2.1681917130677464E-002
  -7.6183269026007749E-002   2.3018295057863597E-002   1.4460321366216292E-002
  -7.3735110976311274E-002   2.2293856001119730E-002   1.4406896466927430E-002
  -7.1286952926614799E-002   2.1525861698156679E-002   1.4451364004606615E-002
  -6.8838794876918338E-002   2.0714312148974248E-002   1.4593723979253952E-002
  -6.6390636827221822E-002   1.9859207353572411E-002   1.4833976390869363E-002
  -8.1491762402472800E-002   2.4513703308371562E-002   8.6702026020814386E-003
  -7.8890489409357362E-002   2.3730427673801631E-002   8.1720318093803229E-003
  -7.6289216416241867E-002   2.2903695380800893E-002   7.8821984665489314E-003
  -7.3687943423126359E-002   2.2033506429369583E-002   7.8007025735874289E-003
  -7.1086670430010948E-002   2.1119860819507966E-002   7.9275441304958692E-003
  -8.7256718226476182E-002   2.6009111558880083E-002   2.8211979662258746E-003
  -8.4391885277039891E-002   2.5166999346483254E-002   1.8783798679012920E-003
  -8.1527052327603655E-002   2.4281529063444746E-002   1.2543442323480064E-003
  -7.8662219378167392E-002   2.3352700709765174E-002   9.4909105956638221E-004
  -7.5797386428731128E-002   2.2380514285443298E-002   9.6262034955685305E-004
  -5.7042616809437202E-002   1.7337900421701413E-002   2.8471366349919924E-002
  -5.4416445096464178E-002   1.6560131326931765E-002   2.8261312988560661E-002
  -5.1790273383491223E-002   1.5746622797383050E-002   2.8213522688560061E-002
  -4.9164101670518233E-002   1.4897374833055813E-002   2.8327995449918333E-002
  -4.6537929957545243E-002   1.4012387433949725E-002   2.8604731272634965E-002
  -6.1709285620363971E-002   1.8598553887636926E-002   2.1681917130677464E-002
  -5.8915654482927252E-002   1.7773826294558565E-002   2.1438171323970440E-002
  -5.6122023345490497E-002   1.6936425311215711E-002   2.1367081304832294E-002
  -5.3328392208053799E-002   1.6086350937607869E-002   2.1468647073263007E-002
  -5.0534761070617093E-002   1.5223603173735556E-002   2.1742868629262557E-002
  -6.6390636827221822E-002   1.9859207353572411E-002   1.4833976390869363E-002
  -6.3419153539111178E-002   1.8987521262185544E-002   1.4579604183328723E-002
  -6.0447670251000535E-002   1.8126227825048254E-002   1.4508280489567017E-002
  -5.7476186962889891E-002   1.7275327042160032E-002   1.4620005309584617E-002
  -5.4504703674779248E-002   1.6434818913521387E-002   1.4914778643380922E-002
  -7.1086670430010948E-002   2.1119860819507966E-002   7.9275441304958692E-003
  -6.7926942265016124E-002   2.0201216229812545E-002   7.6856115666355182E-003
  -6.4767214100021314E-002   1.9316030338880633E-002   7.6371202427643354E-003
  -6.1607485935026532E-002   1.8464303146712643E-002   7.7820701588825906E-003
  -5.8447757770031680E-002   1.7646034653307441E-002   8.1204613149898214E-003
  -7.5797386428731128E-002   2.2380514285443298E-002   9.6262034955685305E-004
  -7.2439020660641951E-002   2.1414911197439324E-002   7.5619347389105362E-004
  -6.9080654892552884E-002   2.0505832852713429E-002   7.5360056442436152E-004
  -6.5722289124463817E-002   1.9653279251264304E-002   9.5484162115759552E-004
  -6.2363923356374640E-002   1.8857250393093050E-002   1.3599166440896315E-003
  -4.6537929957545243E-002   1.4012387433949725E-002   2.8604731272634965E-002
  -4.4330824232111432E-002   1.3140582753395469E-002   2.8094623216544823E-002
  -4.2123718506677649E-002   1.2330882944723287E-002   2.7751940350788318E-002
  -3.9916612781243851E-002   1.1583288007933762E-002   2.7576682675365116E-002
  -3.7709507055810054E-002   1.0897797943026366E-002   2.7568850190275329E-002
  -5.0534761070617093E-002   1.5223603173735556E-002   2.1742868629262557E-002
  -4.8163346691114481E-002   1.4373303111472391E-002   2.1306369378500223E-002
  -4.5791932311611876E-002   1.3560571842692742E-002   2.1031062245542048E-002
  -4.3420517932109229E-002   1.2785409367396243E-002   2.0916947230388061E-002
  -4.1049103552606658E-002   1.2047815685582830E-002   2.0964024333038234E-002
  -5.4504703674779248E-002   1.6434818913521387E-002   1.4914778643380922E-002
  -5.1975213713737145E-002   1.5606023469549646E-002   1.4527352119547393E-002
  -4.9445723752695118E-002   1.4790260740661920E-002   1.4294884640988575E-002
  -4.6916233791653036E-002   1.3987530726858613E-002   1.4217376207704947E-002
  -4.4386743830610989E-002   1.3197833428139683E-002   1.4294826819695683E-002
  -5.8447757770031680E-002   1.7646034653307441E-002   8.1204613149898214E-003
  -5.5766425299979529E-002   1.6838743827626623E-002   7.7575714396859279E-003
  -5.3085092829927301E-002   1.6019949638631292E-002   7.5434075371280211E-003
  -5.0403760359875108E-002   1.5189652086321094E-002   7.4779696073153275E-003
  -4.7722427889822921E-002   1.4347851170696507E-002   7.5612576502477394E-003
  -6.2363923356374640E-002   1.8857250393093050E-002   1.3599166440896315E-003
  -5.9536981449841542E-002   1.8071464185703490E-002   9.9702733891654516E-004
  -5.6710039543308555E-002   1.7249638536600220E-002   7.7663093395965999E-004
  -5.3883097636775457E-002   1.6391773445783547E-002   6.9872742921951031E-004
  -5.1056155730242470E-002   1.5497868913252999E-002   7.6331682469477080E-004
  -3.7709507055810054E-002   1.0897797943026366E-002   2.7568850190275329E-002
  -3.5286272985479150E-002   1.0231200958243369E-002   2.7193572991222437E-002
  -3.2863038915148218E-002   9.5402852618279854E-003   2.6890156768575424E-002
  -3.0439804844817328E-002   8.8250508537799227E-003   2.6658601522334402E-002
  -2.8016570774486382E-002   8.0854977340991674E-003   2.6498907252499482E-002
  -4.1049103552606658E-002   1.2047815685582830E-002   2.0964024333038234E-002
  -3.8548395911686337E-002   1.1321321197519663E-002   2.0576471388152995E-002
  -3.6047688270765932E-002   1.0579456303472970E-002   2.0272004608040683E-002
  -3.3546980629845589E-002   9.8222210034428943E-003   2.0050623992701119E-002
  -3.1046272988925205E-002   9.0496152974298694E-003   1.9912329542134732E-002
  -4.4386743830610989E-002   1.3197833428139683E-002   1.4294826819695683E-002
  -4.1797337430734258E-002   1.2411441436795789E-002   1.3903946434627404E-002
  -3.9207931030857505E-002   1.1618627345117843E-002   1.3607377402699239E-002
  -3.6618524630980781E-002   1.0819391153105921E-002   1.3405119723910869E-002
  -3.4029118231104036E-002   1.0013732860760127E-002   1.3297173398262113E-002
  -4.7722427889822921E-002   1.4347851170696507E-002   7.5612576502477394E-003
  -4.5033097542622885E-002   1.3501561676071555E-002   7.1759981306460420E-003
  -4.2343767195422870E-002   1.2657798386762495E-002   6.8962751525511144E-003
  -3.9654436848222840E-002   1.1816561302768754E-002   6.7220887159632065E-003
  -3.6965106501022811E-002   1.0977850424090829E-002   6.6534388208817075E-003
  -5.1056155730242470E-002   1.5497868913252999E-002   7.6331682469477080E-004
  -4.8255676247352164E-002   1.4591681915348320E-002   3.9262647620880164E-004
  -4.5455196764462025E-002   1.3696969428407590E-002   1.3869785759676456E-004
  -4.2654717281571830E-002   1.2813731452432003E-002   1.5309688583473036E-006
  -3.9854237798681580E-002   1.1941967987420865E-002  -1.8874190006568092E-005
  -2.8016570774486382E-002   8.0854977340991674E-003   2.6498907252499482E-002
  -2.5668402459246203E-002   7.3146521048000901E-003   2.5821438243552652E-002
  -2.3320234144006052E-002   6.5055401678962566E-003   2.5111971169200553E-002
  -2.0972065828765929E-002   5.6581619233879374E-003   2.4370506029443073E-002
  -1.8623897513525722E-002   4.7725173712750424E-003   2.3597042824280101E-002
  -3.1046272988925205E-002   9.0496152974298694E-003   1.9912329542134732E-002
  -2.8718709387161798E-002   8.2729001327671026E-003   1.9277553447916984E-002
  -2.6391145785398390E-002   7.5033364567900218E-003   1.8633565992151158E-002
  -2.4063582183634934E-002   6.7409242694976002E-003   1.7980367174837225E-002
  -2.1736018581871519E-002   5.9856635708904760E-003   1.7317956995975214E-002
  -3.4029118231104036E-002   1.0013732860760127E-002   1.3297173398262113E-002
  -3.1699372638960062E-002   9.2311481607343926E-003   1.2750508015062861E-002
  -2.9369627046816088E-002   8.5011327456834679E-003   1.2217417974173056E-002
  -2.7039881454672107E-002   7.8236866156071554E-003   1.1697903275592218E-002
  -2.4710135862528140E-002   7.1988097705059650E-003   1.1191963919320702E-002
  -3.6965106501022811E-002   1.0977850424090829E-002   6.6534388208817075E-003
  -3.4610392214641003E-002   1.0189396188701544E-002   6.2403019449907421E-003
  -3.2255677928259230E-002   9.4989290345770180E-003   5.8635271152663211E-003
  -2.9900963641877443E-002   8.9064489617173195E-003   5.5231143317084810E-003
  -2.7546249355495631E-002   8.4119559701216484E-003   5.2190635943167377E-003
  -3.9854237798681580E-002   1.1941967987420865E-002  -1.8874190006568092E-005
  -3.7451768114204809E-002   1.1147644216668695E-002  -2.5306476230008146E-004
  -3.5049298429727815E-002   1.0496725323471068E-002  -4.2810658456918227E-004
  -3.2646828745250933E-002   9.9892113078265260E-003  -5.4399965681482115E-004
  -3.0244359060774051E-002   9.6251021697368877E-003  -6.0074397903675525E-004
  -1.8623897513525722E-002   4.7725173712750424E-003   2.3597042824280101E-002
  -1.5611727495321137E-002   4.0556144991983900E-003   2.4384687332953292E-002
  -1.2599557477116552E-002   3.7144612947988265E-003   2.5644251105272631E-002
  -9.5873874589119529E-003   3.7490577580765530E-003   2.7375734141238534E-002
  -6.5752174407073816E-003   4.1594038890309104E-003   2.9579136440850862E-002
  -2.1736018581871519E-002   5.9856635708904760E-003   1.7317956995975214E-002
  -1.8519500975978639E-002   5.3252963897892913E-003   1.8255226223381271E-002
  -1.5302983370085746E-002   4.8475647550148271E-003   1.9129271362517325E-002
  -1.2086465764192901E-002   4.5524686665670624E-003   1.9940092413383556E-002
  -8.8699481582999729E-003   4.4400081244457823E-003   2.0687689375980312E-002
  -2.4710135862528140E-002   7.1988097705059650E-003   1.1191963919320702E-002
  -2.1824414020863131E-002   6.5949782803802759E-003   1.2085743744109173E-002
  -1.8938692179198240E-002   5.9806682152305918E-003   1.2381156128711948E-002
  -1.6052970337533289E-002   5.3558795750574574E-003   1.2078201073128493E-002
  -1.3167248495868339E-002   4.7206123598607652E-003   1.1176878577359162E-002
  -2.7546249355495631E-002   8.4119559701216484E-003   5.2190635943167377E-003
  -2.5526466629974702E-002   7.8646601709707747E-003   5.8762398951376568E-003
  -2.3506683904453887E-002   7.1137716754468075E-003   5.3999054038565038E-003
  -2.1486901178933003E-002   6.1592904835486868E-003   3.7900601204728292E-003
  -1.9467118453412140E-002   5.0012165952763588E-003   1.0467040449875370E-003
  -3.0244359060774051E-002   9.6251021697368877E-003  -6.0074397903675525E-004
  -2.9625658803313359E-002   9.1343420615621618E-003  -3.7328532353397836E-004
  -2.9006958545852723E-002   8.2468751356621350E-003  -1.8144808120492684E-003
  -2.8388258288392060E-002   6.9627013920387504E-003  -4.9243304445830693E-003
  -2.7769558030931396E-002   5.2818208306910641E-003  -9.7028342211350482E-003
  -6.5752174407073816E-003   4.1594038890309104E-003   2.9579136440850862E-002
  -6.0500052777497648E-003   6.1422850437397036E-003   3.4056323380032061E-002
  -5.5247931147922036E-003   1.0894486578282014E-002   3.9222396232083678E-002
  -4.9995809518345868E-003   1.8416008492656108E-002   4.5077354997005492E-002
  -4.4743687888770811E-003   2.8706850786863747E-002   5.1621199674798390E-002
  -8.8699481582999729E-003   4.4400081244457823E-003   2.0687689375980312E-002
  -7.5845179808160662E-003   5.6596661183585528E-003   2.5859099749628800E-002
  -6.2990878033319792E-003   9.3609256380119965E-003   3.1862060239459977E-002
  -5.0136576258480101E-003   1.5543786683406377E-002   3.8696570845473122E-002
  -3.7282274483640965E-003   2.4208249254541236E-002   4.6362631567669288E-002
  -1.3167248495868339E-002   4.7206123598607652E-003   1.1176878577359162E-002
  -1.0978936100545809E-002   5.1770471929770134E-003   1.6754793531383150E-002
  -8.7906237052233910E-003   7.8273646977420064E-003   2.3306922804901403E-002
  -6.6023113099009170E-003   1.2671564874155987E-002   3.0833266397914255E-002
  -4.4139989145783320E-003   1.9709647722219170E-002   3.9333824310421539E-002
  -1.9467118453412140E-002   5.0012165952763588E-003   1.0467040449875370E-003
  -1.6233259636939092E-002   4.6944282675956683E-003   6.7434047252946452E-003
  -1.2999400820466040E-002   6.2938037574724465E-003   1.3556983928408484E-002
  -9.7655420039931048E-003   9.7993430649063705E-003   2.1487441654329493E-002
  -6.5316831875199405E-003   1.5211046189896549E-002   3.0534777903055671E-002
  -2.7769558030931396E-002   5.2818208306910641E-003  -9.7028342211350482E-003
  -2.3347488589995802E-002   4.2118093422143232E-003  -4.1750666686360405E-003
  -1.8925419149060208E-002   4.7602428172019984E-003   2.6122436099818569E-003
  -1.4503349708124724E-002   6.9271212556557549E-003   1.0659096614717825E-002
  -1.0081280267189019E-002   1.0712444657574594E-002   1.9965492345572544E-002
 </DataArray>
 </PointData>
 </Piece>
 </UnstructuredGrid>
 </VTKFile>
