 <VTKFile type="UnstructuredGrid"  version="0.1"   >
 <UnstructuredGrid>
 <Piece  NumberOfPoints="          1600 "  NumberOfCells="         1024 ">
 <Points>
 <DataArray  type="Float64" NumberOfComponents="3"  format="ascii" >
   0.0000000000000000        0.0000000000000000        0.0000000000000000     
   3.1250000000000000E-002   0.0000000000000000        0.0000000000000000     
   6.2500000000000000E-002   0.0000000000000000        0.0000000000000000     
   9.3750000000000000E-002   0.0000000000000000        0.0000000000000000     
  0.12500000000000000        0.0000000000000000        0.0000000000000000     
   0.0000000000000000        3.1250000000000000E-002   0.0000000000000000     
   3.1250000000000000E-002   3.1250000000000000E-002   0.0000000000000000     
   6.2500000000000000E-002   3.1250000000000000E-002   0.0000000000000000     
   9.3750000000000000E-002   3.1250000000000000E-002   0.0000000000000000     
  0.12500000000000000        3.1250000000000000E-002   0.0000000000000000     
   0.0000000000000000        6.2500000000000000E-002   0.0000000000000000     
   3.1250000000000000E-002   6.2500000000000000E-002   0.0000000000000000     
   6.2500000000000000E-002   6.2500000000000000E-002   0.0000000000000000     
   9.3750000000000000E-002   6.2500000000000000E-002   0.0000000000000000     
  0.12500000000000000        6.2500000000000000E-002   0.0000000000000000     
   0.0000000000000000        9.3750000000000000E-002   0.0000000000000000     
   3.1250000000000000E-002   9.3750000000000000E-002   0.0000000000000000     
   6.2500000000000000E-002   9.3750000000000000E-002   0.0000000000000000     
   9.3750000000000000E-002   9.3750000000000000E-002   0.0000000000000000     
  0.12500000000000000        9.3750000000000000E-002   0.0000000000000000     
   0.0000000000000000       0.12500000000000000        0.0000000000000000     
   3.1250000000000000E-002  0.12500000000000000        0.0000000000000000     
   6.2500000000000000E-002  0.12500000000000000        0.0000000000000000     
   9.3750000000000000E-002  0.12500000000000000        0.0000000000000000     
  0.12500000000000000       0.12500000000000000        0.0000000000000000     
  0.12500000000000000        0.0000000000000000        0.0000000000000000     
  0.15625000000000000        0.0000000000000000        0.0000000000000000     
  0.18750000000000000        0.0000000000000000        0.0000000000000000     
  0.21875000000000000        0.0000000000000000        0.0000000000000000     
  0.25000000000000000        0.0000000000000000        0.0000000000000000     
  0.12500000000000000        3.1250000000000000E-002   0.0000000000000000     
  0.15625000000000000        3.1250000000000000E-002   0.0000000000000000     
  0.18750000000000000        3.1250000000000000E-002   0.0000000000000000     
  0.21875000000000000        3.1250000000000000E-002   0.0000000000000000     
  0.25000000000000000        3.1250000000000000E-002   0.0000000000000000     
  0.12500000000000000        6.2500000000000000E-002   0.0000000000000000     
  0.15625000000000000        6.2500000000000000E-002   0.0000000000000000     
  0.18750000000000000        6.2500000000000000E-002   0.0000000000000000     
  0.21875000000000000        6.2500000000000000E-002   0.0000000000000000     
  0.25000000000000000        6.2500000000000000E-002   0.0000000000000000     
  0.12500000000000000        9.3750000000000000E-002   0.0000000000000000     
  0.15625000000000000        9.3750000000000000E-002   0.0000000000000000     
  0.18750000000000000        9.3750000000000000E-002   0.0000000000000000     
  0.21875000000000000        9.3750000000000000E-002   0.0000000000000000     
  0.25000000000000000        9.3750000000000000E-002   0.0000000000000000     
  0.12500000000000000       0.12500000000000000        0.0000000000000000     
  0.15625000000000000       0.12500000000000000        0.0000000000000000     
  0.18750000000000000       0.12500000000000000        0.0000000000000000     
  0.21875000000000000       0.12500000000000000        0.0000000000000000     
  0.25000000000000000       0.12500000000000000        0.0000000000000000     
  0.25000000000000000        0.0000000000000000        0.0000000000000000     
  0.28125000000000000        0.0000000000000000        0.0000000000000000     
  0.31250000000000000        0.0000000000000000        0.0000000000000000     
  0.34375000000000000        0.0000000000000000        0.0000000000000000     
  0.37500000000000000        0.0000000000000000        0.0000000000000000     
  0.25000000000000000        3.1250000000000000E-002   0.0000000000000000     
  0.28125000000000000        3.1250000000000000E-002   0.0000000000000000     
  0.31250000000000000        3.1250000000000000E-002   0.0000000000000000     
  0.34375000000000000        3.1250000000000000E-002   0.0000000000000000     
  0.37500000000000000        3.1250000000000000E-002   0.0000000000000000     
  0.25000000000000000        6.2500000000000000E-002   0.0000000000000000     
  0.28125000000000000        6.2500000000000000E-002   0.0000000000000000     
  0.31250000000000000        6.2500000000000000E-002   0.0000000000000000     
  0.34375000000000000        6.2500000000000000E-002   0.0000000000000000     
  0.37500000000000000        6.2500000000000000E-002   0.0000000000000000     
  0.25000000000000000        9.3750000000000000E-002   0.0000000000000000     
  0.28125000000000000        9.3750000000000000E-002   0.0000000000000000     
  0.31250000000000000        9.3750000000000000E-002   0.0000000000000000     
  0.34375000000000000        9.3750000000000000E-002   0.0000000000000000     
  0.37500000000000000        9.3750000000000000E-002   0.0000000000000000     
  0.25000000000000000       0.12500000000000000        0.0000000000000000     
  0.28125000000000000       0.12500000000000000        0.0000000000000000     
  0.31250000000000000       0.12500000000000000        0.0000000000000000     
  0.34375000000000000       0.12500000000000000        0.0000000000000000     
  0.37500000000000000       0.12500000000000000        0.0000000000000000     
  0.37500000000000000        0.0000000000000000        0.0000000000000000     
  0.40625000000000000        0.0000000000000000        0.0000000000000000     
  0.43750000000000000        0.0000000000000000        0.0000000000000000     
  0.46875000000000000        0.0000000000000000        0.0000000000000000     
  0.50000000000000000        0.0000000000000000        0.0000000000000000     
  0.37500000000000000        3.1250000000000000E-002   0.0000000000000000     
  0.40625000000000000        3.1250000000000000E-002   0.0000000000000000     
  0.43750000000000000        3.1250000000000000E-002   0.0000000000000000     
  0.46875000000000000        3.1250000000000000E-002   0.0000000000000000     
  0.50000000000000000        3.1250000000000000E-002   0.0000000000000000     
  0.37500000000000000        6.2500000000000000E-002   0.0000000000000000     
  0.40625000000000000        6.2500000000000000E-002   0.0000000000000000     
  0.43750000000000000        6.2500000000000000E-002   0.0000000000000000     
  0.46875000000000000        6.2500000000000000E-002   0.0000000000000000     
  0.50000000000000000        6.2500000000000000E-002   0.0000000000000000     
  0.37500000000000000        9.3750000000000000E-002   0.0000000000000000     
  0.40625000000000000        9.3750000000000000E-002   0.0000000000000000     
  0.43750000000000000        9.3750000000000000E-002   0.0000000000000000     
  0.46875000000000000        9.3750000000000000E-002   0.0000000000000000     
  0.50000000000000000        9.3750000000000000E-002   0.0000000000000000     
  0.37500000000000000       0.12500000000000000        0.0000000000000000     
  0.40625000000000000       0.12500000000000000        0.0000000000000000     
  0.43750000000000000       0.12500000000000000        0.0000000000000000     
  0.46875000000000000       0.12500000000000000        0.0000000000000000     
  0.50000000000000000       0.12500000000000000        0.0000000000000000     
  0.50000000000000000        0.0000000000000000        0.0000000000000000     
  0.53125000000000000        0.0000000000000000        0.0000000000000000     
  0.56250000000000000        0.0000000000000000        0.0000000000000000     
  0.59375000000000000        0.0000000000000000        0.0000000000000000     
  0.62500000000000000        0.0000000000000000        0.0000000000000000     
  0.50000000000000000        3.1250000000000000E-002   0.0000000000000000     
  0.53125000000000000        3.1250000000000000E-002   0.0000000000000000     
  0.56250000000000000        3.1250000000000000E-002   0.0000000000000000     
  0.59375000000000000        3.1250000000000000E-002   0.0000000000000000     
  0.62500000000000000        3.1250000000000000E-002   0.0000000000000000     
  0.50000000000000000        6.2500000000000000E-002   0.0000000000000000     
  0.53125000000000000        6.2500000000000000E-002   0.0000000000000000     
  0.56250000000000000        6.2500000000000000E-002   0.0000000000000000     
  0.59375000000000000        6.2500000000000000E-002   0.0000000000000000     
  0.62500000000000000        6.2500000000000000E-002   0.0000000000000000     
  0.50000000000000000        9.3750000000000000E-002   0.0000000000000000     
  0.53125000000000000        9.3750000000000000E-002   0.0000000000000000     
  0.56250000000000000        9.3750000000000000E-002   0.0000000000000000     
  0.59375000000000000        9.3750000000000000E-002   0.0000000000000000     
  0.62500000000000000        9.3750000000000000E-002   0.0000000000000000     
  0.50000000000000000       0.12500000000000000        0.0000000000000000     
  0.53125000000000000       0.12500000000000000        0.0000000000000000     
  0.56250000000000000       0.12500000000000000        0.0000000000000000     
  0.59375000000000000       0.12500000000000000        0.0000000000000000     
  0.62500000000000000       0.12500000000000000        0.0000000000000000     
  0.62500000000000000        0.0000000000000000        0.0000000000000000     
  0.65625000000000000        0.0000000000000000        0.0000000000000000     
  0.68750000000000000        0.0000000000000000        0.0000000000000000     
  0.71875000000000000        0.0000000000000000        0.0000000000000000     
  0.75000000000000000        0.0000000000000000        0.0000000000000000     
  0.62500000000000000        3.1250000000000000E-002   0.0000000000000000     
  0.65625000000000000        3.1250000000000000E-002   0.0000000000000000     
  0.68750000000000000        3.1250000000000000E-002   0.0000000000000000     
  0.71875000000000000        3.1250000000000000E-002   0.0000000000000000     
  0.75000000000000000        3.1250000000000000E-002   0.0000000000000000     
  0.62500000000000000        6.2500000000000000E-002   0.0000000000000000     
  0.65625000000000000        6.2500000000000000E-002   0.0000000000000000     
  0.68750000000000000        6.2500000000000000E-002   0.0000000000000000     
  0.71875000000000000        6.2500000000000000E-002   0.0000000000000000     
  0.75000000000000000        6.2500000000000000E-002   0.0000000000000000     
  0.62500000000000000        9.3750000000000000E-002   0.0000000000000000     
  0.65625000000000000        9.3750000000000000E-002   0.0000000000000000     
  0.68750000000000000        9.3750000000000000E-002   0.0000000000000000     
  0.71875000000000000        9.3750000000000000E-002   0.0000000000000000     
  0.75000000000000000        9.3750000000000000E-002   0.0000000000000000     
  0.62500000000000000       0.12500000000000000        0.0000000000000000     
  0.65625000000000000       0.12500000000000000        0.0000000000000000     
  0.68750000000000000       0.12500000000000000        0.0000000000000000     
  0.71875000000000000       0.12500000000000000        0.0000000000000000     
  0.75000000000000000       0.12500000000000000        0.0000000000000000     
  0.75000000000000000        0.0000000000000000        0.0000000000000000     
  0.78125000000000000        0.0000000000000000        0.0000000000000000     
  0.81250000000000000        0.0000000000000000        0.0000000000000000     
  0.84375000000000000        0.0000000000000000        0.0000000000000000     
  0.87500000000000000        0.0000000000000000        0.0000000000000000     
  0.75000000000000000        3.1250000000000000E-002   0.0000000000000000     
  0.78125000000000000        3.1250000000000000E-002   0.0000000000000000     
  0.81250000000000000        3.1250000000000000E-002   0.0000000000000000     
  0.84375000000000000        3.1250000000000000E-002   0.0000000000000000     
  0.87500000000000000        3.1250000000000000E-002   0.0000000000000000     
  0.75000000000000000        6.2500000000000000E-002   0.0000000000000000     
  0.78125000000000000        6.2500000000000000E-002   0.0000000000000000     
  0.81250000000000000        6.2500000000000000E-002   0.0000000000000000     
  0.84375000000000000        6.2500000000000000E-002   0.0000000000000000     
  0.87500000000000000        6.2500000000000000E-002   0.0000000000000000     
  0.75000000000000000        9.3750000000000000E-002   0.0000000000000000     
  0.78125000000000000        9.3750000000000000E-002   0.0000000000000000     
  0.81250000000000000        9.3750000000000000E-002   0.0000000000000000     
  0.84375000000000000        9.3750000000000000E-002   0.0000000000000000     
  0.87500000000000000        9.3750000000000000E-002   0.0000000000000000     
  0.75000000000000000       0.12500000000000000        0.0000000000000000     
  0.78125000000000000       0.12500000000000000        0.0000000000000000     
  0.81250000000000000       0.12500000000000000        0.0000000000000000     
  0.84375000000000000       0.12500000000000000        0.0000000000000000     
  0.87500000000000000       0.12500000000000000        0.0000000000000000     
  0.87500000000000000        0.0000000000000000        0.0000000000000000     
  0.90625000000000000        0.0000000000000000        0.0000000000000000     
  0.93750000000000000        0.0000000000000000        0.0000000000000000     
  0.96875000000000000        0.0000000000000000        0.0000000000000000     
   1.0000000000000000        0.0000000000000000        0.0000000000000000     
  0.87500000000000000        3.1250000000000000E-002   0.0000000000000000     
  0.90625000000000000        3.1250000000000000E-002   0.0000000000000000     
  0.93750000000000000        3.1250000000000000E-002   0.0000000000000000     
  0.96875000000000000        3.1250000000000000E-002   0.0000000000000000     
   1.0000000000000000        3.1250000000000000E-002   0.0000000000000000     
  0.87500000000000000        6.2500000000000000E-002   0.0000000000000000     
  0.90625000000000000        6.2500000000000000E-002   0.0000000000000000     
  0.93750000000000000        6.2500000000000000E-002   0.0000000000000000     
  0.96875000000000000        6.2500000000000000E-002   0.0000000000000000     
   1.0000000000000000        6.2500000000000000E-002   0.0000000000000000     
  0.87500000000000000        9.3750000000000000E-002   0.0000000000000000     
  0.90625000000000000        9.3750000000000000E-002   0.0000000000000000     
  0.93750000000000000        9.3750000000000000E-002   0.0000000000000000     
  0.96875000000000000        9.3750000000000000E-002   0.0000000000000000     
   1.0000000000000000        9.3750000000000000E-002   0.0000000000000000     
  0.87500000000000000       0.12500000000000000        0.0000000000000000     
  0.90625000000000000       0.12500000000000000        0.0000000000000000     
  0.93750000000000000       0.12500000000000000        0.0000000000000000     
  0.96875000000000000       0.12500000000000000        0.0000000000000000     
   1.0000000000000000       0.12500000000000000        0.0000000000000000     
   0.0000000000000000       0.12500000000000000        0.0000000000000000     
   3.1250000000000000E-002  0.12500000000000000        0.0000000000000000     
   6.2500000000000000E-002  0.12500000000000000        0.0000000000000000     
   9.3750000000000000E-002  0.12500000000000000        0.0000000000000000     
  0.12500000000000000       0.12500000000000000        0.0000000000000000     
   0.0000000000000000       0.15625000000000000        0.0000000000000000     
   3.1250000000000000E-002  0.15625000000000000        0.0000000000000000     
   6.2500000000000000E-002  0.15625000000000000        0.0000000000000000     
   9.3750000000000000E-002  0.15625000000000000        0.0000000000000000     
  0.12500000000000000       0.15625000000000000        0.0000000000000000     
   0.0000000000000000       0.18750000000000000        0.0000000000000000     
   3.1250000000000000E-002  0.18750000000000000        0.0000000000000000     
   6.2500000000000000E-002  0.18750000000000000        0.0000000000000000     
   9.3750000000000000E-002  0.18750000000000000        0.0000000000000000     
  0.12500000000000000       0.18750000000000000        0.0000000000000000     
   0.0000000000000000       0.21875000000000000        0.0000000000000000     
   3.1250000000000000E-002  0.21875000000000000        0.0000000000000000     
   6.2500000000000000E-002  0.21875000000000000        0.0000000000000000     
   9.3750000000000000E-002  0.21875000000000000        0.0000000000000000     
  0.12500000000000000       0.21875000000000000        0.0000000000000000     
   0.0000000000000000       0.25000000000000000        0.0000000000000000     
   3.1250000000000000E-002  0.25000000000000000        0.0000000000000000     
   6.2500000000000000E-002  0.25000000000000000        0.0000000000000000     
   9.3750000000000000E-002  0.25000000000000000        0.0000000000000000     
  0.12500000000000000       0.25000000000000000        0.0000000000000000     
  0.12500000000000000       0.12500000000000000        0.0000000000000000     
  0.15625000000000000       0.12500000000000000        0.0000000000000000     
  0.18750000000000000       0.12500000000000000        0.0000000000000000     
  0.21875000000000000       0.12500000000000000        0.0000000000000000     
  0.25000000000000000       0.12500000000000000        0.0000000000000000     
  0.12500000000000000       0.15625000000000000        0.0000000000000000     
  0.15625000000000000       0.15625000000000000        0.0000000000000000     
  0.18750000000000000       0.15625000000000000        0.0000000000000000     
  0.21875000000000000       0.15625000000000000        0.0000000000000000     
  0.25000000000000000       0.15625000000000000        0.0000000000000000     
  0.12500000000000000       0.18750000000000000        0.0000000000000000     
  0.15625000000000000       0.18750000000000000        0.0000000000000000     
  0.18750000000000000       0.18750000000000000        0.0000000000000000     
  0.21875000000000000       0.18750000000000000        0.0000000000000000     
  0.25000000000000000       0.18750000000000000        0.0000000000000000     
  0.12500000000000000       0.21875000000000000        0.0000000000000000     
  0.15625000000000000       0.21875000000000000        0.0000000000000000     
  0.18750000000000000       0.21875000000000000        0.0000000000000000     
  0.21875000000000000       0.21875000000000000        0.0000000000000000     
  0.25000000000000000       0.21875000000000000        0.0000000000000000     
  0.12500000000000000       0.25000000000000000        0.0000000000000000     
  0.15625000000000000       0.25000000000000000        0.0000000000000000     
  0.18750000000000000       0.25000000000000000        0.0000000000000000     
  0.21875000000000000       0.25000000000000000        0.0000000000000000     
  0.25000000000000000       0.25000000000000000        0.0000000000000000     
  0.25000000000000000       0.12500000000000000        0.0000000000000000     
  0.28125000000000000       0.12500000000000000        0.0000000000000000     
  0.31250000000000000       0.12500000000000000        0.0000000000000000     
  0.34375000000000000       0.12500000000000000        0.0000000000000000     
  0.37500000000000000       0.12500000000000000        0.0000000000000000     
  0.25000000000000000       0.15625000000000000        0.0000000000000000     
  0.28125000000000000       0.15625000000000000        0.0000000000000000     
  0.31250000000000000       0.15625000000000000        0.0000000000000000     
  0.34375000000000000       0.15625000000000000        0.0000000000000000     
  0.37500000000000000       0.15625000000000000        0.0000000000000000     
  0.25000000000000000       0.18750000000000000        0.0000000000000000     
  0.28125000000000000       0.18750000000000000        0.0000000000000000     
  0.31250000000000000       0.18750000000000000        0.0000000000000000     
  0.34375000000000000       0.18750000000000000        0.0000000000000000     
  0.37500000000000000       0.18750000000000000        0.0000000000000000     
  0.25000000000000000       0.21875000000000000        0.0000000000000000     
  0.28125000000000000       0.21875000000000000        0.0000000000000000     
  0.31250000000000000       0.21875000000000000        0.0000000000000000     
  0.34375000000000000       0.21875000000000000        0.0000000000000000     
  0.37500000000000000       0.21875000000000000        0.0000000000000000     
  0.25000000000000000       0.25000000000000000        0.0000000000000000     
  0.28125000000000000       0.25000000000000000        0.0000000000000000     
  0.31250000000000000       0.25000000000000000        0.0000000000000000     
  0.34375000000000000       0.25000000000000000        0.0000000000000000     
  0.37500000000000000       0.25000000000000000        0.0000000000000000     
  0.37500000000000000       0.12500000000000000        0.0000000000000000     
  0.40625000000000000       0.12500000000000000        0.0000000000000000     
  0.43750000000000000       0.12500000000000000        0.0000000000000000     
  0.46875000000000000       0.12500000000000000        0.0000000000000000     
  0.50000000000000000       0.12500000000000000        0.0000000000000000     
  0.37500000000000000       0.15625000000000000        0.0000000000000000     
  0.40625000000000000       0.15625000000000000        0.0000000000000000     
  0.43750000000000000       0.15625000000000000        0.0000000000000000     
  0.46875000000000000       0.15625000000000000        0.0000000000000000     
  0.50000000000000000       0.15625000000000000        0.0000000000000000     
  0.37500000000000000       0.18750000000000000        0.0000000000000000     
  0.40625000000000000       0.18750000000000000        0.0000000000000000     
  0.43750000000000000       0.18750000000000000        0.0000000000000000     
  0.46875000000000000       0.18750000000000000        0.0000000000000000     
  0.50000000000000000       0.18750000000000000        0.0000000000000000     
  0.37500000000000000       0.21875000000000000        0.0000000000000000     
  0.40625000000000000       0.21875000000000000        0.0000000000000000     
  0.43750000000000000       0.21875000000000000        0.0000000000000000     
  0.46875000000000000       0.21875000000000000        0.0000000000000000     
  0.50000000000000000       0.21875000000000000        0.0000000000000000     
  0.37500000000000000       0.25000000000000000        0.0000000000000000     
  0.40625000000000000       0.25000000000000000        0.0000000000000000     
  0.43750000000000000       0.25000000000000000        0.0000000000000000     
  0.46875000000000000       0.25000000000000000        0.0000000000000000     
  0.50000000000000000       0.25000000000000000        0.0000000000000000     
  0.50000000000000000       0.12500000000000000        0.0000000000000000     
  0.53125000000000000       0.12500000000000000        0.0000000000000000     
  0.56250000000000000       0.12500000000000000        0.0000000000000000     
  0.59375000000000000       0.12500000000000000        0.0000000000000000     
  0.62500000000000000       0.12500000000000000        0.0000000000000000     
  0.50000000000000000       0.15625000000000000        0.0000000000000000     
  0.53125000000000000       0.15625000000000000        0.0000000000000000     
  0.56250000000000000       0.15625000000000000        0.0000000000000000     
  0.59375000000000000       0.15625000000000000        0.0000000000000000     
  0.62500000000000000       0.15625000000000000        0.0000000000000000     
  0.50000000000000000       0.18750000000000000        0.0000000000000000     
  0.53125000000000000       0.18750000000000000        0.0000000000000000     
  0.56250000000000000       0.18750000000000000        0.0000000000000000     
  0.59375000000000000       0.18750000000000000        0.0000000000000000     
  0.62500000000000000       0.18750000000000000        0.0000000000000000     
  0.50000000000000000       0.21875000000000000        0.0000000000000000     
  0.53125000000000000       0.21875000000000000        0.0000000000000000     
  0.56250000000000000       0.21875000000000000        0.0000000000000000     
  0.59375000000000000       0.21875000000000000        0.0000000000000000     
  0.62500000000000000       0.21875000000000000        0.0000000000000000     
  0.50000000000000000       0.25000000000000000        0.0000000000000000     
  0.53125000000000000       0.25000000000000000        0.0000000000000000     
  0.56250000000000000       0.25000000000000000        0.0000000000000000     
  0.59375000000000000       0.25000000000000000        0.0000000000000000     
  0.62500000000000000       0.25000000000000000        0.0000000000000000     
  0.62500000000000000       0.12500000000000000        0.0000000000000000     
  0.65625000000000000       0.12500000000000000        0.0000000000000000     
  0.68750000000000000       0.12500000000000000        0.0000000000000000     
  0.71875000000000000       0.12500000000000000        0.0000000000000000     
  0.75000000000000000       0.12500000000000000        0.0000000000000000     
  0.62500000000000000       0.15625000000000000        0.0000000000000000     
  0.65625000000000000       0.15625000000000000        0.0000000000000000     
  0.68750000000000000       0.15625000000000000        0.0000000000000000     
  0.71875000000000000       0.15625000000000000        0.0000000000000000     
  0.75000000000000000       0.15625000000000000        0.0000000000000000     
  0.62500000000000000       0.18750000000000000        0.0000000000000000     
  0.65625000000000000       0.18750000000000000        0.0000000000000000     
  0.68750000000000000       0.18750000000000000        0.0000000000000000     
  0.71875000000000000       0.18750000000000000        0.0000000000000000     
  0.75000000000000000       0.18750000000000000        0.0000000000000000     
  0.62500000000000000       0.21875000000000000        0.0000000000000000     
  0.65625000000000000       0.21875000000000000        0.0000000000000000     
  0.68750000000000000       0.21875000000000000        0.0000000000000000     
  0.71875000000000000       0.21875000000000000        0.0000000000000000     
  0.75000000000000000       0.21875000000000000        0.0000000000000000     
  0.62500000000000000       0.25000000000000000        0.0000000000000000     
  0.65625000000000000       0.25000000000000000        0.0000000000000000     
  0.68750000000000000       0.25000000000000000        0.0000000000000000     
  0.71875000000000000       0.25000000000000000        0.0000000000000000     
  0.75000000000000000       0.25000000000000000        0.0000000000000000     
  0.75000000000000000       0.12500000000000000        0.0000000000000000     
  0.78125000000000000       0.12500000000000000        0.0000000000000000     
  0.81250000000000000       0.12500000000000000        0.0000000000000000     
  0.84375000000000000       0.12500000000000000        0.0000000000000000     
  0.87500000000000000       0.12500000000000000        0.0000000000000000     
  0.75000000000000000       0.15625000000000000        0.0000000000000000     
  0.78125000000000000       0.15625000000000000        0.0000000000000000     
  0.81250000000000000       0.15625000000000000        0.0000000000000000     
  0.84375000000000000       0.15625000000000000        0.0000000000000000     
  0.87500000000000000       0.15625000000000000        0.0000000000000000     
  0.75000000000000000       0.18750000000000000        0.0000000000000000     
  0.78125000000000000       0.18750000000000000        0.0000000000000000     
  0.81250000000000000       0.18750000000000000        0.0000000000000000     
  0.84375000000000000       0.18750000000000000        0.0000000000000000     
  0.87500000000000000       0.18750000000000000        0.0000000000000000     
  0.75000000000000000       0.21875000000000000        0.0000000000000000     
  0.78125000000000000       0.21875000000000000        0.0000000000000000     
  0.81250000000000000       0.21875000000000000        0.0000000000000000     
  0.84375000000000000       0.21875000000000000        0.0000000000000000     
  0.87500000000000000       0.21875000000000000        0.0000000000000000     
  0.75000000000000000       0.25000000000000000        0.0000000000000000     
  0.78125000000000000       0.25000000000000000        0.0000000000000000     
  0.81250000000000000       0.25000000000000000        0.0000000000000000     
  0.84375000000000000       0.25000000000000000        0.0000000000000000     
  0.87500000000000000       0.25000000000000000        0.0000000000000000     
  0.87500000000000000       0.12500000000000000        0.0000000000000000     
  0.90625000000000000       0.12500000000000000        0.0000000000000000     
  0.93750000000000000       0.12500000000000000        0.0000000000000000     
  0.96875000000000000       0.12500000000000000        0.0000000000000000     
   1.0000000000000000       0.12500000000000000        0.0000000000000000     
  0.87500000000000000       0.15625000000000000        0.0000000000000000     
  0.90625000000000000       0.15625000000000000        0.0000000000000000     
  0.93750000000000000       0.15625000000000000        0.0000000000000000     
  0.96875000000000000       0.15625000000000000        0.0000000000000000     
   1.0000000000000000       0.15625000000000000        0.0000000000000000     
  0.87500000000000000       0.18750000000000000        0.0000000000000000     
  0.90625000000000000       0.18750000000000000        0.0000000000000000     
  0.93750000000000000       0.18750000000000000        0.0000000000000000     
  0.96875000000000000       0.18750000000000000        0.0000000000000000     
   1.0000000000000000       0.18750000000000000        0.0000000000000000     
  0.87500000000000000       0.21875000000000000        0.0000000000000000     
  0.90625000000000000       0.21875000000000000        0.0000000000000000     
  0.93750000000000000       0.21875000000000000        0.0000000000000000     
  0.96875000000000000       0.21875000000000000        0.0000000000000000     
   1.0000000000000000       0.21875000000000000        0.0000000000000000     
  0.87500000000000000       0.25000000000000000        0.0000000000000000     
  0.90625000000000000       0.25000000000000000        0.0000000000000000     
  0.93750000000000000       0.25000000000000000        0.0000000000000000     
  0.96875000000000000       0.25000000000000000        0.0000000000000000     
   1.0000000000000000       0.25000000000000000        0.0000000000000000     
   0.0000000000000000       0.25000000000000000        0.0000000000000000     
   3.1250000000000000E-002  0.25000000000000000        0.0000000000000000     
   6.2500000000000000E-002  0.25000000000000000        0.0000000000000000     
   9.3750000000000000E-002  0.25000000000000000        0.0000000000000000     
  0.12500000000000000       0.25000000000000000        0.0000000000000000     
   0.0000000000000000       0.28125000000000000        0.0000000000000000     
   3.1250000000000000E-002  0.28125000000000000        0.0000000000000000     
   6.2500000000000000E-002  0.28125000000000000        0.0000000000000000     
   9.3750000000000000E-002  0.28125000000000000        0.0000000000000000     
  0.12500000000000000       0.28125000000000000        0.0000000000000000     
   0.0000000000000000       0.31250000000000000        0.0000000000000000     
   3.1250000000000000E-002  0.31250000000000000        0.0000000000000000     
   6.2500000000000000E-002  0.31250000000000000        0.0000000000000000     
   9.3750000000000000E-002  0.31250000000000000        0.0000000000000000     
  0.12500000000000000       0.31250000000000000        0.0000000000000000     
   0.0000000000000000       0.34375000000000000        0.0000000000000000     
   3.1250000000000000E-002  0.34375000000000000        0.0000000000000000     
   6.2500000000000000E-002  0.34375000000000000        0.0000000000000000     
   9.3750000000000000E-002  0.34375000000000000        0.0000000000000000     
  0.12500000000000000       0.34375000000000000        0.0000000000000000     
   0.0000000000000000       0.37500000000000000        0.0000000000000000     
   3.1250000000000000E-002  0.37500000000000000        0.0000000000000000     
   6.2500000000000000E-002  0.37500000000000000        0.0000000000000000     
   9.3750000000000000E-002  0.37500000000000000        0.0000000000000000     
  0.12500000000000000       0.37500000000000000        0.0000000000000000     
  0.12500000000000000       0.25000000000000000        0.0000000000000000     
  0.15625000000000000       0.25000000000000000        0.0000000000000000     
  0.18750000000000000       0.25000000000000000        0.0000000000000000     
  0.21875000000000000       0.25000000000000000        0.0000000000000000     
  0.25000000000000000       0.25000000000000000        0.0000000000000000     
  0.12500000000000000       0.28125000000000000        0.0000000000000000     
  0.15625000000000000       0.28125000000000000        0.0000000000000000     
  0.18750000000000000       0.28125000000000000        0.0000000000000000     
  0.21875000000000000       0.28125000000000000        0.0000000000000000     
  0.25000000000000000       0.28125000000000000        0.0000000000000000     
  0.12500000000000000       0.31250000000000000        0.0000000000000000     
  0.15625000000000000       0.31250000000000000        0.0000000000000000     
  0.18750000000000000       0.31250000000000000        0.0000000000000000     
  0.21875000000000000       0.31250000000000000        0.0000000000000000     
  0.25000000000000000       0.31250000000000000        0.0000000000000000     
  0.12500000000000000       0.34375000000000000        0.0000000000000000     
  0.15625000000000000       0.34375000000000000        0.0000000000000000     
  0.18750000000000000       0.34375000000000000        0.0000000000000000     
  0.21875000000000000       0.34375000000000000        0.0000000000000000     
  0.25000000000000000       0.34375000000000000        0.0000000000000000     
  0.12500000000000000       0.37500000000000000        0.0000000000000000     
  0.15625000000000000       0.37500000000000000        0.0000000000000000     
  0.18750000000000000       0.37500000000000000        0.0000000000000000     
  0.21875000000000000       0.37500000000000000        0.0000000000000000     
  0.25000000000000000       0.37500000000000000        0.0000000000000000     
  0.25000000000000000       0.25000000000000000        0.0000000000000000     
  0.28125000000000000       0.25000000000000000        0.0000000000000000     
  0.31250000000000000       0.25000000000000000        0.0000000000000000     
  0.34375000000000000       0.25000000000000000        0.0000000000000000     
  0.37500000000000000       0.25000000000000000        0.0000000000000000     
  0.25000000000000000       0.28125000000000000        0.0000000000000000     
  0.28125000000000000       0.28125000000000000        0.0000000000000000     
  0.31250000000000000       0.28125000000000000        0.0000000000000000     
  0.34375000000000000       0.28125000000000000        0.0000000000000000     
  0.37500000000000000       0.28125000000000000        0.0000000000000000     
  0.25000000000000000       0.31250000000000000        0.0000000000000000     
  0.28125000000000000       0.31250000000000000        0.0000000000000000     
  0.31250000000000000       0.31250000000000000        0.0000000000000000     
  0.34375000000000000       0.31250000000000000        0.0000000000000000     
  0.37500000000000000       0.31250000000000000        0.0000000000000000     
  0.25000000000000000       0.34375000000000000        0.0000000000000000     
  0.28125000000000000       0.34375000000000000        0.0000000000000000     
  0.31250000000000000       0.34375000000000000        0.0000000000000000     
  0.34375000000000000       0.34375000000000000        0.0000000000000000     
  0.37500000000000000       0.34375000000000000        0.0000000000000000     
  0.25000000000000000       0.37500000000000000        0.0000000000000000     
  0.28125000000000000       0.37500000000000000        0.0000000000000000     
  0.31250000000000000       0.37500000000000000        0.0000000000000000     
  0.34375000000000000       0.37500000000000000        0.0000000000000000     
  0.37500000000000000       0.37500000000000000        0.0000000000000000     
  0.37500000000000000       0.25000000000000000        0.0000000000000000     
  0.40625000000000000       0.25000000000000000        0.0000000000000000     
  0.43750000000000000       0.25000000000000000        0.0000000000000000     
  0.46875000000000000       0.25000000000000000        0.0000000000000000     
  0.50000000000000000       0.25000000000000000        0.0000000000000000     
  0.37500000000000000       0.28125000000000000        0.0000000000000000     
  0.40625000000000000       0.28125000000000000        0.0000000000000000     
  0.43750000000000000       0.28125000000000000        0.0000000000000000     
  0.46875000000000000       0.28125000000000000        0.0000000000000000     
  0.50000000000000000       0.28125000000000000        0.0000000000000000     
  0.37500000000000000       0.31250000000000000        0.0000000000000000     
  0.40625000000000000       0.31250000000000000        0.0000000000000000     
  0.43750000000000000       0.31250000000000000        0.0000000000000000     
  0.46875000000000000       0.31250000000000000        0.0000000000000000     
  0.50000000000000000       0.31250000000000000        0.0000000000000000     
  0.37500000000000000       0.34375000000000000        0.0000000000000000     
  0.40625000000000000       0.34375000000000000        0.0000000000000000     
  0.43750000000000000       0.34375000000000000        0.0000000000000000     
  0.46875000000000000       0.34375000000000000        0.0000000000000000     
  0.50000000000000000       0.34375000000000000        0.0000000000000000     
  0.37500000000000000       0.37500000000000000        0.0000000000000000     
  0.40625000000000000       0.37500000000000000        0.0000000000000000     
  0.43750000000000000       0.37500000000000000        0.0000000000000000     
  0.46875000000000000       0.37500000000000000        0.0000000000000000     
  0.50000000000000000       0.37500000000000000        0.0000000000000000     
  0.50000000000000000       0.25000000000000000        0.0000000000000000     
  0.53125000000000000       0.25000000000000000        0.0000000000000000     
  0.56250000000000000       0.25000000000000000        0.0000000000000000     
  0.59375000000000000       0.25000000000000000        0.0000000000000000     
  0.62500000000000000       0.25000000000000000        0.0000000000000000     
  0.50000000000000000       0.28125000000000000        0.0000000000000000     
  0.53125000000000000       0.28125000000000000        0.0000000000000000     
  0.56250000000000000       0.28125000000000000        0.0000000000000000     
  0.59375000000000000       0.28125000000000000        0.0000000000000000     
  0.62500000000000000       0.28125000000000000        0.0000000000000000     
  0.50000000000000000       0.31250000000000000        0.0000000000000000     
  0.53125000000000000       0.31250000000000000        0.0000000000000000     
  0.56250000000000000       0.31250000000000000        0.0000000000000000     
  0.59375000000000000       0.31250000000000000        0.0000000000000000     
  0.62500000000000000       0.31250000000000000        0.0000000000000000     
  0.50000000000000000       0.34375000000000000        0.0000000000000000     
  0.53125000000000000       0.34375000000000000        0.0000000000000000     
  0.56250000000000000       0.34375000000000000        0.0000000000000000     
  0.59375000000000000       0.34375000000000000        0.0000000000000000     
  0.62500000000000000       0.34375000000000000        0.0000000000000000     
  0.50000000000000000       0.37500000000000000        0.0000000000000000     
  0.53125000000000000       0.37500000000000000        0.0000000000000000     
  0.56250000000000000       0.37500000000000000        0.0000000000000000     
  0.59375000000000000       0.37500000000000000        0.0000000000000000     
  0.62500000000000000       0.37500000000000000        0.0000000000000000     
  0.62500000000000000       0.25000000000000000        0.0000000000000000     
  0.65625000000000000       0.25000000000000000        0.0000000000000000     
  0.68750000000000000       0.25000000000000000        0.0000000000000000     
  0.71875000000000000       0.25000000000000000        0.0000000000000000     
  0.75000000000000000       0.25000000000000000        0.0000000000000000     
  0.62500000000000000       0.28125000000000000        0.0000000000000000     
  0.65625000000000000       0.28125000000000000        0.0000000000000000     
  0.68750000000000000       0.28125000000000000        0.0000000000000000     
  0.71875000000000000       0.28125000000000000        0.0000000000000000     
  0.75000000000000000       0.28125000000000000        0.0000000000000000     
  0.62500000000000000       0.31250000000000000        0.0000000000000000     
  0.65625000000000000       0.31250000000000000        0.0000000000000000     
  0.68750000000000000       0.31250000000000000        0.0000000000000000     
  0.71875000000000000       0.31250000000000000        0.0000000000000000     
  0.75000000000000000       0.31250000000000000        0.0000000000000000     
  0.62500000000000000       0.34375000000000000        0.0000000000000000     
  0.65625000000000000       0.34375000000000000        0.0000000000000000     
  0.68750000000000000       0.34375000000000000        0.0000000000000000     
  0.71875000000000000       0.34375000000000000        0.0000000000000000     
  0.75000000000000000       0.34375000000000000        0.0000000000000000     
  0.62500000000000000       0.37500000000000000        0.0000000000000000     
  0.65625000000000000       0.37500000000000000        0.0000000000000000     
  0.68750000000000000       0.37500000000000000        0.0000000000000000     
  0.71875000000000000       0.37500000000000000        0.0000000000000000     
  0.75000000000000000       0.37500000000000000        0.0000000000000000     
  0.75000000000000000       0.25000000000000000        0.0000000000000000     
  0.78125000000000000       0.25000000000000000        0.0000000000000000     
  0.81250000000000000       0.25000000000000000        0.0000000000000000     
  0.84375000000000000       0.25000000000000000        0.0000000000000000     
  0.87500000000000000       0.25000000000000000        0.0000000000000000     
  0.75000000000000000       0.28125000000000000        0.0000000000000000     
  0.78125000000000000       0.28125000000000000        0.0000000000000000     
  0.81250000000000000       0.28125000000000000        0.0000000000000000     
  0.84375000000000000       0.28125000000000000        0.0000000000000000     
  0.87500000000000000       0.28125000000000000        0.0000000000000000     
  0.75000000000000000       0.31250000000000000        0.0000000000000000     
  0.78125000000000000       0.31250000000000000        0.0000000000000000     
  0.81250000000000000       0.31250000000000000        0.0000000000000000     
  0.84375000000000000       0.31250000000000000        0.0000000000000000     
  0.87500000000000000       0.31250000000000000        0.0000000000000000     
  0.75000000000000000       0.34375000000000000        0.0000000000000000     
  0.78125000000000000       0.34375000000000000        0.0000000000000000     
  0.81250000000000000       0.34375000000000000        0.0000000000000000     
  0.84375000000000000       0.34375000000000000        0.0000000000000000     
  0.87500000000000000       0.34375000000000000        0.0000000000000000     
  0.75000000000000000       0.37500000000000000        0.0000000000000000     
  0.78125000000000000       0.37500000000000000        0.0000000000000000     
  0.81250000000000000       0.37500000000000000        0.0000000000000000     
  0.84375000000000000       0.37500000000000000        0.0000000000000000     
  0.87500000000000000       0.37500000000000000        0.0000000000000000     
  0.87500000000000000       0.25000000000000000        0.0000000000000000     
  0.90625000000000000       0.25000000000000000        0.0000000000000000     
  0.93750000000000000       0.25000000000000000        0.0000000000000000     
  0.96875000000000000       0.25000000000000000        0.0000000000000000     
   1.0000000000000000       0.25000000000000000        0.0000000000000000     
  0.87500000000000000       0.28125000000000000        0.0000000000000000     
  0.90625000000000000       0.28125000000000000        0.0000000000000000     
  0.93750000000000000       0.28125000000000000        0.0000000000000000     
  0.96875000000000000       0.28125000000000000        0.0000000000000000     
   1.0000000000000000       0.28125000000000000        0.0000000000000000     
  0.87500000000000000       0.31250000000000000        0.0000000000000000     
  0.90625000000000000       0.31250000000000000        0.0000000000000000     
  0.93750000000000000       0.31250000000000000        0.0000000000000000     
  0.96875000000000000       0.31250000000000000        0.0000000000000000     
   1.0000000000000000       0.31250000000000000        0.0000000000000000     
  0.87500000000000000       0.34375000000000000        0.0000000000000000     
  0.90625000000000000       0.34375000000000000        0.0000000000000000     
  0.93750000000000000       0.34375000000000000        0.0000000000000000     
  0.96875000000000000       0.34375000000000000        0.0000000000000000     
   1.0000000000000000       0.34375000000000000        0.0000000000000000     
  0.87500000000000000       0.37500000000000000        0.0000000000000000     
  0.90625000000000000       0.37500000000000000        0.0000000000000000     
  0.93750000000000000       0.37500000000000000        0.0000000000000000     
  0.96875000000000000       0.37500000000000000        0.0000000000000000     
   1.0000000000000000       0.37500000000000000        0.0000000000000000     
   0.0000000000000000       0.37500000000000000        0.0000000000000000     
   3.1250000000000000E-002  0.37500000000000000        0.0000000000000000     
   6.2500000000000000E-002  0.37500000000000000        0.0000000000000000     
   9.3750000000000000E-002  0.37500000000000000        0.0000000000000000     
  0.12500000000000000       0.37500000000000000        0.0000000000000000     
   0.0000000000000000       0.40625000000000000        0.0000000000000000     
   3.1250000000000000E-002  0.40625000000000000        0.0000000000000000     
   6.2500000000000000E-002  0.40625000000000000        0.0000000000000000     
   9.3750000000000000E-002  0.40625000000000000        0.0000000000000000     
  0.12500000000000000       0.40625000000000000        0.0000000000000000     
   0.0000000000000000       0.43750000000000000        0.0000000000000000     
   3.1250000000000000E-002  0.43750000000000000        0.0000000000000000     
   6.2500000000000000E-002  0.43750000000000000        0.0000000000000000     
   9.3750000000000000E-002  0.43750000000000000        0.0000000000000000     
  0.12500000000000000       0.43750000000000000        0.0000000000000000     
   0.0000000000000000       0.46875000000000000        0.0000000000000000     
   3.1250000000000000E-002  0.46875000000000000        0.0000000000000000     
   6.2500000000000000E-002  0.46875000000000000        0.0000000000000000     
   9.3750000000000000E-002  0.46875000000000000        0.0000000000000000     
  0.12500000000000000       0.46875000000000000        0.0000000000000000     
   0.0000000000000000       0.50000000000000000        0.0000000000000000     
   3.1250000000000000E-002  0.50000000000000000        0.0000000000000000     
   6.2500000000000000E-002  0.50000000000000000        0.0000000000000000     
   9.3750000000000000E-002  0.50000000000000000        0.0000000000000000     
  0.12500000000000000       0.50000000000000000        0.0000000000000000     
  0.12500000000000000       0.37500000000000000        0.0000000000000000     
  0.15625000000000000       0.37500000000000000        0.0000000000000000     
  0.18750000000000000       0.37500000000000000        0.0000000000000000     
  0.21875000000000000       0.37500000000000000        0.0000000000000000     
  0.25000000000000000       0.37500000000000000        0.0000000000000000     
  0.12500000000000000       0.40625000000000000        0.0000000000000000     
  0.15625000000000000       0.40625000000000000        0.0000000000000000     
  0.18750000000000000       0.40625000000000000        0.0000000000000000     
  0.21875000000000000       0.40625000000000000        0.0000000000000000     
  0.25000000000000000       0.40625000000000000        0.0000000000000000     
  0.12500000000000000       0.43750000000000000        0.0000000000000000     
  0.15625000000000000       0.43750000000000000        0.0000000000000000     
  0.18750000000000000       0.43750000000000000        0.0000000000000000     
  0.21875000000000000       0.43750000000000000        0.0000000000000000     
  0.25000000000000000       0.43750000000000000        0.0000000000000000     
  0.12500000000000000       0.46875000000000000        0.0000000000000000     
  0.15625000000000000       0.46875000000000000        0.0000000000000000     
  0.18750000000000000       0.46875000000000000        0.0000000000000000     
  0.21875000000000000       0.46875000000000000        0.0000000000000000     
  0.25000000000000000       0.46875000000000000        0.0000000000000000     
  0.12500000000000000       0.50000000000000000        0.0000000000000000     
  0.15625000000000000       0.50000000000000000        0.0000000000000000     
  0.18750000000000000       0.50000000000000000        0.0000000000000000     
  0.21875000000000000       0.50000000000000000        0.0000000000000000     
  0.25000000000000000       0.50000000000000000        0.0000000000000000     
  0.25000000000000000       0.37500000000000000        0.0000000000000000     
  0.28125000000000000       0.37500000000000000        0.0000000000000000     
  0.31250000000000000       0.37500000000000000        0.0000000000000000     
  0.34375000000000000       0.37500000000000000        0.0000000000000000     
  0.37500000000000000       0.37500000000000000        0.0000000000000000     
  0.25000000000000000       0.40625000000000000        0.0000000000000000     
  0.28125000000000000       0.40625000000000000        0.0000000000000000     
  0.31250000000000000       0.40625000000000000        0.0000000000000000     
  0.34375000000000000       0.40625000000000000        0.0000000000000000     
  0.37500000000000000       0.40625000000000000        0.0000000000000000     
  0.25000000000000000       0.43750000000000000        0.0000000000000000     
  0.28125000000000000       0.43750000000000000        0.0000000000000000     
  0.31250000000000000       0.43750000000000000        0.0000000000000000     
  0.34375000000000000       0.43750000000000000        0.0000000000000000     
  0.37500000000000000       0.43750000000000000        0.0000000000000000     
  0.25000000000000000       0.46875000000000000        0.0000000000000000     
  0.28125000000000000       0.46875000000000000        0.0000000000000000     
  0.31250000000000000       0.46875000000000000        0.0000000000000000     
  0.34375000000000000       0.46875000000000000        0.0000000000000000     
  0.37500000000000000       0.46875000000000000        0.0000000000000000     
  0.25000000000000000       0.50000000000000000        0.0000000000000000     
  0.28125000000000000       0.50000000000000000        0.0000000000000000     
  0.31250000000000000       0.50000000000000000        0.0000000000000000     
  0.34375000000000000       0.50000000000000000        0.0000000000000000     
  0.37500000000000000       0.50000000000000000        0.0000000000000000     
  0.37500000000000000       0.37500000000000000        0.0000000000000000     
  0.40625000000000000       0.37500000000000000        0.0000000000000000     
  0.43750000000000000       0.37500000000000000        0.0000000000000000     
  0.46875000000000000       0.37500000000000000        0.0000000000000000     
  0.50000000000000000       0.37500000000000000        0.0000000000000000     
  0.37500000000000000       0.40625000000000000        0.0000000000000000     
  0.40625000000000000       0.40625000000000000        0.0000000000000000     
  0.43750000000000000       0.40625000000000000        0.0000000000000000     
  0.46875000000000000       0.40625000000000000        0.0000000000000000     
  0.50000000000000000       0.40625000000000000        0.0000000000000000     
  0.37500000000000000       0.43750000000000000        0.0000000000000000     
  0.40625000000000000       0.43750000000000000        0.0000000000000000     
  0.43750000000000000       0.43750000000000000        0.0000000000000000     
  0.46875000000000000       0.43750000000000000        0.0000000000000000     
  0.50000000000000000       0.43750000000000000        0.0000000000000000     
  0.37500000000000000       0.46875000000000000        0.0000000000000000     
  0.40625000000000000       0.46875000000000000        0.0000000000000000     
  0.43750000000000000       0.46875000000000000        0.0000000000000000     
  0.46875000000000000       0.46875000000000000        0.0000000000000000     
  0.50000000000000000       0.46875000000000000        0.0000000000000000     
  0.37500000000000000       0.50000000000000000        0.0000000000000000     
  0.40625000000000000       0.50000000000000000        0.0000000000000000     
  0.43750000000000000       0.50000000000000000        0.0000000000000000     
  0.46875000000000000       0.50000000000000000        0.0000000000000000     
  0.50000000000000000       0.50000000000000000        0.0000000000000000     
  0.50000000000000000       0.37500000000000000        0.0000000000000000     
  0.53125000000000000       0.37500000000000000        0.0000000000000000     
  0.56250000000000000       0.37500000000000000        0.0000000000000000     
  0.59375000000000000       0.37500000000000000        0.0000000000000000     
  0.62500000000000000       0.37500000000000000        0.0000000000000000     
  0.50000000000000000       0.40625000000000000        0.0000000000000000     
  0.53125000000000000       0.40625000000000000        0.0000000000000000     
  0.56250000000000000       0.40625000000000000        0.0000000000000000     
  0.59375000000000000       0.40625000000000000        0.0000000000000000     
  0.62500000000000000       0.40625000000000000        0.0000000000000000     
  0.50000000000000000       0.43750000000000000        0.0000000000000000     
  0.53125000000000000       0.43750000000000000        0.0000000000000000     
  0.56250000000000000       0.43750000000000000        0.0000000000000000     
  0.59375000000000000       0.43750000000000000        0.0000000000000000     
  0.62500000000000000       0.43750000000000000        0.0000000000000000     
  0.50000000000000000       0.46875000000000000        0.0000000000000000     
  0.53125000000000000       0.46875000000000000        0.0000000000000000     
  0.56250000000000000       0.46875000000000000        0.0000000000000000     
  0.59375000000000000       0.46875000000000000        0.0000000000000000     
  0.62500000000000000       0.46875000000000000        0.0000000000000000     
  0.50000000000000000       0.50000000000000000        0.0000000000000000     
  0.53125000000000000       0.50000000000000000        0.0000000000000000     
  0.56250000000000000       0.50000000000000000        0.0000000000000000     
  0.59375000000000000       0.50000000000000000        0.0000000000000000     
  0.62500000000000000       0.50000000000000000        0.0000000000000000     
  0.62500000000000000       0.37500000000000000        0.0000000000000000     
  0.65625000000000000       0.37500000000000000        0.0000000000000000     
  0.68750000000000000       0.37500000000000000        0.0000000000000000     
  0.71875000000000000       0.37500000000000000        0.0000000000000000     
  0.75000000000000000       0.37500000000000000        0.0000000000000000     
  0.62500000000000000       0.40625000000000000        0.0000000000000000     
  0.65625000000000000       0.40625000000000000        0.0000000000000000     
  0.68750000000000000       0.40625000000000000        0.0000000000000000     
  0.71875000000000000       0.40625000000000000        0.0000000000000000     
  0.75000000000000000       0.40625000000000000        0.0000000000000000     
  0.62500000000000000       0.43750000000000000        0.0000000000000000     
  0.65625000000000000       0.43750000000000000        0.0000000000000000     
  0.68750000000000000       0.43750000000000000        0.0000000000000000     
  0.71875000000000000       0.43750000000000000        0.0000000000000000     
  0.75000000000000000       0.43750000000000000        0.0000000000000000     
  0.62500000000000000       0.46875000000000000        0.0000000000000000     
  0.65625000000000000       0.46875000000000000        0.0000000000000000     
  0.68750000000000000       0.46875000000000000        0.0000000000000000     
  0.71875000000000000       0.46875000000000000        0.0000000000000000     
  0.75000000000000000       0.46875000000000000        0.0000000000000000     
  0.62500000000000000       0.50000000000000000        0.0000000000000000     
  0.65625000000000000       0.50000000000000000        0.0000000000000000     
  0.68750000000000000       0.50000000000000000        0.0000000000000000     
  0.71875000000000000       0.50000000000000000        0.0000000000000000     
  0.75000000000000000       0.50000000000000000        0.0000000000000000     
  0.75000000000000000       0.37500000000000000        0.0000000000000000     
  0.78125000000000000       0.37500000000000000        0.0000000000000000     
  0.81250000000000000       0.37500000000000000        0.0000000000000000     
  0.84375000000000000       0.37500000000000000        0.0000000000000000     
  0.87500000000000000       0.37500000000000000        0.0000000000000000     
  0.75000000000000000       0.40625000000000000        0.0000000000000000     
  0.78125000000000000       0.40625000000000000        0.0000000000000000     
  0.81250000000000000       0.40625000000000000        0.0000000000000000     
  0.84375000000000000       0.40625000000000000        0.0000000000000000     
  0.87500000000000000       0.40625000000000000        0.0000000000000000     
  0.75000000000000000       0.43750000000000000        0.0000000000000000     
  0.78125000000000000       0.43750000000000000        0.0000000000000000     
  0.81250000000000000       0.43750000000000000        0.0000000000000000     
  0.84375000000000000       0.43750000000000000        0.0000000000000000     
  0.87500000000000000       0.43750000000000000        0.0000000000000000     
  0.75000000000000000       0.46875000000000000        0.0000000000000000     
  0.78125000000000000       0.46875000000000000        0.0000000000000000     
  0.81250000000000000       0.46875000000000000        0.0000000000000000     
  0.84375000000000000       0.46875000000000000        0.0000000000000000     
  0.87500000000000000       0.46875000000000000        0.0000000000000000     
  0.75000000000000000       0.50000000000000000        0.0000000000000000     
  0.78125000000000000       0.50000000000000000        0.0000000000000000     
  0.81250000000000000       0.50000000000000000        0.0000000000000000     
  0.84375000000000000       0.50000000000000000        0.0000000000000000     
  0.87500000000000000       0.50000000000000000        0.0000000000000000     
  0.87500000000000000       0.37500000000000000        0.0000000000000000     
  0.90625000000000000       0.37500000000000000        0.0000000000000000     
  0.93750000000000000       0.37500000000000000        0.0000000000000000     
  0.96875000000000000       0.37500000000000000        0.0000000000000000     
   1.0000000000000000       0.37500000000000000        0.0000000000000000     
  0.87500000000000000       0.40625000000000000        0.0000000000000000     
  0.90625000000000000       0.40625000000000000        0.0000000000000000     
  0.93750000000000000       0.40625000000000000        0.0000000000000000     
  0.96875000000000000       0.40625000000000000        0.0000000000000000     
   1.0000000000000000       0.40625000000000000        0.0000000000000000     
  0.87500000000000000       0.43750000000000000        0.0000000000000000     
  0.90625000000000000       0.43750000000000000        0.0000000000000000     
  0.93750000000000000       0.43750000000000000        0.0000000000000000     
  0.96875000000000000       0.43750000000000000        0.0000000000000000     
   1.0000000000000000       0.43750000000000000        0.0000000000000000     
  0.87500000000000000       0.46875000000000000        0.0000000000000000     
  0.90625000000000000       0.46875000000000000        0.0000000000000000     
  0.93750000000000000       0.46875000000000000        0.0000000000000000     
  0.96875000000000000       0.46875000000000000        0.0000000000000000     
   1.0000000000000000       0.46875000000000000        0.0000000000000000     
  0.87500000000000000       0.50000000000000000        0.0000000000000000     
  0.90625000000000000       0.50000000000000000        0.0000000000000000     
  0.93750000000000000       0.50000000000000000        0.0000000000000000     
  0.96875000000000000       0.50000000000000000        0.0000000000000000     
   1.0000000000000000       0.50000000000000000        0.0000000000000000     
   0.0000000000000000       0.50000000000000000        0.0000000000000000     
   3.1250000000000000E-002  0.50000000000000000        0.0000000000000000     
   6.2500000000000000E-002  0.50000000000000000        0.0000000000000000     
   9.3750000000000000E-002  0.50000000000000000        0.0000000000000000     
  0.12500000000000000       0.50000000000000000        0.0000000000000000     
   0.0000000000000000       0.53125000000000000        0.0000000000000000     
   3.1250000000000000E-002  0.53125000000000000        0.0000000000000000     
   6.2500000000000000E-002  0.53125000000000000        0.0000000000000000     
   9.3750000000000000E-002  0.53125000000000000        0.0000000000000000     
  0.12500000000000000       0.53125000000000000        0.0000000000000000     
   0.0000000000000000       0.56250000000000000        0.0000000000000000     
   3.1250000000000000E-002  0.56250000000000000        0.0000000000000000     
   6.2500000000000000E-002  0.56250000000000000        0.0000000000000000     
   9.3750000000000000E-002  0.56250000000000000        0.0000000000000000     
  0.12500000000000000       0.56250000000000000        0.0000000000000000     
   0.0000000000000000       0.59375000000000000        0.0000000000000000     
   3.1250000000000000E-002  0.59375000000000000        0.0000000000000000     
   6.2500000000000000E-002  0.59375000000000000        0.0000000000000000     
   9.3750000000000000E-002  0.59375000000000000        0.0000000000000000     
  0.12500000000000000       0.59375000000000000        0.0000000000000000     
   0.0000000000000000       0.62500000000000000        0.0000000000000000     
   3.1250000000000000E-002  0.62500000000000000        0.0000000000000000     
   6.2500000000000000E-002  0.62500000000000000        0.0000000000000000     
   9.3750000000000000E-002  0.62500000000000000        0.0000000000000000     
  0.12500000000000000       0.62500000000000000        0.0000000000000000     
  0.12500000000000000       0.50000000000000000        0.0000000000000000     
  0.15625000000000000       0.50000000000000000        0.0000000000000000     
  0.18750000000000000       0.50000000000000000        0.0000000000000000     
  0.21875000000000000       0.50000000000000000        0.0000000000000000     
  0.25000000000000000       0.50000000000000000        0.0000000000000000     
  0.12500000000000000       0.53125000000000000        0.0000000000000000     
  0.15625000000000000       0.53125000000000000        0.0000000000000000     
  0.18750000000000000       0.53125000000000000        0.0000000000000000     
  0.21875000000000000       0.53125000000000000        0.0000000000000000     
  0.25000000000000000       0.53125000000000000        0.0000000000000000     
  0.12500000000000000       0.56250000000000000        0.0000000000000000     
  0.15625000000000000       0.56250000000000000        0.0000000000000000     
  0.18750000000000000       0.56250000000000000        0.0000000000000000     
  0.21875000000000000       0.56250000000000000        0.0000000000000000     
  0.25000000000000000       0.56250000000000000        0.0000000000000000     
  0.12500000000000000       0.59375000000000000        0.0000000000000000     
  0.15625000000000000       0.59375000000000000        0.0000000000000000     
  0.18750000000000000       0.59375000000000000        0.0000000000000000     
  0.21875000000000000       0.59375000000000000        0.0000000000000000     
  0.25000000000000000       0.59375000000000000        0.0000000000000000     
  0.12500000000000000       0.62500000000000000        0.0000000000000000     
  0.15625000000000000       0.62500000000000000        0.0000000000000000     
  0.18750000000000000       0.62500000000000000        0.0000000000000000     
  0.21875000000000000       0.62500000000000000        0.0000000000000000     
  0.25000000000000000       0.62500000000000000        0.0000000000000000     
  0.25000000000000000       0.50000000000000000        0.0000000000000000     
  0.28125000000000000       0.50000000000000000        0.0000000000000000     
  0.31250000000000000       0.50000000000000000        0.0000000000000000     
  0.34375000000000000       0.50000000000000000        0.0000000000000000     
  0.37500000000000000       0.50000000000000000        0.0000000000000000     
  0.25000000000000000       0.53125000000000000        0.0000000000000000     
  0.28125000000000000       0.53125000000000000        0.0000000000000000     
  0.31250000000000000       0.53125000000000000        0.0000000000000000     
  0.34375000000000000       0.53125000000000000        0.0000000000000000     
  0.37500000000000000       0.53125000000000000        0.0000000000000000     
  0.25000000000000000       0.56250000000000000        0.0000000000000000     
  0.28125000000000000       0.56250000000000000        0.0000000000000000     
  0.31250000000000000       0.56250000000000000        0.0000000000000000     
  0.34375000000000000       0.56250000000000000        0.0000000000000000     
  0.37500000000000000       0.56250000000000000        0.0000000000000000     
  0.25000000000000000       0.59375000000000000        0.0000000000000000     
  0.28125000000000000       0.59375000000000000        0.0000000000000000     
  0.31250000000000000       0.59375000000000000        0.0000000000000000     
  0.34375000000000000       0.59375000000000000        0.0000000000000000     
  0.37500000000000000       0.59375000000000000        0.0000000000000000     
  0.25000000000000000       0.62500000000000000        0.0000000000000000     
  0.28125000000000000       0.62500000000000000        0.0000000000000000     
  0.31250000000000000       0.62500000000000000        0.0000000000000000     
  0.34375000000000000       0.62500000000000000        0.0000000000000000     
  0.37500000000000000       0.62500000000000000        0.0000000000000000     
  0.37500000000000000       0.50000000000000000        0.0000000000000000     
  0.40625000000000000       0.50000000000000000        0.0000000000000000     
  0.43750000000000000       0.50000000000000000        0.0000000000000000     
  0.46875000000000000       0.50000000000000000        0.0000000000000000     
  0.50000000000000000       0.50000000000000000        0.0000000000000000     
  0.37500000000000000       0.53125000000000000        0.0000000000000000     
  0.40625000000000000       0.53125000000000000        0.0000000000000000     
  0.43750000000000000       0.53125000000000000        0.0000000000000000     
  0.46875000000000000       0.53125000000000000        0.0000000000000000     
  0.50000000000000000       0.53125000000000000        0.0000000000000000     
  0.37500000000000000       0.56250000000000000        0.0000000000000000     
  0.40625000000000000       0.56250000000000000        0.0000000000000000     
  0.43750000000000000       0.56250000000000000        0.0000000000000000     
  0.46875000000000000       0.56250000000000000        0.0000000000000000     
  0.50000000000000000       0.56250000000000000        0.0000000000000000     
  0.37500000000000000       0.59375000000000000        0.0000000000000000     
  0.40625000000000000       0.59375000000000000        0.0000000000000000     
  0.43750000000000000       0.59375000000000000        0.0000000000000000     
  0.46875000000000000       0.59375000000000000        0.0000000000000000     
  0.50000000000000000       0.59375000000000000        0.0000000000000000     
  0.37500000000000000       0.62500000000000000        0.0000000000000000     
  0.40625000000000000       0.62500000000000000        0.0000000000000000     
  0.43750000000000000       0.62500000000000000        0.0000000000000000     
  0.46875000000000000       0.62500000000000000        0.0000000000000000     
  0.50000000000000000       0.62500000000000000        0.0000000000000000     
  0.50000000000000000       0.50000000000000000        0.0000000000000000     
  0.53125000000000000       0.50000000000000000        0.0000000000000000     
  0.56250000000000000       0.50000000000000000        0.0000000000000000     
  0.59375000000000000       0.50000000000000000        0.0000000000000000     
  0.62500000000000000       0.50000000000000000        0.0000000000000000     
  0.50000000000000000       0.53125000000000000        0.0000000000000000     
  0.53125000000000000       0.53125000000000000        0.0000000000000000     
  0.56250000000000000       0.53125000000000000        0.0000000000000000     
  0.59375000000000000       0.53125000000000000        0.0000000000000000     
  0.62500000000000000       0.53125000000000000        0.0000000000000000     
  0.50000000000000000       0.56250000000000000        0.0000000000000000     
  0.53125000000000000       0.56250000000000000        0.0000000000000000     
  0.56250000000000000       0.56250000000000000        0.0000000000000000     
  0.59375000000000000       0.56250000000000000        0.0000000000000000     
  0.62500000000000000       0.56250000000000000        0.0000000000000000     
  0.50000000000000000       0.59375000000000000        0.0000000000000000     
  0.53125000000000000       0.59375000000000000        0.0000000000000000     
  0.56250000000000000       0.59375000000000000        0.0000000000000000     
  0.59375000000000000       0.59375000000000000        0.0000000000000000     
  0.62500000000000000       0.59375000000000000        0.0000000000000000     
  0.50000000000000000       0.62500000000000000        0.0000000000000000     
  0.53125000000000000       0.62500000000000000        0.0000000000000000     
  0.56250000000000000       0.62500000000000000        0.0000000000000000     
  0.59375000000000000       0.62500000000000000        0.0000000000000000     
  0.62500000000000000       0.62500000000000000        0.0000000000000000     
  0.62500000000000000       0.50000000000000000        0.0000000000000000     
  0.65625000000000000       0.50000000000000000        0.0000000000000000     
  0.68750000000000000       0.50000000000000000        0.0000000000000000     
  0.71875000000000000       0.50000000000000000        0.0000000000000000     
  0.75000000000000000       0.50000000000000000        0.0000000000000000     
  0.62500000000000000       0.53125000000000000        0.0000000000000000     
  0.65625000000000000       0.53125000000000000        0.0000000000000000     
  0.68750000000000000       0.53125000000000000        0.0000000000000000     
  0.71875000000000000       0.53125000000000000        0.0000000000000000     
  0.75000000000000000       0.53125000000000000        0.0000000000000000     
  0.62500000000000000       0.56250000000000000        0.0000000000000000     
  0.65625000000000000       0.56250000000000000        0.0000000000000000     
  0.68750000000000000       0.56250000000000000        0.0000000000000000     
  0.71875000000000000       0.56250000000000000        0.0000000000000000     
  0.75000000000000000       0.56250000000000000        0.0000000000000000     
  0.62500000000000000       0.59375000000000000        0.0000000000000000     
  0.65625000000000000       0.59375000000000000        0.0000000000000000     
  0.68750000000000000       0.59375000000000000        0.0000000000000000     
  0.71875000000000000       0.59375000000000000        0.0000000000000000     
  0.75000000000000000       0.59375000000000000        0.0000000000000000     
  0.62500000000000000       0.62500000000000000        0.0000000000000000     
  0.65625000000000000       0.62500000000000000        0.0000000000000000     
  0.68750000000000000       0.62500000000000000        0.0000000000000000     
  0.71875000000000000       0.62500000000000000        0.0000000000000000     
  0.75000000000000000       0.62500000000000000        0.0000000000000000     
  0.75000000000000000       0.50000000000000000        0.0000000000000000     
  0.78125000000000000       0.50000000000000000        0.0000000000000000     
  0.81250000000000000       0.50000000000000000        0.0000000000000000     
  0.84375000000000000       0.50000000000000000        0.0000000000000000     
  0.87500000000000000       0.50000000000000000        0.0000000000000000     
  0.75000000000000000       0.53125000000000000        0.0000000000000000     
  0.78125000000000000       0.53125000000000000        0.0000000000000000     
  0.81250000000000000       0.53125000000000000        0.0000000000000000     
  0.84375000000000000       0.53125000000000000        0.0000000000000000     
  0.87500000000000000       0.53125000000000000        0.0000000000000000     
  0.75000000000000000       0.56250000000000000        0.0000000000000000     
  0.78125000000000000       0.56250000000000000        0.0000000000000000     
  0.81250000000000000       0.56250000000000000        0.0000000000000000     
  0.84375000000000000       0.56250000000000000        0.0000000000000000     
  0.87500000000000000       0.56250000000000000        0.0000000000000000     
  0.75000000000000000       0.59375000000000000        0.0000000000000000     
  0.78125000000000000       0.59375000000000000        0.0000000000000000     
  0.81250000000000000       0.59375000000000000        0.0000000000000000     
  0.84375000000000000       0.59375000000000000        0.0000000000000000     
  0.87500000000000000       0.59375000000000000        0.0000000000000000     
  0.75000000000000000       0.62500000000000000        0.0000000000000000     
  0.78125000000000000       0.62500000000000000        0.0000000000000000     
  0.81250000000000000       0.62500000000000000        0.0000000000000000     
  0.84375000000000000       0.62500000000000000        0.0000000000000000     
  0.87500000000000000       0.62500000000000000        0.0000000000000000     
  0.87500000000000000       0.50000000000000000        0.0000000000000000     
  0.90625000000000000       0.50000000000000000        0.0000000000000000     
  0.93750000000000000       0.50000000000000000        0.0000000000000000     
  0.96875000000000000       0.50000000000000000        0.0000000000000000     
   1.0000000000000000       0.50000000000000000        0.0000000000000000     
  0.87500000000000000       0.53125000000000000        0.0000000000000000     
  0.90625000000000000       0.53125000000000000        0.0000000000000000     
  0.93750000000000000       0.53125000000000000        0.0000000000000000     
  0.96875000000000000       0.53125000000000000        0.0000000000000000     
   1.0000000000000000       0.53125000000000000        0.0000000000000000     
  0.87500000000000000       0.56250000000000000        0.0000000000000000     
  0.90625000000000000       0.56250000000000000        0.0000000000000000     
  0.93750000000000000       0.56250000000000000        0.0000000000000000     
  0.96875000000000000       0.56250000000000000        0.0000000000000000     
   1.0000000000000000       0.56250000000000000        0.0000000000000000     
  0.87500000000000000       0.59375000000000000        0.0000000000000000     
  0.90625000000000000       0.59375000000000000        0.0000000000000000     
  0.93750000000000000       0.59375000000000000        0.0000000000000000     
  0.96875000000000000       0.59375000000000000        0.0000000000000000     
   1.0000000000000000       0.59375000000000000        0.0000000000000000     
  0.87500000000000000       0.62500000000000000        0.0000000000000000     
  0.90625000000000000       0.62500000000000000        0.0000000000000000     
  0.93750000000000000       0.62500000000000000        0.0000000000000000     
  0.96875000000000000       0.62500000000000000        0.0000000000000000     
   1.0000000000000000       0.62500000000000000        0.0000000000000000     
   0.0000000000000000       0.62500000000000000        0.0000000000000000     
   3.1250000000000000E-002  0.62500000000000000        0.0000000000000000     
   6.2500000000000000E-002  0.62500000000000000        0.0000000000000000     
   9.3750000000000000E-002  0.62500000000000000        0.0000000000000000     
  0.12500000000000000       0.62500000000000000        0.0000000000000000     
   0.0000000000000000       0.65625000000000000        0.0000000000000000     
   3.1250000000000000E-002  0.65625000000000000        0.0000000000000000     
   6.2500000000000000E-002  0.65625000000000000        0.0000000000000000     
   9.3750000000000000E-002  0.65625000000000000        0.0000000000000000     
  0.12500000000000000       0.65625000000000000        0.0000000000000000     
   0.0000000000000000       0.68750000000000000        0.0000000000000000     
   3.1250000000000000E-002  0.68750000000000000        0.0000000000000000     
   6.2500000000000000E-002  0.68750000000000000        0.0000000000000000     
   9.3750000000000000E-002  0.68750000000000000        0.0000000000000000     
  0.12500000000000000       0.68750000000000000        0.0000000000000000     
   0.0000000000000000       0.71875000000000000        0.0000000000000000     
   3.1250000000000000E-002  0.71875000000000000        0.0000000000000000     
   6.2500000000000000E-002  0.71875000000000000        0.0000000000000000     
   9.3750000000000000E-002  0.71875000000000000        0.0000000000000000     
  0.12500000000000000       0.71875000000000000        0.0000000000000000     
   0.0000000000000000       0.75000000000000000        0.0000000000000000     
   3.1250000000000000E-002  0.75000000000000000        0.0000000000000000     
   6.2500000000000000E-002  0.75000000000000000        0.0000000000000000     
   9.3750000000000000E-002  0.75000000000000000        0.0000000000000000     
  0.12500000000000000       0.75000000000000000        0.0000000000000000     
  0.12500000000000000       0.62500000000000000        0.0000000000000000     
  0.15625000000000000       0.62500000000000000        0.0000000000000000     
  0.18750000000000000       0.62500000000000000        0.0000000000000000     
  0.21875000000000000       0.62500000000000000        0.0000000000000000     
  0.25000000000000000       0.62500000000000000        0.0000000000000000     
  0.12500000000000000       0.65625000000000000        0.0000000000000000     
  0.15625000000000000       0.65625000000000000        0.0000000000000000     
  0.18750000000000000       0.65625000000000000        0.0000000000000000     
  0.21875000000000000       0.65625000000000000        0.0000000000000000     
  0.25000000000000000       0.65625000000000000        0.0000000000000000     
  0.12500000000000000       0.68750000000000000        0.0000000000000000     
  0.15625000000000000       0.68750000000000000        0.0000000000000000     
  0.18750000000000000       0.68750000000000000        0.0000000000000000     
  0.21875000000000000       0.68750000000000000        0.0000000000000000     
  0.25000000000000000       0.68750000000000000        0.0000000000000000     
  0.12500000000000000       0.71875000000000000        0.0000000000000000     
  0.15625000000000000       0.71875000000000000        0.0000000000000000     
  0.18750000000000000       0.71875000000000000        0.0000000000000000     
  0.21875000000000000       0.71875000000000000        0.0000000000000000     
  0.25000000000000000       0.71875000000000000        0.0000000000000000     
  0.12500000000000000       0.75000000000000000        0.0000000000000000     
  0.15625000000000000       0.75000000000000000        0.0000000000000000     
  0.18750000000000000       0.75000000000000000        0.0000000000000000     
  0.21875000000000000       0.75000000000000000        0.0000000000000000     
  0.25000000000000000       0.75000000000000000        0.0000000000000000     
  0.25000000000000000       0.62500000000000000        0.0000000000000000     
  0.28125000000000000       0.62500000000000000        0.0000000000000000     
  0.31250000000000000       0.62500000000000000        0.0000000000000000     
  0.34375000000000000       0.62500000000000000        0.0000000000000000     
  0.37500000000000000       0.62500000000000000        0.0000000000000000     
  0.25000000000000000       0.65625000000000000        0.0000000000000000     
  0.28125000000000000       0.65625000000000000        0.0000000000000000     
  0.31250000000000000       0.65625000000000000        0.0000000000000000     
  0.34375000000000000       0.65625000000000000        0.0000000000000000     
  0.37500000000000000       0.65625000000000000        0.0000000000000000     
  0.25000000000000000       0.68750000000000000        0.0000000000000000     
  0.28125000000000000       0.68750000000000000        0.0000000000000000     
  0.31250000000000000       0.68750000000000000        0.0000000000000000     
  0.34375000000000000       0.68750000000000000        0.0000000000000000     
  0.37500000000000000       0.68750000000000000        0.0000000000000000     
  0.25000000000000000       0.71875000000000000        0.0000000000000000     
  0.28125000000000000       0.71875000000000000        0.0000000000000000     
  0.31250000000000000       0.71875000000000000        0.0000000000000000     
  0.34375000000000000       0.71875000000000000        0.0000000000000000     
  0.37500000000000000       0.71875000000000000        0.0000000000000000     
  0.25000000000000000       0.75000000000000000        0.0000000000000000     
  0.28125000000000000       0.75000000000000000        0.0000000000000000     
  0.31250000000000000       0.75000000000000000        0.0000000000000000     
  0.34375000000000000       0.75000000000000000        0.0000000000000000     
  0.37500000000000000       0.75000000000000000        0.0000000000000000     
  0.37500000000000000       0.62500000000000000        0.0000000000000000     
  0.40625000000000000       0.62500000000000000        0.0000000000000000     
  0.43750000000000000       0.62500000000000000        0.0000000000000000     
  0.46875000000000000       0.62500000000000000        0.0000000000000000     
  0.50000000000000000       0.62500000000000000        0.0000000000000000     
  0.37500000000000000       0.65625000000000000        0.0000000000000000     
  0.40625000000000000       0.65625000000000000        0.0000000000000000     
  0.43750000000000000       0.65625000000000000        0.0000000000000000     
  0.46875000000000000       0.65625000000000000        0.0000000000000000     
  0.50000000000000000       0.65625000000000000        0.0000000000000000     
  0.37500000000000000       0.68750000000000000        0.0000000000000000     
  0.40625000000000000       0.68750000000000000        0.0000000000000000     
  0.43750000000000000       0.68750000000000000        0.0000000000000000     
  0.46875000000000000       0.68750000000000000        0.0000000000000000     
  0.50000000000000000       0.68750000000000000        0.0000000000000000     
  0.37500000000000000       0.71875000000000000        0.0000000000000000     
  0.40625000000000000       0.71875000000000000        0.0000000000000000     
  0.43750000000000000       0.71875000000000000        0.0000000000000000     
  0.46875000000000000       0.71875000000000000        0.0000000000000000     
  0.50000000000000000       0.71875000000000000        0.0000000000000000     
  0.37500000000000000       0.75000000000000000        0.0000000000000000     
  0.40625000000000000       0.75000000000000000        0.0000000000000000     
  0.43750000000000000       0.75000000000000000        0.0000000000000000     
  0.46875000000000000       0.75000000000000000        0.0000000000000000     
  0.50000000000000000       0.75000000000000000        0.0000000000000000     
  0.50000000000000000       0.62500000000000000        0.0000000000000000     
  0.53125000000000000       0.62500000000000000        0.0000000000000000     
  0.56250000000000000       0.62500000000000000        0.0000000000000000     
  0.59375000000000000       0.62500000000000000        0.0000000000000000     
  0.62500000000000000       0.62500000000000000        0.0000000000000000     
  0.50000000000000000       0.65625000000000000        0.0000000000000000     
  0.53125000000000000       0.65625000000000000        0.0000000000000000     
  0.56250000000000000       0.65625000000000000        0.0000000000000000     
  0.59375000000000000       0.65625000000000000        0.0000000000000000     
  0.62500000000000000       0.65625000000000000        0.0000000000000000     
  0.50000000000000000       0.68750000000000000        0.0000000000000000     
  0.53125000000000000       0.68750000000000000        0.0000000000000000     
  0.56250000000000000       0.68750000000000000        0.0000000000000000     
  0.59375000000000000       0.68750000000000000        0.0000000000000000     
  0.62500000000000000       0.68750000000000000        0.0000000000000000     
  0.50000000000000000       0.71875000000000000        0.0000000000000000     
  0.53125000000000000       0.71875000000000000        0.0000000000000000     
  0.56250000000000000       0.71875000000000000        0.0000000000000000     
  0.59375000000000000       0.71875000000000000        0.0000000000000000     
  0.62500000000000000       0.71875000000000000        0.0000000000000000     
  0.50000000000000000       0.75000000000000000        0.0000000000000000     
  0.53125000000000000       0.75000000000000000        0.0000000000000000     
  0.56250000000000000       0.75000000000000000        0.0000000000000000     
  0.59375000000000000       0.75000000000000000        0.0000000000000000     
  0.62500000000000000       0.75000000000000000        0.0000000000000000     
  0.62500000000000000       0.62500000000000000        0.0000000000000000     
  0.65625000000000000       0.62500000000000000        0.0000000000000000     
  0.68750000000000000       0.62500000000000000        0.0000000000000000     
  0.71875000000000000       0.62500000000000000        0.0000000000000000     
  0.75000000000000000       0.62500000000000000        0.0000000000000000     
  0.62500000000000000       0.65625000000000000        0.0000000000000000     
  0.65625000000000000       0.65625000000000000        0.0000000000000000     
  0.68750000000000000       0.65625000000000000        0.0000000000000000     
  0.71875000000000000       0.65625000000000000        0.0000000000000000     
  0.75000000000000000       0.65625000000000000        0.0000000000000000     
  0.62500000000000000       0.68750000000000000        0.0000000000000000     
  0.65625000000000000       0.68750000000000000        0.0000000000000000     
  0.68750000000000000       0.68750000000000000        0.0000000000000000     
  0.71875000000000000       0.68750000000000000        0.0000000000000000     
  0.75000000000000000       0.68750000000000000        0.0000000000000000     
  0.62500000000000000       0.71875000000000000        0.0000000000000000     
  0.65625000000000000       0.71875000000000000        0.0000000000000000     
  0.68750000000000000       0.71875000000000000        0.0000000000000000     
  0.71875000000000000       0.71875000000000000        0.0000000000000000     
  0.75000000000000000       0.71875000000000000        0.0000000000000000     
  0.62500000000000000       0.75000000000000000        0.0000000000000000     
  0.65625000000000000       0.75000000000000000        0.0000000000000000     
  0.68750000000000000       0.75000000000000000        0.0000000000000000     
  0.71875000000000000       0.75000000000000000        0.0000000000000000     
  0.75000000000000000       0.75000000000000000        0.0000000000000000     
  0.75000000000000000       0.62500000000000000        0.0000000000000000     
  0.78125000000000000       0.62500000000000000        0.0000000000000000     
  0.81250000000000000       0.62500000000000000        0.0000000000000000     
  0.84375000000000000       0.62500000000000000        0.0000000000000000     
  0.87500000000000000       0.62500000000000000        0.0000000000000000     
  0.75000000000000000       0.65625000000000000        0.0000000000000000     
  0.78125000000000000       0.65625000000000000        0.0000000000000000     
  0.81250000000000000       0.65625000000000000        0.0000000000000000     
  0.84375000000000000       0.65625000000000000        0.0000000000000000     
  0.87500000000000000       0.65625000000000000        0.0000000000000000     
  0.75000000000000000       0.68750000000000000        0.0000000000000000     
  0.78125000000000000       0.68750000000000000        0.0000000000000000     
  0.81250000000000000       0.68750000000000000        0.0000000000000000     
  0.84375000000000000       0.68750000000000000        0.0000000000000000     
  0.87500000000000000       0.68750000000000000        0.0000000000000000     
  0.75000000000000000       0.71875000000000000        0.0000000000000000     
  0.78125000000000000       0.71875000000000000        0.0000000000000000     
  0.81250000000000000       0.71875000000000000        0.0000000000000000     
  0.84375000000000000       0.71875000000000000        0.0000000000000000     
  0.87500000000000000       0.71875000000000000        0.0000000000000000     
  0.75000000000000000       0.75000000000000000        0.0000000000000000     
  0.78125000000000000       0.75000000000000000        0.0000000000000000     
  0.81250000000000000       0.75000000000000000        0.0000000000000000     
  0.84375000000000000       0.75000000000000000        0.0000000000000000     
  0.87500000000000000       0.75000000000000000        0.0000000000000000     
  0.87500000000000000       0.62500000000000000        0.0000000000000000     
  0.90625000000000000       0.62500000000000000        0.0000000000000000     
  0.93750000000000000       0.62500000000000000        0.0000000000000000     
  0.96875000000000000       0.62500000000000000        0.0000000000000000     
   1.0000000000000000       0.62500000000000000        0.0000000000000000     
  0.87500000000000000       0.65625000000000000        0.0000000000000000     
  0.90625000000000000       0.65625000000000000        0.0000000000000000     
  0.93750000000000000       0.65625000000000000        0.0000000000000000     
  0.96875000000000000       0.65625000000000000        0.0000000000000000     
   1.0000000000000000       0.65625000000000000        0.0000000000000000     
  0.87500000000000000       0.68750000000000000        0.0000000000000000     
  0.90625000000000000       0.68750000000000000        0.0000000000000000     
  0.93750000000000000       0.68750000000000000        0.0000000000000000     
  0.96875000000000000       0.68750000000000000        0.0000000000000000     
   1.0000000000000000       0.68750000000000000        0.0000000000000000     
  0.87500000000000000       0.71875000000000000        0.0000000000000000     
  0.90625000000000000       0.71875000000000000        0.0000000000000000     
  0.93750000000000000       0.71875000000000000        0.0000000000000000     
  0.96875000000000000       0.71875000000000000        0.0000000000000000     
   1.0000000000000000       0.71875000000000000        0.0000000000000000     
  0.87500000000000000       0.75000000000000000        0.0000000000000000     
  0.90625000000000000       0.75000000000000000        0.0000000000000000     
  0.93750000000000000       0.75000000000000000        0.0000000000000000     
  0.96875000000000000       0.75000000000000000        0.0000000000000000     
   1.0000000000000000       0.75000000000000000        0.0000000000000000     
   0.0000000000000000       0.75000000000000000        0.0000000000000000     
   3.1250000000000000E-002  0.75000000000000000        0.0000000000000000     
   6.2500000000000000E-002  0.75000000000000000        0.0000000000000000     
   9.3750000000000000E-002  0.75000000000000000        0.0000000000000000     
  0.12500000000000000       0.75000000000000000        0.0000000000000000     
   0.0000000000000000       0.78125000000000000        0.0000000000000000     
   3.1250000000000000E-002  0.78125000000000000        0.0000000000000000     
   6.2500000000000000E-002  0.78125000000000000        0.0000000000000000     
   9.3750000000000000E-002  0.78125000000000000        0.0000000000000000     
  0.12500000000000000       0.78125000000000000        0.0000000000000000     
   0.0000000000000000       0.81250000000000000        0.0000000000000000     
   3.1250000000000000E-002  0.81250000000000000        0.0000000000000000     
   6.2500000000000000E-002  0.81250000000000000        0.0000000000000000     
   9.3750000000000000E-002  0.81250000000000000        0.0000000000000000     
  0.12500000000000000       0.81250000000000000        0.0000000000000000     
   0.0000000000000000       0.84375000000000000        0.0000000000000000     
   3.1250000000000000E-002  0.84375000000000000        0.0000000000000000     
   6.2500000000000000E-002  0.84375000000000000        0.0000000000000000     
   9.3750000000000000E-002  0.84375000000000000        0.0000000000000000     
  0.12500000000000000       0.84375000000000000        0.0000000000000000     
   0.0000000000000000       0.87500000000000000        0.0000000000000000     
   3.1250000000000000E-002  0.87500000000000000        0.0000000000000000     
   6.2500000000000000E-002  0.87500000000000000        0.0000000000000000     
   9.3750000000000000E-002  0.87500000000000000        0.0000000000000000     
  0.12500000000000000       0.87500000000000000        0.0000000000000000     
  0.12500000000000000       0.75000000000000000        0.0000000000000000     
  0.15625000000000000       0.75000000000000000        0.0000000000000000     
  0.18750000000000000       0.75000000000000000        0.0000000000000000     
  0.21875000000000000       0.75000000000000000        0.0000000000000000     
  0.25000000000000000       0.75000000000000000        0.0000000000000000     
  0.12500000000000000       0.78125000000000000        0.0000000000000000     
  0.15625000000000000       0.78125000000000000        0.0000000000000000     
  0.18750000000000000       0.78125000000000000        0.0000000000000000     
  0.21875000000000000       0.78125000000000000        0.0000000000000000     
  0.25000000000000000       0.78125000000000000        0.0000000000000000     
  0.12500000000000000       0.81250000000000000        0.0000000000000000     
  0.15625000000000000       0.81250000000000000        0.0000000000000000     
  0.18750000000000000       0.81250000000000000        0.0000000000000000     
  0.21875000000000000       0.81250000000000000        0.0000000000000000     
  0.25000000000000000       0.81250000000000000        0.0000000000000000     
  0.12500000000000000       0.84375000000000000        0.0000000000000000     
  0.15625000000000000       0.84375000000000000        0.0000000000000000     
  0.18750000000000000       0.84375000000000000        0.0000000000000000     
  0.21875000000000000       0.84375000000000000        0.0000000000000000     
  0.25000000000000000       0.84375000000000000        0.0000000000000000     
  0.12500000000000000       0.87500000000000000        0.0000000000000000     
  0.15625000000000000       0.87500000000000000        0.0000000000000000     
  0.18750000000000000       0.87500000000000000        0.0000000000000000     
  0.21875000000000000       0.87500000000000000        0.0000000000000000     
  0.25000000000000000       0.87500000000000000        0.0000000000000000     
  0.25000000000000000       0.75000000000000000        0.0000000000000000     
  0.28125000000000000       0.75000000000000000        0.0000000000000000     
  0.31250000000000000       0.75000000000000000        0.0000000000000000     
  0.34375000000000000       0.75000000000000000        0.0000000000000000     
  0.37500000000000000       0.75000000000000000        0.0000000000000000     
  0.25000000000000000       0.78125000000000000        0.0000000000000000     
  0.28125000000000000       0.78125000000000000        0.0000000000000000     
  0.31250000000000000       0.78125000000000000        0.0000000000000000     
  0.34375000000000000       0.78125000000000000        0.0000000000000000     
  0.37500000000000000       0.78125000000000000        0.0000000000000000     
  0.25000000000000000       0.81250000000000000        0.0000000000000000     
  0.28125000000000000       0.81250000000000000        0.0000000000000000     
  0.31250000000000000       0.81250000000000000        0.0000000000000000     
  0.34375000000000000       0.81250000000000000        0.0000000000000000     
  0.37500000000000000       0.81250000000000000        0.0000000000000000     
  0.25000000000000000       0.84375000000000000        0.0000000000000000     
  0.28125000000000000       0.84375000000000000        0.0000000000000000     
  0.31250000000000000       0.84375000000000000        0.0000000000000000     
  0.34375000000000000       0.84375000000000000        0.0000000000000000     
  0.37500000000000000       0.84375000000000000        0.0000000000000000     
  0.25000000000000000       0.87500000000000000        0.0000000000000000     
  0.28125000000000000       0.87500000000000000        0.0000000000000000     
  0.31250000000000000       0.87500000000000000        0.0000000000000000     
  0.34375000000000000       0.87500000000000000        0.0000000000000000     
  0.37500000000000000       0.87500000000000000        0.0000000000000000     
  0.37500000000000000       0.75000000000000000        0.0000000000000000     
  0.40625000000000000       0.75000000000000000        0.0000000000000000     
  0.43750000000000000       0.75000000000000000        0.0000000000000000     
  0.46875000000000000       0.75000000000000000        0.0000000000000000     
  0.50000000000000000       0.75000000000000000        0.0000000000000000     
  0.37500000000000000       0.78125000000000000        0.0000000000000000     
  0.40625000000000000       0.78125000000000000        0.0000000000000000     
  0.43750000000000000       0.78125000000000000        0.0000000000000000     
  0.46875000000000000       0.78125000000000000        0.0000000000000000     
  0.50000000000000000       0.78125000000000000        0.0000000000000000     
  0.37500000000000000       0.81250000000000000        0.0000000000000000     
  0.40625000000000000       0.81250000000000000        0.0000000000000000     
  0.43750000000000000       0.81250000000000000        0.0000000000000000     
  0.46875000000000000       0.81250000000000000        0.0000000000000000     
  0.50000000000000000       0.81250000000000000        0.0000000000000000     
  0.37500000000000000       0.84375000000000000        0.0000000000000000     
  0.40625000000000000       0.84375000000000000        0.0000000000000000     
  0.43750000000000000       0.84375000000000000        0.0000000000000000     
  0.46875000000000000       0.84375000000000000        0.0000000000000000     
  0.50000000000000000       0.84375000000000000        0.0000000000000000     
  0.37500000000000000       0.87500000000000000        0.0000000000000000     
  0.40625000000000000       0.87500000000000000        0.0000000000000000     
  0.43750000000000000       0.87500000000000000        0.0000000000000000     
  0.46875000000000000       0.87500000000000000        0.0000000000000000     
  0.50000000000000000       0.87500000000000000        0.0000000000000000     
  0.50000000000000000       0.75000000000000000        0.0000000000000000     
  0.53125000000000000       0.75000000000000000        0.0000000000000000     
  0.56250000000000000       0.75000000000000000        0.0000000000000000     
  0.59375000000000000       0.75000000000000000        0.0000000000000000     
  0.62500000000000000       0.75000000000000000        0.0000000000000000     
  0.50000000000000000       0.78125000000000000        0.0000000000000000     
  0.53125000000000000       0.78125000000000000        0.0000000000000000     
  0.56250000000000000       0.78125000000000000        0.0000000000000000     
  0.59375000000000000       0.78125000000000000        0.0000000000000000     
  0.62500000000000000       0.78125000000000000        0.0000000000000000     
  0.50000000000000000       0.81250000000000000        0.0000000000000000     
  0.53125000000000000       0.81250000000000000        0.0000000000000000     
  0.56250000000000000       0.81250000000000000        0.0000000000000000     
  0.59375000000000000       0.81250000000000000        0.0000000000000000     
  0.62500000000000000       0.81250000000000000        0.0000000000000000     
  0.50000000000000000       0.84375000000000000        0.0000000000000000     
  0.53125000000000000       0.84375000000000000        0.0000000000000000     
  0.56250000000000000       0.84375000000000000        0.0000000000000000     
  0.59375000000000000       0.84375000000000000        0.0000000000000000     
  0.62500000000000000       0.84375000000000000        0.0000000000000000     
  0.50000000000000000       0.87500000000000000        0.0000000000000000     
  0.53125000000000000       0.87500000000000000        0.0000000000000000     
  0.56250000000000000       0.87500000000000000        0.0000000000000000     
  0.59375000000000000       0.87500000000000000        0.0000000000000000     
  0.62500000000000000       0.87500000000000000        0.0000000000000000     
  0.62500000000000000       0.75000000000000000        0.0000000000000000     
  0.65625000000000000       0.75000000000000000        0.0000000000000000     
  0.68750000000000000       0.75000000000000000        0.0000000000000000     
  0.71875000000000000       0.75000000000000000        0.0000000000000000     
  0.75000000000000000       0.75000000000000000        0.0000000000000000     
  0.62500000000000000       0.78125000000000000        0.0000000000000000     
  0.65625000000000000       0.78125000000000000        0.0000000000000000     
  0.68750000000000000       0.78125000000000000        0.0000000000000000     
  0.71875000000000000       0.78125000000000000        0.0000000000000000     
  0.75000000000000000       0.78125000000000000        0.0000000000000000     
  0.62500000000000000       0.81250000000000000        0.0000000000000000     
  0.65625000000000000       0.81250000000000000        0.0000000000000000     
  0.68750000000000000       0.81250000000000000        0.0000000000000000     
  0.71875000000000000       0.81250000000000000        0.0000000000000000     
  0.75000000000000000       0.81250000000000000        0.0000000000000000     
  0.62500000000000000       0.84375000000000000        0.0000000000000000     
  0.65625000000000000       0.84375000000000000        0.0000000000000000     
  0.68750000000000000       0.84375000000000000        0.0000000000000000     
  0.71875000000000000       0.84375000000000000        0.0000000000000000     
  0.75000000000000000       0.84375000000000000        0.0000000000000000     
  0.62500000000000000       0.87500000000000000        0.0000000000000000     
  0.65625000000000000       0.87500000000000000        0.0000000000000000     
  0.68750000000000000       0.87500000000000000        0.0000000000000000     
  0.71875000000000000       0.87500000000000000        0.0000000000000000     
  0.75000000000000000       0.87500000000000000        0.0000000000000000     
  0.75000000000000000       0.75000000000000000        0.0000000000000000     
  0.78125000000000000       0.75000000000000000        0.0000000000000000     
  0.81250000000000000       0.75000000000000000        0.0000000000000000     
  0.84375000000000000       0.75000000000000000        0.0000000000000000     
  0.87500000000000000       0.75000000000000000        0.0000000000000000     
  0.75000000000000000       0.78125000000000000        0.0000000000000000     
  0.78125000000000000       0.78125000000000000        0.0000000000000000     
  0.81250000000000000       0.78125000000000000        0.0000000000000000     
  0.84375000000000000       0.78125000000000000        0.0000000000000000     
  0.87500000000000000       0.78125000000000000        0.0000000000000000     
  0.75000000000000000       0.81250000000000000        0.0000000000000000     
  0.78125000000000000       0.81250000000000000        0.0000000000000000     
  0.81250000000000000       0.81250000000000000        0.0000000000000000     
  0.84375000000000000       0.81250000000000000        0.0000000000000000     
  0.87500000000000000       0.81250000000000000        0.0000000000000000     
  0.75000000000000000       0.84375000000000000        0.0000000000000000     
  0.78125000000000000       0.84375000000000000        0.0000000000000000     
  0.81250000000000000       0.84375000000000000        0.0000000000000000     
  0.84375000000000000       0.84375000000000000        0.0000000000000000     
  0.87500000000000000       0.84375000000000000        0.0000000000000000     
  0.75000000000000000       0.87500000000000000        0.0000000000000000     
  0.78125000000000000       0.87500000000000000        0.0000000000000000     
  0.81250000000000000       0.87500000000000000        0.0000000000000000     
  0.84375000000000000       0.87500000000000000        0.0000000000000000     
  0.87500000000000000       0.87500000000000000        0.0000000000000000     
  0.87500000000000000       0.75000000000000000        0.0000000000000000     
  0.90625000000000000       0.75000000000000000        0.0000000000000000     
  0.93750000000000000       0.75000000000000000        0.0000000000000000     
  0.96875000000000000       0.75000000000000000        0.0000000000000000     
   1.0000000000000000       0.75000000000000000        0.0000000000000000     
  0.87500000000000000       0.78125000000000000        0.0000000000000000     
  0.90625000000000000       0.78125000000000000        0.0000000000000000     
  0.93750000000000000       0.78125000000000000        0.0000000000000000     
  0.96875000000000000       0.78125000000000000        0.0000000000000000     
   1.0000000000000000       0.78125000000000000        0.0000000000000000     
  0.87500000000000000       0.81250000000000000        0.0000000000000000     
  0.90625000000000000       0.81250000000000000        0.0000000000000000     
  0.93750000000000000       0.81250000000000000        0.0000000000000000     
  0.96875000000000000       0.81250000000000000        0.0000000000000000     
   1.0000000000000000       0.81250000000000000        0.0000000000000000     
  0.87500000000000000       0.84375000000000000        0.0000000000000000     
  0.90625000000000000       0.84375000000000000        0.0000000000000000     
  0.93750000000000000       0.84375000000000000        0.0000000000000000     
  0.96875000000000000       0.84375000000000000        0.0000000000000000     
   1.0000000000000000       0.84375000000000000        0.0000000000000000     
  0.87500000000000000       0.87500000000000000        0.0000000000000000     
  0.90625000000000000       0.87500000000000000        0.0000000000000000     
  0.93750000000000000       0.87500000000000000        0.0000000000000000     
  0.96875000000000000       0.87500000000000000        0.0000000000000000     
   1.0000000000000000       0.87500000000000000        0.0000000000000000     
   0.0000000000000000       0.87500000000000000        0.0000000000000000     
   3.1250000000000000E-002  0.87500000000000000        0.0000000000000000     
   6.2500000000000000E-002  0.87500000000000000        0.0000000000000000     
   9.3750000000000000E-002  0.87500000000000000        0.0000000000000000     
  0.12500000000000000       0.87500000000000000        0.0000000000000000     
   0.0000000000000000       0.90625000000000000        0.0000000000000000     
   3.1250000000000000E-002  0.90625000000000000        0.0000000000000000     
   6.2500000000000000E-002  0.90625000000000000        0.0000000000000000     
   9.3750000000000000E-002  0.90625000000000000        0.0000000000000000     
  0.12500000000000000       0.90625000000000000        0.0000000000000000     
   0.0000000000000000       0.93750000000000000        0.0000000000000000     
   3.1250000000000000E-002  0.93750000000000000        0.0000000000000000     
   6.2500000000000000E-002  0.93750000000000000        0.0000000000000000     
   9.3750000000000000E-002  0.93750000000000000        0.0000000000000000     
  0.12500000000000000       0.93750000000000000        0.0000000000000000     
   0.0000000000000000       0.96875000000000000        0.0000000000000000     
   3.1250000000000000E-002  0.96875000000000000        0.0000000000000000     
   6.2500000000000000E-002  0.96875000000000000        0.0000000000000000     
   9.3750000000000000E-002  0.96875000000000000        0.0000000000000000     
  0.12500000000000000       0.96875000000000000        0.0000000000000000     
   0.0000000000000000        1.0000000000000000        0.0000000000000000     
   3.1250000000000000E-002   1.0000000000000000        0.0000000000000000     
   6.2500000000000000E-002   1.0000000000000000        0.0000000000000000     
   9.3750000000000000E-002   1.0000000000000000        0.0000000000000000     
  0.12500000000000000        1.0000000000000000        0.0000000000000000     
  0.12500000000000000       0.87500000000000000        0.0000000000000000     
  0.15625000000000000       0.87500000000000000        0.0000000000000000     
  0.18750000000000000       0.87500000000000000        0.0000000000000000     
  0.21875000000000000       0.87500000000000000        0.0000000000000000     
  0.25000000000000000       0.87500000000000000        0.0000000000000000     
  0.12500000000000000       0.90625000000000000        0.0000000000000000     
  0.15625000000000000       0.90625000000000000        0.0000000000000000     
  0.18750000000000000       0.90625000000000000        0.0000000000000000     
  0.21875000000000000       0.90625000000000000        0.0000000000000000     
  0.25000000000000000       0.90625000000000000        0.0000000000000000     
  0.12500000000000000       0.93750000000000000        0.0000000000000000     
  0.15625000000000000       0.93750000000000000        0.0000000000000000     
  0.18750000000000000       0.93750000000000000        0.0000000000000000     
  0.21875000000000000       0.93750000000000000        0.0000000000000000     
  0.25000000000000000       0.93750000000000000        0.0000000000000000     
  0.12500000000000000       0.96875000000000000        0.0000000000000000     
  0.15625000000000000       0.96875000000000000        0.0000000000000000     
  0.18750000000000000       0.96875000000000000        0.0000000000000000     
  0.21875000000000000       0.96875000000000000        0.0000000000000000     
  0.25000000000000000       0.96875000000000000        0.0000000000000000     
  0.12500000000000000        1.0000000000000000        0.0000000000000000     
  0.15625000000000000        1.0000000000000000        0.0000000000000000     
  0.18750000000000000        1.0000000000000000        0.0000000000000000     
  0.21875000000000000        1.0000000000000000        0.0000000000000000     
  0.25000000000000000        1.0000000000000000        0.0000000000000000     
  0.25000000000000000       0.87500000000000000        0.0000000000000000     
  0.28125000000000000       0.87500000000000000        0.0000000000000000     
  0.31250000000000000       0.87500000000000000        0.0000000000000000     
  0.34375000000000000       0.87500000000000000        0.0000000000000000     
  0.37500000000000000       0.87500000000000000        0.0000000000000000     
  0.25000000000000000       0.90625000000000000        0.0000000000000000     
  0.28125000000000000       0.90625000000000000        0.0000000000000000     
  0.31250000000000000       0.90625000000000000        0.0000000000000000     
  0.34375000000000000       0.90625000000000000        0.0000000000000000     
  0.37500000000000000       0.90625000000000000        0.0000000000000000     
  0.25000000000000000       0.93750000000000000        0.0000000000000000     
  0.28125000000000000       0.93750000000000000        0.0000000000000000     
  0.31250000000000000       0.93750000000000000        0.0000000000000000     
  0.34375000000000000       0.93750000000000000        0.0000000000000000     
  0.37500000000000000       0.93750000000000000        0.0000000000000000     
  0.25000000000000000       0.96875000000000000        0.0000000000000000     
  0.28125000000000000       0.96875000000000000        0.0000000000000000     
  0.31250000000000000       0.96875000000000000        0.0000000000000000     
  0.34375000000000000       0.96875000000000000        0.0000000000000000     
  0.37500000000000000       0.96875000000000000        0.0000000000000000     
  0.25000000000000000        1.0000000000000000        0.0000000000000000     
  0.28125000000000000        1.0000000000000000        0.0000000000000000     
  0.31250000000000000        1.0000000000000000        0.0000000000000000     
  0.34375000000000000        1.0000000000000000        0.0000000000000000     
  0.37500000000000000        1.0000000000000000        0.0000000000000000     
  0.37500000000000000       0.87500000000000000        0.0000000000000000     
  0.40625000000000000       0.87500000000000000        0.0000000000000000     
  0.43750000000000000       0.87500000000000000        0.0000000000000000     
  0.46875000000000000       0.87500000000000000        0.0000000000000000     
  0.50000000000000000       0.87500000000000000        0.0000000000000000     
  0.37500000000000000       0.90625000000000000        0.0000000000000000     
  0.40625000000000000       0.90625000000000000        0.0000000000000000     
  0.43750000000000000       0.90625000000000000        0.0000000000000000     
  0.46875000000000000       0.90625000000000000        0.0000000000000000     
  0.50000000000000000       0.90625000000000000        0.0000000000000000     
  0.37500000000000000       0.93750000000000000        0.0000000000000000     
  0.40625000000000000       0.93750000000000000        0.0000000000000000     
  0.43750000000000000       0.93750000000000000        0.0000000000000000     
  0.46875000000000000       0.93750000000000000        0.0000000000000000     
  0.50000000000000000       0.93750000000000000        0.0000000000000000     
  0.37500000000000000       0.96875000000000000        0.0000000000000000     
  0.40625000000000000       0.96875000000000000        0.0000000000000000     
  0.43750000000000000       0.96875000000000000        0.0000000000000000     
  0.46875000000000000       0.96875000000000000        0.0000000000000000     
  0.50000000000000000       0.96875000000000000        0.0000000000000000     
  0.37500000000000000        1.0000000000000000        0.0000000000000000     
  0.40625000000000000        1.0000000000000000        0.0000000000000000     
  0.43750000000000000        1.0000000000000000        0.0000000000000000     
  0.46875000000000000        1.0000000000000000        0.0000000000000000     
  0.50000000000000000        1.0000000000000000        0.0000000000000000     
  0.50000000000000000       0.87500000000000000        0.0000000000000000     
  0.53125000000000000       0.87500000000000000        0.0000000000000000     
  0.56250000000000000       0.87500000000000000        0.0000000000000000     
  0.59375000000000000       0.87500000000000000        0.0000000000000000     
  0.62500000000000000       0.87500000000000000        0.0000000000000000     
  0.50000000000000000       0.90625000000000000        0.0000000000000000     
  0.53125000000000000       0.90625000000000000        0.0000000000000000     
  0.56250000000000000       0.90625000000000000        0.0000000000000000     
  0.59375000000000000       0.90625000000000000        0.0000000000000000     
  0.62500000000000000       0.90625000000000000        0.0000000000000000     
  0.50000000000000000       0.93750000000000000        0.0000000000000000     
  0.53125000000000000       0.93750000000000000        0.0000000000000000     
  0.56250000000000000       0.93750000000000000        0.0000000000000000     
  0.59375000000000000       0.93750000000000000        0.0000000000000000     
  0.62500000000000000       0.93750000000000000        0.0000000000000000     
  0.50000000000000000       0.96875000000000000        0.0000000000000000     
  0.53125000000000000       0.96875000000000000        0.0000000000000000     
  0.56250000000000000       0.96875000000000000        0.0000000000000000     
  0.59375000000000000       0.96875000000000000        0.0000000000000000     
  0.62500000000000000       0.96875000000000000        0.0000000000000000     
  0.50000000000000000        1.0000000000000000        0.0000000000000000     
  0.53125000000000000        1.0000000000000000        0.0000000000000000     
  0.56250000000000000        1.0000000000000000        0.0000000000000000     
  0.59375000000000000        1.0000000000000000        0.0000000000000000     
  0.62500000000000000        1.0000000000000000        0.0000000000000000     
  0.62500000000000000       0.87500000000000000        0.0000000000000000     
  0.65625000000000000       0.87500000000000000        0.0000000000000000     
  0.68750000000000000       0.87500000000000000        0.0000000000000000     
  0.71875000000000000       0.87500000000000000        0.0000000000000000     
  0.75000000000000000       0.87500000000000000        0.0000000000000000     
  0.62500000000000000       0.90625000000000000        0.0000000000000000     
  0.65625000000000000       0.90625000000000000        0.0000000000000000     
  0.68750000000000000       0.90625000000000000        0.0000000000000000     
  0.71875000000000000       0.90625000000000000        0.0000000000000000     
  0.75000000000000000       0.90625000000000000        0.0000000000000000     
  0.62500000000000000       0.93750000000000000        0.0000000000000000     
  0.65625000000000000       0.93750000000000000        0.0000000000000000     
  0.68750000000000000       0.93750000000000000        0.0000000000000000     
  0.71875000000000000       0.93750000000000000        0.0000000000000000     
  0.75000000000000000       0.93750000000000000        0.0000000000000000     
  0.62500000000000000       0.96875000000000000        0.0000000000000000     
  0.65625000000000000       0.96875000000000000        0.0000000000000000     
  0.68750000000000000       0.96875000000000000        0.0000000000000000     
  0.71875000000000000       0.96875000000000000        0.0000000000000000     
  0.75000000000000000       0.96875000000000000        0.0000000000000000     
  0.62500000000000000        1.0000000000000000        0.0000000000000000     
  0.65625000000000000        1.0000000000000000        0.0000000000000000     
  0.68750000000000000        1.0000000000000000        0.0000000000000000     
  0.71875000000000000        1.0000000000000000        0.0000000000000000     
  0.75000000000000000        1.0000000000000000        0.0000000000000000     
  0.75000000000000000       0.87500000000000000        0.0000000000000000     
  0.78125000000000000       0.87500000000000000        0.0000000000000000     
  0.81250000000000000       0.87500000000000000        0.0000000000000000     
  0.84375000000000000       0.87500000000000000        0.0000000000000000     
  0.87500000000000000       0.87500000000000000        0.0000000000000000     
  0.75000000000000000       0.90625000000000000        0.0000000000000000     
  0.78125000000000000       0.90625000000000000        0.0000000000000000     
  0.81250000000000000       0.90625000000000000        0.0000000000000000     
  0.84375000000000000       0.90625000000000000        0.0000000000000000     
  0.87500000000000000       0.90625000000000000        0.0000000000000000     
  0.75000000000000000       0.93750000000000000        0.0000000000000000     
  0.78125000000000000       0.93750000000000000        0.0000000000000000     
  0.81250000000000000       0.93750000000000000        0.0000000000000000     
  0.84375000000000000       0.93750000000000000        0.0000000000000000     
  0.87500000000000000       0.93750000000000000        0.0000000000000000     
  0.75000000000000000       0.96875000000000000        0.0000000000000000     
  0.78125000000000000       0.96875000000000000        0.0000000000000000     
  0.81250000000000000       0.96875000000000000        0.0000000000000000     
  0.84375000000000000       0.96875000000000000        0.0000000000000000     
  0.87500000000000000       0.96875000000000000        0.0000000000000000     
  0.75000000000000000        1.0000000000000000        0.0000000000000000     
  0.78125000000000000        1.0000000000000000        0.0000000000000000     
  0.81250000000000000        1.0000000000000000        0.0000000000000000     
  0.84375000000000000        1.0000000000000000        0.0000000000000000     
  0.87500000000000000        1.0000000000000000        0.0000000000000000     
  0.87500000000000000       0.87500000000000000        0.0000000000000000     
  0.90625000000000000       0.87500000000000000        0.0000000000000000     
  0.93750000000000000       0.87500000000000000        0.0000000000000000     
  0.96875000000000000       0.87500000000000000        0.0000000000000000     
   1.0000000000000000       0.87500000000000000        0.0000000000000000     
  0.87500000000000000       0.90625000000000000        0.0000000000000000     
  0.90625000000000000       0.90625000000000000        0.0000000000000000     
  0.93750000000000000       0.90625000000000000        0.0000000000000000     
  0.96875000000000000       0.90625000000000000        0.0000000000000000     
   1.0000000000000000       0.90625000000000000        0.0000000000000000     
  0.87500000000000000       0.93750000000000000        0.0000000000000000     
  0.90625000000000000       0.93750000000000000        0.0000000000000000     
  0.93750000000000000       0.93750000000000000        0.0000000000000000     
  0.96875000000000000       0.93750000000000000        0.0000000000000000     
   1.0000000000000000       0.93750000000000000        0.0000000000000000     
  0.87500000000000000       0.96875000000000000        0.0000000000000000     
  0.90625000000000000       0.96875000000000000        0.0000000000000000     
  0.93750000000000000       0.96875000000000000        0.0000000000000000     
  0.96875000000000000       0.96875000000000000        0.0000000000000000     
   1.0000000000000000       0.96875000000000000        0.0000000000000000     
  0.87500000000000000        1.0000000000000000        0.0000000000000000     
  0.90625000000000000        1.0000000000000000        0.0000000000000000     
  0.93750000000000000        1.0000000000000000        0.0000000000000000     
  0.96875000000000000        1.0000000000000000        0.0000000000000000     
   1.0000000000000000        1.0000000000000000        0.0000000000000000     
 </DataArray>
 </Points>
 <Cells>
 <DataArray  type="Int32"  Name="connectivity"  format="ascii">
           0           1           6           5
           1           2           7           6
           2           3           8           7
           3           4           9           8
           5           6          11          10
           6           7          12          11
           7           8          13          12
           8           9          14          13
          10          11          16          15
          11          12          17          16
          12          13          18          17
          13          14          19          18
          15          16          21          20
          16          17          22          21
          17          18          23          22
          18          19          24          23
          25          26          31          30
          26          27          32          31
          27          28          33          32
          28          29          34          33
          30          31          36          35
          31          32          37          36
          32          33          38          37
          33          34          39          38
          35          36          41          40
          36          37          42          41
          37          38          43          42
          38          39          44          43
          40          41          46          45
          41          42          47          46
          42          43          48          47
          43          44          49          48
          50          51          56          55
          51          52          57          56
          52          53          58          57
          53          54          59          58
          55          56          61          60
          56          57          62          61
          57          58          63          62
          58          59          64          63
          60          61          66          65
          61          62          67          66
          62          63          68          67
          63          64          69          68
          65          66          71          70
          66          67          72          71
          67          68          73          72
          68          69          74          73
          75          76          81          80
          76          77          82          81
          77          78          83          82
          78          79          84          83
          80          81          86          85
          81          82          87          86
          82          83          88          87
          83          84          89          88
          85          86          91          90
          86          87          92          91
          87          88          93          92
          88          89          94          93
          90          91          96          95
          91          92          97          96
          92          93          98          97
          93          94          99          98
         100         101         106         105
         101         102         107         106
         102         103         108         107
         103         104         109         108
         105         106         111         110
         106         107         112         111
         107         108         113         112
         108         109         114         113
         110         111         116         115
         111         112         117         116
         112         113         118         117
         113         114         119         118
         115         116         121         120
         116         117         122         121
         117         118         123         122
         118         119         124         123
         125         126         131         130
         126         127         132         131
         127         128         133         132
         128         129         134         133
         130         131         136         135
         131         132         137         136
         132         133         138         137
         133         134         139         138
         135         136         141         140
         136         137         142         141
         137         138         143         142
         138         139         144         143
         140         141         146         145
         141         142         147         146
         142         143         148         147
         143         144         149         148
         150         151         156         155
         151         152         157         156
         152         153         158         157
         153         154         159         158
         155         156         161         160
         156         157         162         161
         157         158         163         162
         158         159         164         163
         160         161         166         165
         161         162         167         166
         162         163         168         167
         163         164         169         168
         165         166         171         170
         166         167         172         171
         167         168         173         172
         168         169         174         173
         175         176         181         180
         176         177         182         181
         177         178         183         182
         178         179         184         183
         180         181         186         185
         181         182         187         186
         182         183         188         187
         183         184         189         188
         185         186         191         190
         186         187         192         191
         187         188         193         192
         188         189         194         193
         190         191         196         195
         191         192         197         196
         192         193         198         197
         193         194         199         198
         200         201         206         205
         201         202         207         206
         202         203         208         207
         203         204         209         208
         205         206         211         210
         206         207         212         211
         207         208         213         212
         208         209         214         213
         210         211         216         215
         211         212         217         216
         212         213         218         217
         213         214         219         218
         215         216         221         220
         216         217         222         221
         217         218         223         222
         218         219         224         223
         225         226         231         230
         226         227         232         231
         227         228         233         232
         228         229         234         233
         230         231         236         235
         231         232         237         236
         232         233         238         237
         233         234         239         238
         235         236         241         240
         236         237         242         241
         237         238         243         242
         238         239         244         243
         240         241         246         245
         241         242         247         246
         242         243         248         247
         243         244         249         248
         250         251         256         255
         251         252         257         256
         252         253         258         257
         253         254         259         258
         255         256         261         260
         256         257         262         261
         257         258         263         262
         258         259         264         263
         260         261         266         265
         261         262         267         266
         262         263         268         267
         263         264         269         268
         265         266         271         270
         266         267         272         271
         267         268         273         272
         268         269         274         273
         275         276         281         280
         276         277         282         281
         277         278         283         282
         278         279         284         283
         280         281         286         285
         281         282         287         286
         282         283         288         287
         283         284         289         288
         285         286         291         290
         286         287         292         291
         287         288         293         292
         288         289         294         293
         290         291         296         295
         291         292         297         296
         292         293         298         297
         293         294         299         298
         300         301         306         305
         301         302         307         306
         302         303         308         307
         303         304         309         308
         305         306         311         310
         306         307         312         311
         307         308         313         312
         308         309         314         313
         310         311         316         315
         311         312         317         316
         312         313         318         317
         313         314         319         318
         315         316         321         320
         316         317         322         321
         317         318         323         322
         318         319         324         323
         325         326         331         330
         326         327         332         331
         327         328         333         332
         328         329         334         333
         330         331         336         335
         331         332         337         336
         332         333         338         337
         333         334         339         338
         335         336         341         340
         336         337         342         341
         337         338         343         342
         338         339         344         343
         340         341         346         345
         341         342         347         346
         342         343         348         347
         343         344         349         348
         350         351         356         355
         351         352         357         356
         352         353         358         357
         353         354         359         358
         355         356         361         360
         356         357         362         361
         357         358         363         362
         358         359         364         363
         360         361         366         365
         361         362         367         366
         362         363         368         367
         363         364         369         368
         365         366         371         370
         366         367         372         371
         367         368         373         372
         368         369         374         373
         375         376         381         380
         376         377         382         381
         377         378         383         382
         378         379         384         383
         380         381         386         385
         381         382         387         386
         382         383         388         387
         383         384         389         388
         385         386         391         390
         386         387         392         391
         387         388         393         392
         388         389         394         393
         390         391         396         395
         391         392         397         396
         392         393         398         397
         393         394         399         398
         400         401         406         405
         401         402         407         406
         402         403         408         407
         403         404         409         408
         405         406         411         410
         406         407         412         411
         407         408         413         412
         408         409         414         413
         410         411         416         415
         411         412         417         416
         412         413         418         417
         413         414         419         418
         415         416         421         420
         416         417         422         421
         417         418         423         422
         418         419         424         423
         425         426         431         430
         426         427         432         431
         427         428         433         432
         428         429         434         433
         430         431         436         435
         431         432         437         436
         432         433         438         437
         433         434         439         438
         435         436         441         440
         436         437         442         441
         437         438         443         442
         438         439         444         443
         440         441         446         445
         441         442         447         446
         442         443         448         447
         443         444         449         448
         450         451         456         455
         451         452         457         456
         452         453         458         457
         453         454         459         458
         455         456         461         460
         456         457         462         461
         457         458         463         462
         458         459         464         463
         460         461         466         465
         461         462         467         466
         462         463         468         467
         463         464         469         468
         465         466         471         470
         466         467         472         471
         467         468         473         472
         468         469         474         473
         475         476         481         480
         476         477         482         481
         477         478         483         482
         478         479         484         483
         480         481         486         485
         481         482         487         486
         482         483         488         487
         483         484         489         488
         485         486         491         490
         486         487         492         491
         487         488         493         492
         488         489         494         493
         490         491         496         495
         491         492         497         496
         492         493         498         497
         493         494         499         498
         500         501         506         505
         501         502         507         506
         502         503         508         507
         503         504         509         508
         505         506         511         510
         506         507         512         511
         507         508         513         512
         508         509         514         513
         510         511         516         515
         511         512         517         516
         512         513         518         517
         513         514         519         518
         515         516         521         520
         516         517         522         521
         517         518         523         522
         518         519         524         523
         525         526         531         530
         526         527         532         531
         527         528         533         532
         528         529         534         533
         530         531         536         535
         531         532         537         536
         532         533         538         537
         533         534         539         538
         535         536         541         540
         536         537         542         541
         537         538         543         542
         538         539         544         543
         540         541         546         545
         541         542         547         546
         542         543         548         547
         543         544         549         548
         550         551         556         555
         551         552         557         556
         552         553         558         557
         553         554         559         558
         555         556         561         560
         556         557         562         561
         557         558         563         562
         558         559         564         563
         560         561         566         565
         561         562         567         566
         562         563         568         567
         563         564         569         568
         565         566         571         570
         566         567         572         571
         567         568         573         572
         568         569         574         573
         575         576         581         580
         576         577         582         581
         577         578         583         582
         578         579         584         583
         580         581         586         585
         581         582         587         586
         582         583         588         587
         583         584         589         588
         585         586         591         590
         586         587         592         591
         587         588         593         592
         588         589         594         593
         590         591         596         595
         591         592         597         596
         592         593         598         597
         593         594         599         598
         600         601         606         605
         601         602         607         606
         602         603         608         607
         603         604         609         608
         605         606         611         610
         606         607         612         611
         607         608         613         612
         608         609         614         613
         610         611         616         615
         611         612         617         616
         612         613         618         617
         613         614         619         618
         615         616         621         620
         616         617         622         621
         617         618         623         622
         618         619         624         623
         625         626         631         630
         626         627         632         631
         627         628         633         632
         628         629         634         633
         630         631         636         635
         631         632         637         636
         632         633         638         637
         633         634         639         638
         635         636         641         640
         636         637         642         641
         637         638         643         642
         638         639         644         643
         640         641         646         645
         641         642         647         646
         642         643         648         647
         643         644         649         648
         650         651         656         655
         651         652         657         656
         652         653         658         657
         653         654         659         658
         655         656         661         660
         656         657         662         661
         657         658         663         662
         658         659         664         663
         660         661         666         665
         661         662         667         666
         662         663         668         667
         663         664         669         668
         665         666         671         670
         666         667         672         671
         667         668         673         672
         668         669         674         673
         675         676         681         680
         676         677         682         681
         677         678         683         682
         678         679         684         683
         680         681         686         685
         681         682         687         686
         682         683         688         687
         683         684         689         688
         685         686         691         690
         686         687         692         691
         687         688         693         692
         688         689         694         693
         690         691         696         695
         691         692         697         696
         692         693         698         697
         693         694         699         698
         700         701         706         705
         701         702         707         706
         702         703         708         707
         703         704         709         708
         705         706         711         710
         706         707         712         711
         707         708         713         712
         708         709         714         713
         710         711         716         715
         711         712         717         716
         712         713         718         717
         713         714         719         718
         715         716         721         720
         716         717         722         721
         717         718         723         722
         718         719         724         723
         725         726         731         730
         726         727         732         731
         727         728         733         732
         728         729         734         733
         730         731         736         735
         731         732         737         736
         732         733         738         737
         733         734         739         738
         735         736         741         740
         736         737         742         741
         737         738         743         742
         738         739         744         743
         740         741         746         745
         741         742         747         746
         742         743         748         747
         743         744         749         748
         750         751         756         755
         751         752         757         756
         752         753         758         757
         753         754         759         758
         755         756         761         760
         756         757         762         761
         757         758         763         762
         758         759         764         763
         760         761         766         765
         761         762         767         766
         762         763         768         767
         763         764         769         768
         765         766         771         770
         766         767         772         771
         767         768         773         772
         768         769         774         773
         775         776         781         780
         776         777         782         781
         777         778         783         782
         778         779         784         783
         780         781         786         785
         781         782         787         786
         782         783         788         787
         783         784         789         788
         785         786         791         790
         786         787         792         791
         787         788         793         792
         788         789         794         793
         790         791         796         795
         791         792         797         796
         792         793         798         797
         793         794         799         798
         800         801         806         805
         801         802         807         806
         802         803         808         807
         803         804         809         808
         805         806         811         810
         806         807         812         811
         807         808         813         812
         808         809         814         813
         810         811         816         815
         811         812         817         816
         812         813         818         817
         813         814         819         818
         815         816         821         820
         816         817         822         821
         817         818         823         822
         818         819         824         823
         825         826         831         830
         826         827         832         831
         827         828         833         832
         828         829         834         833
         830         831         836         835
         831         832         837         836
         832         833         838         837
         833         834         839         838
         835         836         841         840
         836         837         842         841
         837         838         843         842
         838         839         844         843
         840         841         846         845
         841         842         847         846
         842         843         848         847
         843         844         849         848
         850         851         856         855
         851         852         857         856
         852         853         858         857
         853         854         859         858
         855         856         861         860
         856         857         862         861
         857         858         863         862
         858         859         864         863
         860         861         866         865
         861         862         867         866
         862         863         868         867
         863         864         869         868
         865         866         871         870
         866         867         872         871
         867         868         873         872
         868         869         874         873
         875         876         881         880
         876         877         882         881
         877         878         883         882
         878         879         884         883
         880         881         886         885
         881         882         887         886
         882         883         888         887
         883         884         889         888
         885         886         891         890
         886         887         892         891
         887         888         893         892
         888         889         894         893
         890         891         896         895
         891         892         897         896
         892         893         898         897
         893         894         899         898
         900         901         906         905
         901         902         907         906
         902         903         908         907
         903         904         909         908
         905         906         911         910
         906         907         912         911
         907         908         913         912
         908         909         914         913
         910         911         916         915
         911         912         917         916
         912         913         918         917
         913         914         919         918
         915         916         921         920
         916         917         922         921
         917         918         923         922
         918         919         924         923
         925         926         931         930
         926         927         932         931
         927         928         933         932
         928         929         934         933
         930         931         936         935
         931         932         937         936
         932         933         938         937
         933         934         939         938
         935         936         941         940
         936         937         942         941
         937         938         943         942
         938         939         944         943
         940         941         946         945
         941         942         947         946
         942         943         948         947
         943         944         949         948
         950         951         956         955
         951         952         957         956
         952         953         958         957
         953         954         959         958
         955         956         961         960
         956         957         962         961
         957         958         963         962
         958         959         964         963
         960         961         966         965
         961         962         967         966
         962         963         968         967
         963         964         969         968
         965         966         971         970
         966         967         972         971
         967         968         973         972
         968         969         974         973
         975         976         981         980
         976         977         982         981
         977         978         983         982
         978         979         984         983
         980         981         986         985
         981         982         987         986
         982         983         988         987
         983         984         989         988
         985         986         991         990
         986         987         992         991
         987         988         993         992
         988         989         994         993
         990         991         996         995
         991         992         997         996
         992         993         998         997
         993         994         999         998
        1000        1001        1006        1005
        1001        1002        1007        1006
        1002        1003        1008        1007
        1003        1004        1009        1008
        1005        1006        1011        1010
        1006        1007        1012        1011
        1007        1008        1013        1012
        1008        1009        1014        1013
        1010        1011        1016        1015
        1011        1012        1017        1016
        1012        1013        1018        1017
        1013        1014        1019        1018
        1015        1016        1021        1020
        1016        1017        1022        1021
        1017        1018        1023        1022
        1018        1019        1024        1023
        1025        1026        1031        1030
        1026        1027        1032        1031
        1027        1028        1033        1032
        1028        1029        1034        1033
        1030        1031        1036        1035
        1031        1032        1037        1036
        1032        1033        1038        1037
        1033        1034        1039        1038
        1035        1036        1041        1040
        1036        1037        1042        1041
        1037        1038        1043        1042
        1038        1039        1044        1043
        1040        1041        1046        1045
        1041        1042        1047        1046
        1042        1043        1048        1047
        1043        1044        1049        1048
        1050        1051        1056        1055
        1051        1052        1057        1056
        1052        1053        1058        1057
        1053        1054        1059        1058
        1055        1056        1061        1060
        1056        1057        1062        1061
        1057        1058        1063        1062
        1058        1059        1064        1063
        1060        1061        1066        1065
        1061        1062        1067        1066
        1062        1063        1068        1067
        1063        1064        1069        1068
        1065        1066        1071        1070
        1066        1067        1072        1071
        1067        1068        1073        1072
        1068        1069        1074        1073
        1075        1076        1081        1080
        1076        1077        1082        1081
        1077        1078        1083        1082
        1078        1079        1084        1083
        1080        1081        1086        1085
        1081        1082        1087        1086
        1082        1083        1088        1087
        1083        1084        1089        1088
        1085        1086        1091        1090
        1086        1087        1092        1091
        1087        1088        1093        1092
        1088        1089        1094        1093
        1090        1091        1096        1095
        1091        1092        1097        1096
        1092        1093        1098        1097
        1093        1094        1099        1098
        1100        1101        1106        1105
        1101        1102        1107        1106
        1102        1103        1108        1107
        1103        1104        1109        1108
        1105        1106        1111        1110
        1106        1107        1112        1111
        1107        1108        1113        1112
        1108        1109        1114        1113
        1110        1111        1116        1115
        1111        1112        1117        1116
        1112        1113        1118        1117
        1113        1114        1119        1118
        1115        1116        1121        1120
        1116        1117        1122        1121
        1117        1118        1123        1122
        1118        1119        1124        1123
        1125        1126        1131        1130
        1126        1127        1132        1131
        1127        1128        1133        1132
        1128        1129        1134        1133
        1130        1131        1136        1135
        1131        1132        1137        1136
        1132        1133        1138        1137
        1133        1134        1139        1138
        1135        1136        1141        1140
        1136        1137        1142        1141
        1137        1138        1143        1142
        1138        1139        1144        1143
        1140        1141        1146        1145
        1141        1142        1147        1146
        1142        1143        1148        1147
        1143        1144        1149        1148
        1150        1151        1156        1155
        1151        1152        1157        1156
        1152        1153        1158        1157
        1153        1154        1159        1158
        1155        1156        1161        1160
        1156        1157        1162        1161
        1157        1158        1163        1162
        1158        1159        1164        1163
        1160        1161        1166        1165
        1161        1162        1167        1166
        1162        1163        1168        1167
        1163        1164        1169        1168
        1165        1166        1171        1170
        1166        1167        1172        1171
        1167        1168        1173        1172
        1168        1169        1174        1173
        1175        1176        1181        1180
        1176        1177        1182        1181
        1177        1178        1183        1182
        1178        1179        1184        1183
        1180        1181        1186        1185
        1181        1182        1187        1186
        1182        1183        1188        1187
        1183        1184        1189        1188
        1185        1186        1191        1190
        1186        1187        1192        1191
        1187        1188        1193        1192
        1188        1189        1194        1193
        1190        1191        1196        1195
        1191        1192        1197        1196
        1192        1193        1198        1197
        1193        1194        1199        1198
        1200        1201        1206        1205
        1201        1202        1207        1206
        1202        1203        1208        1207
        1203        1204        1209        1208
        1205        1206        1211        1210
        1206        1207        1212        1211
        1207        1208        1213        1212
        1208        1209        1214        1213
        1210        1211        1216        1215
        1211        1212        1217        1216
        1212        1213        1218        1217
        1213        1214        1219        1218
        1215        1216        1221        1220
        1216        1217        1222        1221
        1217        1218        1223        1222
        1218        1219        1224        1223
        1225        1226        1231        1230
        1226        1227        1232        1231
        1227        1228        1233        1232
        1228        1229        1234        1233
        1230        1231        1236        1235
        1231        1232        1237        1236
        1232        1233        1238        1237
        1233        1234        1239        1238
        1235        1236        1241        1240
        1236        1237        1242        1241
        1237        1238        1243        1242
        1238        1239        1244        1243
        1240        1241        1246        1245
        1241        1242        1247        1246
        1242        1243        1248        1247
        1243        1244        1249        1248
        1250        1251        1256        1255
        1251        1252        1257        1256
        1252        1253        1258        1257
        1253        1254        1259        1258
        1255        1256        1261        1260
        1256        1257        1262        1261
        1257        1258        1263        1262
        1258        1259        1264        1263
        1260        1261        1266        1265
        1261        1262        1267        1266
        1262        1263        1268        1267
        1263        1264        1269        1268
        1265        1266        1271        1270
        1266        1267        1272        1271
        1267        1268        1273        1272
        1268        1269        1274        1273
        1275        1276        1281        1280
        1276        1277        1282        1281
        1277        1278        1283        1282
        1278        1279        1284        1283
        1280        1281        1286        1285
        1281        1282        1287        1286
        1282        1283        1288        1287
        1283        1284        1289        1288
        1285        1286        1291        1290
        1286        1287        1292        1291
        1287        1288        1293        1292
        1288        1289        1294        1293
        1290        1291        1296        1295
        1291        1292        1297        1296
        1292        1293        1298        1297
        1293        1294        1299        1298
        1300        1301        1306        1305
        1301        1302        1307        1306
        1302        1303        1308        1307
        1303        1304        1309        1308
        1305        1306        1311        1310
        1306        1307        1312        1311
        1307        1308        1313        1312
        1308        1309        1314        1313
        1310        1311        1316        1315
        1311        1312        1317        1316
        1312        1313        1318        1317
        1313        1314        1319        1318
        1315        1316        1321        1320
        1316        1317        1322        1321
        1317        1318        1323        1322
        1318        1319        1324        1323
        1325        1326        1331        1330
        1326        1327        1332        1331
        1327        1328        1333        1332
        1328        1329        1334        1333
        1330        1331        1336        1335
        1331        1332        1337        1336
        1332        1333        1338        1337
        1333        1334        1339        1338
        1335        1336        1341        1340
        1336        1337        1342        1341
        1337        1338        1343        1342
        1338        1339        1344        1343
        1340        1341        1346        1345
        1341        1342        1347        1346
        1342        1343        1348        1347
        1343        1344        1349        1348
        1350        1351        1356        1355
        1351        1352        1357        1356
        1352        1353        1358        1357
        1353        1354        1359        1358
        1355        1356        1361        1360
        1356        1357        1362        1361
        1357        1358        1363        1362
        1358        1359        1364        1363
        1360        1361        1366        1365
        1361        1362        1367        1366
        1362        1363        1368        1367
        1363        1364        1369        1368
        1365        1366        1371        1370
        1366        1367        1372        1371
        1367        1368        1373        1372
        1368        1369        1374        1373
        1375        1376        1381        1380
        1376        1377        1382        1381
        1377        1378        1383        1382
        1378        1379        1384        1383
        1380        1381        1386        1385
        1381        1382        1387        1386
        1382        1383        1388        1387
        1383        1384        1389        1388
        1385        1386        1391        1390
        1386        1387        1392        1391
        1387        1388        1393        1392
        1388        1389        1394        1393
        1390        1391        1396        1395
        1391        1392        1397        1396
        1392        1393        1398        1397
        1393        1394        1399        1398
        1400        1401        1406        1405
        1401        1402        1407        1406
        1402        1403        1408        1407
        1403        1404        1409        1408
        1405        1406        1411        1410
        1406        1407        1412        1411
        1407        1408        1413        1412
        1408        1409        1414        1413
        1410        1411        1416        1415
        1411        1412        1417        1416
        1412        1413        1418        1417
        1413        1414        1419        1418
        1415        1416        1421        1420
        1416        1417        1422        1421
        1417        1418        1423        1422
        1418        1419        1424        1423
        1425        1426        1431        1430
        1426        1427        1432        1431
        1427        1428        1433        1432
        1428        1429        1434        1433
        1430        1431        1436        1435
        1431        1432        1437        1436
        1432        1433        1438        1437
        1433        1434        1439        1438
        1435        1436        1441        1440
        1436        1437        1442        1441
        1437        1438        1443        1442
        1438        1439        1444        1443
        1440        1441        1446        1445
        1441        1442        1447        1446
        1442        1443        1448        1447
        1443        1444        1449        1448
        1450        1451        1456        1455
        1451        1452        1457        1456
        1452        1453        1458        1457
        1453        1454        1459        1458
        1455        1456        1461        1460
        1456        1457        1462        1461
        1457        1458        1463        1462
        1458        1459        1464        1463
        1460        1461        1466        1465
        1461        1462        1467        1466
        1462        1463        1468        1467
        1463        1464        1469        1468
        1465        1466        1471        1470
        1466        1467        1472        1471
        1467        1468        1473        1472
        1468        1469        1474        1473
        1475        1476        1481        1480
        1476        1477        1482        1481
        1477        1478        1483        1482
        1478        1479        1484        1483
        1480        1481        1486        1485
        1481        1482        1487        1486
        1482        1483        1488        1487
        1483        1484        1489        1488
        1485        1486        1491        1490
        1486        1487        1492        1491
        1487        1488        1493        1492
        1488        1489        1494        1493
        1490        1491        1496        1495
        1491        1492        1497        1496
        1492        1493        1498        1497
        1493        1494        1499        1498
        1500        1501        1506        1505
        1501        1502        1507        1506
        1502        1503        1508        1507
        1503        1504        1509        1508
        1505        1506        1511        1510
        1506        1507        1512        1511
        1507        1508        1513        1512
        1508        1509        1514        1513
        1510        1511        1516        1515
        1511        1512        1517        1516
        1512        1513        1518        1517
        1513        1514        1519        1518
        1515        1516        1521        1520
        1516        1517        1522        1521
        1517        1518        1523        1522
        1518        1519        1524        1523
        1525        1526        1531        1530
        1526        1527        1532        1531
        1527        1528        1533        1532
        1528        1529        1534        1533
        1530        1531        1536        1535
        1531        1532        1537        1536
        1532        1533        1538        1537
        1533        1534        1539        1538
        1535        1536        1541        1540
        1536        1537        1542        1541
        1537        1538        1543        1542
        1538        1539        1544        1543
        1540        1541        1546        1545
        1541        1542        1547        1546
        1542        1543        1548        1547
        1543        1544        1549        1548
        1550        1551        1556        1555
        1551        1552        1557        1556
        1552        1553        1558        1557
        1553        1554        1559        1558
        1555        1556        1561        1560
        1556        1557        1562        1561
        1557        1558        1563        1562
        1558        1559        1564        1563
        1560        1561        1566        1565
        1561        1562        1567        1566
        1562        1563        1568        1567
        1563        1564        1569        1568
        1565        1566        1571        1570
        1566        1567        1572        1571
        1567        1568        1573        1572
        1568        1569        1574        1573
        1575        1576        1581        1580
        1576        1577        1582        1581
        1577        1578        1583        1582
        1578        1579        1584        1583
        1580        1581        1586        1585
        1581        1582        1587        1586
        1582        1583        1588        1587
        1583        1584        1589        1588
        1585        1586        1591        1590
        1586        1587        1592        1591
        1587        1588        1593        1592
        1588        1589        1594        1593
        1590        1591        1596        1595
        1591        1592        1597        1596
        1592        1593        1598        1597
        1593        1594        1599        1598
 </DataArray>
 <DataArray  type="Int32"  Name="offsets"  format="ascii"> 
           4
           8
          12
          16
          20
          24
          28
          32
          36
          40
          44
          48
          52
          56
          60
          64
          68
          72
          76
          80
          84
          88
          92
          96
         100
         104
         108
         112
         116
         120
         124
         128
         132
         136
         140
         144
         148
         152
         156
         160
         164
         168
         172
         176
         180
         184
         188
         192
         196
         200
         204
         208
         212
         216
         220
         224
         228
         232
         236
         240
         244
         248
         252
         256
         260
         264
         268
         272
         276
         280
         284
         288
         292
         296
         300
         304
         308
         312
         316
         320
         324
         328
         332
         336
         340
         344
         348
         352
         356
         360
         364
         368
         372
         376
         380
         384
         388
         392
         396
         400
         404
         408
         412
         416
         420
         424
         428
         432
         436
         440
         444
         448
         452
         456
         460
         464
         468
         472
         476
         480
         484
         488
         492
         496
         500
         504
         508
         512
         516
         520
         524
         528
         532
         536
         540
         544
         548
         552
         556
         560
         564
         568
         572
         576
         580
         584
         588
         592
         596
         600
         604
         608
         612
         616
         620
         624
         628
         632
         636
         640
         644
         648
         652
         656
         660
         664
         668
         672
         676
         680
         684
         688
         692
         696
         700
         704
         708
         712
         716
         720
         724
         728
         732
         736
         740
         744
         748
         752
         756
         760
         764
         768
         772
         776
         780
         784
         788
         792
         796
         800
         804
         808
         812
         816
         820
         824
         828
         832
         836
         840
         844
         848
         852
         856
         860
         864
         868
         872
         876
         880
         884
         888
         892
         896
         900
         904
         908
         912
         916
         920
         924
         928
         932
         936
         940
         944
         948
         952
         956
         960
         964
         968
         972
         976
         980
         984
         988
         992
         996
        1000
        1004
        1008
        1012
        1016
        1020
        1024
        1028
        1032
        1036
        1040
        1044
        1048
        1052
        1056
        1060
        1064
        1068
        1072
        1076
        1080
        1084
        1088
        1092
        1096
        1100
        1104
        1108
        1112
        1116
        1120
        1124
        1128
        1132
        1136
        1140
        1144
        1148
        1152
        1156
        1160
        1164
        1168
        1172
        1176
        1180
        1184
        1188
        1192
        1196
        1200
        1204
        1208
        1212
        1216
        1220
        1224
        1228
        1232
        1236
        1240
        1244
        1248
        1252
        1256
        1260
        1264
        1268
        1272
        1276
        1280
        1284
        1288
        1292
        1296
        1300
        1304
        1308
        1312
        1316
        1320
        1324
        1328
        1332
        1336
        1340
        1344
        1348
        1352
        1356
        1360
        1364
        1368
        1372
        1376
        1380
        1384
        1388
        1392
        1396
        1400
        1404
        1408
        1412
        1416
        1420
        1424
        1428
        1432
        1436
        1440
        1444
        1448
        1452
        1456
        1460
        1464
        1468
        1472
        1476
        1480
        1484
        1488
        1492
        1496
        1500
        1504
        1508
        1512
        1516
        1520
        1524
        1528
        1532
        1536
        1540
        1544
        1548
        1552
        1556
        1560
        1564
        1568
        1572
        1576
        1580
        1584
        1588
        1592
        1596
        1600
        1604
        1608
        1612
        1616
        1620
        1624
        1628
        1632
        1636
        1640
        1644
        1648
        1652
        1656
        1660
        1664
        1668
        1672
        1676
        1680
        1684
        1688
        1692
        1696
        1700
        1704
        1708
        1712
        1716
        1720
        1724
        1728
        1732
        1736
        1740
        1744
        1748
        1752
        1756
        1760
        1764
        1768
        1772
        1776
        1780
        1784
        1788
        1792
        1796
        1800
        1804
        1808
        1812
        1816
        1820
        1824
        1828
        1832
        1836
        1840
        1844
        1848
        1852
        1856
        1860
        1864
        1868
        1872
        1876
        1880
        1884
        1888
        1892
        1896
        1900
        1904
        1908
        1912
        1916
        1920
        1924
        1928
        1932
        1936
        1940
        1944
        1948
        1952
        1956
        1960
        1964
        1968
        1972
        1976
        1980
        1984
        1988
        1992
        1996
        2000
        2004
        2008
        2012
        2016
        2020
        2024
        2028
        2032
        2036
        2040
        2044
        2048
        2052
        2056
        2060
        2064
        2068
        2072
        2076
        2080
        2084
        2088
        2092
        2096
        2100
        2104
        2108
        2112
        2116
        2120
        2124
        2128
        2132
        2136
        2140
        2144
        2148
        2152
        2156
        2160
        2164
        2168
        2172
        2176
        2180
        2184
        2188
        2192
        2196
        2200
        2204
        2208
        2212
        2216
        2220
        2224
        2228
        2232
        2236
        2240
        2244
        2248
        2252
        2256
        2260
        2264
        2268
        2272
        2276
        2280
        2284
        2288
        2292
        2296
        2300
        2304
        2308
        2312
        2316
        2320
        2324
        2328
        2332
        2336
        2340
        2344
        2348
        2352
        2356
        2360
        2364
        2368
        2372
        2376
        2380
        2384
        2388
        2392
        2396
        2400
        2404
        2408
        2412
        2416
        2420
        2424
        2428
        2432
        2436
        2440
        2444
        2448
        2452
        2456
        2460
        2464
        2468
        2472
        2476
        2480
        2484
        2488
        2492
        2496
        2500
        2504
        2508
        2512
        2516
        2520
        2524
        2528
        2532
        2536
        2540
        2544
        2548
        2552
        2556
        2560
        2564
        2568
        2572
        2576
        2580
        2584
        2588
        2592
        2596
        2600
        2604
        2608
        2612
        2616
        2620
        2624
        2628
        2632
        2636
        2640
        2644
        2648
        2652
        2656
        2660
        2664
        2668
        2672
        2676
        2680
        2684
        2688
        2692
        2696
        2700
        2704
        2708
        2712
        2716
        2720
        2724
        2728
        2732
        2736
        2740
        2744
        2748
        2752
        2756
        2760
        2764
        2768
        2772
        2776
        2780
        2784
        2788
        2792
        2796
        2800
        2804
        2808
        2812
        2816
        2820
        2824
        2828
        2832
        2836
        2840
        2844
        2848
        2852
        2856
        2860
        2864
        2868
        2872
        2876
        2880
        2884
        2888
        2892
        2896
        2900
        2904
        2908
        2912
        2916
        2920
        2924
        2928
        2932
        2936
        2940
        2944
        2948
        2952
        2956
        2960
        2964
        2968
        2972
        2976
        2980
        2984
        2988
        2992
        2996
        3000
        3004
        3008
        3012
        3016
        3020
        3024
        3028
        3032
        3036
        3040
        3044
        3048
        3052
        3056
        3060
        3064
        3068
        3072
        3076
        3080
        3084
        3088
        3092
        3096
        3100
        3104
        3108
        3112
        3116
        3120
        3124
        3128
        3132
        3136
        3140
        3144
        3148
        3152
        3156
        3160
        3164
        3168
        3172
        3176
        3180
        3184
        3188
        3192
        3196
        3200
        3204
        3208
        3212
        3216
        3220
        3224
        3228
        3232
        3236
        3240
        3244
        3248
        3252
        3256
        3260
        3264
        3268
        3272
        3276
        3280
        3284
        3288
        3292
        3296
        3300
        3304
        3308
        3312
        3316
        3320
        3324
        3328
        3332
        3336
        3340
        3344
        3348
        3352
        3356
        3360
        3364
        3368
        3372
        3376
        3380
        3384
        3388
        3392
        3396
        3400
        3404
        3408
        3412
        3416
        3420
        3424
        3428
        3432
        3436
        3440
        3444
        3448
        3452
        3456
        3460
        3464
        3468
        3472
        3476
        3480
        3484
        3488
        3492
        3496
        3500
        3504
        3508
        3512
        3516
        3520
        3524
        3528
        3532
        3536
        3540
        3544
        3548
        3552
        3556
        3560
        3564
        3568
        3572
        3576
        3580
        3584
        3588
        3592
        3596
        3600
        3604
        3608
        3612
        3616
        3620
        3624
        3628
        3632
        3636
        3640
        3644
        3648
        3652
        3656
        3660
        3664
        3668
        3672
        3676
        3680
        3684
        3688
        3692
        3696
        3700
        3704
        3708
        3712
        3716
        3720
        3724
        3728
        3732
        3736
        3740
        3744
        3748
        3752
        3756
        3760
        3764
        3768
        3772
        3776
        3780
        3784
        3788
        3792
        3796
        3800
        3804
        3808
        3812
        3816
        3820
        3824
        3828
        3832
        3836
        3840
        3844
        3848
        3852
        3856
        3860
        3864
        3868
        3872
        3876
        3880
        3884
        3888
        3892
        3896
        3900
        3904
        3908
        3912
        3916
        3920
        3924
        3928
        3932
        3936
        3940
        3944
        3948
        3952
        3956
        3960
        3964
        3968
        3972
        3976
        3980
        3984
        3988
        3992
        3996
        4000
        4004
        4008
        4012
        4016
        4020
        4024
        4028
        4032
        4036
        4040
        4044
        4048
        4052
        4056
        4060
        4064
        4068
        4072
        4076
        4080
        4084
        4088
        4092
        4096
 </DataArray>
 <DataArray  type="UInt8"  Name="types"  format="ascii">
 9
 9
 9
 9
 9
 9
 9
 9
 9
 9
 9
 9
 9
 9
 9
 9
 9
 9
 9
 9
 9
 9
 9
 9
 9
 9
 9
 9
 9
 9
 9
 9
 9
 9
 9
 9
 9
 9
 9
 9
 9
 9
 9
 9
 9
 9
 9
 9
 9
 9
 9
 9
 9
 9
 9
 9
 9
 9
 9
 9
 9
 9
 9
 9
 9
 9
 9
 9
 9
 9
 9
 9
 9
 9
 9
 9
 9
 9
 9
 9
 9
 9
 9
 9
 9
 9
 9
 9
 9
 9
 9
 9
 9
 9
 9
 9
 9
 9
 9
 9
 9
 9
 9
 9
 9
 9
 9
 9
 9
 9
 9
 9
 9
 9
 9
 9
 9
 9
 9
 9
 9
 9
 9
 9
 9
 9
 9
 9
 9
 9
 9
 9
 9
 9
 9
 9
 9
 9
 9
 9
 9
 9
 9
 9
 9
 9
 9
 9
 9
 9
 9
 9
 9
 9
 9
 9
 9
 9
 9
 9
 9
 9
 9
 9
 9
 9
 9
 9
 9
 9
 9
 9
 9
 9
 9
 9
 9
 9
 9
 9
 9
 9
 9
 9
 9
 9
 9
 9
 9
 9
 9
 9
 9
 9
 9
 9
 9
 9
 9
 9
 9
 9
 9
 9
 9
 9
 9
 9
 9
 9
 9
 9
 9
 9
 9
 9
 9
 9
 9
 9
 9
 9
 9
 9
 9
 9
 9
 9
 9
 9
 9
 9
 9
 9
 9
 9
 9
 9
 9
 9
 9
 9
 9
 9
 9
 9
 9
 9
 9
 9
 9
 9
 9
 9
 9
 9
 9
 9
 9
 9
 9
 9
 9
 9
 9
 9
 9
 9
 9
 9
 9
 9
 9
 9
 9
 9
 9
 9
 9
 9
 9
 9
 9
 9
 9
 9
 9
 9
 9
 9
 9
 9
 9
 9
 9
 9
 9
 9
 9
 9
 9
 9
 9
 9
 9
 9
 9
 9
 9
 9
 9
 9
 9
 9
 9
 9
 9
 9
 9
 9
 9
 9
 9
 9
 9
 9
 9
 9
 9
 9
 9
 9
 9
 9
 9
 9
 9
 9
 9
 9
 9
 9
 9
 9
 9
 9
 9
 9
 9
 9
 9
 9
 9
 9
 9
 9
 9
 9
 9
 9
 9
 9
 9
 9
 9
 9
 9
 9
 9
 9
 9
 9
 9
 9
 9
 9
 9
 9
 9
 9
 9
 9
 9
 9
 9
 9
 9
 9
 9
 9
 9
 9
 9
 9
 9
 9
 9
 9
 9
 9
 9
 9
 9
 9
 9
 9
 9
 9
 9
 9
 9
 9
 9
 9
 9
 9
 9
 9
 9
 9
 9
 9
 9
 9
 9
 9
 9
 9
 9
 9
 9
 9
 9
 9
 9
 9
 9
 9
 9
 9
 9
 9
 9
 9
 9
 9
 9
 9
 9
 9
 9
 9
 9
 9
 9
 9
 9
 9
 9
 9
 9
 9
 9
 9
 9
 9
 9
 9
 9
 9
 9
 9
 9
 9
 9
 9
 9
 9
 9
 9
 9
 9
 9
 9
 9
 9
 9
 9
 9
 9
 9
 9
 9
 9
 9
 9
 9
 9
 9
 9
 9
 9
 9
 9
 9
 9
 9
 9
 9
 9
 9
 9
 9
 9
 9
 9
 9
 9
 9
 9
 9
 9
 9
 9
 9
 9
 9
 9
 9
 9
 9
 9
 9
 9
 9
 9
 9
 9
 9
 9
 9
 9
 9
 9
 9
 9
 9
 9
 9
 9
 9
 9
 9
 9
 9
 9
 9
 9
 9
 9
 9
 9
 9
 9
 9
 9
 9
 9
 9
 9
 9
 9
 9
 9
 9
 9
 9
 9
 9
 9
 9
 9
 9
 9
 9
 9
 9
 9
 9
 9
 9
 9
 9
 9
 9
 9
 9
 9
 9
 9
 9
 9
 9
 9
 9
 9
 9
 9
 9
 9
 9
 9
 9
 9
 9
 9
 9
 9
 9
 9
 9
 9
 9
 9
 9
 9
 9
 9
 9
 9
 9
 9
 9
 9
 9
 9
 9
 9
 9
 9
 9
 9
 9
 9
 9
 9
 9
 9
 9
 9
 9
 9
 9
 9
 9
 9
 9
 9
 9
 9
 9
 9
 9
 9
 9
 9
 9
 9
 9
 9
 9
 9
 9
 9
 9
 9
 9
 9
 9
 9
 9
 9
 9
 9
 9
 9
 9
 9
 9
 9
 9
 9
 9
 9
 9
 9
 9
 9
 9
 9
 9
 9
 9
 9
 9
 9
 9
 9
 9
 9
 9
 9
 9
 9
 9
 9
 9
 9
 9
 9
 9
 9
 9
 9
 9
 9
 9
 9
 9
 9
 9
 9
 9
 9
 9
 9
 9
 9
 9
 9
 9
 9
 9
 9
 9
 9
 9
 9
 9
 9
 9
 9
 9
 9
 9
 9
 9
 9
 9
 9
 9
 9
 9
 9
 9
 9
 9
 9
 9
 9
 9
 9
 9
 9
 9
 9
 9
 9
 9
 9
 9
 9
 9
 9
 9
 9
 9
 9
 9
 9
 9
 9
 9
 9
 9
 9
 9
 9
 9
 9
 9
 9
 9
 9
 9
 9
 9
 9
 9
 9
 9
 9
 9
 9
 9
 9
 9
 9
 9
 9
 9
 9
 9
 9
 9
 9
 9
 9
 9
 9
 9
 9
 9
 9
 9
 9
 9
 9
 9
 9
 9
 9
 9
 9
 9
 9
 9
 9
 9
 9
 9
 9
 9
 9
 9
 9
 9
 9
 9
 9
 9
 9
 9
 9
 9
 9
 9
 9
 9
 9
 9
 9
 9
 9
 9
 9
 9
 9
 9
 9
 9
 9
 9
 9
 9
 9
 9
 9
 9
 9
 9
 9
 9
 9
 9
 9
 9
 9
 9
 9
 9
 9
 9
 9
 9
 9
 9
 9
 9
 9
 9
 9
 9
 9
 9
 9
 9
 9
 9
 9
 9
 9
 9
 9
 9
 9
 9
 9
 9
 9
 9
 9
 9
 9
 9
 9
 9
 9
 9
 9
 9
 9
 9
 9
 9
 9
 9
 9
 9
 9
 9
 9
 9
 9
 9
 9
 9
 9
 9
 9
 9
 9
 9
 9
 9
 9
 9
 9
 9
 9
 9
 9
 9
 9
 9
 9
 9
 9
 9
 9
 9
 9
 9
 9
 9
 9
 9
 9
 9
 9
 9
 9
 9
 9
 9
 9
 9
 9
 9
 9
 9
 9
 9
 9
 9
 9
 9
 9
 9
 9
 9
 9
 9
 9
 9
 9
 9
 9
 9
 9
 9
 9
 9
 9
 </DataArray>
 </Cells> 
 <PointData>
 <DataArray  type="Float64" Name="disp" NumberOfComponents="3" format="ascii">
   0.0000000000000000        0.0000000000000000        0.0000000000000000     
   6.0957607033036232E-003   3.7904236831984585E-003   0.0000000000000000     
   1.1665655855002864E-002   7.3238259650658492E-003   0.0000000000000000     
   1.6709685455097718E-002   1.0600206845602173E-002   0.0000000000000000     
   2.1227849503588189E-002   1.3619566324807427E-002   0.0000000000000000     
   0.0000000000000000        0.0000000000000000        0.0000000000000000     
   4.8910746925789148E-003   3.0221559931305894E-003   0.0000000000000000     
   9.5734307999298697E-003   6.0605612522684656E-003   0.0000000000000000     
   1.4047068322052866E-002   9.1152157774136294E-003   0.0000000000000000     
   1.8311987258947903E-002   1.2186119568566080E-002   0.0000000000000000     
   0.0000000000000000        0.0000000000000000        0.0000000000000000     
   3.9535666931563070E-003   2.4251421352559839E-003   0.0000000000000000     
   7.9105147879959710E-003   5.0629588756846387E-003   0.0000000000000000     
   1.1870844284518994E-002   7.9134502212859659E-003   0.0000000000000000     
   1.5834555182725377E-002   1.0976616172059963E-002   0.0000000000000000     
   0.0000000000000000        0.0000000000000000        0.0000000000000000     
   3.2832367050358003E-003   1.9993821095746433E-003   0.0000000000000000     
   6.6769078192011671E-003   4.3310188353143705E-003   0.0000000000000000     
   1.0181013342496105E-002   6.9949101772191812E-003   0.0000000000000000     
   1.3795553274920609E-002   9.9910561352890750E-003   0.0000000000000000     
   0.0000000000000000        0.0000000000000000        0.0000000000000000     
   2.8800847282173950E-003   1.7448759160865665E-003   0.0000000000000000     
   5.8726098935454607E-003   3.8647411311576590E-003   0.0000000000000000     
   8.9775754959841962E-003   6.3595956452132769E-003   0.0000000000000000     
   1.2194981535533601E-002   9.2294394582534203E-003   0.0000000000000000     
   2.1227849503588189E-002   1.3619566324807427E-002   0.0000000000000000     
   2.5432890173792837E-002   1.6612530352089701E-002   0.0000000000000000     
   2.9537549639030214E-002   1.9809724876857084E-002   0.0000000000000000     
   3.3541827899300332E-002   2.3211149899109582E-002   0.0000000000000000     
   3.7445724954603188E-002   2.6816805418847185E-002   0.0000000000000000     
   1.8311987258947903E-002   1.2186119568566080E-002   0.0000000000000000     
   2.2406449575091750E-002   1.5341609993894088E-002   0.0000000000000000     
   2.6368717234961189E-002   1.8650024421565922E-002   0.0000000000000000     
   3.0198790238556220E-002   2.2111362851581582E-002   0.0000000000000000     
   3.3896668585876838E-002   2.5725625283941074E-002   0.0000000000000000     
   1.5834555182725377E-002   1.0976616172059963E-002   0.0000000000000000     
   1.9730020981795233E-002   1.4211228831633128E-002   0.0000000000000000     
   2.3485615180908689E-002   1.7576060303631964E-002   0.0000000000000000     
   2.7101337780065730E-002   2.1071110588056465E-002   0.0000000000000000     
   3.0577188779266375E-002   2.4696379684906639E-002   0.0000000000000000     
   1.3795553274920609E-002   9.9910561352890750E-003   0.0000000000000000     
   1.7403604393903267E-002   1.3221386865306831E-002   0.0000000000000000     
   2.0888243476872688E-002   1.6587832523055217E-002   0.0000000000000000     
   2.4249470523828857E-002   2.0090393108534239E-002   0.0000000000000000     
   2.7487285534771786E-002   2.3729068621743888E-002   0.0000000000000000     
   1.2194981535533601E-002   9.2294394582534203E-003   0.0000000000000000     
   1.5427199811415873E-002   1.2372084094915189E-002   0.0000000000000000     
   1.8576602122853208E-002   1.5685341079835678E-002   0.0000000000000000     
   2.1643188469845608E-002   1.9169210413014889E-002   0.0000000000000000     
   2.4626958852393074E-002   2.2823692094452820E-002   0.0000000000000000     
   3.7445724954603188E-002   2.6816805418847185E-002   0.0000000000000000     
   4.1253877070582590E-002   3.0621712324969054E-002   0.0000000000000000     
   4.4970920512882345E-002   3.4620891506374339E-002   0.0000000000000000     
   4.8596855281502462E-002   3.8814342963063048E-002   0.0000000000000000     
   5.2131681376442932E-002   4.3202066695035179E-002   0.0000000000000000     
   3.3896668585876838E-002   2.5725625283941074E-002   0.0000000000000000     
   3.7485363405187218E-002   2.9521468612671506E-002   0.0000000000000000     
   4.0987885824751540E-002   3.3527549731800020E-002   0.0000000000000000     
   4.4404235844569775E-002   3.7743868641326610E-002   0.0000000000000000     
   4.7734413464641960E-002   4.2170425341251261E-002   0.0000000000000000     
   3.0577188779266375E-002   2.4696379684906639E-002   0.0000000000000000     
   3.3942176662563543E-002   2.8496406033087843E-002   0.0000000000000000     
   3.7225309914010143E-002   3.2515728071505434E-002   0.0000000000000000     
   4.0426588533606200E-002   3.6754345800159419E-002   0.0000000000000000     
   4.3546012521351693E-002   4.1212259219049786E-002   0.0000000000000000     
   2.7487285534771786E-002   2.3729068621743888E-002   0.0000000000000000     
   3.0624316842711528E-002   2.7546524586218046E-002   0.0000000000000000     
   3.3683192780658171E-002   3.1585426525490581E-002   0.0000000000000000     
   3.6663913348611708E-002   3.5845774439561474E-002   0.0000000000000000     
   3.9566478546572144E-002   4.0327568328430756E-002   0.0000000000000000     
   2.4626958852393074E-002   2.2823692094452820E-002   0.0000000000000000     
   2.7531783945631213E-002   2.6671824272062127E-002   0.0000000000000000     
   3.0361534424695628E-002   3.0736645093755455E-002   0.0000000000000000     
   3.3116210289586320E-002   3.5018154559532812E-002   0.0000000000000000     
   3.5795811540303299E-002   3.9516352669394184E-002   0.0000000000000000     
   5.2131681376442932E-002   4.3202066695035179E-002   0.0000000000000000     
   5.5572723456684799E-002   4.7790110428369094E-002   0.0000000000000000     
   5.8917306181209092E-002   5.2584521889143143E-002   0.0000000000000000     
   6.2165429550015805E-002   5.7585301077357334E-002   0.0000000000000000     
   6.5317093563104944E-002   6.2792447993011660E-002   0.0000000000000000     
   4.7734413464641960E-002   4.2170425341251261E-002   0.0000000000000000     
   5.0974900290280040E-002   4.6801900045207095E-002   0.0000000000000000     
   5.4122177926795981E-002   5.1632972966827229E-002   0.0000000000000000     
   5.7176246374189790E-002   5.6663644106111667E-002   0.0000000000000000     
   6.0137105632461454E-002   6.1893913463060411E-002   0.0000000000000000     
   4.3546012521351693E-002   4.1212259219049786E-002   0.0000000000000000     
   4.6580295967074900E-002   4.5877637950634834E-002   0.0000000000000000     
   4.9526152960604058E-002   5.0738651617372892E-002   0.0000000000000000     
   5.2383583501939154E-002   5.5795300219263919E-002   0.0000000000000000     
   5.5152587591080229E-002   6.1047583756307935E-002   0.0000000000000000     
   3.9566478546572144E-002   4.0327568328430756E-002   0.0000000000000000     
   4.2388910487069380E-002   4.5017324144652322E-002   0.0000000000000000     
   4.5129231282633298E-002   4.9901557840780104E-002   0.0000000000000000     
   4.7787440933263946E-002   5.4980269416814082E-002   0.0000000000000000     
   5.0363539438961276E-002   6.0253458872754267E-002   0.0000000000000000     
   3.5795811540303299E-002   3.9516352669394184E-002   0.0000000000000000     
   3.8400743850263472E-002   4.4220958627259548E-002   0.0000000000000000     
   4.0931412892883740E-002   4.9121691637048867E-002   0.0000000000000000     
   4.3387818668164102E-002   5.4218551698762156E-002   0.0000000000000000     
   4.5769961176104573E-002   5.9511538812399394E-002   0.0000000000000000     
   6.5317093563104944E-002   6.2792447993011660E-002   0.0000000000000000     
   6.8374395428900128E-002   6.8190739610848580E-002   0.0000000000000000     
   7.1339432355824961E-002   7.3764952905610526E-002   0.0000000000000000     
   7.4212204343879443E-002   7.9515087877297497E-002   0.0000000000000000     
   7.6992711393063587E-002   8.5441144525909507E-002   0.0000000000000000     
   6.0137105632461454E-002   6.1893913463060411E-002   0.0000000000000000     
   6.3007910822666879E-002   6.7313583064232435E-002   0.0000000000000000     
   6.5791817065861957E-002   7.2912454936186782E-002   0.0000000000000000     
   6.8488824362046660E-002   7.8690529078923432E-002   0.0000000000000000     
   7.1098932711221002E-002   8.4647805492442385E-002   0.0000000000000000     
   5.5152587591080229E-002   6.1047583756307935E-002   0.0000000000000000     
   5.7836428108391028E-002   6.6488410156759478E-002   0.0000000000000000     
   6.0438367934235342E-002   7.2110687348873048E-002   0.0000000000000000     
   6.2958407068613151E-002   7.7914415332648659E-002   0.0000000000000000     
   6.5396545511524462E-002   8.3899594108086298E-002   0.0000000000000000     
   5.0363539438961276E-002   6.0253458872754267E-002   0.0000000000000000     
   5.2859947286072580E-002   6.5715220888429696E-002   0.0000000000000000     
   5.5279084960945128E-002   7.1359650143669295E-002   0.0000000000000000     
   5.7620952463578907E-002   7.7186746638473178E-002   0.0000000000000000     
   5.9885549793973945E-002   8.3196510372841259E-002   0.0000000000000000     
   4.5769961176104573E-002   5.9511538812399394E-002   0.0000000000000000     
   4.8078468355711508E-002   6.4994015259243046E-002   0.0000000000000000     
   5.0313968145991303E-002   7.0659343320575579E-002   0.0000000000000000     
   5.2476460546943944E-002   7.6507522996396973E-002   0.0000000000000000     
   5.4565945558569438E-002   8.2538554286707269E-002   0.0000000000000000     
   7.6992711393063587E-002   8.5441144525909507E-002   0.0000000000000000     
   7.9675948162691773E-002   9.1532739439380825E-002   0.0000000000000000     
   8.2256909312078352E-002   9.7779489205645734E-002   0.0000000000000000     
   8.4735594841223380E-002  0.10418139382470422        0.0000000000000000     
   8.7112004750126815E-002  0.11073845329655629        0.0000000000000000     
   7.1098932711221002E-002   8.4647805492442385E-002   0.0000000000000000     
   7.3617417012529329E-002   9.0772624440774052E-002   0.0000000000000000     
   7.6039552165115917E-002   9.7053326187948860E-002   0.0000000000000000     
   7.8365338168980753E-002  0.10348991073396679        0.0000000000000000     
   8.0594775024123877E-002  0.11008237807882784        0.0000000000000000     
   6.5396545511524462E-002   8.3899594108086298E-002   0.0000000000000000     
   6.7748792705040070E-002   9.0053744337530731E-002   0.0000000000000000     
   7.0011158091230791E-002   9.6364386683326697E-002   0.0000000000000000     
   7.2183641670096568E-002  0.10283152114547423        0.0000000000000000     
   7.4266243441637458E-002  0.10945514772397330        0.0000000000000000     
   5.9885549793973945E-002   8.3196510372841259E-002   0.0000000000000000     
   6.2070075240224030E-002   8.9376099129650860E-002   0.0000000000000000     
   6.4171727090422986E-002   9.5712670691779300E-002   0.0000000000000000     
   6.6190505344570813E-002  0.10220622505922652        0.0000000000000000     
   6.8126410002667545E-002  0.10885676223199262        0.0000000000000000     
   5.4565945558569438E-002   8.2538554286707269E-002   0.0000000000000000     
   5.6581264618081169E-002   8.8739688817134468E-002   0.0000000000000000     
   5.8521259162692525E-002   9.5098178213306600E-002   0.0000000000000000     
   6.0385929192403522E-002  0.10161402247522375        0.0000000000000000     
   6.2175274707214137E-002  0.10828722160288581        0.0000000000000000     
   8.7112004750126815E-002  0.11073845329655629        0.0000000000000000     
   8.9395171736165971E-002  0.11745085279623962        0.0000000000000000     
   9.1594128496718163E-002  0.12431877749879186        0.0000000000000000     
   9.3708875031783365E-002  0.13134222740421303        0.0000000000000000     
   9.5739411341361616E-002  0.13852120251250311        0.0000000000000000     
   8.0594775024123877E-002  0.11008237807882784        0.0000000000000000     
   8.2735471530042556E-002  0.11682535735303066        0.0000000000000000     
   8.4795036486234085E-002  0.12371347768707379        0.0000000000000000     
   8.6773469892698449E-002  0.13074673908095724        0.0000000000000000     
   8.8670771749435676E-002  0.13792514153468105        0.0000000000000000     
   7.4266243441637458E-002  0.10945514772397330        0.0000000000000000     
   7.6265035246222204E-002  0.11622537297784688        0.0000000000000000     
   7.8186088924219618E-002  0.12313230346611798        0.0000000000000000     
   8.0029404475629687E-002  0.13017593918878659        0.0000000000000000     
   8.1794981900452396E-002  0.13735628014585266        0.0000000000000000     
   6.8126410002667545E-002  0.10885676223199262        0.0000000000000000     
   6.9983862884704942E-002  0.11565089967068831        0.0000000000000000     
   7.1767285810674777E-002  0.12257525483592441        0.0000000000000000     
   7.3476678780577051E-002  0.12962982772770096        0.0000000000000000     
   7.5112041794411805E-002  0.13681461834601796        0.0000000000000000     
   6.2175274707214137E-002  0.10828722160288581        0.0000000000000000     
   6.3891954445490715E-002  0.11510193743155492        0.0000000000000000     
   6.5538627145599521E-002  0.12204233179649315        0.0000000000000000     
   6.7115292807540555E-002  0.12910840469770049        0.0000000000000000     
   6.8621951431313860E-002  0.13630015613517696        0.0000000000000000     
   9.5739411341361616E-002  0.13852120251250311        0.0000000000000000     
   9.7673607076994656E-002  0.14578976910659061        0.0000000000000000     
   9.9499331890224252E-002  0.15308199346940404        0.0000000000000000     
  0.10121658578105043       0.16039787560094348        0.0000000000000000     
  0.10282536874947318       0.16773741550120885        0.0000000000000000     
   8.8670771749435676E-002  0.13792514153468105        0.0000000000000000     
   9.0478643953254681E-002  0.14521869275571822        0.0000000000000000     
   9.2188788400964408E-002  0.15259740045154183        0.0000000000000000     
   9.3801205092564871E-002  0.16006126462215187        0.0000000000000000     
   9.5315894028056056E-002  0.16761028526754837        0.0000000000000000     
   8.1794981900452396E-002  0.13735628014585266        0.0000000000000000     
   8.3477580814451322E-002  0.14466674069899368        0.0000000000000000     
   8.5071960833389970E-002  0.15210073520988707        0.0000000000000000     
   8.6578121957268356E-002  0.15965826367853281        0.0000000000000000     
   8.7996064186086492E-002  0.16733932610493085        0.0000000000000000     
   7.5112041794411805E-002  0.13681461834601796        0.0000000000000000     
   7.6670417660584564E-002  0.14413391293641700        0.0000000000000000     
   7.8148849187500938E-002  0.15159199774443974        0.0000000000000000     
   7.9547336375160912E-002  0.15918887277008623        0.0000000000000000     
   8.0865879223564488E-002  0.16692453801335630        0.0000000000000000     
   6.8621951431313860E-002  0.13630015613517696        0.0000000000000000     
   7.0057154491654450E-002  0.14362020946798820        0.0000000000000000     
   7.1419453463297339E-002  0.15107118805519990        0.0000000000000000     
   7.2708848346242541E-002  0.15865309189681209        0.0000000000000000     
   7.3925339140490043E-002  0.16636592099282471        0.0000000000000000     
   0.0000000000000000        0.0000000000000000        0.0000000000000000     
   2.8800847282173950E-003   1.7448759160865665E-003   0.0000000000000000     
   5.8726098935454607E-003   3.8647411311576590E-003   0.0000000000000000     
   8.9775754959841962E-003   6.3595956452132769E-003   0.0000000000000000     
   1.2194981535533601E-002   9.2294394582534203E-003   0.0000000000000000     
   0.0000000000000000        0.0000000000000000        0.0000000000000000     
   2.6103027345677878E-003   1.5889688325865018E-003   0.0000000000000000     
   5.2896766108410966E-003   3.5568150271527966E-003   0.0000000000000000     
   8.0381216288199255E-003   5.9035385836988833E-003   0.0000000000000000     
   1.0855637788504274E-002   8.6291395022247662E-003   0.0000000000000000     
   0.0000000000000000        0.0000000000000000        0.0000000000000000     
   2.3400826959536734E-003   1.4590061368691960E-003   0.0000000000000000     
   4.7201635709003230E-003   3.2999297872380734E-003   0.0000000000000000     
   7.1402426248399469E-003   5.5227709511066333E-003   0.0000000000000000     
   9.6003198577725452E-003   8.1275296284748760E-003   0.0000000000000000     
   0.0000000000000000        0.0000000000000000        0.0000000000000000     
   2.0694246123750524E-003   1.3549878289346488E-003   0.0000000000000000     
   4.1640707737231391E-003   3.0940854114134913E-003   0.0000000000000000     
   6.2839384840442623E-003   5.2172927474365286E-003   0.0000000000000000     
   8.4290277433384190E-003   7.7246098370037592E-003   0.0000000000000000     
   0.0000000000000000        0.0000000000000000        0.0000000000000000     
   1.7983284838319249E-003   1.2769139087828608E-003   0.0000000000000000     
   3.6213982193095480E-003   2.9392818996790493E-003   0.0000000000000000     
   5.4692092064328700E-003   4.9871039726885648E-003   0.0000000000000000     
   7.3417614452018906E-003   7.4203801278114089E-003   0.0000000000000000     
   1.2194981535533601E-002   9.2294394582534203E-003   0.0000000000000000     
   1.5427199811415873E-002   1.2372084094915189E-002   0.0000000000000000     
   1.8576602122853208E-002   1.5685341079835678E-002   0.0000000000000000     
   2.1643188469845608E-002   1.9169210413014889E-002   0.0000000000000000     
   2.4626958852393074E-002   2.2823692094452820E-002   0.0000000000000000     
   1.0855637788504274E-002   8.6291395022247662E-003   0.0000000000000000     
   1.3688908760379507E-002   1.1651222925019111E-002   0.0000000000000000     
   1.6484618214930989E-002   1.4887393994370597E-002   0.0000000000000000     
   1.9242766152158725E-002   1.8337652710279224E-002   0.0000000000000000     
   2.1963352572062705E-002   2.2001999072744988E-002   0.0000000000000000     
   9.6003198577725452E-003   8.1275296284748760E-003   0.0000000000000000     
   1.2076832766840649E-002   1.1046705760179507E-002   0.0000000000000000     
   1.4546218849186787E-002   1.4212799287057232E-002   0.0000000000000000     
   1.7008478104810952E-002   1.7625810209108049E-002   0.0000000000000000     
   1.9463610533713149E-002   2.1285738526331959E-002   0.0000000000000000     
   8.4290277433384190E-003   7.7246098370037592E-003   0.0000000000000000     
   1.0590971830799295E-002   1.0558532600396377E-002   0.0000000000000000     
   1.2761404025620591E-002   1.3661556957895577E-002   0.0000000000000000     
   1.4940324327802290E-002   1.7033682909501364E-002   0.0000000000000000     
   1.7127732737344407E-002   2.0674910455213729E-002   0.0000000000000000     
   7.3417614452018906E-003   7.4203801278114089E-003   0.0000000000000000     
   9.2313259522554536E-003   1.0186703445669720E-002   0.0000000000000000     
   1.1130173744232405E-002   1.3233667006885639E-002   0.0000000000000000     
   1.3038304821132746E-002   1.6561270811459163E-002   0.0000000000000000     
   1.4955719182956474E-002   2.0169514859390295E-002   0.0000000000000000     
   2.4626958852393074E-002   2.2823692094452820E-002   0.0000000000000000     
   2.7531783945631213E-002   2.6671824272062127E-002   0.0000000000000000     
   3.0361534424695628E-002   3.0736645093755455E-002   0.0000000000000000     
   3.3116210289586320E-002   3.5018154559532812E-002   0.0000000000000000     
   3.5795811540303299E-002   3.9516352669394184E-002   0.0000000000000000     
   2.1963352572062705E-002   2.2001999072744988E-002   0.0000000000000000     
   2.4629720370576352E-002   2.5878870475255316E-002   0.0000000000000000     
   2.7225212443633066E-002   2.9966704311297616E-002   0.0000000000000000     
   2.9749828791232839E-002   3.4265500580871897E-002   0.0000000000000000     
   3.2203569413375696E-002   3.8775259283978153E-002   0.0000000000000000     
   1.9463610533713149E-002   2.1285738526331959E-002   0.0000000000000000     
   2.1883268516800735E-002   2.5174228580432851E-002   0.0000000000000000     
   2.4239104434981042E-002   2.9272924713114618E-002   0.0000000000000000     
   2.6531118288254083E-002   3.3581826924377257E-002   0.0000000000000000     
   2.8759310076619846E-002   3.8100935214220769E-002   0.0000000000000000     
   1.7127732737344407E-002   2.0674910455213729E-002   0.0000000000000000     
   1.9292428384304356E-002   2.4557898587594738E-002   0.0000000000000000     
   2.1403210398739568E-002   2.8655306299206453E-002   0.0000000000000000     
   2.3460078780650033E-002   3.2967133590048887E-002   0.0000000000000000     
   2.5463033530035758E-002   3.7493380460122010E-002   0.0000000000000000     
   1.4955719182956474E-002   2.0169514859390295E-002   0.0000000000000000     
   1.6857199973087225E-002   2.4029880496740975E-002   0.0000000000000000     
   1.8717530334908632E-002   2.8113849069573139E-002   0.0000000000000000     
   2.0536710268420705E-002   3.2421420577886780E-002   0.0000000000000000     
   2.2314739773623429E-002   3.6952595021681904E-002   0.0000000000000000     
   3.5795811540303299E-002   3.9516352669394184E-002   0.0000000000000000     
   3.8400743850263472E-002   4.4220958627259548E-002   0.0000000000000000     
   4.0931412892883740E-002   4.9121691637048867E-002   0.0000000000000000     
   4.3387818668164102E-002   5.4218551698762156E-002   0.0000000000000000     
   4.5769961176104573E-002   5.9511538812399394E-002   0.0000000000000000     
   3.2203569413375696E-002   3.8775259283978153E-002   0.0000000000000000     
   3.4588828754793473E-002   4.3489998193632973E-002   0.0000000000000000     
   3.6908001260218024E-002   4.8403735082852936E-002   0.0000000000000000     
   3.9161086929649348E-002   5.3516469951638029E-002   0.0000000000000000     
   4.1348085763087454E-002   5.8828202799988266E-002   0.0000000000000000     
   2.8759310076619846E-002   3.8100935214220769E-002   0.0000000000000000     
   3.0926197898795662E-002   4.2825899638949040E-002   0.0000000000000000     
   3.3034299853498830E-002   4.7752370254865985E-002   0.0000000000000000     
   3.5083615940729354E-002   5.2880347061971603E-002   0.0000000000000000     
   3.7074146160487244E-002   5.8209830060265894E-002   0.0000000000000000     
   2.5463033530035758E-002   3.7493380460122010E-002   0.0000000000000000     
   2.7412851282270039E-002   4.2228662963207778E-002   0.0000000000000000     
   2.9310308672726163E-002   4.7167597153088062E-002   0.0000000000000000     
   3.1155405701404130E-002   5.2310183029762883E-002   0.0000000000000000     
   3.2948142368303943E-002   5.7656420593232234E-002   0.0000000000000000     
   2.2314739773623429E-002   3.6952595021681904E-002   0.0000000000000000     
   2.4048788905216601E-002   4.1698288166409136E-002   0.0000000000000000     
   2.5736027717900012E-002   4.6649415777519132E-002   0.0000000000000000     
   2.7376456211673669E-002   5.1805977855011856E-002   0.0000000000000000     
   2.8970074386537557E-002   5.7167974398887336E-002   0.0000000000000000     
   4.5769961176104573E-002   5.9511538812399394E-002   0.0000000000000000     
   4.8078468355711508E-002   6.4994015259243046E-002   0.0000000000000000     
   5.0313968145991303E-002   7.0659343320575579E-002   0.0000000000000000     
   5.2476460546943944E-002   7.6507522996396973E-002   0.0000000000000000     
   5.4565945558569438E-002   8.2538554286707269E-002   0.0000000000000000     
   4.1348085763087454E-002   5.8828202799988266E-002   0.0000000000000000     
   4.3467794296943529E-002   6.4330695742472785E-002   0.0000000000000000     
   4.5519009067628756E-002   7.0015710893660682E-002   0.0000000000000000     
   4.7501730075143141E-002   7.5883248253551971E-002   0.0000000000000000     
   4.9415957319486697E-002   8.1933307822146653E-002   0.0000000000000000     
   3.7074146160487244E-002   5.8209830060265894E-002   0.0000000000000000     
   3.9003728089404305E-002   6.3731164811392085E-002   0.0000000000000000     
   4.0870199304112363E-002   6.9434696876993482E-002   0.0000000000000000     
   4.2673559804611419E-002   7.5320426257070069E-002   0.0000000000000000     
   4.4413809590901465E-002   8.1388352951621806E-002   0.0000000000000000     
   3.2948142368303943E-002   5.7656420593232234E-002   0.0000000000000000     
   3.4686269733093862E-002   6.3195422466000989E-002   0.0000000000000000     
   3.6367538855442139E-002   6.8916301270573993E-002   0.0000000000000000     
   3.7991949735348758E-002   7.4819057006951212E-002   0.0000000000000000     
   3.9559502372813735E-002   8.0903689675132714E-002   0.0000000000000000     
   2.8970074386537557E-002   5.7167974398887336E-002   0.0000000000000000     
   3.0515419228012181E-002   6.2723468706299468E-002   0.0000000000000000     
   3.2011027721618054E-002   6.8460524074402188E-002   0.0000000000000000     
   3.3456899867355165E-002   7.4379140503195482E-002   0.0000000000000000     
   3.4853035665223520E-002   8.0479317992679350E-002   0.0000000000000000     
   5.4565945558569438E-002   8.2538554286707269E-002   0.0000000000000000     
   5.6581264618081169E-002   8.8739688817134468E-002   0.0000000000000000     
   5.8521259162692525E-002   9.5098178213306600E-002   0.0000000000000000     
   6.0385929192403522E-002  0.10161402247522375        0.0000000000000000     
   6.2175274707214137E-002  0.10828722160288581        0.0000000000000000     
   4.9415957319486697E-002   8.1933307822146653E-002   0.0000000000000000     
   5.1261975228820401E-002   8.8153442992377470E-002   0.0000000000000000     
   5.3040068231305269E-002   9.4531207157177041E-002   0.0000000000000000     
   5.4750236326941280E-002  0.10106660031654548        0.0000000000000000     
   5.6392479515728462E-002  0.10775962247048271        0.0000000000000000     
   4.4413809590901465E-002   8.1388352951621806E-002   0.0000000000000000     
   4.6091821462650638E-002   8.7626291247775781E-002   0.0000000000000000     
   4.7708468219527053E-002   9.4022055432658999E-002   0.0000000000000000     
   4.9263749861530745E-002  0.10057564550627140        0.0000000000000000     
   5.0757666388661686E-002  0.10728706146861307        0.0000000000000000     
   3.9559502372813735E-002   8.0903689675132714E-002   0.0000000000000000     
   4.1070803319571858E-002   8.7158233583329442E-002   0.0000000000000000     
   4.2526459127357912E-002   9.3570723039752363E-002   0.0000000000000000     
   4.3926469796171909E-002  0.10014115804440155        0.0000000000000000     
   4.5270835326013822E-002  0.10686953859727694        0.0000000000000000     
   3.4853035665223520E-002   8.0479317992679350E-002   0.0000000000000000     
   3.6198920799584089E-002   8.6749269999038398E-002   0.0000000000000000     
   3.7494040954797823E-002   9.3177209978457229E-002   0.0000000000000000     
   3.8738396130864758E-002   9.9763137930935858E-002   0.0000000000000000     
   3.9931986327784871E-002  0.10650705385647427        0.0000000000000000     
   6.2175274707214137E-002  0.10828722160288581        0.0000000000000000     
   6.3891954445490715E-002  0.11510193743155492        0.0000000000000000     
   6.5538627145599521E-002  0.12204233179649315        0.0000000000000000     
   6.7115292807540555E-002  0.12910840469770049        0.0000000000000000     
   6.8621951431313860E-002  0.13630015613517696        0.0000000000000000     
   5.6392479515728462E-002  0.10775962247048271        0.0000000000000000     
   5.7967997354303601E-002  0.11459317378683520        0.0000000000000000     
   5.9477989399303516E-002  0.12155015443344945        0.0000000000000000     
   6.0922455650728187E-002  0.12863056441032542        0.0000000000000000     
   6.2301396108577649E-002  0.13583440371746314        0.0000000000000000     
   5.0757666388661686E-002  0.10728706146861307        0.0000000000000000     
   5.2190679036867638E-002  0.11413929626291756        0.0000000000000000     
   5.3563249042096368E-002  0.12111534283241858        0.0000000000000000     
   5.4875376404347892E-002  0.12821520117711604        0.0000000000000000     
   5.6127061123622181E-002  0.13543887129700996        0.0000000000000000     
   4.5270835326013822E-002  0.10686953859727694        0.0000000000000000     
   4.6559999493182833E-002  0.11374030485980209        0.0000000000000000     
   4.7794406073978106E-002  0.12073789699340057        0.0000000000000000     
   4.8974055068399650E-002  0.12786231499807235        0.0000000000000000     
   5.0098946476447449E-002  0.13511355887381751        0.0000000000000000     
   3.9931986327784871E-002  0.10650705385647427        0.0000000000000000     
   4.1075958723249179E-002  0.11339619957748871        0.0000000000000000     
   4.2171460494948722E-002  0.12041781691639543        0.0000000000000000     
   4.3218491642883494E-002  0.12757190587319442        0.0000000000000000     
   4.4217052167053489E-002  0.13485846644788568        0.0000000000000000     
   6.8621951431313860E-002  0.13630015613517696        0.0000000000000000     
   7.0057154491654450E-002  0.14362020946798820        0.0000000000000000     
   7.1419453463297339E-002  0.15107118805519990        0.0000000000000000     
   7.2708848346242541E-002  0.15865309189681209        0.0000000000000000     
   7.3925339140490043E-002  0.16636592099282471        0.0000000000000000     
   6.2301396108577649E-002  0.13583440371746314        0.0000000000000000     
   6.3614030234517713E-002  0.14315751750600861        0.0000000000000000     
   6.4859577490214246E-002  0.15059575092710792        0.0000000000000000     
   6.6038037875667213E-002  0.15814910398076104        0.0000000000000000     
   6.7149411390876643E-002  0.16581757666696798        0.0000000000000000     
   5.6127061123622181E-002  0.13543887129700996        0.0000000000000000     
   5.7317283816031163E-002  0.14277772426277960        0.0000000000000000     
   5.8445025097686759E-002  0.15022313114510413        0.0000000000000000     
   5.9510284968588976E-002  0.15777509194398359        0.0000000000000000     
   6.0513063428737801E-002  0.16543360665941795        0.0000000000000000     
   5.0098946476447449E-002  0.13511355887381751        0.0000000000000000     
   5.1166915236194779E-002  0.14248082973830115        0.0000000000000000     
   5.2175796285714907E-002  0.14995332870918857        0.0000000000000000     
   5.3125589625007817E-002  0.15753105578647975        0.0000000000000000     
   5.4016295254073518E-002  0.16521401097017471        0.0000000000000000     
   4.4217052167053489E-002  0.13485846644788568        0.0000000000000000     
   4.5162924495008583E-002  0.14226683393257325        0.0000000000000000     
   4.6051891054298667E-002  0.14978634361936122        0.0000000000000000     
   4.6883951844923728E-002  0.15741699550824953        0.0000000000000000     
   4.7659106866883780E-002  0.16515878959923819        0.0000000000000000     
   0.0000000000000000        0.0000000000000000        0.0000000000000000     
   1.7983284838319249E-003   1.2769139087828608E-003   0.0000000000000000     
   3.6213982193095480E-003   2.9392818996790493E-003   0.0000000000000000     
   5.4692092064328700E-003   4.9871039726885648E-003   0.0000000000000000     
   7.3417614452018906E-003   7.4203801278114089E-003   0.0000000000000000     
   0.0000000000000000        0.0000000000000000        0.0000000000000000     
   1.5350569676487250E-003   1.2176554788874709E-003   0.0000000000000000     
   3.0994831397507653E-003   2.8209969977665930E-003   0.0000000000000000     
   4.6932785163061206E-003   4.8100245566373668E-003   0.0000000000000000     
   6.3164430973147914E-003   7.1847381554997914E-003   0.0000000000000000     
   0.0000000000000000        0.0000000000000000        0.0000000000000000     
   1.2878727211498874E-003   1.1700836417221185E-003   0.0000000000000000     
   2.6056627671380084E-003   2.7247084514079698E-003   0.0000000000000000     
   3.9533701379643642E-003   4.6638744290575535E-003   0.0000000000000000     
   5.3309948336289527E-003   6.9875815746708704E-003   0.0000000000000000     
   0.0000000000000000        0.0000000000000000        0.0000000000000000     
   1.0567757443354126E-003   1.1341983972868036E-003   0.0000000000000000     
   2.1399371014712790E-003   2.6504162606031793E-003   0.0000000000000000     
   3.2494840714075999E-003   4.5486535899491257E-003   0.0000000000000000     
   4.3854166541443754E-003   6.8289103853246451E-003   0.0000000000000000     
   0.0000000000000000        0.0000000000000000        0.0000000000000000     
   8.4176603720530002E-004   1.1099997455815257E-003   0.0000000000000000     
   1.7023061427505761E-003   2.5981204253522202E-003   0.0000000000000000     
   2.5816203166358284E-003   4.4643620393120843E-003   0.0000000000000000     
   3.4797085588610570E-003   6.7087245874611163E-003   0.0000000000000000     
   7.3417614452018906E-003   7.4203801278114089E-003   0.0000000000000000     
   9.2313259522554536E-003   1.0186703445669720E-002   0.0000000000000000     
   1.1130173744232405E-002   1.3233667006885639E-002   0.0000000000000000     
   1.3038304821132746E-002   1.6561270811459163E-002   0.0000000000000000     
   1.4955719182956474E-002   2.0169514859390295E-002   0.0000000000000000     
   6.3164430973147914E-003   7.1847381554997914E-003   0.0000000000000000     
   7.9562356404134175E-003   9.8956628633480679E-003   0.0000000000000000     
   9.5999149032386343E-003   1.2893323749176401E-002   0.0000000000000000     
   1.1247480885790445E-002   1.6177720812984783E-002   0.0000000000000000     
   1.2898933588068845E-002   1.9748854054773224E-002   0.0000000000000000     
   5.3309948336289527E-003   6.9875815746708704E-003   0.0000000000000000     
   6.7240414044774880E-003   9.6498554207799601E-003   0.0000000000000000     
   8.1180144008556748E-003   1.2604721499916854E-002   0.0000000000000000     
   9.5129138227635166E-003   1.5852179812081559E-002   0.0000000000000000     
   1.0908739670201010E-002   1.9392230357274071E-002   0.0000000000000000     
   4.3854166541443754E-003   6.8289103853246451E-003   0.0000000000000000     
   5.5347432444476652E-003   9.4492811179653861E-003   0.0000000000000000     
   6.6844722370835276E-003   1.2367860259107001E-002   0.0000000000000000     
   7.8346036320519636E-003   1.5584647808749479E-002   0.0000000000000000     
   8.9851374293529723E-003   1.9099643766892833E-002   0.0000000000000000     
   3.4797085588610570E-003   6.7087245874611163E-003   0.0000000000000000     
   4.3883411603239482E-003   9.2939399549043546E-003   0.0000000000000000     
   5.2992884119221918E-003   1.2182740026746835E-002   0.0000000000000000     
   6.2125503136557861E-003   1.5375124802988553E-002   0.0000000000000000     
   7.1281268655247320E-003   1.8871094283629514E-002   0.0000000000000000     
   1.4955719182956474E-002   2.0169514859390295E-002   0.0000000000000000     
   1.6857199973087225E-002   2.4029880496740975E-002   0.0000000000000000     
   1.8717530334908632E-002   2.8113849069573139E-002   0.0000000000000000     
   2.0536710268420705E-002   3.2421420577886780E-002   0.0000000000000000     
   2.2314739773623429E-002   3.6952595021681904E-002   0.0000000000000000     
   1.2898933588068845E-002   1.9748854054773224E-002   0.0000000000000000     
   1.4538023038468344E-002   2.3580400888049753E-002   0.0000000000000000     
   1.6148499265383441E-002   2.7646038726322420E-002   0.0000000000000000     
   1.7730362268814144E-002   3.1945767569591221E-002   0.0000000000000000     
   1.9283612048760449E-002   3.6479587417856153E-002   0.0000000000000000     
   1.0908739670201010E-002   1.9392230357274071E-002   0.0000000000000000     
   1.2295337335766715E-002   2.3199686341699281E-002   0.0000000000000000     
   1.3662552212059186E-002   2.7249360971562091E-002   0.0000000000000000     
   1.5010384299078418E-002   3.1541254246862487E-002   0.0000000000000000     
   1.6338833596824417E-002   3.6075366167600480E-002   0.0000000000000000     
   8.9851374293529723E-003   1.9099643766892833E-002   0.0000000000000000     
   1.0129142864982345E-002   2.2887736857689550E-002   0.0000000000000000     
   1.1259689174935861E-002   2.6923815805292132E-002   0.0000000000000000     
   1.2376776359213526E-002   3.1207880609700575E-002   0.0000000000000000     
   1.3480404417815338E-002   3.5739931270914876E-002   0.0000000000000000     
   7.1281268655247320E-003   1.8871094283629514E-002   0.0000000000000000     
   8.0394396261152280E-003   2.2644552436020565E-002   0.0000000000000000     
   8.9399101540134727E-003   2.6669403227512559E-002   0.0000000000000000     
   9.8295384492194642E-003   3.0945646658105487E-002   0.0000000000000000     
   1.0708324511733206E-002   3.5473282727799357E-002   0.0000000000000000     
   2.2314739773623429E-002   3.6952595021681904E-002   0.0000000000000000     
   2.4048788905216601E-002   4.1698288166409136E-002   0.0000000000000000     
   2.5736027717900012E-002   4.6649415777519132E-002   0.0000000000000000     
   2.7376456211673669E-002   5.1805977855011856E-002   0.0000000000000000     
   2.8970074386537557E-002   5.7167974398887336E-002   0.0000000000000000     
   1.9283612048760449E-002   3.6479587417856153E-002   0.0000000000000000     
   2.0801832822008877E-002   4.1233995465356423E-002   0.0000000000000000     
   2.2278608805345948E-002   4.6195488906331204E-002   0.0000000000000000     
   2.3713939998771666E-002   5.1364067740780527E-002   0.0000000000000000     
   2.5107826402286031E-002   5.6739731968704354E-002   0.0000000000000000     
   1.6338833596824417E-002   3.6075366167600480E-002   0.0000000000000000     
   1.7639805087020385E-002   4.0835005076852823E-002   0.0000000000000000     
   1.8905203751389526E-002   4.5803479317696280E-002   0.0000000000000000     
   2.0135029589931845E-002   5.0980788890130843E-002   0.0000000000000000     
   2.1329282602647340E-002   5.6366933794156512E-002   0.0000000000000000     
   1.3480404417815338E-002   3.5739931270914876E-002   0.0000000000000000     
   1.4562705700251137E-002   4.0501317000898374E-002   0.0000000000000000     
   1.5615812556030758E-002   4.5473387011614345E-002   0.0000000000000000     
   1.6639724985154206E-002   5.0656141303062827E-002   0.0000000000000000     
   1.7634442987621485E-002   5.6049579875243803E-002   0.0000000000000000     
   1.0708324511733206E-002   3.5473282727799357E-002   0.0000000000000000     
   1.1570534661701121E-002   4.0232931237493039E-002   0.0000000000000000     
   1.2410435219269635E-002   4.5205211988085414E-002   0.0000000000000000     
   1.3228026184438748E-002   5.0390124979576470E-002   0.0000000000000000     
   1.4023307557208459E-002   5.5787670211966220E-002   0.0000000000000000     
   2.8970074386537557E-002   5.7167974398887336E-002   0.0000000000000000     
   3.0515419228012181E-002   6.2723468706299468E-002   0.0000000000000000     
   3.2011027721618054E-002   6.8460524074402188E-002   0.0000000000000000     
   3.3456899867355165E-002   7.4379140503195482E-002   0.0000000000000000     
   3.4853035665223520E-002   8.0479317992679350E-002   0.0000000000000000     
   2.5107826402286031E-002   5.6739731968704354E-002   0.0000000000000000     
   2.6459777170739187E-002   6.2309671810785401E-002   0.0000000000000000     
   2.7769301458981290E-002   6.8061077487706331E-002   0.0000000000000000     
   2.9036399267012323E-002   7.3993948999467152E-002   0.0000000000000000     
   3.0261070594832309E-002   8.0108286346067828E-002   0.0000000000000000     
   2.1329282602647340E-002   5.6366933794156512E-002   0.0000000000000000     
   2.2487944157854795E-002   6.1948400057956675E-002   0.0000000000000000     
   2.3610995623872984E-002   6.7711673709714690E-002   0.0000000000000000     
   2.4698437000701925E-002   7.3656754749430522E-002   0.0000000000000000     
   2.5750268288341604E-002   7.9783643177104249E-002   0.0000000000000000     
   1.7634442987621485E-002   5.6049579875243803E-002   0.0000000000000000     
   1.8599920189358989E-002   6.1639653447813254E-002   0.0000000000000000     
   1.9536110216293152E-002   6.7412312740427222E-002   0.0000000000000000     
   2.0443013068423950E-002   7.3367557753085663E-002   0.0000000000000000     
   2.1320628745751403E-002   7.9505388485788586E-002   0.0000000000000000     
   1.4023307557208459E-002   5.5787670211966220E-002   0.0000000000000000     
   1.4795705265251795E-002   6.1383431980355195E-002   0.0000000000000000     
   1.5544645236241782E-002   6.7162994579843968E-002   0.0000000000000000     
   1.6270127470178419E-002   7.3126358010432518E-002   0.0000000000000000     
   1.6972151967061706E-002   7.9273522272120880E-002   0.0000000000000000     
   3.4853035665223520E-002   8.0479317992679350E-002   0.0000000000000000     
   3.6198920799584089E-002   8.6749269999038398E-002   0.0000000000000000     
   3.7494040954797823E-002   9.3177209978457229E-002   0.0000000000000000     
   3.8738396130864758E-002   9.9763137930935858E-002   0.0000000000000000     
   3.9931986327784871E-002  0.10650705385647427        0.0000000000000000     
   3.0261070594832309E-002   8.0108286346067828E-002   0.0000000000000000     
   3.1441548967169844E-002   8.6392375685799785E-002   0.0000000000000000     
   3.2576067908753538E-002   9.2834503176954436E-002   0.0000000000000000     
   3.3664627419583391E-002   9.9434668819531724E-002   0.0000000000000000     
   3.4707227499659425E-002  0.10619287261353172        0.0000000000000000     
   2.5750268288341604E-002   7.9783643177104249E-002   0.0000000000000000     
   2.6764062886811671E-002   8.6080525834510702E-002   0.0000000000000000     
   2.7737394196131766E-002   9.2535589563424794E-002   0.0000000000000000     
   2.8670262216301902E-002   9.9148834363846527E-002   0.0000000000000000     
   2.9562666947322069E-002  0.10592026023577589        0.0000000000000000     
   2.1320628745751403E-002   7.9505388485788586E-002   0.0000000000000000     
   2.2166462558509566E-002   8.5813720445171104E-002   0.0000000000000000     
   2.2978019816932527E-002   9.2280469137868332E-002   0.0000000000000000     
   2.3755300521020276E-002   9.8905634563880185E-002   0.0000000000000000     
   2.4498304670772814E-002  0.10568921672320676        0.0000000000000000     
   1.6972151967061706E-002   7.9273522272120880E-002   0.0000000000000000     
   1.7648747982263537E-002   8.5591959517781036E-002   0.0000000000000000     
   1.8297944771155806E-002   9.2069141900284993E-002   0.0000000000000000     
   1.8919742333738512E-002   9.8705069419632779E-002   0.0000000000000000     
   1.9514140670011653E-002  0.10549974207582437        0.0000000000000000     
   3.9931986327784871E-002  0.10650705385647427        0.0000000000000000     
   4.1075958723249179E-002  0.11339619957748871        0.0000000000000000     
   4.2171460494948722E-002  0.12041781691639543        0.0000000000000000     
   4.3218491642883494E-002  0.12757190587319442        0.0000000000000000     
   4.4217052167053489E-002  0.13485846644788568        0.0000000000000000     
   3.4707227499659425E-002  0.10619287261353172        0.0000000000000000     
   3.5705789030826697E-002  0.11309920339481654        0.0000000000000000     
   3.6662232894930327E-002  0.12014374999924840        0.0000000000000000     
   3.7576559091970302E-002  0.12732651242682735        0.0000000000000000     
   3.8448767621946635E-002  0.13464749067755330        0.0000000000000000     
   2.9562666947322069E-002  0.10592026023577589        0.0000000000000000     
   3.0416722719675406E-002  0.11284153929062472        0.0000000000000000     
   3.1234543863845058E-002  0.11990434363980484        0.0000000000000000     
   3.2016130379831018E-002  0.12710867328331626        0.0000000000000000     
   3.2761482267633292E-002  0.13445452822115908        0.0000000000000000     
   2.4498304670772814E-002  0.10568921672320676        0.0000000000000000     
   2.5208759789795299E-002  0.11262320726491319        0.0000000000000000     
   2.5888393401692904E-002  0.11969959783806473        0.0000000000000000     
   2.6537205506465614E-002  0.12691838844266135        0.0000000000000000     
   2.7155196104113436E-002  0.13427957907870300        0.0000000000000000     
   1.9514140670011653E-002  0.10549974207582437        0.0000000000000000     
   2.0081900241186390E-002  0.11244420731768204        0.0000000000000000     
   2.0623781508473875E-002  0.11952951259402805        0.0000000000000000     
   2.1139784471874108E-002  0.12675565790486237        0.0000000000000000     
   2.1629909131387088E-002  0.13412264325018508        0.0000000000000000     
   4.4217052167053489E-002  0.13485846644788568        0.0000000000000000     
   4.5162924495008583E-002  0.14226683393257325        0.0000000000000000     
   4.6051891054298667E-002  0.14978634361936122        0.0000000000000000     
   4.6883951844923728E-002  0.15741699550824953        0.0000000000000000     
   4.7659106866883780E-002  0.16515878959923819        0.0000000000000000     
   3.8448767621946635E-002  0.13464749067755330        0.0000000000000000     
   3.9273024463572274E-002  0.14209662242019644        0.0000000000000000     
   4.0043495595560183E-002  0.14966384532352695        0.0000000000000000     
   4.0760181017910360E-002  0.15734915938754473        0.0000000000000000     
   4.1423080730622799E-002  0.16515256461224986        0.0000000000000000     
   3.2761482267633292E-002  0.13445452822115908        0.0000000000000000     
   3.3464928012985576E-002  0.14193108077577116        0.0000000000000000     
   3.4120796101621581E-002  0.14952750326959049        0.0000000000000000     
   3.4729086533541308E-002  0.15724379570261723        0.0000000000000000     
   3.5289799308744749E-002  0.16507995807485126        0.0000000000000000     
   2.7155196104113436E-002  0.13427957907870300        0.0000000000000000     
   2.7738635143248487E-002  0.14177020899929735        0.0000000000000000     
   2.8283792572482872E-002  0.14937731745755203        0.0000000000000000     
   2.8790668391816588E-002  0.15710090445346700        0.0000000000000000     
   2.9259262601249648E-002  0.16494096998704233        0.0000000000000000     
   2.1629909131387088E-002  0.13412264325018508        0.0000000000000000     
   2.2094145854361005E-002  0.14161400709077512        0.0000000000000000     
   2.2532485008144042E-002  0.14921328788741145        0.0000000000000000     
   2.2944926592736205E-002  0.15692048564009414        0.0000000000000000     
   2.3331470608137488E-002  0.16473560034882312        0.0000000000000000     
   0.0000000000000000        0.0000000000000000        0.0000000000000000     
   8.4176603720530002E-004   1.1099997455815257E-003   0.0000000000000000     
   1.7023061427505761E-003   2.5981204253522202E-003   0.0000000000000000     
   2.5816203166358284E-003   4.4643620393120843E-003   0.0000000000000000     
   3.4797085588610570E-003   6.7087245874611163E-003   0.0000000000000000     
   0.0000000000000000        0.0000000000000000        0.0000000000000000     
   6.3393479929561749E-004   1.0939404100899623E-003   0.0000000000000000     
   1.2782306657928453E-003   2.5619871781587412E-003   0.0000000000000000     
   1.9328875994916840E-003   4.4041403042063363E-003   0.0000000000000000     
   2.5979056003921329E-003   6.6203997882327481E-003   0.0000000000000000     
   0.0000000000000000        0.0000000000000000        0.0000000000000000     
   4.2437323014243237E-004   1.0824731142957899E-003   0.0000000000000000     
   8.5317144541503277E-004   2.5361827515263872E-003   0.0000000000000000     
   1.2863946458178015E-003   4.3611289116917921E-003   0.0000000000000000     
   1.7240428313507381E-003   6.5573115947920027E-003   0.0000000000000000     
   0.0000000000000000        0.0000000000000000        0.0000000000000000     
   2.1308132974574474E-004   1.0755978581990084E-003   0.0000000000000000     
   4.2712848161713846E-004   2.5207071454551580E-003   0.0000000000000000     
   6.4214145561418130E-004   4.3353278617684491E-003   0.0000000000000000     
   8.5812025173687308E-004   6.5194600071388819E-003   0.0000000000000000     
   0.0000000000000000        0.0000000000000000        0.0000000000000000     
   5.9098105554503556E-008   1.0733146417996175E-003   0.0000000000000000     
   1.0177439916221826E-007   2.5155603599450538E-003   0.0000000000000000     
   1.2802888082325253E-007   4.3267371544363099E-003   0.0000000000000000     
   1.3786155053736242E-007   6.5068450252733848E-003   0.0000000000000000     
   3.4797085588610570E-003   6.7087245874611163E-003   0.0000000000000000     
   4.3883411603239482E-003   9.2939399549043546E-003   0.0000000000000000     
   5.2992884119221918E-003   1.2182740026746835E-002   0.0000000000000000     
   6.2125503136557861E-003   1.5375124802988553E-002   0.0000000000000000     
   7.1281268655247320E-003   1.8871094283629514E-002   0.0000000000000000     
   2.5979056003921329E-003   6.6203997882327481E-003   0.0000000000000000     
   3.2703638907974702E-003   9.1778053136582233E-003   0.0000000000000000     
   3.9473416930109733E-003   1.2043396563903007E-002   0.0000000000000000     
   4.6288390070326427E-003   1.5217173538967102E-002   0.0000000000000000     
   5.3148558328624789E-003   1.8699136238850507E-002   0.0000000000000000     
   1.7240428313507381E-003   6.5573115947920027E-003   0.0000000000000000     
   2.1663401745593575E-003   9.0948505762883537E-003   0.0000000000000000     
   2.6135108479891753E-003   1.1943865631642167E-002   0.0000000000000000     
   3.0655548516401901E-003   1.5104356760853449E-002   0.0000000000000000     
   3.5224721855124023E-003   1.8576323963922198E-002   0.0000000000000000     
   8.5812025173687308E-004   6.5194600071388819E-003   0.0000000000000000     
   1.0762700116096122E-003   9.0450757427947420E-003   0.0000000000000000     
   1.2977958768567970E-003   1.1884147229964314E-002   0.0000000000000000     
   1.5226978474784279E-003   1.5036674468647596E-002   0.0000000000000000     
   1.7509759234745049E-003   1.8502657458844590E-002   0.0000000000000000     
   1.3786155053736242E-007   6.5068450252733848E-003   0.0000000000000000     
   1.5340194823337447E-007   9.0284808131773919E-003   0.0000000000000000     
   1.9677961384029821E-007   1.1864241358869442E-002   0.0000000000000000     
   2.6799454735735942E-007   1.5014126662349539E-002   0.0000000000000000     
   3.6704674878543057E-007   1.8478136723617682E-002   0.0000000000000000     
   7.1281268655247320E-003   1.8871094283629514E-002   0.0000000000000000     
   8.0394396261152280E-003   2.2644552436020565E-002   0.0000000000000000     
   8.9399101540134727E-003   2.6669403227512559E-002   0.0000000000000000     
   9.8295384492194642E-003   3.0945646658105487E-002   0.0000000000000000     
   1.0708324511733206E-002   3.5473282727799357E-002   0.0000000000000000     
   5.3148558328624789E-003   1.8699136238850507E-002   0.0000000000000000     
   5.9984071022928156E-003   2.2461864006189339E-002   0.0000000000000000     
   6.6725077471159926E-003   2.6477936183619717E-002   0.0000000000000000     
   7.3371577673320091E-003   3.0747352771141646E-002   0.0000000000000000     
   7.9923571629408642E-003   3.5270113768755121E-002   0.0000000000000000     
   3.5224721855124023E-003   1.8576323963922198E-002   0.0000000000000000     
   3.9782247766425574E-003   2.2331402497692884E-002   0.0000000000000000     
   4.4267745520674018E-003   2.6341227619009977E-002   0.0000000000000000     
   4.8681215117869353E-003   3.0605799327873478E-002   0.0000000000000000     
   5.3022656558011569E-003   3.5125117624283386E-002   0.0000000000000000     
   1.7509759234745049E-003   1.8502657458844590E-002   0.0000000000000000     
   1.9788926491644530E-003   2.2253167910531196E-002   0.0000000000000000     
   2.2027105688676983E-003   2.6259277533683328E-002   0.0000000000000000     
   2.4224296825842407E-003   3.0520986328300977E-002   0.0000000000000000     
   2.6380499903140811E-003   3.5038294294384154E-002   0.0000000000000000     
   3.6704674878543057E-007   1.8478136723617682E-002   0.0000000000000000     
   4.1071985850099201E-007   2.2227160244704280E-002   0.0000000000000000     
   3.1579751688171672E-007   2.6232085927639780E-002   0.0000000000000000     
   8.2279723926601813E-008   3.0492913772424152E-002   0.0000000000000000     
  -2.8983352036286193E-007   3.5009643779057416E-002   0.0000000000000000     
   1.0708324511733206E-002   3.5473282727799357E-002   0.0000000000000000     
   1.1570534661701121E-002   4.0232931237493039E-002   0.0000000000000000     
   1.2410435219269635E-002   4.5205211988085414E-002   0.0000000000000000     
   1.3228026184438748E-002   5.0390124979576470E-002   0.0000000000000000     
   1.4023307557208459E-002   5.5787670211966220E-002   0.0000000000000000     
   7.9923571629408642E-003   3.5270113768755121E-002   0.0000000000000000     
   8.6350509201999735E-003   4.0026731705369328E-002   0.0000000000000000     
   9.2621840253667466E-003   4.4997719109893461E-002   0.0000000000000000     
   9.8737564784411817E-003   5.0183075982327498E-002   0.0000000000000000     
   1.0469768279423280E-002   5.5582802322671453E-002   0.0000000000000000     
   5.3022656558011569E-003   3.5125117624283386E-002   0.0000000000000000     
   5.7280134245773200E-003   3.9879602323259711E-002   0.0000000000000000     
   6.1441712585826747E-003   4.4849673239822467E-002   0.0000000000000000     
   6.5507391578172227E-003   5.0035330373971627E-002   0.0000000000000000     
   6.9477171222809631E-003   5.5436573725707219E-002   0.0000000000000000     
   2.6380499903140811E-003   3.5038294294384154E-002   0.0000000000000000     
   2.8494221748331609E-003   3.9791543091164186E-002   0.0000000000000000     
   3.0563969189174255E-003   4.4761074377872426E-002   0.0000000000000000     
   3.2589742225668720E-003   4.9946888154508845E-002   0.0000000000000000     
   3.4571540857815035E-003   5.5348984421073472E-002   0.0000000000000000     
  -2.8983352036286193E-007   3.5009643779057416E-002   0.0000000000000000     
  -7.2282903250202833E-007   3.9762554009082747E-002   0.0000000000000000     
  -1.1389936290034865E-006   4.4731922524043337E-002   0.0000000000000000     
  -1.5383273098686594E-006   4.9917749323939171E-002   0.0000000000000000     
  -1.9208300750959886E-006   5.5320034408770258E-002   0.0000000000000000     
   1.4023307557208459E-002   5.5787670211966220E-002   0.0000000000000000     
   1.4795705265251795E-002   6.1383431980355195E-002   0.0000000000000000     
   1.5544645236241782E-002   6.7162994579843968E-002   0.0000000000000000     
   1.6270127470178419E-002   7.3126358010432518E-002   0.0000000000000000     
   1.6972151967061706E-002   7.9273522272120880E-002   0.0000000000000000     
   1.0469768279423280E-002   5.5582802322671453E-002   0.0000000000000000     
   1.1049099631690739E-002   6.1182219371023423E-002   0.0000000000000000     
   1.1610630738621246E-002   6.6966648367481452E-002   0.0000000000000000     
   1.2154361600214802E-002   7.2936089312045607E-002   0.0000000000000000     
   1.2680292216471413E-002   7.9090542204715814E-002   0.0000000000000000     
   6.9477171222809631E-003   5.5436573725707219E-002   0.0000000000000000     
   7.3339035348333696E-003   6.1038499335258858E-002   0.0000000000000000     
   7.7080967783339132E-003   6.6826203242856236E-002   0.0000000000000000     
   8.0702968527825939E-003   7.2799685448499338E-002   0.0000000000000000     
   8.4205037581794127E-003   7.8958945952188178E-002   0.0000000000000000     
   3.4571540857815035E-003   5.5348984421073472E-002   0.0000000000000000     
   3.6501169746796839E-003   6.0952271873061556E-002   0.0000000000000000     
   3.8370433553797782E-003   6.6741659205968307E-002   0.0000000000000000     
   4.0179332278817859E-003   7.2717146419793779E-002   0.0000000000000000     
   4.1927865921857080E-003   7.8878733514537905E-002   0.0000000000000000     
  -1.9208300750959886E-006   5.5320034408770258E-002   0.0000000000000000     
  -2.2600487703157163E-006   6.0923536984431474E-002   0.0000000000000000     
  -2.5295302411563504E-006   6.6713016256817664E-002   0.0000000000000000     
  -2.7292744876181076E-006   7.2688472225928849E-002   0.0000000000000000     
  -2.8592815097003375E-006   7.8849904891765035E-002   0.0000000000000000     
   1.6972151967061706E-002   7.9273522272120880E-002   0.0000000000000000     
   1.7648747982263537E-002   8.5591959517781036E-002   0.0000000000000000     
   1.8297944771155806E-002   9.2069141900284993E-002   0.0000000000000000     
   1.8919742333738512E-002   9.8705069419632779E-002   0.0000000000000000     
   1.9514140670011653E-002  0.10549974207582437        0.0000000000000000     
   1.2680292216471413E-002   7.9090542204715814E-002   0.0000000000000000     
   1.3187178675376865E-002   8.5417061755159659E-002   0.0000000000000000     
   1.3673777064916955E-002   9.1902702673044664E-002   0.0000000000000000     
   1.4140087385091689E-002   9.8547464958370773E-002   0.0000000000000000     
   1.4586109635901061E-002  0.10535134861113807        0.0000000000000000     
   8.4205037581794127E-003   7.8958945952188178E-002   0.0000000000000000     
   8.7580141551528330E-003   8.5290845860126252E-002   0.0000000000000000     
   9.0821247043313229E-003   9.1782246278517124E-002   0.0000000000000000     
   9.3928354057148770E-003   9.8433147207360780E-002   0.0000000000000000     
   9.6901462593035007E-003  0.10524354864665725        0.0000000000000000     
   4.1927865921857080E-003   7.8878733514537905E-002   0.0000000000000000     
   4.3612544215914477E-003   8.5213311832680771E-002   0.0000000000000000     
   4.5229876893989060E-003   9.1707772716702399E-002   0.0000000000000000     
   4.6779863956080830E-003   9.8362116166602759E-002   0.0000000000000000     
   4.8262505402189796E-003  0.10517634218238189        0.0000000000000000     
  -2.8592815097003375E-006   7.8849904891765035E-002   0.0000000000000000     
  -3.1005253072959472E-006   8.5184459672823246E-002   0.0000000000000000     
  -3.6339798802949709E-006   9.1679281987600475E-002   0.0000000000000000     
  -4.4596452286994550E-006   9.8334371836096737E-002   0.0000000000000000     
  -5.5775213525072719E-006  0.10514972921831202        0.0000000000000000     
   1.9514140670011653E-002  0.10549974207582437        0.0000000000000000     
   2.0081900241186390E-002  0.11244420731768204        0.0000000000000000     
   2.0623781508473875E-002  0.11952951259402805        0.0000000000000000     
   2.1139784471874108E-002  0.12675565790486237        0.0000000000000000     
   2.1629909131387088E-002  0.13412264325018508        0.0000000000000000     
   1.4586109635901061E-002  0.10535134861113807        0.0000000000000000     
   1.5011649757219640E-002  0.11230391564211407        0.0000000000000000     
   1.5416513688922003E-002  0.11939472806206641        0.0000000000000000     
   1.5800701431008143E-002  0.12662378587099510        0.0000000000000000     
   1.6164212983478064E-002  0.13399108906890012        0.0000000000000000     
   9.6901462593035007E-003  0.10524354864665725        0.0000000000000000     
   9.9735140212660368E-003  0.11220170843139221        0.0000000000000000     
   1.0242395447771332E-002  0.11929588439655149        0.0000000000000000     
   1.0496790538819384E-002  0.12652607654213505        0.0000000000000000     
   1.0736699294410196E-002  0.13389228486814286        0.0000000000000000     
   4.8262505402189796E-003  0.10517634218238189        0.0000000000000000     
   4.9674930333255783E-003  0.11213758568551649        0.0000000000000000     
   5.1014267850218609E-003  0.11923298159748325        0.0000000000000000     
   5.2280517953078301E-003  0.12646252991828219        0.0000000000000000     
   5.3473680641834814E-003  0.13382623064791330        0.0000000000000000     
  -5.5775213525072719E-006  0.10514972921831202        0.0000000000000000     
  -6.4132066017370554E-006  0.11211154740448684        0.0000000000000000     
  -6.3922993264094998E-006  0.11920601966486168        0.0000000000000000     
  -5.5147995265217591E-006  0.12643314599943656        0.0000000000000000     
  -3.7807072020769501E-006  0.13379292640821144        0.0000000000000000     
   2.1629909131387088E-002  0.13412264325018508        0.0000000000000000     
   2.2094145854361005E-002  0.14161400709077512        0.0000000000000000     
   2.2532485008144042E-002  0.14921328788741145        0.0000000000000000     
   2.2944926592736205E-002  0.15692048564009414        0.0000000000000000     
   2.3331470608137488E-002  0.16473560034882312        0.0000000000000000     
   1.6164212983478064E-002  0.13399108906890012        0.0000000000000000     
   1.6510469650918246E-002  0.14147740646731813        0.0000000000000000     
   1.6842892737915165E-002  0.14906350687778580        0.0000000000000000     
   1.7161482244468826E-002  0.15674939030030316        0.0000000000000000     
   1.7466238170579219E-002  0.16453505673487018        0.0000000000000000     
   1.0736699294410196E-002  0.13389228486814286        0.0000000000000000     
   1.0966616037515316E-002  0.14137533854604017        0.0000000000000000     
   1.1191035091106291E-002  0.14895606674729212        0.0000000000000000     
   1.1409956455183121E-002  0.15663446947189877        0.0000000000000000     
   1.1623380129745810E-002  0.16441054671986011        0.0000000000000000     
   5.3473680641834814E-003  0.13382623064791330        0.0000000000000000     
   5.4625850141522148E-003  0.14130780332694118        0.0000000000000000     
   5.5769120677174201E-003  0.14889096749593039        0.0000000000000000     
   5.6903492248790970E-003  0.15657572315488100        0.0000000000000000     
   5.8028964856372484E-003  0.16436207030379296        0.0000000000000000     
  -3.7807072020769501E-006  0.13379292640821144        0.0000000000000000     
  -1.6234191710570983E-006  0.14127480081002119        0.0000000000000000     
   5.2366774855273565E-007  0.14886820912370066        0.0000000000000000     
   2.6605535567512505E-006  0.15657315134924985        0.0000000000000000     
   4.7872382535401811E-006  0.16438962748666869        0.0000000000000000     
   0.0000000000000000        0.0000000000000000        0.0000000000000000     
   5.9098105554503556E-008   1.0733146417996175E-003   0.0000000000000000     
   1.0177439916221826E-007   2.5155603599450538E-003   0.0000000000000000     
   1.2802888082325253E-007   4.3267371544363099E-003   0.0000000000000000     
   1.3786155053736242E-007   6.5068450252733848E-003   0.0000000000000000     
   0.0000000000000000        0.0000000000000000        0.0000000000000000     
  -2.1296557569350103E-004   1.0756140987127276E-003   0.0000000000000000     
  -4.2692696545432559E-004   2.5207300257210634E-003   0.0000000000000000     
  -6.4188416928247357E-004   4.3353477810250066E-003   0.0000000000000000     
  -8.5783718717794488E-004   6.5194673646245581E-003   0.0000000000000000     
   0.0000000000000000        0.0000000000000000        0.0000000000000000     
  -4.2426480256678461E-004   1.0824868625534481E-003   0.0000000000000000     
  -8.5297602715875449E-004   2.5362037735081719E-003   0.0000000000000000     
  -1.2861336737759097E-003   4.3611507328641733E-003   0.0000000000000000     
  -1.7237377424182498E-003   6.5573277406214504E-003   0.0000000000000000     
   0.0000000000000000        0.0000000000000000        0.0000000000000000     
  -6.3383858251429620E-004   1.0939329333217781E-003   0.0000000000000000     
  -1.2780454107141246E-003   2.5619816033063810E-003   0.0000000000000000     
  -1.9326204845994850E-003   4.4041460099538089E-003   0.0000000000000000     
  -2.5975638041703776E-003   6.6204261532640616E-003   0.0000000000000000     
   0.0000000000000000        0.0000000000000000        0.0000000000000000     
  -8.4168691553603578E-004   1.1099523110177187E-003   0.0000000000000000     
  -1.7021351161204358E-003   2.5980635151156900E-003   0.0000000000000000     
  -2.5813446017532004E-003   4.4643336122939135E-003   0.0000000000000000     
  -3.4793153724343279E-003   6.7087626025523891E-003   0.0000000000000000     
   1.3786155053736242E-007   6.5068450252733848E-003   0.0000000000000000     
   1.5340194823337447E-007   9.0284808131773919E-003   0.0000000000000000     
   1.9677961384029821E-007   1.1864241358869442E-002   0.0000000000000000     
   2.6799454735735942E-007   1.5014126662349539E-002   0.0000000000000000     
   3.6704674878543057E-007   1.8478136723617682E-002   0.0000000000000000     
  -8.5783718717794488E-004   6.5194673646245581E-003   0.0000000000000000     
  -1.0759503634724743E-003   9.0450738994890673E-003   0.0000000000000000     
  -1.2973880424977961E-003   1.1884152508587884E-002   0.0000000000000000     
  -1.5221502242539100E-003   1.5036703191921011E-002   0.0000000000000000     
  -1.7502369087408166E-003   1.8502725949488444E-002   0.0000000000000000     
  -1.7237377424182498E-003   6.5573277406214504E-003   0.0000000000000000     
  -2.1659819937002067E-003   9.0948631137825371E-003   0.0000000000000000     
  -2.6130601882362109E-003   1.1943885169349969E-002   0.0000000000000000     
  -3.0649723260262624E-003   1.5104393907323739E-002   0.0000000000000000     
  -3.5217184070703610E-003   1.8576389327703859E-002   0.0000000000000000     
  -2.5975638041703776E-003   6.6204261532640616E-003   0.0000000000000000     
  -3.2699414887349637E-003   9.1778484560578015E-003   0.0000000000000000     
  -3.9468196576014046E-003   1.2043439341155688E-002   0.0000000000000000     
  -4.6281983107696999E-003   1.5217198808557731E-002   0.0000000000000000     
  -5.3140774482398501E-003   1.8699126858263918E-002   0.0000000000000000     
  -3.4793153724343279E-003   6.7087626025523891E-003   0.0000000000000000     
  -4.3878288485767461E-003   9.2940299263148569E-003   0.0000000000000000     
  -5.2986664505933765E-003   1.2182815024005053E-002   0.0000000000000000     
  -6.2118281784842222E-003   1.5375117895622977E-002   0.0000000000000000     
  -7.1273140322492814E-003   1.8870938541168631E-002   0.0000000000000000     
   3.6704674878543057E-007   1.8478136723617682E-002   0.0000000000000000     
   4.1071985850099201E-007   2.2227160244704280E-002   0.0000000000000000     
   3.1579751688171672E-007   2.6232085927639780E-002   0.0000000000000000     
   8.2279723926601813E-008   3.0492913772424152E-002   0.0000000000000000     
  -2.8983352036286193E-007   3.5009643779057416E-002   0.0000000000000000     
  -1.7502369087408166E-003   1.8502725949488444E-002   0.0000000000000000     
  -1.9780632868805236E-003   2.2253316417777565E-002   0.0000000000000000     
  -2.2020445495950416E-003   2.6259570233275742E-002   0.0000000000000000     
  -2.4221806968843691E-003   3.0521487395982989E-002   0.0000000000000000     
  -2.6384717287485067E-003   3.5039067905899293E-002   0.0000000000000000     
  -3.5217184070703610E-003   1.8576389327703859E-002   0.0000000000000000     
  -3.9773716466578474E-003   2.2331573347316450E-002   0.0000000000000000     
  -4.4260052600780635E-003   2.6341647882987661E-002   0.0000000000000000     
  -4.8676192473310082E-003   3.0606612934717472E-002   0.0000000000000000     
  -5.3022136084166817E-003   3.5126468502505899E-002   0.0000000000000000     
  -5.3140774482398501E-003   1.8699126858263918E-002   0.0000000000000000     
  -5.9975143594734734E-003   2.2461931033320951E-002   0.0000000000000000     
  -6.6715663339321878E-003   2.6478318876775511E-002   0.0000000000000000     
  -7.3362333716159925E-003   3.0748290388627607E-002   0.0000000000000000     
  -7.9915154725248884E-003   3.5271845568877233E-002   0.0000000000000000     
  -7.1273140322492814E-003   1.8870938541168631E-002   0.0000000000000000     
  -8.0384914253273966E-003   2.2644389475791057E-002   0.0000000000000000     
  -8.9387277711574110E-003   2.6669583214639310E-002   0.0000000000000000     
  -9.8280230697393202E-003   3.0946519757713387E-002   0.0000000000000000     
  -1.0706377321073126E-002   3.5475199105013289E-002   0.0000000000000000     
  -2.8983352036286193E-007   3.5009643779057416E-002   0.0000000000000000     
  -7.2282903250202833E-007   3.9762554009082747E-002   0.0000000000000000     
  -1.1389936290034865E-006   4.4731922524043337E-002   0.0000000000000000     
  -1.5383273098686594E-006   4.9917749323939171E-002   0.0000000000000000     
  -1.9208300750959886E-006   5.5320034408770258E-002   0.0000000000000000     
  -2.6384717287485067E-003   3.5039067905899293E-002   0.0000000000000000     
  -2.8506234620830663E-003   3.9792511892032673E-002   0.0000000000000000     
  -3.0583417137836589E-003   4.4762019483391140E-002   0.0000000000000000     
  -3.2616264838502842E-003   4.9947590679974674E-002   0.0000000000000000     
  -3.4604777722829425E-003   5.5349225481783317E-002   0.0000000000000000     
  -5.3022136084166817E-003   3.5126468502505899E-002   0.0000000000000000     
  -5.7284815993819257E-003   3.9881293555031228E-002   0.0000000000000000     
  -6.1451164762735839E-003   4.4851167060971753E-002   0.0000000000000000     
  -6.5521182390916553E-003   5.0036089020327468E-002   0.0000000000000000     
  -6.9494868878361409E-003   5.5436059433098379E-002   0.0000000000000000     
  -7.9915154725248884E-003   3.5271845568877233E-002   0.0000000000000000     
  -8.6342972409290831E-003   4.0028898998078419E-002   0.0000000000000000     
  -9.2614632810987790E-003   4.4999365256785176E-002   0.0000000000000000     
  -9.8730135930339847E-003   5.0183244344997532E-002   0.0000000000000000     
  -1.0468948176734690E-002   5.5580536262715467E-002   0.0000000000000000     
  -1.0706377321073126E-002   3.5475199105013289E-002   0.0000000000000000     
  -1.1568070386724534E-002   4.0235328221174226E-002   0.0000000000000000     
  -1.2407382128259250E-002   4.5206614070831416E-002   0.0000000000000000     
  -1.3224312545677266E-002   5.0389056653984868E-002   0.0000000000000000     
  -1.4018861638978591E-002   5.5782655970634573E-002   0.0000000000000000     
  -1.9208300750959886E-006   5.5320034408770258E-002   0.0000000000000000     
  -2.2600487703157163E-006   6.0923536984431474E-002   0.0000000000000000     
  -2.5295302411563504E-006   6.6713016256817664E-002   0.0000000000000000     
  -2.7292744876181076E-006   7.2688472225928849E-002   0.0000000000000000     
  -2.8592815097003375E-006   7.8849904891765035E-002   0.0000000000000000     
  -3.4604777722829425E-003   5.5349225481783317E-002   0.0000000000000000     
  -3.6540247408367488E-003   6.0951732309960198E-002   0.0000000000000000     
  -3.8413965512668212E-003   6.6739919585648469E-002   0.0000000000000000     
  -4.0225932035731563E-003   7.2713787308848171E-002   0.0000000000000000     
  -4.1976146977557556E-003   7.8873335479559284E-002   0.0000000000000000     
  -6.9494868878361409E-003   5.5436059433098379E-002   0.0000000000000000     
  -7.3359743068397397E-003   6.1036295490239263E-002   0.0000000000000000     
  -7.7103323804351498E-003   6.6822014382704853E-002   0.0000000000000000     
  -8.0725611086223704E-003   7.2793216110495218E-002   0.0000000000000000     
  -8.4226604914014042E-003   7.8949900673610296E-002   0.0000000000000000     
  -1.0468948176734690E-002   5.5580536262715467E-002   0.0000000000000000     
  -1.1048108746779280E-002   6.1177226525268684E-002   0.0000000000000000     
  -1.1609337017746139E-002   6.6959300647986858E-002   0.0000000000000000     
  -1.2152632989635256E-002   7.2926758630869989E-002   0.0000000000000000     
  -1.2677996662446641E-002   7.9079600473918113E-002   0.0000000000000000     
  -1.4018861638978591E-002   5.5782655970634573E-002   0.0000000000000000     
  -1.4790428060655378E-002   6.1374525415048460E-002   0.0000000000000000     
  -1.5538410463199790E-002   6.7151778381494442E-002   0.0000000000000000     
  -1.6262808846611819E-002   7.3114414869972513E-002   0.0000000000000000     
  -1.6963623210891472E-002   7.9262434880482693E-002   0.0000000000000000     
  -2.8592815097003375E-006   7.8849904891765035E-002   0.0000000000000000     
  -3.1005253072959472E-006   8.5184459672823246E-002   0.0000000000000000     
  -3.6339798802949709E-006   9.1679281987600475E-002   0.0000000000000000     
  -4.4596452286994550E-006   9.8334371836096737E-002   0.0000000000000000     
  -5.5775213525072719E-006  0.10514972921831202        0.0000000000000000     
  -4.1976146977557556E-003   7.8873335479559284E-002   0.0000000000000000     
  -4.3664611835566398E-003   8.5205959247636562E-002   0.0000000000000000     
  -4.5291328107178296E-003   9.1699053762934815E-002   0.0000000000000000     
  -4.6856295792393225E-003   9.8352619025454058E-002   0.0000000000000000     
  -4.8359514891211219E-003  0.10516665503519425        0.0000000000000000     
  -8.4226604914014042E-003   7.8949900673610296E-002   0.0000000000000000     
  -8.7602380511698340E-003   8.5279480424203677E-002   0.0000000000000000     
  -9.0849013103252493E-003   9.1769367714428965E-002   0.0000000000000000     
  -9.3966502688676481E-003   9.8419562544286104E-002   0.0000000000000000     
  -9.6954849267970288E-003  0.10523006491377518        0.0000000000000000     
  -1.2677996662446641E-002   7.9079600473918113E-002   0.0000000000000000     
  -1.3184431128146882E-002   8.5405023202524563E-002   0.0000000000000000     
  -1.3670939478702555E-002   9.1890223842082841E-002   0.0000000000000000     
  -1.4137521714113676E-002   9.8535202392592960E-002   0.0000000000000000     
  -1.4584177834380232E-002  0.10533995885405484        0.0000000000000000     
  -1.6963623210891472E-002   7.9262434880482693E-002   0.0000000000000000     
  -1.7639040414487772E-002   8.5582587582599234E-002   0.0000000000000000     
  -1.8287247315849749E-002   9.2061622145896527E-002   0.0000000000000000     
  -1.8908243914977401E-002   9.8699538570374515E-002   0.0000000000000000     
  -1.9502030211870729E-002  0.10549633685603318        0.0000000000000000     
  -5.5775213525072719E-006  0.10514972921831202        0.0000000000000000     
  -6.4132066017370554E-006  0.11211154740448684        0.0000000000000000     
  -6.3922993264094998E-006  0.11920601966486168        0.0000000000000000     
  -5.5147995265217591E-006  0.12643314599943656        0.0000000000000000     
  -3.7807072020769501E-006  0.13379292640821144        0.0000000000000000     
  -4.8359514891211219E-003  0.10516665503519425        0.0000000000000000     
  -4.9787436142442118E-003  0.11212679383792137        0.0000000000000000     
  -5.1126510284895755E-003  0.11921866747940145        0.0000000000000000     
  -5.2376737318572215E-003  0.12644227595963450        0.0000000000000000     
  -5.3538117243471439E-003  0.13379761927862049        0.0000000000000000     
  -9.6954849267970288E-003  0.10523006491377518        0.0000000000000000     
  -9.9800371053301445E-003  0.11218652523543821        0.0000000000000000     
  -1.0248938625683742E-002  0.11927459392181733        0.0000000000000000     
  -1.0502189487857820E-002  0.12649427097291249        0.0000000000000000     
  -1.0739789691852381E-002  0.13384555638872372        0.0000000000000000     
  -1.4584177834380232E-002  0.10533995885405484        0.0000000000000000     
  -1.5010293679859538E-002  0.11229074159703731        0.0000000000000000     
  -1.5415255090908901E-002  0.11937379899210919        0.0000000000000000     
  -1.5799062067528315E-002  0.12658913103927047        0.0000000000000000     
  -1.6161714609717784E-002  0.13393673773852111        0.0000000000000000     
  -1.9502030211870729E-002  0.10549633685603318        0.0000000000000000     
  -2.0069513337832391E-002  0.11243944292271869        0.0000000000000000     
  -2.0611600424165051E-002  0.11951628269027710        0.0000000000000000     
  -2.1128291470868709E-002  0.12672685615870841        0.0000000000000000     
  -2.1619586477943362E-002  0.13407116332801264        0.0000000000000000     
  -3.7807072020769501E-006  0.13379292640821144        0.0000000000000000     
  -1.6234191710570983E-006  0.14127480081002119        0.0000000000000000     
   5.2366774855273565E-007  0.14886820912370066        0.0000000000000000     
   2.6605535567512505E-006  0.15657315134924985        0.0000000000000000     
   4.7872382535401811E-006  0.16438962748666869        0.0000000000000000     
  -5.3538117243471439E-003  0.13379761927862049        0.0000000000000000     
  -5.4650929989876907E-003  0.14127964440266111        0.0000000000000000     
  -5.5755455488072109E-003  0.14888329829805796        0.0000000000000000     
  -5.6851693738057029E-003  0.15660858096481109        0.0000000000000000     
  -5.7939644739831708E-003  0.16445549240292043        0.0000000000000000     
  -1.0739789691852381E-002  0.13384555638872372        0.0000000000000000     
  -1.0966907461830881E-002  0.14132564751224180        0.0000000000000000     
  -1.1188711021956772E-002  0.14893174168645740        0.0000000000000000     
  -1.1405200372230058E-002  0.15666383891137056        0.0000000000000000     
  -1.1616375512650743E-002  0.16452193918698127        0.0000000000000000     
  -1.6161714609717784E-002  0.13393673773852111        0.0000000000000000     
  -1.6507066807700622E-002  0.14141281013876328        0.0000000000000000     
  -1.6838972751700130E-002  0.14901353928889899        0.0000000000000000     
  -1.7157432441716313E-002  0.15673892518892832        0.0000000000000000     
  -1.7462445877749175E-002  0.16458896783885121        0.0000000000000000     
  -2.1619586477943362E-002  0.13407116332801264        0.0000000000000000     
  -2.2085571036596918E-002  0.14154113228222551        0.0000000000000000     
  -2.2526330738037288E-002  0.14912869110538271        0.0000000000000000     
  -2.2941865582264468E-002  0.15683383979748430        0.0000000000000000     
  -2.3332175569278465E-002  0.16465657835853026        0.0000000000000000     
   0.0000000000000000        0.0000000000000000        0.0000000000000000     
  -8.4168691553603578E-004   1.1099523110177187E-003   0.0000000000000000     
  -1.7021351161204358E-003   2.5980635151156900E-003   0.0000000000000000     
  -2.5813446017532004E-003   4.4643336122939135E-003   0.0000000000000000     
  -3.4793153724343279E-003   6.7087626025523891E-003   0.0000000000000000     
   0.0000000000000000        0.0000000000000000        0.0000000000000000     
  -1.0567171775182178E-003   1.1341116761780156E-003   0.0000000000000000     
  -2.1397877717688413E-003   2.6503058465832201E-003   0.0000000000000000     
  -3.2492117827518704E-003   4.5485825112156139E-003   0.0000000000000000     
  -4.3849892104673056E-003   6.8289416700751957E-003   0.0000000000000000     
   0.0000000000000000        0.0000000000000000        0.0000000000000000     
  -1.2878367443470559E-003   1.1699777093394158E-003   0.0000000000000000     
  -2.6055460060504941E-003   2.7245649353560939E-003   0.0000000000000000     
  -3.9531277851103134E-003   4.6637616780500334E-003   0.0000000000000000     
  -5.3305820815265159E-003   6.9875679374212353E-003   0.0000000000000000     
   0.0000000000000000        0.0000000000000000        0.0000000000000000     
  -1.5350456160225501E-003   1.2175504105019187E-003   0.0000000000000000     
  -3.0994098189653933E-003   2.8208407814343099E-003   0.0000000000000000     
  -4.6930926088285295E-003   4.8098711127971747E-003   0.0000000000000000     
  -6.3160939856119584E-003   7.1846414045905098E-003   0.0000000000000000     
   0.0000000000000000        0.0000000000000000        0.0000000000000000     
  -1.7983437925447002E-003   1.2768297796655246E-003   0.0000000000000000     
  -3.6213792105135394E-003   2.9391333848178699E-003   0.0000000000000000     
  -5.4691062539065178E-003   4.9869108154570350E-003   0.0000000000000000     
  -7.3415249227236331E-003   7.4201620715830200E-003   0.0000000000000000     
  -3.4793153724343279E-003   6.7087626025523891E-003   0.0000000000000000     
  -4.3878288485767461E-003   9.2940299263148569E-003   0.0000000000000000     
  -5.2986664505933765E-003   1.2182815024005053E-002   0.0000000000000000     
  -6.2118281784842222E-003   1.5375117895622977E-002   0.0000000000000000     
  -7.1273140322492814E-003   1.8870938541168631E-002   0.0000000000000000     
  -4.3849892104673056E-003   6.8289416700751957E-003   0.0000000000000000     
  -5.5341637704976240E-003   9.4493942127999875E-003   0.0000000000000000     
  -6.6837791784253005E-003   1.2367951029028015E-002   0.0000000000000000     
  -7.8338354342503379E-003   1.5584612118759273E-002   0.0000000000000000     
  -8.9843325379727352E-003   1.9099377481993762E-002   0.0000000000000000     
  -5.3305820815265159E-003   6.9875679374212353E-003   0.0000000000000000     
  -6.7234659517696705E-003   9.6499280037594740E-003   0.0000000000000000     
  -8.1173364523103499E-003   1.2604786167354533E-002   0.0000000000000000     
  -9.5121935831485524E-003   1.5852142428206401E-002   0.0000000000000000     
  -1.0908037344284282E-002   1.9391996786315088E-002   0.0000000000000000     
  -6.3160939856119584E-003   7.1846414045905098E-003   0.0000000000000000     
  -7.9557353923928875E-003   9.8956312991933231E-003   0.0000000000000000     
  -9.5993382722485265E-003   1.2893320438984609E-002   0.0000000000000000     
  -1.1246902625178868E-002   1.6177708823964371E-002   0.0000000000000000     
  -1.2898428451183925E-002   1.9748796454132612E-002   0.0000000000000000     
  -7.3415249227236331E-003   7.4201620715830200E-003   0.0000000000000000     
  -9.2309720923672740E-003   1.0186504099101523E-002   0.0000000000000000     
  -1.1129784638239828E-002   1.3233553843918243E-002   0.0000000000000000     
  -1.3037962560341289E-002   1.6561311306033173E-002   0.0000000000000000     
  -1.4955505858671662E-002   2.0169776485446326E-002   0.0000000000000000     
  -7.1273140322492814E-003   1.8870938541168631E-002   0.0000000000000000     
  -8.0384914253273966E-003   2.2644389475791057E-002   0.0000000000000000     
  -8.9387277711574110E-003   2.6669583214639310E-002   0.0000000000000000     
  -9.8280230697393202E-003   3.0946519757713387E-002   0.0000000000000000     
  -1.0706377321073126E-002   3.5475199105013289E-002   0.0000000000000000     
  -8.9843325379727352E-003   1.9099377481993762E-002   0.0000000000000000     
  -1.0128196840597348E-002   2.2887389508500042E-002   0.0000000000000000     
  -1.1258354693129044E-002   2.6923790588046680E-002   0.0000000000000000     
  -1.2374806095567818E-002   3.1208580720633667E-002   0.0000000000000000     
  -1.3477551047913672E-002   3.5741759906261009E-002   0.0000000000000000     
  -1.0908037344284282E-002   1.9391996786315088E-002   0.0000000000000000     
  -1.2294524601661055E-002   2.3199371965221174E-002   0.0000000000000000     
  -1.3661312221222398E-002   2.7249290688465246E-002   0.0000000000000000     
  -1.5008400202968312E-002   3.1541752956047289E-002   0.0000000000000000     
  -1.6335788546898794E-002   3.6076758767967322E-002   0.0000000000000000     
  -1.2898428451183925E-002   1.9748796454132612E-002   0.0000000000000000     
  -1.4537474708518513E-002   2.3580336845954439E-002   0.0000000000000000     
  -1.6147600355437476E-002   2.7646083515894995E-002   0.0000000000000000     
  -1.7728805391940803E-002   3.1946036463954261E-002   0.0000000000000000     
  -1.9281089818028500E-002   3.6480195690132243E-002   0.0000000000000000     
  -1.4955505858671662E-002   2.0169776485446326E-002   0.0000000000000000     
  -1.6857047161169730E-002   2.4030284150699858E-002   0.0000000000000000     
  -1.8717219095774271E-002   2.8114169070335940E-002   0.0000000000000000     
  -2.0536021662485294E-002   3.2421431244354579E-002   0.0000000000000000     
  -2.2313454861302786E-002   3.6952070672755764E-002   0.0000000000000000     
  -1.0706377321073126E-002   3.5475199105013289E-002   0.0000000000000000     
  -1.1568070386724534E-002   4.0235328221174226E-002   0.0000000000000000     
  -1.2407382128259250E-002   4.5206614070831416E-002   0.0000000000000000     
  -1.3224312545677266E-002   5.0389056653984868E-002   0.0000000000000000     
  -1.4018861638978591E-002   5.5782655970634573E-002   0.0000000000000000     
  -1.3477551047913672E-002   3.5741759906261009E-002   0.0000000000000000     
  -1.4558812591862182E-002   4.0503603149805591E-002   0.0000000000000000     
  -1.5610813769108930E-002   4.5474385456144316E-002   0.0000000000000000     
  -1.6633554579653913E-002   5.0654106825277177E-002   0.0000000000000000     
  -1.7627035023497134E-002   5.6042767257204175E-002   0.0000000000000000     
  -1.6335788546898794E-002   3.6076758767967322E-002   0.0000000000000000     
  -1.7635535411435921E-002   4.0836745709459436E-002   0.0000000000000000     
  -1.8899698955001765E-002   4.5804151365757696E-002   0.0000000000000000     
  -2.0128279177596325E-002   5.0978975736862150E-002   0.0000000000000000     
  -2.1321276079219603E-002   5.6361218822772743E-002   0.0000000000000000     
  -1.9281089818028500E-002   3.6480195690132243E-002   0.0000000000000000     
  -2.0798238845445759E-002   4.1234755900135762E-002   0.0000000000000000     
  -2.2274037685937758E-002   4.6195911799671606E-002   0.0000000000000000     
  -2.3708486339504509E-002   5.1363663388739780E-002   0.0000000000000000     
  -2.5101584806146004E-002   5.6738010667340279E-002   0.0000000000000000     
  -2.2313454861302786E-002   3.6952070672755764E-002   0.0000000000000000     
  -2.4046922893891681E-002   4.1697633721834548E-002   0.0000000000000000     
  -2.5733829961916907E-002   4.6649666757885982E-002   0.0000000000000000     
  -2.7374176065378456E-002   5.1808169780910060E-002   0.0000000000000000     
  -2.8967961204276332E-002   5.7173142790906788E-002   0.0000000000000000     
  -1.4018861638978591E-002   5.5782655970634573E-002   0.0000000000000000     
  -1.4790428060655378E-002   6.1374525415048460E-002   0.0000000000000000     
  -1.5538410463199790E-002   6.7151778381494442E-002   0.0000000000000000     
  -1.6262808846611819E-002   7.3114414869972513E-002   0.0000000000000000     
  -1.6963623210891472E-002   7.9262434880482693E-002   0.0000000000000000     
  -1.7627035023497134E-002   5.6042767257204175E-002   0.0000000000000000     
  -1.8591193656293990E-002   6.1628466462437761E-002   0.0000000000000000     
  -1.9525969033699884E-002   6.7399304151490369E-002   0.0000000000000000     
  -2.0431361155714808E-002   7.3355280324361963E-002   0.0000000000000000     
  -2.1307370022338772E-002   7.9496394981052571E-002   0.0000000000000000     
  -2.1321276079219603E-002   5.6361218822772743E-002   0.0000000000000000     
  -2.2478666941521071E-002   6.1939323970295737E-002   0.0000000000000000     
  -2.3600429046150194E-002   6.7701734526237345E-002   0.0000000000000000     
  -2.4686562393106987E-002   7.3648450490597511E-002   0.0000000000000000     
  -2.5737066982391432E-002   7.9779471863376333E-002   0.0000000000000000     
  -2.5101584806146004E-002   5.6738010667340279E-002   0.0000000000000000     
  -2.6452847916336616E-002   6.2307097938622394E-002   0.0000000000000000     
  -2.7761790500550731E-002   6.8059069505735356E-002   0.0000000000000000     
  -2.9028412558788335E-002   7.3993925368679214E-002   0.0000000000000000     
  -3.0252714091049442E-002   8.0111665527453912E-002   0.0000000000000000     
  -2.8967961204276332E-002   5.7173142790906788E-002   0.0000000000000000     
  -3.0513736580740639E-002   6.2731788367417732E-002   0.0000000000000000     
  -3.2010053396901494E-002   6.8471309089984486E-002   0.0000000000000000     
  -3.3456911652758881E-002   7.4391704958607016E-002   0.0000000000000000     
  -3.4854311348312808E-002   8.0492975973285336E-002   0.0000000000000000     
  -1.6963623210891472E-002   7.9262434880482693E-002   0.0000000000000000     
  -1.7639040414487772E-002   8.5582587582599234E-002   0.0000000000000000     
  -1.8287247315849749E-002   9.2061622145896527E-002   0.0000000000000000     
  -1.8908243914977401E-002   9.8699538570374515E-002   0.0000000000000000     
  -1.9502030211870729E-002  0.10549633685603318        0.0000000000000000     
  -2.1307370022338772E-002   7.9496394981052571E-002   0.0000000000000000     
  -2.2151537042012486E-002   8.5809083983418438E-002   0.0000000000000000     
  -2.2961403623176668E-002   9.2279783193315812E-002   0.0000000000000000     
  -2.3736969765831315E-002   9.8908492610744636E-002   0.0000000000000000     
  -2.4478235469976430E-002  0.10569521223570495        0.0000000000000000     
  -2.5737066982391432E-002   7.9779471863376333E-002   0.0000000000000000     
  -2.6749392142541004E-002   8.6081422823972922E-002   0.0000000000000000     
  -2.7720987202093164E-002   9.2540927551786556E-002   0.0000000000000000     
  -2.8651852161047913E-002   9.9157986046817151E-002   0.0000000000000000     
  -2.9541987019405243E-002  0.10593259830906476        0.0000000000000000     
  -3.0252714091049442E-002   8.0111665527453912E-002   0.0000000000000000     
  -3.1432605716073321E-002   8.6399604104262687E-002   0.0000000000000000     
  -3.2565998052599236E-002   9.2845055221308731E-002   0.0000000000000000     
  -3.3652891100627184E-002   9.9448018878592045E-002   0.0000000000000000     
  -3.4693284860157186E-002  0.10620849507611266        0.0000000000000000     
  -3.4854311348312808E-002   8.0492975973285336E-002   0.0000000000000000     
  -3.6201177762609428E-002   8.6763627824287703E-002   0.0000000000000000     
  -3.7496436174694878E-002   9.3192166201882379E-002   0.0000000000000000     
  -3.8740086584569136E-002   9.9778591106069334E-002   0.0000000000000000     
  -3.9932128992232238E-002  0.10652290253684860        0.0000000000000000     
  -1.9502030211870729E-002  0.10549633685603318        0.0000000000000000     
  -2.0069513337832391E-002  0.11243944292271869        0.0000000000000000     
  -2.0611600424165051E-002  0.11951628269027710        0.0000000000000000     
  -2.1128291470868709E-002  0.12672685615870841        0.0000000000000000     
  -2.1619586477943362E-002  0.13407116332801264        0.0000000000000000     
  -2.4478235469976430E-002  0.10569521223570495        0.0000000000000000     
  -2.5187603473543447E-002  0.11262859764711597        0.0000000000000000     
  -2.5867476514463816E-002  0.11969730442389692        0.0000000000000000     
  -2.6517854592737519E-002  0.12690133256604777        0.0000000000000000     
  -2.7138737708364571E-002  0.13424068207356860        0.0000000000000000     
  -2.9541987019405243E-002  0.10593259830906476        0.0000000000000000     
  -3.0394471481287450E-002  0.11285417420486275        0.0000000000000000     
  -3.1212385250816783E-002  0.11991212360054451        0.0000000000000000     
  -3.1995728327993259E-002  0.12710644649611003        0.0000000000000000     
  -3.2744500712816864E-002  0.13443714289155928        0.0000000000000000     
  -3.4693284860157186E-002  0.10620849507611266        0.0000000000000000     
  -3.5690117361064387E-002  0.11311617259595909        0.0000000000000000     
  -3.6646326633223973E-002  0.12016074022021990        0.0000000000000000     
  -3.7561912676635924E-002  0.12734219794889512        0.0000000000000000     
  -3.8436875491300253E-002  0.13466054578198475        0.0000000000000000     
  -3.9932128992232238E-002  0.10652290253684860        0.0000000000000000     
  -4.1074541112874285E-002  0.11341459282040491        0.0000000000000000     
  -4.2169300661685380E-002  0.12044315428292307        0.0000000000000000     
  -4.3216407638665529E-002  0.12760858692440305        0.0000000000000000     
  -4.4215862043814731E-002  0.13491089074484491        0.0000000000000000     
  -2.1619586477943362E-002  0.13407116332801264        0.0000000000000000     
  -2.2085571036596918E-002  0.14154113228222551        0.0000000000000000     
  -2.2526330738037288E-002  0.14912869110538271        0.0000000000000000     
  -2.2941865582264468E-002  0.15683383979748430        0.0000000000000000     
  -2.3332175569278465E-002  0.16465657835853026        0.0000000000000000     
  -2.7138737708364571E-002  0.13424068207356860        0.0000000000000000     
  -2.7726142550522567E-002  0.14170238630893744        0.0000000000000000     
  -2.8276085808389102E-002  0.14927347863463239        0.0000000000000000     
  -2.8788567481964181E-002  0.15695395905065346        0.0000000000000000     
  -2.9263587571247810E-002  0.16474382755700068        0.0000000000000000     
  -3.2744500712816864E-002  0.13443714289155928        0.0000000000000000     
  -3.3452503751480345E-002  0.14188834458520799        0.0000000000000000     
  -3.4113538790176423E-002  0.14944418337537183        0.0000000000000000     
  -3.4727605828905113E-002  0.15710465926205072        0.0000000000000000     
  -3.5294704867666414E-002  0.16486977224524479        0.0000000000000000     
  -3.8436875491300253E-002  0.13466054578198475        0.0000000000000000     
  -3.9264654639470264E-002  0.14209900711103721        0.0000000000000000     
  -4.0038689683399263E-002  0.14964080532760099        0.0000000000000000     
  -4.0758980623087263E-002  0.15728594043167612        0.0000000000000000     
  -4.1425527458534256E-002  0.16503441242326256        0.0000000000000000     
  -4.4215862043814731E-002  0.13491089074484491        0.0000000000000000     
  -4.5162595214492333E-002  0.14233437388642500        0.0000000000000000     
  -4.6051538488057625E-002  0.14986334449131991        0.0000000000000000     
  -4.6882691864510641E-002  0.15749780255952955        0.0000000000000000     
  -4.7656055343851360E-002  0.16523774809105396        0.0000000000000000     
   0.0000000000000000        0.0000000000000000        0.0000000000000000     
  -1.7983437925447002E-003   1.2768297796655246E-003   0.0000000000000000     
  -3.6213792105135394E-003   2.9391333848178699E-003   0.0000000000000000     
  -5.4691062539065178E-003   4.9869108154570350E-003   0.0000000000000000     
  -7.3415249227236331E-003   7.4201620715830200E-003   0.0000000000000000     
   0.0000000000000000        0.0000000000000000        0.0000000000000000     
  -2.0694619619316418E-003   1.3549295057186397E-003   0.0000000000000000     
  -4.1641056206403017E-003   3.0939535390463540E-003   0.0000000000000000     
  -6.2839309761259822E-003   5.2170720999831412E-003   0.0000000000000000     
  -8.4289380283886790E-003   7.7242851885290040E-003   0.0000000000000000     
   0.0000000000000000        0.0000000000000000        0.0000000000000000     
  -2.3401308122015085E-003   1.4589632775496707E-003   0.0000000000000000     
  -4.7202404892910509E-003   3.2998120376593449E-003   0.0000000000000000     
  -7.1403290312686291E-003   5.5225462803290219E-003   0.0000000000000000     
  -9.6003964381342396E-003   8.1271660055587027E-003   0.0000000000000000     
   0.0000000000000000        0.0000000000000000        0.0000000000000000     
  -2.6103503433543007E-003   1.5889310951586171E-003   0.0000000000000000     
  -5.2897838164657866E-003   3.5567088806568426E-003   0.0000000000000000     
  -8.0383004193344560E-003   5.9033333564946751E-003   0.0000000000000000     
  -1.0855900151960309E-002   8.6288045226721160E-003   0.0000000000000000     
   0.0000000000000000        0.0000000000000000        0.0000000000000000     
  -2.8801205553900190E-003   1.7448329585454793E-003   0.0000000000000000     
  -5.8727356021645071E-003   3.8646440680388467E-003   0.0000000000000000     
  -8.9778451403234646E-003   6.3594333284801019E-003   0.0000000000000000     
  -1.2195449169866890E-002   9.2292007398692456E-003   0.0000000000000000     
  -7.3415249227236331E-003   7.4201620715830200E-003   0.0000000000000000     
  -9.2309720923672740E-003   1.0186504099101523E-002   0.0000000000000000     
  -1.1129784638239828E-002   1.3233553843918243E-002   0.0000000000000000     
  -1.3037962560341289E-002   1.6561311306033173E-002   0.0000000000000000     
  -1.4955505858671662E-002   2.0169776485446326E-002   0.0000000000000000     
  -8.4289380283886790E-003   7.7242851885290040E-003   0.0000000000000000     
  -1.0590816583141201E-002   1.0558180613476359E-002   0.0000000000000000     
  -1.2761256446096349E-002   1.3661346183617624E-002   0.0000000000000000     
  -1.4940257617254123E-002   1.7033781898952802E-002   0.0000000000000000     
  -1.7127820096614524E-002   2.0675487759481893E-002   0.0000000000000000     
  -9.6003964381342396E-003   8.1271660055587027E-003   0.0000000000000000     
  -1.2076909396163042E-002   1.1046295052310107E-002   0.0000000000000000     
  -1.4546334591630189E-002   1.4212557259544952E-002   0.0000000000000000     
  -1.7008672024535695E-002   1.7625952627263242E-002   0.0000000000000000     
  -1.9463921694879534E-002   2.1286481155464970E-002   0.0000000000000000     
  -1.0855900151960309E-002   8.6288045226721160E-003   0.0000000000000000     
  -1.3689250531432795E-002   1.1650847415602766E-002   0.0000000000000000     
  -1.6485019074841352E-002   1.4887187071700222E-002   0.0000000000000000     
  -1.9243205782185992E-002   1.8337823490964487E-002   0.0000000000000000     
  -2.1963810653466705E-002   2.2002756673395560E-002   0.0000000000000000     
  -1.2195449169866890E-002   9.2292007398692456E-003   0.0000000000000000     
  -1.5427839988950457E-002   1.2371837703354335E-002   0.0000000000000000     
  -1.8577309895729834E-002   1.5685235620083435E-002   0.0000000000000000     
  -2.1643858890205016E-002   1.9169394490056543E-002   0.0000000000000000     
  -2.4627486972376014E-002   2.2824314313273662E-002   0.0000000000000000     
  -1.4955505858671662E-002   2.0169776485446326E-002   0.0000000000000000     
  -1.6857047161169730E-002   2.4030284150699858E-002   0.0000000000000000     
  -1.8717219095774271E-002   2.8114169070335940E-002   0.0000000000000000     
  -2.0536021662485294E-002   3.2421431244354579E-002   0.0000000000000000     
  -2.2313454861302786E-002   3.6952070672755764E-002   0.0000000000000000     
  -1.7127820096614524E-002   2.0675487759481893E-002   0.0000000000000000     
  -1.9292663793981910E-002   2.4558773164354349E-002   0.0000000000000000     
  -2.1403508619160645E-002   2.8655947512719607E-002   0.0000000000000000     
  -2.3460354572150722E-002   3.2967010804577694E-002   0.0000000000000000     
  -2.5463201652952145E-002   3.7491963039928577E-002   0.0000000000000000     
  -1.9463921694879534E-002   2.1286481155464970E-002   0.0000000000000000     
  -2.1883746441322269E-002   2.5175363171814836E-002   0.0000000000000000     
  -2.4239809102524438E-002   2.9273819003977526E-002   0.0000000000000000     
  -2.6532109678486040E-002   3.3581848651953052E-002   0.0000000000000000     
  -2.8760648169207072E-002   3.8099452115741388E-002   0.0000000000000000     
  -2.1963810653466705E-002   2.2002756673395560E-002   0.0000000000000000     
  -2.4630295103190813E-002   2.5880054173081330E-002   0.0000000000000000     
  -2.7226120545865665E-002   2.9967783544109696E-002   0.0000000000000000     
  -2.9751286981491248E-002   3.4265944786480658E-002   0.0000000000000000     
  -3.2205794410067566E-002   3.8774537900194195E-002   0.0000000000000000     
  -2.4627486972376014E-002   2.2824314313273662E-002   0.0000000000000000     
  -2.7532309779587538E-002   2.6672846168153838E-002   0.0000000000000000     
  -3.0362442949184314E-002   3.0737841133116114E-002   0.0000000000000000     
  -3.3117886481166342E-002   3.5019299208160506E-002   0.0000000000000000     
  -3.5798640375533625E-002   3.9517220393286999E-002   0.0000000000000000     
  -2.2313454861302786E-002   3.6952070672755764E-002   0.0000000000000000     
  -2.4046922893891681E-002   4.1697633721834548E-002   0.0000000000000000     
  -2.5733829961916907E-002   4.6649666757885982E-002   0.0000000000000000     
  -2.7374176065378456E-002   5.1808169780910060E-002   0.0000000000000000     
  -2.8967961204276332E-002   5.7173142790906788E-002   0.0000000000000000     
  -2.5463201652952145E-002   3.7491963039928577E-002   0.0000000000000000     
  -2.7413045051334652E-002   4.2226880356135629E-002   0.0000000000000000     
  -2.9310879957067985E-002   4.7167838890562169E-002   0.0000000000000000     
  -3.1156706370152127E-002   5.2314838643208218E-002   0.0000000000000000     
  -3.2950524290587091E-002   5.7667879614073748E-002   0.0000000000000000     
  -2.8760648169207072E-002   3.8099452115741388E-002   0.0000000000000000     
  -3.0928062812335615E-002   4.2823996984618792E-002   0.0000000000000000     
  -3.3036991845519753E-002   4.7752850847861475E-002   0.0000000000000000     
  -3.5087435268759480E-002   5.2886013705469422E-002   0.0000000000000000     
  -3.7079393082054789E-002   5.8223485557442667E-002   0.0000000000000000     
  -3.2205794410067566E-002   3.8774537900194195E-002   0.0000000000000000     
  -3.4591976176894565E-002   4.3488983607284044E-002   0.0000000000000000     
  -3.6912165627272210E-002   4.8404702629783872E-002   0.0000000000000000     
  -3.9166362761200495E-002   5.3521694967693711E-002   0.0000000000000000     
  -4.1354567578679412E-002   5.8839960621013529E-002   0.0000000000000000     
  -3.5798640375533625E-002   3.9517220393286999E-002   0.0000000000000000     
  -3.8404785145011507E-002   4.4221840224131372E-002   0.0000000000000000     
  -4.0936401302325370E-002   4.9123394236329380E-002   0.0000000000000000     
  -4.3393488847475188E-002   5.4221882429881040E-002   0.0000000000000000     
  -4.5776047780460974E-002   5.9517304804786349E-002   0.0000000000000000     
  -2.8967961204276332E-002   5.7173142790906788E-002   0.0000000000000000     
  -3.0513736580740639E-002   6.2731788367417732E-002   0.0000000000000000     
  -3.2010053396901494E-002   6.8471309089984486E-002   0.0000000000000000     
  -3.3456911652758881E-002   7.4391704958607016E-002   0.0000000000000000     
  -3.4854311348312808E-002   8.0492975973285336E-002   0.0000000000000000     
  -3.2950524290587091E-002   5.7667879614073748E-002   0.0000000000000000     
  -3.4690114767228906E-002   6.3213532131819475E-002   0.0000000000000000     
  -3.6373258848933623E-002   6.8938366525106098E-002   0.0000000000000000     
  -3.7999956535701228E-002   7.4842382793933571E-002   0.0000000000000000     
  -3.9570207827531727E-002   8.0925580938301933E-002   0.0000000000000000     
  -3.7079393082054789E-002   5.8223485557442667E-002   0.0000000000000000     
  -3.9010764308297217E-002   6.3752466106965347E-002   0.0000000000000000     
  -4.0879447970378298E-002   6.9460155057221626E-002   0.0000000000000000     
  -4.2685444068298016E-002   7.5346552408211517E-002   0.0000000000000000     
  -4.4428752602056393E-002   8.1411658159935008E-002   0.0000000000000000     
  -4.1354567578679412E-002   5.8839960621013529E-002   0.0000000000000000     
  -4.3475685203945555E-002   6.4348590292855348E-002   0.0000000000000000     
  -4.5528620761235497E-002   7.0036674686331124E-002   0.0000000000000000     
  -4.7513374250549238E-002   7.5904213801440856E-002   0.0000000000000000     
  -4.9429945671886792E-002   8.1951207638184587E-002   0.0000000000000000     
  -4.5776047780460974E-002   5.9517304804786349E-002   0.0000000000000000     
  -4.8084877454173926E-002   6.5001904689489451E-002   0.0000000000000000     
  -5.0320777221505228E-002   7.0667925412434551E-002   0.0000000000000000     
  -5.2483747082454901E-002   7.6515366973621587E-002   0.0000000000000000     
  -5.4573787037022939E-002   8.2544229373050643E-002   0.0000000000000000     
  -3.4854311348312808E-002   8.0492975973285336E-002   0.0000000000000000     
  -3.6201177762609428E-002   8.6763627824287703E-002   0.0000000000000000     
  -3.7496436174694878E-002   9.3192166201882379E-002   0.0000000000000000     
  -3.8740086584569136E-002   9.9778591106069334E-002   0.0000000000000000     
  -3.9932128992232238E-002  0.10652290253684860        0.0000000000000000     
  -3.9570207827531727E-002   8.0925580938301933E-002   0.0000000000000000     
  -4.1083891526933813E-002   8.7177531253871704E-002   0.0000000000000000     
  -4.2540886436416188E-002   9.3587804036303374E-002   0.0000000000000000     
  -4.3941192555978857E-002  0.10015639928559700        0.0000000000000000     
  -4.5284809885621814E-002  0.10688331700175249        0.0000000000000000     
  -4.4428752602056393E-002   8.1411658159935008E-002   0.0000000000000000     
  -4.6109530253830959E-002   8.7645351662838322E-002   0.0000000000000000     
  -4.7727933705799301E-002   9.4037512267367632E-002   0.0000000000000000     
  -4.9283962957961412E-002  0.10058813997352296        0.0000000000000000     
  -5.0777618010317299E-002  0.10729723478130432        0.0000000000000000     
  -4.9429945671886792E-002   8.1951207638184587E-002   0.0000000000000000     
  -5.1278093943300865E-002   8.8167089051187572E-002   0.0000000000000000     
  -5.3057577982844210E-002   9.4541290895075139E-002   0.0000000000000000     
  -5.4768397790516836E-002  0.10107381316984730        0.0000000000000000     
  -5.6410553366318707E-002  0.10776465587550403        0.0000000000000000     
  -5.4573787037022939E-002   8.2544229373050643E-002   0.0000000000000000     
  -5.6589582595343538E-002   8.8742743418919467E-002   0.0000000000000000     
  -5.8529819267550923E-002   9.5099139919425910E-002   0.0000000000000000     
  -6.0394497053645087E-002  0.10161341887456997        0.0000000000000000     
  -6.2183615953626023E-002  0.10828558028435163        0.0000000000000000     
  -3.9932128992232238E-002  0.10652290253684860        0.0000000000000000     
  -4.1074541112874285E-002  0.11341459282040491        0.0000000000000000     
  -4.2169300661685380E-002  0.12044315428292307        0.0000000000000000     
  -4.3216407638665529E-002  0.12760858692440305        0.0000000000000000     
  -4.4215862043814731E-002  0.13491089074484491        0.0000000000000000     
  -4.5284809885621814E-002  0.10688331700175249        0.0000000000000000     
  -4.6572767313992527E-002  0.11375752250123551        0.0000000000000000     
  -4.7806093729738493E-002  0.12076798110051154        0.0000000000000000     
  -4.8984789132859689E-002  0.12791469279958062        0.0000000000000000     
  -5.0108853523356138E-002  0.13519765759844271        0.0000000000000000     
  -5.0777618010317299E-002  0.10729723478130432        0.0000000000000000     
  -5.2209820541694554E-002  0.11415304926148612        0.0000000000000000     
  -5.3581492230920826E-002  0.12114383598484285        0.0000000000000000     
  -5.4892633077996064E-002  0.12826959495137452        0.0000000000000000     
  -5.6143243082920319E-002  0.13553032616108110        0.0000000000000000     
  -5.6410553366318707E-002  0.10776465587550403        0.0000000000000000     
  -5.7985700795980366E-002  0.11460117310115681        0.0000000000000000     
  -5.9495496165232351E-002  0.12157071893591703        0.0000000000000000     
  -6.0939939474074639E-002  0.12867329337978484        0.0000000000000000     
  -6.2319030722507246E-002  0.13590889643276005        0.0000000000000000     
  -6.2183615953626023E-002  0.10828558028435163        0.0000000000000000     
  -6.3900408076849963E-002  0.11510189402024749        0.0000000000000000     
  -6.5548105532673095E-002  0.12204862995373408        0.0000000000000000     
  -6.7126708321095421E-002  0.12912578808481148        0.0000000000000000     
  -6.8636216442116940E-002  0.13633336841347959        0.0000000000000000     
  -4.4215862043814731E-002  0.13491089074484491        0.0000000000000000     
  -4.5162595214492333E-002  0.14233437388642500        0.0000000000000000     
  -4.6051538488057625E-002  0.14986334449131991        0.0000000000000000     
  -4.6882691864510641E-002  0.15749780255952955        0.0000000000000000     
  -4.7656055343851360E-002  0.16523774809105396        0.0000000000000000     
  -5.0108853523356138E-002  0.13519765759844271        0.0000000000000000     
  -5.1175093913177497E-002  0.14260336910724772        0.0000000000000000     
  -5.2180317314273410E-002  0.15011832093614552        0.0000000000000000     
  -5.3124523726643898E-002  0.15774251308513612        0.0000000000000000     
  -5.4007713150288954E-002  0.16547594555421949        0.0000000000000000     
  -5.6143243082920319E-002  0.13553032616108110        0.0000000000000000     
  -5.7330919172156741E-002  0.14291491696938155        0.0000000000000000     
  -5.8453258272168553E-002  0.15041225473169473        0.0000000000000000     
  -5.9510260382955732E-002  0.15802233944802074        0.0000000000000000     
  -6.0501925504518300E-002  0.16574517111835946        0.0000000000000000     
  -6.2319030722507246E-002  0.13590889643276005        0.0000000000000000     
  -6.3630070991430088E-002  0.14326901747282642        0.0000000000000000     
  -6.4870361361743054E-002  0.15074514587796753        0.0000000000000000     
  -6.6039901833446144E-002  0.15833728164818336        0.0000000000000000     
  -6.7138692406539385E-002  0.16604542478347392        0.0000000000000000     
  -6.8636216442116940E-002  0.13633336841347959        0.0000000000000000     
  -7.0072549370997494E-002  0.14366567061758242        0.0000000000000000     
  -7.1431626582996899E-002  0.15111699437496390        0.0000000000000000     
  -7.2713448078115125E-002  0.15868733968562404        0.0000000000000000     
  -7.3918013856352202E-002  0.16637670654956283        0.0000000000000000     
   0.0000000000000000        0.0000000000000000        0.0000000000000000     
  -2.8801205553900190E-003   1.7448329585454793E-003   0.0000000000000000     
  -5.8727356021645071E-003   3.8646440680388467E-003   0.0000000000000000     
  -8.9778451403234646E-003   6.3594333284801019E-003   0.0000000000000000     
  -1.2195449169866890E-002   9.2292007398692456E-003   0.0000000000000000     
   0.0000000000000000        0.0000000000000000        0.0000000000000000     
  -3.2832751349227973E-003   1.9993421064937087E-003   0.0000000000000000     
  -6.6770648956479498E-003   4.3309451071320568E-003   0.0000000000000000     
  -1.0181369282175459E-002   6.9948090019150439E-003   0.0000000000000000     
  -1.3796188294505324E-002   9.9909337908426678E-003   0.0000000000000000     
   0.0000000000000000        0.0000000000000000        0.0000000000000000     
  -3.9536477685667695E-003   2.4251317777867570E-003   0.0000000000000000     
  -7.9107407461768489E-003   5.0629395052631714E-003   0.0000000000000000     
  -1.1871278932830243E-002   7.9134231824292429E-003   0.0000000000000000     
  -1.5835262328526944E-002   1.0976582809284971E-002   0.0000000000000000     
   0.0000000000000000        0.0000000000000000        0.0000000000000000     
  -4.8912384563219368E-003   3.0222019724246243E-003   0.0000000000000000     
  -9.5737631537512070E-003   6.0606272624321913E-003   0.0000000000000000     
  -1.4047574092287813E-002   9.1152758700227005E-003   0.0000000000000000     
  -1.8312671271931757E-002   1.2186147795196150E-002   0.0000000000000000     
   0.0000000000000000        0.0000000000000000        0.0000000000000000     
  -6.0960471981882976E-003   3.7905526904073103E-003   0.0000000000000000     
  -1.1666132118371024E-002   7.3240083786391156E-003   0.0000000000000000     
  -1.6710254760548174E-002   1.0600367064695415E-002   0.0000000000000000     
  -2.1228415124719756E-002   1.3619628748576210E-002   0.0000000000000000     
  -1.2195449169866890E-002   9.2292007398692456E-003   0.0000000000000000     
  -1.5427839988950457E-002   1.2371837703354335E-002   0.0000000000000000     
  -1.8577309895729834E-002   1.5685235620083435E-002   0.0000000000000000     
  -2.1643858890205016E-002   1.9169394490056543E-002   0.0000000000000000     
  -2.4627486972376014E-002   2.2824314313273662E-002   0.0000000000000000     
  -1.3796188294505324E-002   9.9909337908426678E-003   0.0000000000000000     
  -1.7404481084686594E-002   1.3221287545663696E-002   0.0000000000000000     
  -2.0889206804768322E-002   1.6587838338126892E-002   0.0000000000000000     
  -2.4250365454750514E-002   2.0090586168232248E-002   0.0000000000000000     
  -2.7487957034633165E-002   2.3729531035979773E-002   0.0000000000000000     
  -1.5835262328526944E-002   1.0976582809284971E-002   0.0000000000000000     
  -1.9730977134611770E-002   1.4211218572629728E-002   0.0000000000000000     
  -2.3486709552429524E-002   1.7576130659262886E-002   0.0000000000000000     
  -2.7102459581980216E-002   2.1071319069184444E-002   0.0000000000000000     
  -3.0578227223263841E-002   2.4696783802394401E-002   0.0000000000000000     
  -1.8312671271931757E-002   1.2186147795196150E-002   0.0000000000000000     
  -2.2407328138725983E-002   1.5341630784252429E-002   0.0000000000000000     
  -2.6369818138713436E-002   1.8650112583491418E-002   0.0000000000000000     
  -3.0200141271894118E-002   2.2111593192913122E-002   0.0000000000000000     
  -3.3898297538268035E-002   2.5726072612517536E-002   0.0000000000000000     
  -2.1228415124719756E-002   1.3619628748576210E-002   0.0000000000000000     
  -2.5433534097029229E-002   1.6612524180531801E-002   0.0000000000000000     
  -2.9538532563620049E-002   1.9809784110812495E-002   0.0000000000000000     
  -3.3543410524492223E-002   2.3211408539418294E-002   0.0000000000000000     
  -3.7448167979645758E-002   2.6817397466349192E-002   0.0000000000000000     
  -2.4627486972376014E-002   2.2824314313273662E-002   0.0000000000000000     
  -2.7532309779587538E-002   2.6672846168153838E-002   0.0000000000000000     
  -3.0362442949184314E-002   3.0737841133116114E-002   0.0000000000000000     
  -3.3117886481166342E-002   3.5019299208160506E-002   0.0000000000000000     
  -3.5798640375533625E-002   3.9517220393286999E-002   0.0000000000000000     
  -2.7487957034633165E-002   2.3729531035979773E-002   0.0000000000000000     
  -3.0624911390883369E-002   2.7547350373743111E-002   0.0000000000000000     
  -3.3684158369968221E-002   3.1586721613895898E-002   0.0000000000000000     
  -3.6665697971887734E-002   3.5847644756438160E-002   0.0000000000000000     
  -3.9569530196641903E-002   4.0330119801369871E-002   0.0000000000000000     
  -3.0578227223263841E-002   2.4696783802394401E-002   0.0000000000000000     
  -3.3943220857449219E-002   2.8497178006559917E-002   0.0000000000000000     
  -3.7226648865705231E-002   3.2517154829348180E-002   0.0000000000000000     
  -4.0428511248031831E-002   3.6756714270759161E-002   0.0000000000000000     
  -4.3548808004429056E-002   4.1215856330792888E-002   0.0000000000000000     
  -3.3898297538268035E-002   2.5726072612517536E-002   0.0000000000000000     
  -3.7487238179285121E-002   2.9522329066604278E-002   0.0000000000000000     
  -4.0989914436395318E-002   3.3529140779472930E-002   0.0000000000000000     
  -4.4406326309598641E-002   3.7746507751123523E-002   0.0000000000000000     
  -4.7736473798895077E-002   4.2174429981556044E-002   0.0000000000000000     
  -3.7448167979645758E-002   2.6817397466349192E-002   0.0000000000000000     
  -4.1256963356391042E-002   3.0622803553876164E-002   0.0000000000000000     
  -4.4973955082038518E-002   3.4622679464270181E-002   0.0000000000000000     
  -4.8599143156588157E-002   3.8817025197531239E-002   0.0000000000000000     
  -5.2132527580039979E-002   4.3205840753659339E-002   0.0000000000000000     
  -3.5798640375533625E-002   3.9517220393286999E-002   0.0000000000000000     
  -3.8404785145011507E-002   4.4221840224131372E-002   0.0000000000000000     
  -4.0936401302325370E-002   4.9123394236329380E-002   0.0000000000000000     
  -4.3393488847475188E-002   5.4221882429881040E-002   0.0000000000000000     
  -4.5776047780460974E-002   5.9517304804786349E-002   0.0000000000000000     
  -3.9569530196641903E-002   4.0330119801369871E-002   0.0000000000000000     
  -4.2393180568812847E-002   4.5020221750091606E-002   0.0000000000000000     
  -4.5134174612982719E-002   4.9904025604003963E-002   0.0000000000000000     
  -4.7792512329151472E-002   5.4981531363106906E-002   0.0000000000000000     
  -5.0368193717319154E-002   6.0252739027400457E-002   0.0000000000000000     
  -4.3548808004429056E-002   4.1215856330792888E-002   0.0000000000000000     
  -4.6583853300424978E-002   4.5881783100095594E-002   0.0000000000000000     
  -4.9529961301547715E-002   5.0741696669313559E-002   0.0000000000000000     
  -5.2387132007797266E-002   5.5795597038446769E-002   0.0000000000000000     
  -5.5155365419173631E-002   6.1043484207495238E-002   0.0000000000000000     
  -4.7736473798895077E-002   4.2174429981556044E-002   0.0000000000000000     
  -5.0976803339847915E-002   4.6806524274143314E-002   0.0000000000000000     
  -5.4123761368020412E-002   5.1636407432258169E-002   0.0000000000000000     
  -5.7177347883412583E-002   5.6664079455900622E-002   0.0000000000000000     
  -6.0137562886024412E-002   6.1889540345070666E-002   0.0000000000000000     
  -5.2132527580039979E-002   4.3205840753659339E-002   0.0000000000000000     
  -5.5572030687081629E-002   4.7794445272234774E-002   0.0000000000000000     
  -5.8915574812400770E-002   5.2588157892837814E-002   0.0000000000000000     
  -6.2163159955997395E-002   5.7586978615468479E-002   0.0000000000000000     
  -6.5314786117871504E-002   6.2790907440126748E-002   0.0000000000000000     
  -4.5776047780460974E-002   5.9517304804786349E-002   0.0000000000000000     
  -4.8084877454173926E-002   6.5001904689489451E-002   0.0000000000000000     
  -5.0320777221505228E-002   7.0667925412434551E-002   0.0000000000000000     
  -5.2483747082454901E-002   7.6515366973621587E-002   0.0000000000000000     
  -5.4573787037022939E-002   8.2544229373050643E-002   0.0000000000000000     
  -5.0368193717319154E-002   6.0252739027400457E-002   0.0000000000000000     
  -5.2863819650094269E-002   6.5712291718388327E-002   0.0000000000000000     
  -5.5281991000085344E-002   7.1354832557574258E-002   0.0000000000000000     
  -5.7622707767292385E-002   7.7180361544958206E-002   0.0000000000000000     
  -5.9885969951715384E-002   8.3188878680540229E-002   0.0000000000000000     
  -5.5155365419173631E-002   6.1043484207495238E-002   0.0000000000000000     
  -5.7837990382818519E-002   6.6479633801072621E-002   0.0000000000000000     
  -6.0438335745873664E-002   7.2098321443792607E-002   0.0000000000000000     
  -6.2956401508339060E-002   7.7899547135655195E-002   0.0000000000000000     
  -6.5392187670214708E-002   8.3883310876660372E-002   0.0000000000000000     
  -6.0137562886024412E-002   6.1889540345070666E-002   0.0000000000000000     
  -6.3007389652346701E-002   6.7303930937542319E-002   0.0000000000000000     
  -6.5789811458870209E-002   7.2898392071089599E-002   0.0000000000000000     
  -6.8484828305594950E-002   7.8672923745712525E-002   0.0000000000000000     
  -7.1092440192520881E-002   8.4627525961411099E-002   0.0000000000000000     
  -6.5314786117871504E-002   6.2790907440126748E-002   0.0000000000000000     
  -6.8372017458678783E-002   6.8185183127797408E-002   0.0000000000000000     
  -7.1336418139074972E-002   7.3755044439465234E-002   0.0000000000000000     
  -7.4207988159060018E-002   7.9500491375130225E-002   0.0000000000000000     
  -7.6986727518633946E-002   8.5421523934792382E-002   0.0000000000000000     
  -5.4573787037022939E-002   8.2544229373050643E-002   0.0000000000000000     
  -5.6589582595343538E-002   8.8742743418919467E-002   0.0000000000000000     
  -5.8529819267550923E-002   9.5099139919425910E-002   0.0000000000000000     
  -6.0394497053645087E-002  0.10161341887456997        0.0000000000000000     
  -6.2183615953626023E-002  0.10828558028435163        0.0000000000000000     
  -5.9885969951715384E-002   8.3188878680540229E-002   0.0000000000000000     
  -6.2069285219952280E-002   8.9367626744900383E-002   0.0000000000000000     
  -6.4170161238600990E-002   9.5703848518618850E-002   0.0000000000000000     
  -6.6188598007661525E-002  0.10219754400169558        0.0000000000000000     
  -6.8124595527133874E-002  0.10884871319413061        0.0000000000000000     
  -6.5392187670214708E-002   8.3883310876660372E-002   0.0000000000000000     
  -6.7742490827120416E-002   9.0037051007996735E-002   0.0000000000000000     
  -7.0004107574676011E-002   9.6348205870852896E-002   0.0000000000000000     
  -7.2177037912881506E-002  0.10281677546522876        0.0000000000000000     
  -7.4261281841736831E-002  0.10944275979112443        0.0000000000000000     
  -7.1092440192520881E-002   8.4627525961411099E-002   0.0000000000000000     
  -7.3609199416847959E-002   9.0751016208208510E-002   0.0000000000000000     
  -7.6031658275775973E-002   9.7032211976127977E-002   0.0000000000000000     
  -7.8359816769304966E-002  0.10347111326516953        0.0000000000000000     
  -8.0593674897434922E-002  0.11006772007533309        0.0000000000000000     
  -7.6986727518633946E-002   8.5421523934792382E-002   0.0000000000000000     
  -7.9669410989134867E-002   9.1509522345535707E-002   0.0000000000000000     
  -8.2252813341900863E-002   9.7755866834444191E-002   0.0000000000000000     
  -8.4736934576931960E-002  0.10416055740151782        0.0000000000000000     
  -8.7121774694228132E-002  0.11072359404675661        0.0000000000000000     
  -6.2183615953626023E-002  0.10828558028435163        0.0000000000000000     
  -6.3900408076849963E-002  0.11510189402024749        0.0000000000000000     
  -6.5548105532673095E-002  0.12204862995373408        0.0000000000000000     
  -6.7126708321095421E-002  0.12912578808481148        0.0000000000000000     
  -6.8636216442116940E-002  0.13633336841347959        0.0000000000000000     
  -6.8124595527133874E-002  0.10884871319413061        0.0000000000000000     
  -6.9982878792675701E-002  0.11564311837828375        0.0000000000000000     
  -7.1768172799944699E-002  0.12256652183651480        0.0000000000000000     
  -7.3480477548940853E-002  0.12961892356882379        0.0000000000000000     
  -7.5119793039664179E-002  0.13680032357521071        0.0000000000000000     
  -7.4261281841736831E-002  0.10944275979112443        0.0000000000000000     
  -7.6262049351829980E-002  0.11621275253479109        0.0000000000000000     
  -7.8184550433748848E-002  0.12311334738247999        0.0000000000000000     
  -8.0028785087493420E-002  0.13014454433419112        0.0000000000000000     
  -8.1794753313063726E-002  0.13730634338992448        0.0000000000000000     
  -8.0593674897434922E-002  0.11006772007533309        0.0000000000000000     
  -8.2737919754312800E-002  0.11681079648976955        0.0000000000000000     
  -8.4797238434085501E-002  0.12368910659162967        0.0000000000000000     
  -8.6771630936753122E-002  0.13070265038091342        0.0000000000000000     
  -8.8661097262315566E-002  0.13785142785762089        0.0000000000000000     
  -8.7121774694228132E-002  0.11072359404675661        0.0000000000000000     
  -8.9410490000124146E-002  0.11743725024321910        0.0000000000000000     
  -9.1606236800954741E-002  0.12429379946396382        0.0000000000000000     
  -9.3709015096719944E-002  0.13129324170899079        0.0000000000000000     
  -9.5718824887419729E-002  0.13843557697829995        0.0000000000000000     
  -6.8636216442116940E-002  0.13633336841347959        0.0000000000000000     
  -7.0072549370997494E-002  0.14366567061758242        0.0000000000000000     
  -7.1431626582996899E-002  0.15111699437496390        0.0000000000000000     
  -7.2713448078115125E-002  0.15868733968562404        0.0000000000000000     
  -7.3918013856352202E-002  0.16637670654956283        0.0000000000000000     
  -7.5119793039664179E-002  0.13680032357521071        0.0000000000000000     
  -7.6680915340700068E-002  0.14410568832806708        0.0000000000000000     
  -7.8158640520633912E-002  0.15152998429978437        0.0000000000000000     
  -7.9552968579465713E-002  0.15907321149036260        0.0000000000000000     
  -8.0863899517195525E-002  0.16673536989980176        0.0000000000000000     
  -8.1794753313063726E-002  0.13730634338992448        0.0000000000000000     
  -8.3477729930378872E-002  0.14458988252869798        0.0000000000000000     
  -8.5072989759357967E-002  0.15198629972952937        0.0000000000000000     
  -8.6580532800001067E-002  0.15949559499241878        0.0000000000000000     
  -8.8000359052308103E-002  0.16711776831736619        0.0000000000000000     
  -8.8661097262315566E-002  0.13785142785762089        0.0000000000000000     
  -9.0462993140033865E-002  0.14511825321947505        0.0000000000000000     
  -9.2174674299169049E-002  0.15248594066419899        0.0000000000000000     
  -9.3796140739721048E-002  0.15995449019179270        0.0000000000000000     
  -9.5327392461689919E-002  0.16752390180225613        0.0000000000000000     
  -9.5718824887419729E-002  0.13843557697829995        0.0000000000000000     
  -9.7636704969665131E-002  0.14569080040039839        0.0000000000000000     
  -9.9463694140067130E-002  0.15302890710379316        0.0000000000000000     
 -0.10119979239862575       0.16044989708848426        0.0000000000000000     
 -0.10284499974534100       0.16795377035447165        0.0000000000000000     
 </DataArray>
 <DataArray  type="Float64" Name="stress" NumberOfComponents="3" format="ascii">
   13416144483.388096        4024843345.0164285        2893982314.2380252     
   11766138821.595600        1890364002.6428370        1715917267.3160601     
   10313424762.990696        413523337.56121683        810839634.13610995     
   9058002307.5733833       -405678650.22843218        178749414.69817480     
   7999871455.3436613       -567241960.72610950       -180353390.99774474     
   10539816759.967424        3161945027.9902272        2225746235.1706676     
   9667354375.9618053        1589536026.7637656        1446781750.9370394     
   8943543035.7727528        512630504.92586422        863231526.37888503     
   8368382739.4002666       -68771537.523477554        475095561.49620545     
   7941873486.8443527       -154670100.58425951        282373856.28899932     
   8338024071.6967945        2501407221.5090384        1712348184.1252787     
   8021467382.4307909        1424577286.5155292        1275736943.3137937     
   7804921177.6103315        681115633.00716829        956966808.11124170     
   7688385457.2354145        271022260.98395491        756037778.51762307     
   7671860221.3060436        194297170.44589043        672949854.53293717     
   6810766418.5762100        2043229925.5728629        1353788161.1018593     
   6828477841.0025578        1395487781.8981268        1202782844.4463236     
   6897559188.5034313        918978721.80512810        1092045479.3331790     
   7018010461.0788212        613702745.29386520        1021576065.7624278     
   7189831658.7287331        479659852.36433959        991374603.73406768     
   5958043800.6056662        1787413140.1816998        1150066166.1004088     
   6088385751.6771097        1502267512.9115598        1227919454.3346281     
   6221457068.4520521        1226219771.3197451        1268467540.0446982     
   6357257750.9304905        959269915.40625501        1271710423.2306194     
   6495787799.1124268        701417945.17109036        1237648103.8923907     
   7999871455.3436613       -567241960.72610950       -180353390.99774474     
   7917348038.7631760       -199880304.20390034       -78548178.741069511     
   7793297460.5281448        29057480.136488914       -9147917.9574200138     
   7627719720.6385660        119571392.29504871        27847391.353203524     
   7420614819.0944366        71661432.271783352        32437749.190799899     
   7941873486.8443527       -154670100.58425951        282373856.28899932     
   7739435097.8914995        16581069.729139328        280997782.52390486     
   7513573230.5901718        109753978.88093424        265040639.83974075     
   7264287884.9403563        124848626.87111807        234502428.23650900     
   6991579060.9420605        61865013.699697495        189383147.71421224     
   7671860221.3060436        194297170.44589043        672949854.53293717     
   7400432238.7064238        184715468.16816044        589513458.60314643     
   7123684461.0643921        157401115.74904251        509319876.30824691     
   6841616888.3799410        112354113.18853021        432369107.64823800     
   6554229520.6530724        49574460.486627579        358661152.62312227     
   7189831658.7287331        479659852.36433959        991374603.73406768     
   6900339461.2079468        304522891.11315966        846998849.49665737     
   6623631151.9508057        171998890.74080634        723689791.44809759     
   6359706730.9573126        82087851.247275829        621447429.58838773     
   6108566198.2274675        34789772.632572651        540271763.91752827     
   6495787799.1124268        701417945.17109036        1237648103.8923907     
   6239156765.3960648        376003338.56413746        1053453955.2044376     
   6013413303.2494144        153547303.85622787        908150385.25929308     
   5818557412.6724777        34049841.047359943        801737394.05695808     
   5654589093.6652527        17510950.137535095        734214981.59743059     
   7420614819.0944366        71661432.271783352        32437749.190799899     
   7218456254.3329802       -19104938.716703415        15408677.156211320     
   7028589480.6766014       -68898672.688255310        2253225.0250912192     
   6851014498.1253052       -77719769.642875195       -7028607.2025656868     
   6685731306.6790905       -45568229.580549717       -12436819.526762122     
   6991579060.9420605        61865013.699697495        189383147.71421224     
   6808220150.8328753        2172005.0439014435        181005799.32550493     
   6632780739.0824299       -31122675.749423504        176045327.91983402     
   6465260825.6907282       -38019028.680270433        174501733.49722177     
   6305660410.6577682       -18517053.748651743        176375016.05765200     
   6554229520.6530724        49574460.486627579        358661152.62312227     
   6388365285.4235382        20563320.231737137        353834519.67622471     
   6226048255.8064108        3376198.6848585606        351968020.79195434     
   6067278431.8016863       -1986904.1540083885        353061655.97031987     
   5912055813.4093599        4474011.7151298523        357115425.21131611     
   6108566198.2274675        34789772.632572651        540271763.91752827     
   5958891658.1049747        36069006.846804857        533894838.20837957     
   5808392030.8485451        34597950.614583015        530021303.64144737     
   5657067316.4581842        30376603.935911894        528651160.21673191     
   5504917514.9338808        23404966.810787439        529784407.93422908     
   5654589093.6652527        17510950.137535095        734214981.59743059     
   5519799268.8771820        48689064.889103889        721186754.92197156     
   5379812064.2088366        62542580.039756060        710205176.46831048     
   5234627479.6602173        59071495.589495897        701270246.23645031     
   5084245515.2313232        38275811.538319349        694381964.22638917     
   6685731306.6790905       -45568229.580549717       -12436819.526762122     
   6512718159.0773134       -4938844.9939818382       -6059070.2404409535     
   6334532010.2853575        18447202.291971684        2152929.9473886760     
   6151172860.3032141        24589912.277313471        12199181.036706910     
   5962640709.1308813        13489284.962017775        24079683.027531043     
   6305660410.6577682       -18517053.748651743        176375016.05765200     
   6133474516.5718689        4068776.3466858864        173582819.43362492     
   5957891870.6412401        15332100.292933226        173756617.95675159     
   5778912472.8658867        15272918.090096235        176896411.62702355     
   5596536323.2458086        3891229.7381668091        183002200.44444764     
   5912055813.4093599        4474011.7151298523        357115425.21131611     
   5743930727.8269081        9986353.8154909611        347225573.57997805     
   5574185139.7451916        10097020.918305874        341433461.34144062     
   5402819049.1642065        4806013.0235760212        339739088.49570775     
   5229832456.0839643       -5886669.8686988354        342142455.04277158     
   5504917514.9338808        23404966.810787439        529784407.93422908     
   5344086792.8424492        12813887.412452221        514869192.19861782     
   5183411817.5972137        2741964.1681077480        505183460.10145766     
   5022892589.1981745       -6810802.9222476482        500727211.64274889     
   4862529107.6453342       -15844413.858611345        501500446.82249379     
   5084245515.2313232        38275811.538319349        694381964.22638917     
   4933942711.6184864        12551377.137557983        676513675.28954136     
   4785571904.1973066       -6733069.9576725960        665006614.23679292     
   4639133092.9677849       -19577529.747384071        659860781.06815445     
   4494626277.9299202       -25982002.231561184        661076175.78361666     
   5962640709.1308813        13489284.962017775        24079683.027531043     
   5781573386.9088840        427152.99224734306        16443252.249226380     
   5602909206.5323048       -4624506.1594796181        12905179.638098007     
   5426648168.0011215       -1665692.4932019711        13465465.194146562     
   5252790271.3153582        9303593.9911265373        18124108.917373970     
   5596536323.2458086        3891229.7381668091        183002200.44444764     
   5426650651.9635305       -6241080.3364739418        177442764.04330435     
   5258514854.3562574       -10540478.161101103        175710126.68357962     
   5092128930.4239960       -9006963.7356951237        177804288.36527935     
   4927492880.1667385       -1640537.0602591038        183725249.08840114     
   5229832456.0839643       -5886669.8686988354        342142455.04277158     
   5070352552.5249529       -13321923.013169765        337897866.81998551     
   4911969254.4705477       -17101824.475610971        337208518.51286530     
   4754682561.9207525       -17226374.256026506        340074410.12141472     
   4598492474.8755684       -13695572.354403496        346495541.64563036     
   4862529107.6453342       -15844413.858611345        501500446.82249379     
   4712679088.5931501       -20815375.037832975        497808560.57926786     
   4563272406.8751755       -24308545.103027821        497400355.12595606     
   4414309062.4914103       -26323924.054182529        500275830.46254969     
   4265789055.4418554       -26861511.891314507        506434986.58906078     
   4494626277.9299202       -25982002.231561184        661076175.78361666     
   4353630260.1681213       -28721436.410465479        657174845.32114887     
   4212424311.5701327       -32160640.043337345        656285636.52284074     
   4071008432.1359529       -36299613.130183220        658408549.38868523     
   3929382621.8655849       -41138355.670988798        663543583.91868961     
   5252790271.3153582        9303593.9911265373        18124108.917373970     
   5059261662.8483601        18772201.980574369        11584813.564854328     
   4866231364.2103548        29901842.733351946        9222283.6878140215     
   4673699375.4013510        42692516.249451637        11036519.286232555     
   4481665696.4213381        57144222.528864622        17027520.360138111     
   4927492880.1667385       -1640537.0602591038        183725249.08840114     
   4744004490.5563393        3366049.3908026218        176627164.74638313     
   4560939322.8192272        9783375.4195029736        174105257.48129168     
   4378297376.9554014        17611441.025824070        176159527.29312581     
   4196078652.9648690        26850246.209786892        182789974.18187308     
   4598492474.8755684       -13695572.354403496        346495541.64563036     
   4426185480.1259184       -12808654.640477180        338751065.69911659     
   4254226619.2938476       -10761290.534627438        335982178.43098497     
   4082615892.3793583       -7553480.0368244648        338188879.84122831     
   3911353299.3824511       -3185223.1470987797        345371169.92985272     
   4265789055.4418554       -26861511.891314507        506434986.58906078     
   4105804631.5571022       -29751910.113285303        497956516.42306405     
   3946093253.6342278       -31732155.129010439        494853046.53689569     
   3786654921.6732168       -32802246.938512802        497124576.93055940     
   3627489635.6740847       -32962185.541757107        504771107.60405231     
   3929382621.8655849       -41138355.670988798        663543583.91868961     
   3782861944.8498888       -47463717.027608871        654243516.91821361     
   3636539225.8403559       -53129218.363686085        650717861.79901993     
   3490414464.8369918       -58134859.679207325        652966618.56110966     
   3344487661.8397827       -62480640.974199533        660989787.20448995     
   4481665696.4213381        57144222.528864622        17027520.360138111     
   4324402454.7781038        71878860.168028116        26459028.068562049     
   4159949782.5313845        62648729.128931999        38047804.997780003     
   3988307679.6811814        29453829.411540270        51793851.147786200     
   3809476146.2275119       -27705838.984063387        67697166.518587708     
   4196078652.9648690        26850246.209786892        182789974.18187308     
   4043200896.6249270        36499643.330437422        184970997.52695900     
   3884366930.4830561        26295007.777981281        189541718.92727765     
   3719576754.5392394       -3763660.4476175308        196502138.38284376     
   3548830368.7934718       -53676361.346385479        205852255.89366817     
   3911353299.3824511       -3185223.1470987797        345371169.92985272     
   3763525110.7299705        1578158.1703290939        341740466.51337320     
   3610973933.0770984       -9401757.1802523136        340731889.98658818     
   3453699766.4238067       -36124969.198875904        342345440.34951627     
   3291702610.7701144       -78591477.885515928        346581117.60214818     
   3627489635.6740847       -32962185.541757107        504771107.60405231     
   3485375097.0932350       -32885595.312314749        496767435.02780372     
   3339770790.3135118       -44441565.745764494        491618318.17571330     
   3190676715.3349099       -67630096.842153311        489323757.04778254     
   3038092872.1574402       -102451188.60143530        489883751.64400434     
   3344487661.8397827       -62480640.974199533        660989787.20448995     
   3208750855.7147069       -66891617.117492914        650051903.07026744     
   3070757502.1922936       -78824417.918584228        642201003.49465275     
   2930507601.2725401       -98279043.377465487        637437088.47765446     
   2788001152.9554491       -125255493.49415255        635760158.01926446     
   3809476146.2275119       -27705838.984063387        67697166.518587708     
   3598984562.7374201       -35130547.235723734       -8505332.4980680719     
   3434737118.7441120        111591876.16854036       -76318672.930060402     
   3316733814.2476101        412461431.22882915       -135742854.77737263     
   3244974649.2478733        867478117.94501495       -186777878.04003164     
   3548830368.7934718       -53676361.346385479        205852255.89366817     
   3355894290.1974344       -71338984.233829021        175839749.28644088     
   3194567379.1174560        16362284.598906517        153304914.31361270     
   3064849635.5535212        209427445.15178502        138247750.97519261     
   2966741059.5056229        507856497.42480606        130668259.27116139     
   3291702610.7701144       -78591477.885515928        346581117.60214818     
   3113717788.6388135       -107273289.93750870        345684469.42681897     
   2952707162.0428219       -79374450.205155969        351354005.93561876     
   2808670730.9821386        5105041.3115755320        363589727.12856841     
   2681608495.4567580        146165184.61263967        382391633.00564009     
   3038092872.1574402       -102451188.60143530        489883751.64400434     
   2872455058.0615473       -142933464.34679031        501028827.92304468     
   2709156467.5202174       -175618328.24358535        517828601.93595266     
   2548197100.5334582       -200505780.29183459        540283073.68273568     
   2389576957.1012583       -217595820.49153054        568392243.16338968     
   2788001152.9554491       -125255493.49415255        635760158.01926446     
   2632106098.4656281       -178319507.46166086        641872824.77513254     
   2463915295.5496383       -272369349.51640952        652728702.31460607     
   2283428744.2074666       -407405019.65842903        668327790.63770020     
   2090646444.4391234       -583426517.88769138        688670089.74438262     
   5958043800.6056662        1787413140.1816998        1150066166.1004088     
   6088385751.6771097        1502267512.9115598        1227919454.3346281     
   6221457068.4520521        1226219771.3197451        1268467540.0446982     
   6357257750.9304905        959269915.40625501        1271710423.2306194     
   6495787799.1124268        701417945.17109036        1237648103.8923907     
   5434585664.1020365        1630375699.2306108        1033499188.8713392     
   5489845109.8822527        1372518544.9159997        1113900182.7282739     
   5547297221.3551769        1121970276.2437515        1167553265.8955975     
   5606941998.5208101        878730893.21386600        1194458438.3733115     
   5668779441.3791523        642800395.82634401        1194615700.1614151     
   4895121455.3821945        1468536436.6146584        936404219.16506171     
   4905462086.8270063        1247016862.5423234        1018726768.6321249     
   4917458683.9537382        1031017174.0763887        1084858699.2441168     
   4931111246.7623920        820537371.21685588        1134800011.0010364     
   4946419775.2529640        615577453.96372378        1168550703.9028845     
   4339651174.4461403        1301895352.3338420        858781256.98157680     
   4335236682.5113726        1125762465.7905302        942399212.04618180     
   4331941456.2477379        953360464.81765795        1020383840.0902543     
   4329765495.6552343        784689349.41522396        1092735141.1137938     
   4328708800.7338629        619749119.58322906        1159453115.1167994     
   3768174821.2938738        1130452446.3881621        800630302.32088387     
   3779168896.9353528        1008755354.6606213        884917512.97044432     
   3790745538.2371745        889000148.46755767        974128688.43401027     
   3802904745.1993394        771186827.80897081        1068263828.7115823     
   3815646517.8218470        655315392.68486094        1167322933.8031597     
   6495787799.1124268        701417945.17109036        1237648103.8923907     
   6239156765.3960648        376003338.56413746        1053453955.2044376     
   6013413303.2494144        153547303.85622787        908150385.25929308     
   5818557412.6724777        34049841.047359943        801737394.05695808     
   5654589093.6652527        17510950.137535095        734214981.59743059     
   5668779441.3791523        642800395.82634401        1194615700.1614151     
   5518804669.1931562        383278199.41169381        1073681519.1029946     
   5392979186.5800610        204253634.90671134        980694096.58843899     
   5291302993.5398655        105726702.31139398        915653432.61774743     
   5213776090.0725708        87697401.625744820        878559527.19092238     
   4946419775.2529640        615577453.96372378        1168550703.9028845     
   4871833206.8860674        412567250.42799520        1103015161.4777145     
   4814657646.0952587        267593738.81255889        1054482557.3974673     
   4774893092.8805370        180656919.11741304        1022952891.6621399     
   4752539547.2419014        151756791.34255886        1008426164.2717344     
   4328708800.7338629        619749119.58322906        1159453115.1167994     
   4298242378.4747963        463870491.61304235        1141454882.3286002     
   4278448681.7950063        343567615.57377183        1129515767.6863780     
   4269327710.6944900        258840491.46541739        1123635771.1901343     
   4270879465.1732483        209689119.28797865        1123814892.8398666     
   3815646517.8218470        655315392.68486094        1167322933.8031597     
   3798032183.9593458        537187922.96683609        1189000681.6556485     
   3784352293.6793051        432175265.19034994        1205793727.4551713     
   3774606846.9817271        340277419.35540521        1217702071.2017274     
   3768795843.8666110        261494385.46200061        1224725712.8953178     
   5654589093.6652527        17510950.137535095        734214981.59743059     
   5519799268.8771820        48689064.889103889        721186754.92197156     
   5379812064.2088366        62542580.039756060        710205176.46831048     
   5234627479.6602173        59071495.589495897        701270246.23645031     
   5084245515.2313232        38275811.538319349        694381964.22638917     
   5213776090.0725708        87697401.625744820        878559527.19092238     
   5077008700.5695724        85410746.206771374        855208545.12817848     
   4938189685.9403019        76285340.366889238        836012350.48688972     
   4797319046.1847591        60321184.106096745        820970943.26706111     
   4654396781.3029423        37518277.424397469        810084323.46868885     
   4752539547.2419014        151756791.34255886        1008426164.2717344     
   4619817847.8801403        117812342.20989037        978422474.03470743     
   4488190278.1461096        87514991.836320400        954681710.41879618     
   4357656838.0398092        60864740.221848965        937203873.42399859     
   4228217527.5612416        37861587.366478920        925988963.05032027     
   4270879465.1732483        209689119.28797865        1123814892.8398666     
   4148226710.8088913        145893852.89846277        1090828541.6415584     
   4029813840.8262663        96231534.448058844        1066213256.2640254     
   3915640855.2253714        60702163.936753273        1049969036.7072648     
   3805707754.0062089        39305741.364558935        1042095882.9712765     
   3768795843.8666110        261494385.46200061        1224725712.8953178     
   3662235289.3558226        169655278.27249408        1192426747.9487321     
   3563060373.9807658        102434968.20209765        1170606988.0225797     
   3471271097.7414441        59833455.250813246        1159266433.1168573     
   3386867460.6378598        41850739.418647289        1158405083.2315674     
   5084245515.2313232        38275811.538319349        694381964.22638917     
   4933942711.6184864        12551377.137557983        676513675.28954136     
   4785571904.1973066       -6733069.9576725960        665006614.23679292     
   4639133092.9677849       -19577529.747384071        659860781.06815445     
   4494626277.9299202       -25982002.231561184        661076175.78361666     
   4654396781.3029423        37518277.424397469        810084323.46868885     
   4521403938.8298960        17164552.870873928        795297174.42718565     
   4390113505.2670040        2485524.6845314503        786224757.64436293     
   4260525480.6142583       -6518807.1346511841        782867073.12022328     
   4132639864.8716650       -9848442.5866606236        785224120.85475695     
   4228217527.5612416        37861587.366478920        925988963.05032027     
   4110687515.8696327        22324433.552693605        914015102.07573962     
   3994630325.8066707        11696685.167724848        907109477.73441195     
   3880045957.3723493        5978342.2115619183        905272090.02634299     
   3766934410.5666723        5169404.6842164993        908502938.95153117     
   3805707754.0062089        39305741.364558935        1042095882.9712765     
   3701793442.7376885        28031019.183008194        1032667458.2351925     
   3599122365.8163009        20900411.491904020        1027660774.5069385     
   3497694523.2420526        17913918.291261435        1027075831.7865199     
   3397509915.0149393        19071539.581071138        1030912630.0739332     
   3386867460.6378598        41850739.418647289        1158405083.2315674     
   3294721719.4340672        34284309.761815906        1151254242.9055519     
   3203589625.2959051        30096703.657082558        1147878647.9619460     
   3113471178.2233725        29287921.104447842        1148278298.4007506     
   3024366378.2164698        31857962.103908420        1152453194.2219639     
   4494626277.9299202       -25982002.231561184        661076175.78361666     
   4353630260.1681213       -28721436.410465479        657174845.32114887     
   4212424311.5701327       -32160640.043337345        656285636.52284074     
   4071008432.1359529       -36299613.130183220        658408549.38868523     
   3929382621.8655849       -41138355.670988798        663543583.91868961     
   4132639864.8716650       -9848442.5866606236        785224120.85475695     
   4000423564.1522841       -12209360.691219330        780098890.10407817     
   3868000188.2637300       -15260529.359682798        778627816.32009757     
   3735369737.2060070       -19001948.592041016        780810899.50281358     
   3602532210.9791188       -23433618.388295412        786648139.65223324     
   3766934410.5666723        5169404.6842164993        908502938.95153117     
   3645332213.4683948        3737318.6276035309        902157139.52416158     
   3523525796.8679705        1624500.8971641064        900107532.36603129     
   3401515160.7654023       -1169048.5071001053        902354117.47714710     
   3279300305.1606798       -4643329.5851955414        908896894.85749853     
   3397509915.0149393        19071539.581071138        1030912630.0739332     
   3288356208.1164651        19118601.546022773        1023349593.5813978     
   3179001137.3828616        18494450.727206469        1020724784.6606476     
   3069444702.8141360        17199087.124649048        1023038203.3116825     
   2959686904.4102783        15232510.738321424        1030289849.5344958     
   3024366378.2164698        31857962.103908420        1152453194.2219639     
   2929495548.0964856        33934488.064017653        1143676252.2757907     
   2834426209.8083959        35349320.130440831        1140479573.2039397     
   2739158363.3522019        36102458.303186059        1142863157.0064209     
   2643692008.7279010        36193902.582238913        1150827003.6832221     
   3929382621.8655849       -41138355.670988798        663543583.91868961     
   3782861944.8498888       -47463717.027608871        654243516.91821361     
   3636539225.8403559       -53129218.363686085        650717861.79901993     
   3490414464.8369918       -58134859.679207325        652966618.56110966     
   3344487661.8397827       -62480640.974199533        660989787.20448995     
   3602532210.9791188       -23433618.388295412        786648139.65223324     
   3470865907.0005770       -27601894.484168530        778506897.08302367     
   3339348674.0324397       -31273267.212021589        775519894.52401841     
   3207980512.0747156       -34447736.571833253        777687131.97521257     
   3076761421.1273999       -37125302.563615799        785008609.43660402     
   3279300305.1606798       -4643329.5851955414        908896894.85749853     
   3160716454.5876260       -7186096.3098211288        901857441.89117992     
   3042232788.0292253       -9394916.3189326525        899352057.06397986     
   2923849305.4854774       -11269789.612541080        901380740.37589884     
   2805566006.9563842       -12810716.190626979        907943491.82693040     
   2959686904.4102783        15232510.738321424        1030289849.5344958     
   2852413587.6110392        13783677.495429397        1024295151.3426886     
   2745191567.8307061        12505834.315557957        1022214349.4189112     
   2638020845.0692654        11398981.198662639        1024047443.7631646     
   2530901419.3267269        10463118.144771814        1029794434.3754586     
   2643692008.7279010        36193902.582238913        1150827003.6832221     
   2545957306.0708199        35307426.931605220        1145820025.4375362     
   2448225013.4368834        34428984.691456676        1144106771.5888081     
   2350495130.8260851        33558575.861765265        1145687242.1370275     
   2252767658.2384372        32696200.442581177        1150561437.0821943     
   3344487661.8397827       -62480640.974199533        660989787.20448995     
   3208750855.7147069       -66891617.117492914        650051903.07026744     
   3070757502.1922936       -78824417.918584228        642201003.49465275     
   2930507601.2725401       -98279043.377465487        637437088.47765446     
   2788001152.9554491       -125255493.49415255        635760158.01926446     
   3076761421.1273999       -37125302.563615799        785008609.43660402     
   2950383331.4994464       -39020522.442007899        771417804.68074131     
   2823414442.7627831       -42885072.682760954        761358468.91830313     
   2695854754.9174194       -48718953.285853386        754830602.14929414     
   2567704267.9633493       -56522164.251293182        751834204.37371278     
   2805566006.9563842       -12810716.190626979        907943491.82693040     
   2689816589.3535924       -11809193.145709395        893643139.45283079     
   2575142120.9307313       -7224506.1676907539        883318740.50697470     
   2461542601.6877975        943344.74342167377        876970294.98936021     
   2349018031.6247892        12694359.587622881        874597802.89999151     
   2530901419.3267269        10463118.144771814        1029794434.3754586     
   2427050629.2771473        14742370.771422863        1016727907.3865335     
   2325940536.6961250        28157281.626601696        1008081818.2606629     
   2227571141.5836730        50707850.710339427        1003856166.9978542     
   2131942443.9397793        82394078.022616625        1004050953.5981036     
   2252767658.2384372        32696200.442581177        1150561437.0821943     
   2162085451.2701077        40634169.309360027        1140672108.4818439     
   2075809690.0589809        63260290.700147748        1135647702.1793718     
   1993940374.6050439        100574564.61490607        1135488218.1747737     
   1916477504.9083073        152576991.05365825        1140193656.4680462     
   2788001152.9554491       -125255493.49415255        635760158.01926446     
   2632106098.4656281       -178319507.46166086        641872824.77513254     
   2463915295.5496383       -272369349.51640952        652728702.31460607     
   2283428744.2074666       -407405019.65842903        668327790.63770020     
   2090646444.4391234       -583426517.88769138        688670089.74438262     
   2567704267.9633493       -56522164.251293182        751834204.37371278     
   2432108117.8802752       -79153361.636177421        746391335.63870454     
   2288798841.0944347       -127494981.36360979        744796840.29852664     
   2137776437.6058261       -201547023.43359518        747050718.35316241     
   1979040907.4144607       -301309487.84614873        753152969.80262852     
   2349018031.6247892        12694359.587622881        874597802.89999151     
   2231164107.6947842        19728975.309267998        862945790.68476057     
   2110179678.7854142        16328574.433050990        854247314.47556221     
   1986064744.8966916        2493156.9589817524        848502374.27240372     
   1858819306.0286095       -21777277.112955689        845710970.07526445     
   2131942443.9397793        82394078.022616625        1004050953.5981036     
   2029274067.9091561        118327503.37467408        991536189.91329098     
   1928057808.6225798        159101317.87357450        981080124.84572685     
   1828293666.0800564        204715521.51930630        972682758.39540625     
   1729981640.2815926        255170114.31188428        966344090.56232655     
   1916477504.9083073        152576991.05365825        1140193656.4680462     
   1826437998.5233848        216642222.56003374        1132162533.3242955     
   1742433230.6059222        300823248.95793605        1125295271.4090018     
   1664463201.1559298        405120070.24739784        1119591870.7221646     
   1592527910.1733866        529532686.42836750        1115052331.2637918     
   3768174821.2938738        1130452446.3881621        800630302.32088387     
   3779168896.9353528        1008755354.6606213        884917512.97044432     
   3790745538.2371745        889000148.46755767        974128688.43401027     
   3802904745.1993394        771186827.80897081        1068263828.7115823     
   3815646517.8218470        655315392.68486094        1167322933.8031597     
   3207818617.1542511        962345585.14627540        756784585.02767658     
   3235974392.5793853        868235261.39550304        853122917.56968212     
   3263841245.7242079        773161863.37702620        951372415.59816241     
   3291419176.5887198        677125391.09084499        1051533079.1131173     
   3318708185.1729193        580125844.53695869        1153604908.1145465     
   2685708783.2561312        805712634.97683930        722077334.94664776     
   2722418260.3862591        736606679.77923691        829450053.45033503     
   2757967327.2954221        663632690.51174879        935721138.11296570     
   2792355983.9836197        586790667.17437530        1040890588.9345399     
   2825584230.4508505        506080609.76711506        1144958405.9150581     
   2201845319.5995121        660553595.87985361        696508552.07779753     
   2238500500.3559747        613869609.81182349        813898920.61240315     
   2273123782.9508181        560412629.87172627        927174855.97842109     
   2305715167.3840408        500182656.05956143        1036336358.1758512     
   2336274653.6556430        433179688.37532943        1141383427.2046943     
   1756228226.1843944        526868467.85531837        680078236.42112589     
   1784221112.4885318        500024051.49326229        806469519.05588603     
   1809310612.6903946        463501681.45695776        925733569.19452751     
   1831496726.7899828        417301357.74640453        1037870386.8370507     
   1850779454.7872958        361423080.36160183        1142879971.9834554     
   3815646517.8218470        655315392.68486094        1167322933.8031597     
   3798032183.9593458        537187922.96683609        1189000681.6556485     
   3784352293.6793051        432175265.19034994        1205793727.4551713     
   3774606846.9817271        340277419.35540521        1217702071.2017274     
   3768795843.8666110        261494385.46200061        1224725712.8953178     
   3318708185.1729193        580125844.53695869        1153604908.1145465     
   3293978793.9765244        472819534.29878557        1182018847.7164216     
   3273032010.4999285        378121916.45994556        1207347177.6959949     
   3255867834.7431321        296032991.02043569        1229589898.0532653     
   3242486266.7061372        226552757.98026240        1248747008.7882349     
   2825584230.4508505        506080609.76711506        1144958405.9150581     
   2798880046.0081744        411137538.23507762        1179931395.4265466     
   2775806633.4226370        328297039.56016433        1213617867.7463975     
   2756363992.6942368        257559113.74237800        1246017822.8746102     
   2740552123.8229733        198923760.78171611        1277131260.8111861     
   2336274653.6556430        433179688.37532943        1141383427.2046943     
   2312735940.0542989        352141934.77571052        1182738324.7860236     
   2292676162.4474301        282700634.49101114        1224605797.6063800     
   2276095320.8350372        224855787.52122772        1266985845.6657622     
   2262993415.2171187        178607393.86636400        1309878468.9641716     
   1850779454.7872958        361423080.36160183        1142879971.9834554     
   1835546476.1148961        295832723.92068768        1190439635.7948525     
   1823640597.5743084        241332701.25248063        1240310967.2759416     
   1815061819.1655347        197923012.35698670        1292493966.4267211     
   1809810140.8885736        165603657.23420244        1346988633.2471917     
   3768795843.8666110        261494385.46200061        1224725712.8953178     
   3662235289.3558226        169655278.27249408        1192426747.9487321     
   3563060373.9807658        102434968.20209765        1170606988.0225797     
   3471271097.7414441        59833455.250813246        1159266433.1168573     
   3386867460.6378598        41850739.418647289        1158405083.2315674     
   3242486266.7061372        226552757.98026240        1248747008.7882349     
   3165370476.4505558        152624754.09514070        1231503520.3305926     
   3094146251.5437231        98335301.372512817        1222297313.9785903     
   3028813591.9856367        63684399.812371731        1221128389.7322278     
   2969372497.7762966        48672049.414721727        1227996747.5915043     
   2740552123.8229733        198923760.78171611        1277131260.8111861     
   2685904175.2089105        140813783.41687655        1273200162.7576692     
   2635653718.1566062        97362111.257904410        1274864423.8950000     
   2589800752.6660633        68568744.304799557        1282124044.2231784     
   2548345278.7372804        54433682.557562590        1294979023.7422025     
   2262993415.2171187        178607393.86636400        1309878468.9641716     
   2223836385.6308813        134222366.23769760        1317516675.2299626     
   2187582773.8194175        99515397.858275771        1328308317.7718077     
   2154232579.7827272        74486488.728100061        1342253396.5897083     
   2123785803.5208101        59135638.847167611        1359351911.6836648     
   1809810140.8885736        165603657.23420244        1346988633.2471917     
   1779167107.7164702        132850502.55760086        1364453057.7474704     
   1749933418.5321548        104795161.17362440        1382628995.6090136     
   1722109073.3356242        81437633.082267225        1401516446.8318191     
   1695694072.1268816        62777918.283533633        1421115411.4158888     
   3386867460.6378598        41850739.418647289        1158405083.2315674     
   3294721719.4340672        34284309.761815906        1151254242.9055519     
   3203589625.2959051        30096703.657082558        1147878647.9619460     
   3113471178.2233725        29287921.104447842        1148278298.4007506     
   3024366378.2164698        31857962.103908420        1152453194.2219639     
   2969372497.7762966        48672049.414721727        1227996747.5915043     
   2886342150.0328131        37150879.035774469        1221015755.1798787     
   2804388120.0695596        29217434.590933323        1218183990.9834909     
   2723510407.8865361        24871716.080186844        1219501455.0023415     
   2643709013.4837399        24113723.503534317        1224968147.2364280     
   2548345278.7372804        54433682.557562590        1294979023.7422025     
   2475498846.8336134        39278328.170355320        1288240995.0786679     
   2403791403.4247770        27919602.099249601        1286026177.4631982     
   2333222948.5107713        20357504.344244599        1288334570.8957956     
   2263793482.0915961        16592034.905343056        1295166175.3764601     
   2123785803.5208101        59135638.847167611        1359351911.6836648     
   2062191809.8364704        40666657.165552855        1352929962.6019192     
   2001799475.3615618        26203206.182038665        1351405207.4010696     
   1942608800.0960853        15745285.896632433        1354777646.0811160     
   1884619784.0400383        9292896.3093266487        1363047278.6420543     
   1695694072.1268816        62777918.283533633        1421115411.4158888     
   1646421039.0413795        41315866.021358907        1415082657.7496369     
   1598412335.8799105        24068246.839296758        1414321080.7971060     
   1551667962.6424704        11035060.737331212        1418830680.5582995     
   1506187919.3290656        2216307.7154822350        1428611457.0332167     
   3024366378.2164698        31857962.103908420        1152453194.2219639     
   2929495548.0964856        33934488.064017653        1143676252.2757907     
   2834426209.8083959        35349320.130440831        1140479573.2039397     
   2739158363.3522019        36102458.303186059        1142863157.0064209     
   2643692008.7279010        36193902.582238913        1150827003.6832221     
   2643709013.4837399        24113723.503534317        1224968147.2364280     
   2562413498.5766129        24658147.163891792        1216198319.5733831     
   2481195942.1892433        25462432.556766152        1212644341.2689235     
   2400056344.3216228        26526579.682139635        1214306212.3230479     
   2318994704.9737573        27850588.540030479        1221183932.7357612     
   2263793482.0915961        16592034.905343056        1295166175.3764601     
   2195032100.9237852        15292001.823884606        1286726006.4657121     
   2126625144.9635859        15173386.101130009        1283137273.3978097     
   2058572614.2109981        16236187.737082839        1284399976.1727493     
   1990874508.6660230        18480406.731739879        1290514114.7905366     
   1884619784.0400383        9292896.3093266487        1363047278.6420543     
   1827351355.1379976        5836052.0439878702        1355259312.9527729     
   1770713818.1314254        4482180.7635463476        1351958369.5905952     
   1714707173.0203249        5231282.4680080414        1353144448.5555205     
   1659331419.8046956        8083357.1573754549        1358817549.8475504     
   1506187919.3290656        2216307.7154822350        1428611457.0332167     
   1459371261.2192507       -3709702.1758000851        1421798239.0345685     
   1413461961.6927633       -6611183.4559857845        1419107629.8472848     
   1368460020.7496037       -6488136.1250804663        1420539629.4713635     
   1324365438.3897748       -3340560.1830736399        1426094237.9068058     
   2643692008.7279010        36193902.582238913        1150827003.6832221     
   2545957306.0708199        35307426.931605220        1145820025.4375362     
   2448225013.4368834        34428984.691456676        1144106771.5888081     
   2350495130.8260851        33558575.861765265        1145687242.1370275     
   2252767658.2384372        32696200.442581177        1150561437.0821943     
   2318994704.9737573        27850588.540030479        1221183932.7357612     
   2230548463.7147298        27170141.167830110        1215270985.1498518     
   2142163334.9315040        26693402.048299909        1213161738.4858654     
   2053839318.6240814        26420371.181457877        1214856192.7437880     
   1965576414.7924652        26351048.567284465        1220354347.9236267     
   1990874508.6660230        18480406.731739879        1290514114.7905366     
   1913173804.5906599        18443110.373658419        1283763684.0591767     
   1835592915.4437587        18805197.110450387        1281326930.7746980     
   1758131841.2253196        19566666.942113042        1283203854.9370935     
   1680790581.9353430        20727519.868649602        1289394456.5463688     
   1659331419.8046956        8083357.1573754549        1358817549.8475504     
   1593833328.6986074        9126334.5490932465        1351298122.1655080     
   1528513754.9736435        10764369.877886534        1348602348.4553044     
   1463372698.6297979        12997463.143745303        1350730228.7169437     
   1398410159.6670744        15825614.346672416        1357681762.9504256     
   1324365438.3897748       -3340560.1830736399        1426094237.9068058     
   1272527036.0385759       -780186.30586570501        1417874299.4688413     
   1220925853.5211558        2570920.3506039977        1414987991.5276909     
   1169561890.8375161        6712759.7863435745        1417435314.0833399     
   1118435147.9876542        11645332.001343071        1425216267.1357951     
   2252767658.2384372        32696200.442581177        1150561437.0821943     
   2162085451.2701077        40634169.309360027        1140672108.4818439     
   2075809690.0589809        63260290.700147748        1135647702.1793718     
   1993940374.6050439        100574564.61490607        1135488218.1747737     
   1916477504.9083073        152576991.05365825        1140193656.4680462     
   1965576414.7924652        26351048.567284465        1220354347.9236267     
   1886882436.0914736        33590855.438009024        1215375279.5604670     
   1811053796.7470105        50381793.497157335        1214914117.2580166     
   1738090496.7590768        76723862.744735420        1218970861.0162711     
   1667992536.1276693        112617063.18073928        1227545510.8352368     
   1680790581.9353430        20727519.868649602        1289394456.5463688     
   1613093356.5383575        26971722.254301608        1287527690.9529548     
   1546720364.0972333        37630034.492830634        1289831815.1830747     
   1481671604.6119685        52702456.584222198        1296306829.2367439     
   1417947078.0825670        72188988.528484166        1306952733.1139538     
   1398410159.6670744        15825614.346672416        1357681762.9504256     
   1340718212.6107635        20776769.758260190        1357129342.6593039     
   1282809392.1096468        25005013.687158287        1360400795.9545603     
   1224683698.1637235        28510346.133368075        1367496122.8361914     
   1166341130.7729905        31292767.096881986        1378415323.3042035     
   1118435147.9876542        11645332.001343071        1425216267.1357951     
   1069757004.3086905        15005997.949869931        1424180234.6795237     
   1019320880.7842520        12506731.080145955        1426621059.5724642     
   967126777.41433930        4147531.3921761513        1432538741.8146167     
   913174694.19894624       -10071601.114060581        1441933281.4059765     
   1916477504.9083073        152576991.05365825        1140193656.4680462     
   1826437998.5233848        216642222.56003374        1132162533.3242955     
   1742433230.6059222        300823248.95793605        1125295271.4090018     
   1664463201.1559298        405120070.24739784        1119591870.7221646     
   1592527910.1733866        529532686.42836750        1115052331.2637918     
   1667992536.1276693        112617063.18073928        1227545510.8352368     
   1576090050.0109761        150503984.47324169        1225239937.4586902     
   1486949748.8248367        197598188.86759400        1226378590.0324440     
   1400571632.5692458        253899676.36379054        1230961468.5564983     
   1316955701.2442174        319408446.96183133        1238988573.0308628     
   1417947078.0825670        72188988.528484166        1306952733.1139538     
   1330696940.0107989        85852197.940127373        1306554730.3782172     
   1242936433.3326774        97814178.663917243        1311881318.3146307     
   1154665558.0482054        108074930.69987643        1322932496.9231889     
   1065884314.1573777        116634454.04798064        1339708266.2038958     
   1166341130.7729905        31292767.096881986        1378415323.3042035     
   1090258668.5228593        22686862.960683525        1376106912.0828822     
   1010393284.1294616        1471218.3469365835        1381803456.2555540     
   926744977.59280467       -32354166.744349122        1395504955.8222251     
   839313748.91288495       -78789292.313162565        1417211410.7828870     
   913174694.19894624       -10071601.114060581        1441933281.4059765     
   854775235.54714704       -38992020.465105593        1433896482.5726821     
   789320301.21517873       -91430692.083379269        1436145003.8552253     
   716809891.20304465       -167387615.96886623        1448678845.2536185     
   637244005.51073873       -266862792.12159526        1471498006.7678428     
   1756228226.1843944        526868467.85531837        680078236.42112589     
   1784221112.4885318        500024051.49326229        806469519.05588603     
   1809310612.6903946        463501681.45695776        925733569.19452751     
   1831496726.7899828        417301357.74640453        1037870386.8370507     
   1850779454.7872958        361423080.36160183        1142879971.9834554     
   1326602406.7407026        397980722.02221078        669701339.88963985     
   1339751394.8910325        375499852.43300313        791850229.32770717     
   1350721580.3586633        345756307.23479873        908700995.73446059     
   1359512963.1435950        308750086.42759752        1020253639.1099004     
   1366125543.2458277        264481190.01139903        1126508159.4540265     
   890712764.99836123        267213829.49950838        662292814.39634669     
   894243882.03718317        250664314.79583907        781044657.96055937     
   896320779.81288171        229267402.54842466        896327487.95826268     
   896943458.32545686        203023092.75726530        1008141304.3894572     
   896111917.57490849        171931385.42236108        1116486107.2541435     
   448559300.95737016        134567790.28721106        657852659.94124615     
   447698573.92698395        125517438.58177002        774052804.95444191     
   446108211.05304980        114034967.39783573        888613045.86593354     
   443788212.33556759        100120376.73540805        1001533382.6757215     
   440738577.77453750        83773666.594487160        1112813815.3838058     
   142014.61772919135        42604.385318757406        656380876.52433836     
   115470.56043447995        59223.790795834757        770874670.30935574     
   83874.079167312040        59001.783031260304        885557669.45747364     
   47225.173927720520        41938.362025252070        1000429873.9686928     
   5523.8447158640583        8033.5277785342178        1115491283.8430126     
   1850779454.7872958        361423080.36160183        1142879971.9834554     
   1835546476.1148961        295832723.92068768        1190439635.7948525     
   1823640597.5743084        241332701.25248063        1240310967.2759416     
   1815061819.1655347        197923012.35698670        1292493966.4267211     
   1809810140.8885736        165603657.23420244        1346988633.2471917     
   1366125543.2458277        264481190.01139903        1126508159.4540265     
   1360572426.2337124        217045924.39875147        1181906137.8113236     
   1357516797.5776064        177935619.97280270        1238248859.5849333     
   1356958657.2775104        147150276.73355258        1295536324.7748563     
   1358898005.3334239        124689894.68100184        1353768533.3810909     
   896111917.57490849        171931385.42236108        1116486107.2541435     
   896333164.35628223        141479561.27794266        1178754519.7522364     
   898222287.71786201        116587325.73421094        1240600751.4132631     
   901779287.65964854        97254678.791167766        1302024802.2372246     
   907004164.18164074        83481620.448811293        1363026672.2241197     
   440738577.77453750        83773666.594487160        1112813815.3838058     
   442828690.48260510        69133634.558259562        1180984781.6175895     
   445757067.99507505        57287818.536706597        1247366642.7609296     
   449523710.31194824        48236218.529830351        1311959398.8138258     
   454128617.43322420        41978834.537630662        1374763049.7762764     
   5523.8447158640583        8033.5277785342178        1115491283.8430126     
   59004.612681492094        8144.2397023975755        1188596923.4073846     
   121138.40924627570        37098.380290503112        1258546533.6279337     
   191925.23441041465        94895.949543278315        1325340114.5046601     
   271365.08817378135        181536.94745945215        1388977666.0375631     
   1809810140.8885736        165603657.23420244        1346988633.2471917     
   1779167107.7164702        132850502.55760086        1364453057.7474704     
   1749933418.5321548        104795161.17362440        1382628995.6090136     
   1722109073.3356242        81437633.082267225        1401516446.8318191     
   1695694072.1268816        62777918.283533633        1421115411.4158888     
   1358898005.3334239        124689894.68100184        1353768533.3810909     
   1333141379.6098919        99318473.088390350        1372646804.4171855     
   1308446223.2844863        77485282.822868884        1392868860.1869183     
   1284812536.3572071        59190323.884431779        1414434700.6902943     
   1262240318.8280540        44433596.273085594        1437344325.9273047     
   907004164.18164074        83481620.448811293        1363026672.2241197     
   887940435.54203844        66033878.830795676        1382912936.1080921     
   869590301.71090317        50964786.574336588        1404775256.0980806     
   851953762.68823349        38274343.679429531        1428613632.1940832     
   835030818.47403049        27962550.146078050        1454428064.3961022     
   454128617.43322420        41978834.537630662        1374763049.7762764     
   443564275.51291174        32996719.784819856        1395251452.8201902     
   433365653.81140578        25233672.428030834        1418348183.3424966     
   423532752.32870555        18689692.467260912        1444053241.3431938     
   414065571.06481135        13364779.902510539        1472366626.8222818     
   271365.08817378135        181536.94745945215        1388977666.0375631     
   12899.522510756251        206995.95046176572        1409662354.5534825     
  -227720.41400601016        291940.38395108806        1433587641.9201689     
  -450494.72137676645        436370.24792711018        1460753528.1376221     
  -655423.39960220782        640285.54238803661        1491160013.2058432     
   1695694072.1268816        62777918.283533633        1421115411.4158888     
   1646421039.0413795        41315866.021358907        1415082657.7496369     
   1598412335.8799105        24068246.839296758        1414321080.7971060     
   1551667962.6424704        11035060.737331212        1418830680.5582995     
   1506187919.3290656        2216307.7154822350        1428611457.0332167     
   1262240318.8280540        44433596.273085594        1437344325.9273047     
   1227774791.9007082        29136679.906215608        1434492592.2515182     
   1194244149.9031093        16956046.638498962        1436337347.5462911     
   1161648392.8352516        7891696.4699204564        1442878591.8116205     
   1129987520.6971383        1943629.4004910588        1454116325.0475090     
   835030818.47403049        27962550.146078050        1454428064.3961022     
   813730832.72436786        18338180.180369288        1454372998.2174497     
   793036286.91016221        10731943.332850695        1458439733.2661874     
   772947181.03141272        5143839.6035194993        1466628269.5423169     
   753463515.08811998        1573868.9923766553        1478938607.0458381     
   414065571.06481135        13364779.902510539        1472366626.8222818     
   404289161.51235688        8920366.8438213468        1474723875.6474252     
   394788746.90107203        5395936.9223636687        1480628237.9567935     
   385564327.23095548        2791490.1381326169        1490079713.7503872     
   376615902.50200719        1107026.4911319017        1503078303.0282085     
  -655423.39960220782        640285.54238803661        1491160013.2058432     
  -550221.73532338790        883239.89657255914        1495545224.5414457     
  -498470.12416252086        948027.40703126648        1502902861.6181107     
  -500168.56611976668        834648.07376275735        1513232924.4358344     
  -555317.06119674945        543101.89676144475        1526535412.9946175     
   1506187919.3290656        2216307.7154822350        1428611457.0332167     
   1459371261.2192507       -3709702.1758000851        1421798239.0345685     
   1413461961.6927633       -6611183.4559857845        1419107629.8472848     
   1368460020.7496037       -6488136.1250804663        1420539629.4713635     
   1324365438.3897748       -3340560.1830736399        1426094237.9068058     
   1129987520.6971383        1943629.4004910588        1454116325.0475090     
   1094381713.2332990       -2820825.3224925995        1448139439.1599689     
   1059401741.4622368       -5499161.0695536137        1446395624.5345161     
   1025047605.3839561       -6091377.8406753540        1448884881.1711519     
   991319304.99845409       -4597475.6358680129        1455607209.0698762     
   753463515.08811998        1573868.9923766553        1478938607.0458381     
   729384165.27232385       -1934348.4616913497        1473469609.8971002     
   705649128.25875592       -4294856.5749996603        1472344146.4611735     
   682258404.04741883       -5507655.3475370109        1475562216.7380583     
   659211992.63831234       -5572744.7793069482        1483123820.7277544     
   376615902.50200719        1107026.4911319017        1503078303.0282085     
   364378617.33632267       -1050271.5934007764        1497788751.2459633     
   352204122.08231807       -2998269.9723335207        1496953195.6272554     
   340092416.73999447       -4736968.6456632018        1500571636.1720812     
   328043501.30935240       -6266367.6133873016        1508644072.8804438     
  -555317.06119674945        543101.89676144475        1526535412.9946175     
  -634930.57470085705       -168594.71761108679        1521096863.2065594     
  -933277.06707859854       -1609401.2615620506        1520222772.0327606     
  -1450356.5383195311       -3779317.7350580250        1523913139.4732215     
  -2186168.9884322900       -6678344.1381250210        1532167965.5279384     
   1324365438.3897748       -3340560.1830736399        1426094237.9068058     
   1272527036.0385759       -780186.30586570501        1417874299.4688413     
   1220925853.5211558        2570920.3506039977        1414987991.5276909     
   1169561890.8375161        6712759.7863435745        1417435314.0833399     
   1118435147.9876542        11645332.001343071        1425216267.1357951     
   991319304.99845409       -4597475.6358680129        1455607209.0698762     
   952774418.79466641       -3236785.7101864219        1447911375.2190013     
   914468595.88690603       -1079218.1310828924        1445384542.6658340     
   876401836.27517414        1875227.1014500856        1448026711.4103775     
   838574139.95946693        5626549.9873979092        1455837881.4526334     
   659211992.63831234       -5572744.7793069482        1483123820.7277544     
   633490253.44166112       -5552849.5472408235        1475954242.1699212     
   608009421.00328755       -4729931.7875838280        1473789035.7107024     
   582769495.32318759       -3103991.5003468394        1476628201.3500988     
   557770476.40136564       -675028.68551638722        1484471739.0881047     
   328043501.30935240       -6266367.6133873016        1508644072.8804438     
   314674539.97956407       -7728377.8170152903        1502002900.3216085     
   301548328.87030053       -8381220.6188986450        1500201470.6622925     
   288664867.98156244       -8224896.0190286785        1503239783.9024942     
   276024157.31334883       -7259404.0174096376        1511117840.0422139     
  -2186168.9884322900       -6678344.1381250210        1532167965.5279384     
  -3672721.5916284071       -9763370.5195250232        1526057349.6740611     
  -4914680.5120512368       -12033084.625013722        1524621847.5206032     
  -5912045.7497057784       -13487486.454608649        1527861459.0675693     
  -6664817.3045815211       -14126576.008273546        1535776184.3149571     
   1118435147.9876542        11645332.001343071        1425216267.1357951     
   1069757004.3086905        15005997.949869931        1424180234.6795237     
   1019320880.7842520        12506731.080145955        1426621059.5724642     
   967126777.41433930        4147531.3921761513        1432538741.8146167     
   913174694.19894624       -10071601.114060581        1441933281.4059765     
   838574139.95946693        5626549.9873979092        1455837881.4526334     
   799283749.06443858        6986193.8811126947        1452920577.6029584     
   758466687.87221503        3256936.7841761410        1454209539.0197482     
   716122956.38279009       -5561221.3034321666        1459704765.7030070     
   672252554.59616852       -19468280.381691337        1469406257.6527257     
   557770476.40136564       -675028.68551638722        1484471739.0881047     
   529951860.91099757       -691200.06039875746        1479943024.9846849     
   500837884.67170948       -5025240.5983470380        1480349984.0649843     
   470428547.68350178       -13677150.299358755        1485692616.3290021     
   438723849.94637543       -26646929.163436651        1495970921.7767363     
   276024157.31334883       -7259404.0174096376        1511117840.0422139     
   261761339.84836629       -8026183.8746685535        1505247576.8247073     
   246434471.18274382       -12339801.067391872        1505042394.7081721     
   230043551.31647605       -20200255.595601663        1510502293.6926074     
   212588580.24956435       -31607547.459289014        1521627273.7780185     
  -6664817.3045815211       -14126576.008273546        1535776184.3149571     
  -5287814.1234558336       -15018757.561697247        1528834233.1230178     
  -4743552.5946933413       -18686744.622998957        1528286770.9493060     
  -5032032.7182952799       -25130537.192181762        1534133797.7938209     
  -6153254.4942583106       -34350135.269234866        1546375313.6565573     
   913174694.19894624       -10071601.114060581        1441933281.4059765     
   854775235.54714704       -38992020.465105593        1433896482.5726821     
   789320301.21517873       -91430692.083379269        1436145003.8552253     
   716809891.20304465       -167387615.96886623        1448678845.2536185     
   637244005.51073873       -266862792.12159526        1471498006.7678428     
   672252554.59616852       -19468280.381691337        1469406257.6527257     
   640435190.52301896       -36991245.788658708        1456574027.8301563     
   605376265.33427572       -65319414.914263606        1451274061.2728398     
   567075779.02993262       -104452787.75854418        1453506357.9807742     
   525533731.60999537       -154391364.32146665        1463270917.9539754     
   438723849.94637543       -26646929.163436651        1495970921.7767363     
   425622703.73592037       -35132203.641099662        1482792827.9568877     
   413093910.97444081       -41709633.288846701        1474393940.5517113     
   401137471.66193569       -46379218.106677443        1470774259.5612054     
   389753385.79840469       -49140958.094592199        1471933784.9853668     
   212588580.24956435       -31607547.459289014        1521627273.7780185     
   210337775.18584836       -33414894.022437647        1512552882.9528916     
   212473238.13567507       -20601347.207109436        1505504641.6918528     
   218994969.09905127        6833092.9867146239        1500482549.9948986     
   229902968.07597515        48888426.559030548        1497486607.8620300     
  -6153254.4942583106       -34350135.269234866        1546375313.6565573     
  -5419595.1271934714       -31839316.932659898        1545854192.8181567     
   3514246.8179845996       -1994556.6690387453        1544606164.6932547     
   20648271.341285441        55184145.521658309        1542631229.2818542     
   45982478.442700200        139696789.63939965        1539929386.5839517     
   142014.61772919135        42604.385318757406        656380876.52433836     
   115470.56043447995        59223.790795834757        770874670.30935574     
   83874.079167312040        59001.783031260304        885557669.45747364     
   47225.173927720520        41938.362025252070        1000429873.9686928     
   5523.8447158640583        8033.5277785342178        1115491283.8430126     
  -448283432.77680373       -134485029.83304110        657868197.83255911     
  -447481634.35060382       -125439158.38150422        774057646.17183661     
  -445952249.16399515       -113967997.72860545        888611402.12468779     
  -443695277.21697819       -100071547.87434486        1001529465.6911120     
  -440710718.50955272       -83749808.818722904        1112811836.8711104     
  -890461379.98247099       -267138413.99474129        662305357.55284393     
  -894045232.64285469       -250627488.56816784        781045206.16149294     
  -896168859.35844874       -229249143.32562953        896324464.63418806     
  -896832260.12925375       -203003378.26712626        1008143132.9709290     
  -896035434.95526898       -171890193.39265808        1116501211.1717162     
  -1326391826.9992726       -397917548.09978175        669692355.68519330     
  -1339575324.3163180       -375505766.76919550        791837350.27832484     
  -1350565956.5041935       -345784435.00804126        908696856.98597515     
  -1359363723.5628986       -308753552.81631833        1020270875.8081437     
  -1365968625.4924333       -264413120.19402808        1126559406.7448313     
  -1756074773.8272083       -526822432.14816248        680029192.22960675     
  -1784071909.3709943       -500073992.98458672        806434078.52233195     
  -1809143540.6012294       -463573872.77583981        925728579.18004847     
  -1831289667.5179129       -417322071.52192128        1037912694.2027558     
  -1850510290.1210449       -361318589.22283190        1142986423.5904548     
   5523.8447158640583        8033.5277785342178        1115491283.8430126     
   59004.612681492094        8144.2397023975755        1188596923.4073846     
   121138.40924627570        37098.380290503112        1258546533.6279337     
   191925.23441041465        94895.949543278315        1325340114.5046601     
   271365.08817378135        181536.94745945215        1388977666.0375631     
  -440710718.50955272       -83749808.818722904        1112811836.8711104     
  -442693097.28876388       -69080920.605688706        1181002983.9931889     
  -445510383.44152403       -57195056.971152768        1247399012.1533141     
  -449162576.96783400       -48092217.915115416        1311999921.3514853     
  -453649677.86769331       -41772403.437575579        1374805711.5877037     
  -896035434.95526898       -171890193.39265808        1116501211.1717162     
  -896165357.90488756       -141386033.06548268        1178793712.0489950     
  -897973748.63020384       -116476765.32396808        1240652004.3461890     
  -901460607.13121891       -97162390.168115228        1302076088.0632989     
  -906625933.40793240       -83442907.597922862        1363065963.2003233     
  -1365968625.4924333       -264413120.19402808        1126559406.7448313     
  -1360357777.2356894       -216907193.13968006        1181969107.5748031     
  -1357268957.1567938       -177808026.67815688        1238305510.2065592     
  -1356702165.2557452       -147115620.80945832        1295568614.6400995     
  -1358657401.5325429       -124829975.53358215        1353758420.8754253     
  -1850510290.1210449       -361318589.22283190        1142986423.5904548     
  -1835270355.2811708       -295644400.82828140        1190529170.5706127     
  -1823396009.0212934       -241188841.03371847        1240359529.7344239     
  -1814887251.3414118       -197951909.83914232        1292477501.0818884     
  -1809744082.2415259       -165933607.24455184        1346883084.6130075     
   271365.08817378135        181536.94745945215        1388977666.0375631     
   12899.522510756251        206995.95046176572        1409662354.5534825     
  -227720.41400601016        291940.38395108806        1433587641.9201689     
  -450494.72137676645        436370.24792711018        1460753528.1376221     
  -655423.39960220782        640285.54238803661        1491160013.2058432     
  -453649677.86769331       -41772403.437575579        1374805711.5877037     
  -443587210.62390292       -32839584.679489881        1395345938.6846590     
  -433844912.59725487       -24973996.645211667        1418529201.4561775     
  -424422783.78774804       -18175639.334737286        1444355499.9022577     
  -415320824.19538391       -12444512.748073012        1472824834.0229001     
  -906625933.40793240       -83442907.597922862        1363065963.2003233     
  -887949856.71527350       -66114926.092930287        1383067378.2243135     
  -869931964.08604467       -50980891.466036677        1405114265.7466614     
  -852572255.52024555       -38040803.717242837        1429206625.7673669     
  -835870731.01787543       -27294662.846545309        1455344458.2864301     
  -1358657401.5325429       -124829975.53358215        1353758420.8754253     
  -1333075038.7516012       -99619028.289857686        1372826673.1724470     
  -1308488874.8803751       -77728744.078522563        1393342834.7916212     
  -1284898909.9188683       -59159122.899582684        1415306905.7329493     
  -1262305143.8670783       -43910164.753033519        1438718885.9964306     
  -1809744082.2415259       -165933607.24455184        1346883084.6130075     
  -1778962756.7328844       -133351891.27027118        1364623823.5290585     
  -1749515644.9802473       -105217554.48267299        1383214908.5910578     
  -1721402746.9836168       -81530596.881763935        1402656339.7990055     
  -1694624062.7429888       -62291018.467529953        1422948117.1529026     
  -655423.39960220782        640285.54238803661        1491160013.2058432     
  -550221.73532338790        883239.89657255914        1495545224.5414457     
  -498470.12416252086        948027.40703126648        1502902861.6181107     
  -500168.56611976668        834648.07376275735        1513232924.4358344     
  -555317.06119674945        543101.89676144475        1526535412.9946175     
  -415320824.19538391       -12444512.748073012        1472824834.0229001     
  -405360655.38525730       -7618232.5050387979        1475148113.4064310     
  -395846675.01224792       -4279247.0523963720        1481022020.4175119     
  -386778883.07635587       -2427556.3901430666        1490446555.0561428     
  -378157279.57757968       -2063160.5182788223        1503421717.3223240     
  -835870731.01787543       -27294662.846545309        1455344458.2864301     
  -814403589.67192781       -17389455.097671986        1455147610.9365544     
  -793775375.14709496       -10280670.085848957        1459079593.1007206     
  -773986087.44337726       -5968307.8110769391        1467140404.7789283     
  -755035726.56077719       -4452368.2733609378        1479330045.9711764     
  -1262305143.8670783       -43910164.753033519        1438718885.9964306     
  -1227679024.5953331       -28430427.881322682        1435543717.1318181     
  -1194284570.5287049       -17056241.693333805        1437075579.6677375     
  -1162121781.6671882       -9787606.1890497208        1443314473.6041899     
  -1131190658.0107875       -6624521.3684865236        1454260398.9411745     
  -1694624062.7429888       -62291018.467529953        1422948117.1529026     
  -1645186960.1554763       -40741150.855999708        1416336431.9922211     
  -1597374261.1570766       -24605961.874845326        1415009980.1185622     
  -1551185965.7477887       -13885451.524063170        1418968761.5319262     
  -1506622073.9276140       -8579619.8036602736        1428212776.2323146     
  -555317.06119674945        543101.89676144475        1526535412.9946175     
  -634930.57470085705       -168594.71761108679        1521096863.2065594     
  -933277.06707859854       -1609401.2615620506        1520222772.0327606     
  -1450356.5383195311       -3779317.7350580250        1523913139.4732215     
  -2186168.9884322900       -6678344.1381250210        1532167965.5279384     
  -378157279.57757968       -2063160.5182788223        1503421717.3223240     
  -366162173.79327613       -1600486.5625095516        1497961789.2168875     
  -354323367.00157917       -1658809.2487614453        1496954639.5177817     
  -342640859.20249426       -2238128.5770545900        1500400268.2250042     
  -331114650.39601576       -3338444.5473677665        1508298675.3385563     
  -755035726.56077719       -4452368.2733609378        1479330045.9711764     
  -731284987.78703320       -2911049.6399529874        1473921579.1989989     
  -707628114.01963902       -1682614.3610417843        1472854210.6252210     
  -684065105.25859284       -767062.43662488461        1476127940.2498417     
  -660595961.50389504       -164393.86670261621        1483742768.0728662     
  -1131190658.0107875       -6624521.3684865236        1454260398.9411745     
  -1096003372.5559757       -4100283.9499551058        1448976233.1528904     
  -1060847518.1212521       -1680816.5983847976        1447921485.3550787     
  -1025723094.7066160        633880.68622738123        1451096155.5477369     
  -990630102.31207132        2843807.9038701057        1458500243.7308652     
  -1506622073.9276140       -8579619.8036602736        1428212776.2323146     
  -1460317328.1001034       -5168189.4925154448        1423125751.0785639     
  -1413981579.3064194       -1653415.9607908130        1422156463.7073553     
  -1367614827.5465662        1964700.7914956808        1425304914.1186860     
  -1321217072.8205397        5686160.7643618584        1432571102.3125594     
  -2186168.9884322900       -6678344.1381250210        1532167965.5279384     
  -3672721.5916284071       -9763370.5195250232        1526057349.6740611     
  -4914680.5120512368       -12033084.625013722        1524621847.5206032     
  -5912045.7497057784       -13487486.454608649        1527861459.0675693     
  -6664817.3045815211       -14126576.008273546        1535776184.3149571     
  -331114650.39601576       -3338444.5473677665        1508298675.3385563     
  -319660892.35826713       -4678346.3822569102        1502245202.7740359     
  -308194473.10853720       -5976044.1772066653        1501067980.5683165     
  -296715392.64682758       -7231537.9322256446        1504767008.7213993     
  -285223650.97313601       -8444827.6473037750        1513342287.2332840     
  -660595961.50389504       -164393.86670261621        1483742768.0728662     
  -635627216.65840387        413231.69496178627        1477475850.9151134     
  -610877743.07172310        259953.06059083343        1476286320.7745419     
  -586347540.74385512       -624229.76982089877        1480174177.6511500     
  -562036609.67479932       -2239316.7962733209        1489139421.5449378     
  -990630102.31207132        2843807.9038701057        1458500243.7308652     
  -951571694.49203980        5511363.7121273875        1451749294.0972900     
  -912964490.40161085        6674907.0883741975        1450276868.1392741     
  -874808490.04078436        6334438.0326149464        1454082965.8568189     
  -837103693.40956545        4489956.5448296666        1463167587.2499220     
  -1321217072.8205397        5686160.7643618584        1432571102.3125594     
  -1267494325.8591700        10616049.669252992        1425065532.3205693     
  -1214454715.0981979        13268817.906151950        1423039622.6625192     
  -1162098240.5376184        13644465.475075364        1426493373.3384068     
  -1110424902.1774375        11742992.376004159        1435426784.3482347     
  -6664817.3045815211       -14126576.008273546        1535776184.3149571     
  -5287814.1234558336       -15018757.561697247        1528834233.1230178     
  -4743552.5946933413       -18686744.622998957        1528286770.9493060     
  -5032032.7182952799       -25130537.192181762        1534133797.7938209     
  -6153254.4942583106       -34350135.269234866        1546375313.6565573     
  -285223650.97313601       -8444827.6473037750        1513342287.2332840     
  -268173563.16453132       -8473351.2360436469        1505866539.8691063     
  -251454425.17062497       -9605040.8737814277        1503853216.7467599     
  -235066236.99141833       -11839896.560516946        1507302317.8662426     
  -219008998.62691575       -15177918.296265014        1516213843.2275586     
  -562036609.67479932       -2239316.7962733209        1489139421.5449378     
  -531976479.45698220       -2203095.0857984424        1481715301.8191304     
  -501745507.21620673       -1597399.9654618502        1478821541.5587544     
  -471343692.95246714       -422231.43524637818        1480458140.7638156     
  -440771036.66576654        1322410.5048418045        1486625099.4343157     
  -837103693.40956545        4489956.5448296666        1463167587.2499220     
  -796696563.00081182        3792010.8890276849        1456380518.9730854     
  -755616798.73143578        5336178.1019666791        1453191745.3852932     
  -713864400.60143614        9122458.1836497188        1453601266.4865372     
  -671439368.61080885        15150851.134093702        1457609082.2768261     
  -1110424902.1774375        11742992.376004159        1435426784.3482347     
  -1062333813.7960179        9511966.6884458065        1429862191.3309789     
  -1013068299.7163156        11195693.328494966        1426963828.2263701     
  -962628359.93832350        16794172.296178222        1426731695.0344079     
  -911013994.46204197        26307403.591491699        1429165791.7550874     
  -6153254.4942583106       -34350135.269234866        1546375313.6565573     
  -5419595.1271934714       -31839316.932659898        1545854192.8181567     
   3514246.8179845996       -1994556.6690387453        1544606164.6932547     
   20648271.341285441        55184145.521658309        1542631229.2818542     
   45982478.442700200        139696789.63939965        1539929386.5839517     
  -219008998.62691575       -15177918.296265014        1516213843.2275586     
  -217824858.50784045       -16534623.420584843        1521376606.8102019     
  -212061474.45203555       -2627182.0891399458        1528505306.7487881     
  -201718846.45950633        26544405.698057711        1537599943.0433192     
  -186796974.53025377        70980139.940989047        1548660515.6937892     
  -440771036.66576654        1322410.5048418045        1486625099.4343157     
  -431442576.81626356       -1593666.3868226707        1493247319.0230441     
  -421155811.67142969       -1315392.2940504253        1504528318.6101563     
  -409910741.23126340        2157232.7831657231        1520468098.1956613     
  -397707365.49576581        8824208.8448109776        1541066657.7795482     
  -671439368.61080885        15150851.134093702        1457609082.2768261     
  -646272750.05247104        12983554.168600887        1461466329.4566801     
  -623768764.84019971        1940812.7162215114        1472675200.2773654     
  -603927412.97398770       -17977373.223018885        1491235694.7388785     
  -586748694.45383465       -46771003.649130791        1517147812.8412235     
  -911013994.46204197        26307403.591491699        1429165791.7550874     
  -862315378.21646595        27197038.245678246        1426033638.1111140     
  -819900333.95834219        7141432.9416909218        1432945951.7504086     
  -783768861.68767548       -33859412.320483506        1449902732.6729844     
  -753920961.40446377       -95805497.540847242        1476903980.8788297     
  -1756074773.8272083       -526822432.14816248        680029192.22960675     
  -1784071909.3709943       -500073992.98458672        806434078.52233195     
  -1809143540.6012294       -463573872.77583981        925728579.18004847     
  -1831289667.5179129       -417322071.52192128        1037912694.2027558     
  -1850510290.1210449       -361318589.22283190        1142986423.5904548     
  -2201755715.1339216       -660526714.54017651        696421239.92449582     
  -2238361479.3202624       -613884061.40724957        813842221.94665861     
  -2272925727.4671102       -560436354.80934536        927160595.11663032     
  -2305448459.5744653       -500183594.74646425        1036376359.4344103     
  -2335929675.6423264       -433125781.21860605        1141489514.8999994     
  -2685680145.5870547       -805704043.67611647        721973871.50827169     
  -2722300890.4650440       -736589082.18856645        829379629.60680437     
  -2757764107.5775976       -663615694.81623292        935690555.63596272     
  -2792069796.9247165       -586783881.55911660        1040906649.5957476     
  -2825217958.5064001       -506093642.41721767        1145027911.4861588     
  -3207848065.1866097       -962354419.55598283        756687086.98093474     
  -3235890142.8053389       -868189055.32853699        853046301.50276875     
  -3263658680.9326906       -773111892.79650259        951318460.73804677     
  -3291153679.5686665       -677122931.95987868        1051503564.6867684     
  -3318375138.7132659       -580222172.81866682        1153601613.3489332     
  -3768259473.9325838       -1130477842.1797752        800560886.34248447     
  -3779129236.3411465       -1008683980.8271617        884842237.63455236     
  -3790609447.5323901       -888924948.75015330        974044310.42288125     
  -3802700107.5063157       -771200745.94875073        1068167104.7074716     
  -3815401216.2629232       -655511372.42295361        1167210620.4883230     
  -1850510290.1210449       -361318589.22283190        1142986423.5904548     
  -1835270355.2811708       -295644400.82828140        1190529170.5706127     
  -1823396009.0212934       -241188841.03371847        1240359529.7344239     
  -1814887251.3414118       -197951909.83914232        1292477501.0818884     
  -1809744082.2415259       -165933607.24455184        1346883084.6130075     
  -2335929675.6423264       -433125781.21860605        1141489514.8999994     
  -2312461233.9951916       -352076215.85172302        1182783602.1267292     
  -2292480338.3713794       -282651803.89591372        1224571533.8740835     
  -2275986988.7708888       -224852545.35117853        1266853310.1420619     
  -2262981185.1937203       -178678440.21751630        1309628930.9306645     
  -2825217958.5064001       -506093642.41721767        1145027911.4861588     
  -2798646060.5178037       -411206215.21774119        1179931055.2755809     
  -2775683665.9958544       -328350466.24042523        1213534275.9225974     
  -2756330774.9405541       -257526395.48527205        1245837573.4272087     
  -2740587387.3519020       -198734002.95227730        1276840947.7894139     
  -3318375138.7132659       -580222172.81866682        1153601613.3489332     
  -3293824834.8490057       -473034398.92633629        1181971530.0171669     
  -3273005991.8947196       -378284828.06725454        1207247755.8799653     
  -3255918609.8504071       -295973460.24142027        1229430290.9373291     
  -3242562688.7160711       -226100295.44883513        1248519135.1892574     
  -3815401216.2629232       -655511372.42295361        1167210620.4883230     
  -3797997556.9887986       -537560766.97750962        1188905026.3514884     
  -3784447316.0679731       -432454889.37639976        1205711973.7461879     
  -3774750493.5004501       -340193739.61962831        1217631462.6724229     
  -3768907089.2862263       -260777317.70718682        1224663493.1301937     
  -1809744082.2415259       -165933607.24455184        1346883084.6130075     
  -1778962756.7328844       -133351891.27027118        1364623823.5290585     
  -1749515644.9802473       -105217554.48267299        1383214908.5910578     
  -1721402746.9836168       -81530596.881763935        1402656339.7990055     
  -1694624062.7429888       -62291018.467529953        1422948117.1529026     
  -2262981185.1937203       -178678440.21751630        1309628930.9306645     
  -2223325617.5760279       -134214495.41989923        1317555666.3578813     
  -2186581464.0766850       -99455264.350116611        1328716342.9176493     
  -2152748724.6956897       -74400747.008159161        1343110960.6099691     
  -2121827399.4330440       -59050943.394035220        1360739519.4348402     
  -2740587387.3519020       -198734002.95227730        1276840947.7894139     
  -2685247306.2348642       -140344747.91423595        1273113612.6383951     
  -2634395839.5985193       -96917541.145174146        1275003813.6065309     
  -2588032987.4428687       -68452382.645090461        1282511550.6938207     
  -2546158749.7679105       -54949272.413984418        1295636823.9002645     
  -3242562688.7160711       -226100295.44883513        1248519135.1892574     
  -3164727822.7093930       -151742648.75328267        1231297662.3706014     
  -3092958771.5457530       -97604384.867853403        1222077320.6577027     
  -3027255535.2251515       -63685503.792551756        1220858110.0505621     
  -2967618113.7475863       -49986005.527376175        1227640030.5491774     
  -3768907089.2862263       -260777317.70718682        1224663493.1301937     
  -3661767166.9996142       -168408197.93703210        1192107815.5544989     
  -3562270259.9183865       -101515795.51815367        1169936864.0711646     
  -3470416368.0425386       -60100110.450542927        1158150638.6801903     
  -3386205491.3720732       -44161142.734209657        1156749139.3815775     
  -1694624062.7429888       -62291018.467529953        1422948117.1529026     
  -1645186960.1554763       -40741150.855999708        1416336431.9922211     
  -1597374261.1570766       -24605961.874845326        1415009980.1185622     
  -1551185965.7477887       -13885451.524063170        1418968761.5319262     
  -1506622073.9276140       -8579619.8036602736        1428212776.2323146     
  -2121827399.4330440       -59050943.394035220        1360739519.4348402     
  -2060136237.0563827       -40680082.363114476        1353290040.0634782     
  -1999628095.9794407       -26252625.664596081        1350715144.1461177     
  -1940302976.2022202       -15768573.298481107        1353014831.6827593     
  -1882160877.7247224       -9227925.2647732496        1360189102.6734021     
  -2546158749.7679105       -54949272.413984418        1295636823.9002645     
  -2473386812.8393011       -40109403.534833789        1287864496.3225138     
  -2401356514.9210238       -27741664.690117717        1284556102.3657415     
  -2330067856.0130720       -17846055.879827857        1285711642.0299499     
  -2259520836.1154528       -10422577.103974581        1291331115.3151405     
  -2967618113.7475863       -49986005.527376175        1227640030.5491774     
  -2884938687.5042338       -39029114.371156096        1220059800.7693250     
  -2802559517.9818225       -29073078.951403260        1216532854.7774324     
  -2720480605.1803455       -20117899.268103123        1217059192.5734990     
  -2638701949.0998068       -12163575.321262836        1221638814.1575251     
  -3386205491.3720732       -44161142.734209657        1156749139.3815775     
  -3294791861.0511818       -37439214.872084379        1149875953.4039154     
  -3203237105.1618361       -30246868.448449731        1146645401.3811905     
  -3111541223.7040362       -22584103.463300228        1147057483.3134058     
  -3019704216.6777821       -14450919.916637778        1151112199.2005589     
  -1506622073.9276140       -8579619.8036602736        1428212776.2323146     
  -1460317328.1001034       -5168189.4925154448        1423125751.0785639     
  -1413981579.3064194       -1653415.9607908130        1422156463.7073553     
  -1367614827.5465662        1964700.7914956808        1425304914.1186860     
  -1321217072.8205397        5686160.7643618584        1432571102.3125594     
  -1882160877.7247224       -9227925.2647732496        1360189102.6734021     
  -1824521610.8609042       -5149870.2208869457        1354448497.2629473     
  -1767223549.1846535       -2209165.8022205830        1353155179.9287858     
  -1710266692.6959693       -405812.00877964497        1356309150.6709156     
  -1653651041.3948529        260191.15943849087        1363910409.4893413     
  -2259520836.1154528       -10422577.103974581        1291331115.3151405     
  -2189605475.9474659       -5395425.6469906569        1284502686.8019512     
  -2120403529.1207812       -2746318.6610151529        1282451096.6588073     
  -2051914995.6354027       -2475256.1460605860        1285176344.8857110     
  -1984139875.4913299       -4582238.1021224260        1292678431.4826558     
  -2638701949.0998068       -12163575.321262836        1221638814.1575251     
  -2555568923.3597841       -5904855.7708159685        1213288319.6955750     
  -2473521519.1148038       -3264874.5371797085        1210044213.8974233     
  -2392559736.3648677       -4243631.6203528643        1211906496.7630687     
  -2312683575.1099758       -8841127.0203397274        1218875168.2925131     
  -3019704216.6777821       -14450919.916637778        1151112199.2005589     
  -2922411953.0978651       -6678160.5923776627        1140805395.9438202     
  -2826577519.1667233       -3764833.4307147264        1135934531.6446307     
  -2732200914.8843651       -5710938.4316568375        1136499606.3029909     
  -2639282140.2507877       -12516475.595203519        1142500619.9189031     
  -1321217072.8205397        5686160.7643618584        1432571102.3125594     
  -1267494325.8591700        10616049.669252992        1425065532.3205693     
  -1214454715.0981979        13268817.906151950        1423039622.6625192     
  -1162098240.5376184        13644465.475075364        1426493373.3384068     
  -1110424902.1774375        11742992.376004159        1435426784.3482347     
  -1653651041.3948529        260191.15943849087        1363910409.4893413     
  -1587041436.5810564        2769400.7444126606        1356198086.4775341     
  -1520852151.6151137        3877544.1698723435        1353477689.0151777     
  -1455083186.4970191        3584621.4358377457        1355749217.1022649     
  -1389734541.2267847        1890632.5422726274        1363012670.7388055     
  -1984139875.4913299       -4582238.1021224260        1292678431.4826558     
  -1906036940.7807958       -4911766.2237761021        1285065974.5290027     
  -1828091509.5655720       -5766305.9964638948        1281957708.3403049     
  -1750303581.8456564       -7145857.4201775789        1283353632.9165664     
  -1672673157.6210515       -9050420.4949297905        1289253748.2577808     
  -2312683575.1099758       -8841127.0203397274        1218875168.2925131     
  -2224480838.4583926       -12427451.235327482        1211669196.4749775     
  -2136172788.9495761       -15662732.592867017        1208479680.6379066     
  -2047759426.5835266       -18546971.092962742        1209306620.7813005     
  -1959240751.3602433       -21080166.735612154        1214150016.9051611     
  -2639282140.2507877       -12516475.595203519        1142500619.9189031     
  -2542373129.6138458       -19777654.290232420        1136007752.3154531     
  -2445095989.7671256       -25811735.619331002        1133043605.9079771     
  -2347450720.7106314       -30618719.582515955        1133608180.6964755     
  -2249437322.4443569       -34198606.179771185        1137701476.6809480     
  -1110424902.1774375        11742992.376004159        1435426784.3482347     
  -1062333813.7960179        9511966.6884458065        1429862191.3309789     
  -1013068299.7163156        11195693.328494966        1426963828.2263701     
  -962628359.93832350        16794172.296178222        1426731695.0344079     
  -911013994.46204197        26307403.591491699        1429165791.7550874     
  -1389734541.2267847        1890632.5422726274        1363012670.7388055     
  -1334317355.4399922       -2153175.7736854553        1357711031.9028611     
  -1278064716.7794385       -3412141.1771064997        1355796957.1495714     
  -1220976625.2451200       -1886263.6679803729        1357270446.4789386     
  -1163053080.8370433        2424456.7536769509        1362131499.8909612     
  -1672673157.6210515       -9050420.4949297905        1289253748.2577808     
  -1607868919.6574273       -14288725.007847488        1283819595.3078671     
  -1542568201.6445682       -17872096.023305833        1282494340.6106236     
  -1476771003.5824733       -19800533.541315675        1285277984.1660433     
  -1410477325.4711366       -20074037.561853766        1292170525.9741299     
  -1959240751.3602433       -21080166.735612154        1214150016.9051611     
  -1882988506.4483330       -26894681.014051080        1208187881.5460036     
  -1806578754.3117101       -32184171.210120797        1207055978.6095178     
  -1730011494.9503729       -36948637.323806703        1210754308.0957117     
  -1653286728.3643253       -41188079.355125546        1219282870.0045810     
  -2249437322.4443569       -34198606.179771185        1137701476.6809480     
  -2159676115.8127012       -39971043.792300105        1130815890.6172645     
  -2070096374.7808526       -46348366.737514496        1129481871.1462643     
  -1980698099.3488264       -53330575.015473366        1133699418.2679517     
  -1891481289.5166035       -60917668.626110911        1143468531.9823236     
  -911013994.46204197        26307403.591491699        1429165791.7550874     
  -862315378.21646595        27197038.245678246        1426033638.1111140     
  -819900333.95834219        7141432.9416909218        1432945951.7504086     
  -783768861.68767548       -33859412.320483506        1449902732.6729844     
  -753920961.40446377       -95805497.540847242        1476903980.8788297     
  -1163053080.8370433        2424456.7536769509        1362131499.8909612     
  -1089952783.2577932        6337975.8858634233        1353549727.8204401     
  -1020951824.6451594       -3412968.2040141225        1352996193.0745454     
  -956050204.99914944       -26828375.515958846        1360470895.6532910     
  -895247924.31975973       -63908246.049987137        1375973835.5566509     
  -1410477325.4711366       -20074037.561853766        1292170525.9741299     
  -1318736003.5829098       -14864831.059099853        1280687407.3346970     
  -1228909787.6404636       -16039311.042274892        1275216296.0612557     
  -1140998677.6438041       -23597477.511406600        1275757192.1538031     
  -1055002673.5929282       -37539330.466488719        1282310095.6123371     
  -1653286728.3643253       -41188079.355125546        1219282870.0045810     
  -1548665039.1918111       -36411382.589186013        1207446676.6538875     
  -1443774222.9442425       -30737595.573076487        1199606260.7105391     
  -1338614279.6216295       -24166718.306799769        1195761622.1745336     
  -1233185209.2239559       -16698750.790348053        1195912761.0458779     
  -1891481289.5166035       -60917668.626110911        1143468531.9823236     
  -1779739890.0845027       -58301678.704429328        1133827535.7780070     
  -1665545130.5565050       -47507821.796415031        1126166087.0223894     
  -1548897010.9326277       -28536097.902137697        1120484185.7154806     
  -1429795531.2128601       -1386507.0215704441        1116781831.8572693     
  -3768259473.9325838       -1130477842.1797752        800560886.34248447     
  -3779129236.3411465       -1008683980.8271617        884842237.63455236     
  -3790609447.5323901       -888924948.75015330        974044310.42288125     
  -3802700107.5063157       -771200745.94875073        1068167104.7074716     
  -3815401216.2629232       -655511372.42295361        1167210620.4883230     
  -4339772019.7833109       -1301931605.9349935        858743809.41349125     
  -4335260382.8835773       -1125729956.8962932        942338407.15921676     
  -4331884397.3716717       -953313812.48368502        1020288485.7182734     
  -4329644063.2475939       -784683172.69717014        1092594045.0906606     
  -4328539380.5113440       -619838037.53674746        1159255085.2763791     
  -4895243350.6971245       -1468573005.2091374        936384396.01452494     
  -4905536716.4403248       -1247019489.0697191        1018679503.8412375     
  -4917490936.1764994       -1031002152.9068809        1084764851.7983510     
  -4931106009.9056473       -820520996.72062171        1134640439.8858650     
  -4946381937.6277695       -615576020.51094282        1168306268.1037796     
  -5434673466.6740236       -1630402040.0022070        1033482646.1455851     
  -5489958237.0113869       -1372552577.3474400        1113865527.6806149     
  -5547429063.9468699       -1121989970.0197394        1167473408.6631143     
  -5607085947.4804745       -878714218.01910627        1194306289.0930846     
  -5668928887.6121969       -642725321.34553933        1194364168.9705248     
  -5958062367.7140064       -1787418710.3142021        1150038559.8066721     
  -6088524944.5967627       -1502329221.7294545        1227896478.6773481     
  -6221698780.6827850       -1226277263.8222613        1268414156.3125639     
  -6357583875.9720755       -959262836.59262252        1271591592.7123194     
  -6496180230.4646292       -701285940.04053640        1237428787.8766148     
  -3815401216.2629232       -655511372.42295361        1167210620.4883230     
  -3797997556.9887986       -537560766.97750962        1188905026.3514884     
  -3784447316.0679731       -432454889.37639976        1205711973.7461879     
  -3774750493.5004501       -340193739.61962831        1217631462.6724229     
  -3768907089.2862263       -260777317.70718682        1224663493.1301937     
  -4328539380.5113440       -619838037.53674746        1159255085.2763791     
  -4298248226.8959227       -464075152.98853695        1141337978.3235157     
  -4278582867.0856180       -343731581.12404311        1129495876.4625521     
  -4269543301.0804272       -258807321.94326639        1123728779.6934893     
  -4271129528.8803511       -209302375.44620466        1124036688.0163264     
  -4946381937.6277695       -615576020.51094282        1168306268.1037796     
  -4871881965.2128677       -412604459.52251053        1102876543.6411049     
  -4814780162.0548935       -267626796.05717516        1054484287.8306943     
  -4775076528.1538515       -180643030.11493874        1023129500.6725494     
  -4752771063.5097370       -151653161.69579959        1008812182.1666685     
  -5668928887.6121969       -642725321.34553933        1194364168.9705248     
  -5518898771.9396296       -383148686.57942843        1073520722.3042548     
  -5393039200.9758062       -204140534.17579842        980677207.85061491     
  -5291350174.7207270       -105700864.13464713        915833625.60960329     
  -5213831693.1743917       -87829676.455976486        878989975.58122241     
  -6496180230.4646292       -701285940.04053640        1237428787.8766148     
  -6239298647.0762129       -375707834.15929484        1053270514.3129662     
  -6013359983.8483524       -153272795.47991157        908074636.52231228     
  -5818364240.7810488       -33980824.002389908        801841154.50465238     
  -5654311417.8743057       -17831919.726728678        734570068.25998676     
  -3768907089.2862263       -260777317.70718682        1224663493.1301937     
  -3661767166.9996142       -168408197.93703210        1192107815.5544989     
  -3562270259.9183865       -101515795.51815367        1169936864.0711646     
  -3470416368.0425386       -60100110.450542927        1158150638.6801903     
  -3386205491.3720732       -44161142.734209657        1156749139.3815775     
  -4271129528.8803511       -209302375.44620466        1124036688.0163264     
  -4148217828.0913839       -145189488.15703392        1090619251.6006796     
  -4029674688.0805311       -95638470.128237486        1065469895.4362496     
  -3915500108.8477850       -60649321.359803438        1048588619.5230354     
  -3805694090.3931499       -40222041.851741791        1039975423.8610383     
  -4752771063.5097370       -151653161.69579959        1008812182.1666685     
  -4620135143.7645445       -117610774.75145340        978353183.74288642     
  -4488593330.3701897       -87215408.976573467        954045619.72917747     
  -4358145623.3266754       -60467064.371155977        935889490.12553918     
  -4228792022.6340017       -37365740.935207129        923884794.93197513     
  -5213831693.1743917       -87829676.455976486        878989975.58122241     
  -5077519114.0190926       -85672057.720288754        855309611.98112190     
  -4939026186.7873650       -76246612.063164234        835664036.94994903     
  -4798352911.4792051       -59553339.484600782        820053250.48770511     
  -4655499288.0946121       -35592239.984599590        808477252.59438837     
  -5654311417.8743057       -17831919.726728678        734570068.25998676     
  -5520369738.8550320       -49373337.063542366        721488536.31538343     
  -5380973257.3320570       -62732079.388012648        710325147.09856260     
  -5236121973.3053780       -57908146.700138330        701079900.60952699     
  -5085815886.7749968       -34901538.999925375        693752796.84827614     
  -3386205491.3720732       -44161142.734209657        1156749139.3815775     
  -3294791861.0511818       -37439214.872084379        1149875953.4039154     
  -3203237105.1618361       -30246868.448449731        1146645401.3811905     
  -3111541223.7040362       -22584103.463300228        1147057483.3134058     
  -3019704216.6777821       -14450919.916637778        1151112199.2005589     
  -3805694090.3931499       -40222041.851741791        1039975423.8610383     
  -3702613793.7025714       -29475405.837899685        1031902498.0392591     
  -3600217415.5514646       -21008498.288971663        1028232518.2042127     
  -3498504955.9398308       -14821319.204956532        1028965484.3559006     
  -3397476414.8676748       -10913868.585861921        1034101396.4943209     
  -4228792022.6340017       -37365740.935207129        923884794.93197513     
  -4111872739.4828887       -21942700.742393017        913649577.80682921     
  -3996462418.9791789       -11549536.040920973        908577618.70021105     
  -3882561061.1228704       -6186246.8307909966        908668917.61212206     
  -3770168665.9139647       -5852833.1120028496        913923474.54256034     
  -4655499288.0946121       -35592239.984599590        808477252.59438837     
  -4522568698.3921309       -14841099.585565805        795117192.70662642     
  -4391972115.4449749       -1869981.7042915821        787680702.86918795     
  -4263709539.2531500        3321113.6592051983        786167783.08206987     
  -4137780969.8166614        732186.50493407249        790578433.34527600     
  -5085815886.7749968       -34901538.999925375        693752796.84827614     
  -4934701670.4302979       -8170602.3674132824        676305342.73864746     
  -4786746504.9488564        8030164.7209086418        665541770.71113801     
  -4641950390.3306723        13700762.265028000        661462080.76574612     
  -4500313326.5757504        8841190.2649531364        664066272.90247130     
  -3019704216.6777821       -14450919.916637778        1151112199.2005589     
  -2922411953.0978651       -6678160.5923776627        1140805395.9438202     
  -2826577519.1667233       -3764833.4307147264        1135934531.6446307     
  -2732200914.8843651       -5710938.4316568375        1136499606.3029909     
  -2639282140.2507877       -12516475.595203519        1142500619.9189031     
  -3397476414.8676748       -10913868.585861921        1034101396.4943209     
  -3287769216.5087476       -6480134.9869213104        1024046467.7448949     
  -3178747757.3287072       -4332198.6509406567        1018876094.2660754     
  -3070412037.3275604       -4470059.5779426098        1018590276.0578645     
  -2962762056.5053034       -6893717.7679027319        1023189013.1202600     
  -3770168665.9139647       -5852833.1120028496        913923474.54256034     
  -3649621914.7387252       -5230739.8271911144        905021192.51531947     
  -3528988812.2724829       -4320808.9057140350        900452082.07174349     
  -3408269358.5152397       -3123040.3475720882        900216143.21182919     
  -3287463553.4669976       -1637434.1527569294        904313375.93558228     
  -4137780969.8166614        732186.50493407249        790578433.34527600     
  -4007970047.7877998       -2929975.1131944656        783729570.25509441     
  -3877300683.9980474       -3730664.1950178146        780662495.06163180     
  -3745772878.4474030       -1669880.7405424118        781377207.76489246     
  -3613386631.1358733        3252375.2502350807        785873708.36487126     
  -4500313326.5757504        8841190.2649531364        664066272.90247130     
  -4362813615.6559687        422159.15507221222        660171600.96421814     
  -4223683372.5053988       -2561764.5188589096        659507333.23574328     
  -4082922597.1240563       -110580.75686931610        662073469.71704686     
  -3940531289.5119243        7775710.4410748482        667870010.40812767     
  -2639282140.2507877       -12516475.595203519        1142500619.9189031     
  -2542373129.6138458       -19777654.290232420        1136007752.3154531     
  -2445095989.7671256       -25811735.619331002        1133043605.9079771     
  -2347450720.7106314       -30618719.582515955        1133608180.6964755     
  -2249437322.4443569       -34198606.179771185        1137701476.6809480     
  -2962762056.5053034       -6893717.7679027319        1023189013.1202600     
  -2854851647.2818804       -10000609.175981045        1016813762.5033516     
  -2746757495.6302037       -12495025.823211670        1014413723.3061582     
  -2638479601.5502744       -14376967.709595919        1015988895.5286795     
  -2530017965.0420828       -15646434.835118294        1021539279.1709158     
  -3287463553.4669976       -1637434.1527569294        904313375.93558228     
  -3167276059.3035512       -207332.36782193184        897840624.39344156     
  -3047089209.4933729        1220621.5728840828        895789574.49475396     
  -2926903004.0364623        2646427.6693607569        898160226.23952150     
  -2806717442.9328218        4070085.9216173887        904952579.62774634     
  -3613386631.1358733        3252375.2502350807        785873708.36487126     
  -3479646365.6788559        9602176.1342494488        779088337.98572099     
  -3346091131.3566332        15335206.568955660        777171159.47376347     
  -3212720928.1692009        20451466.554355502        780122172.82900012     
  -3079535756.1165586        24950956.090456843        787941378.05143332     
  -3940531289.5119243        7775710.4410748482        667870010.40812767     
  -3791962566.4077959        19427916.330226898        660556903.28018951     
  -3643763261.2199874        29848729.164987564        658558478.24318576     
  -3495933373.9484916        39038148.945374012        661874735.29711962     
  -3348472904.5933008        46996175.671397924        670505674.44198668     
  -2249437322.4443569       -34198606.179771185        1137701476.6809480     
  -2159676115.8127012       -39971043.792300105        1130815890.6172645     
  -2070096374.7808526       -46348366.737514496        1129481871.1462643     
  -1980698099.3488264       -53330575.015473366        1133699418.2679517     
  -1891481289.5166035       -60917668.626110911        1143468531.9823236     
  -2530017965.0420828       -15646434.835118294        1021539279.1709158     
  -2426106632.2204623       -18913806.228158832        1015157416.5927695     
  -2322796281.2742610       -24184450.539270401        1013530607.6712617     
  -2220086912.2034745       -31458367.768428683        1016658852.4063890     
  -2117978525.0081110       -40735557.915674806        1024542150.7981573     
  -2806717442.9328218        4070085.9216173887        904952579.62774634     
  -2690931735.1670856        2625055.3743138313        898585004.88026416     
  -2576166525.5523705       -2221635.6764141321        896175970.85336661     
  -2462421814.0886917       -10469987.230574727        897725477.54706299     
  -2349697600.7760358       -22119999.288157344        903233524.96134579     
  -3079535756.1165586        24950956.090456843        787941378.05143332     
  -2954151424.6525588        24645541.015132904        781098655.47973740     
  -2830207107.6151929        19540077.851026893        777417960.69258189     
  -2707702805.0044703        9634566.5981174707        776899293.68996668     
  -2586638516.8203702       -5070992.7435560226        779542654.47189009     
  -3348472904.5933008        46996175.671397924        670505674.44198668     
  -3215765700.6768904        47147650.694298148        662698368.39120173     
  -3084918027.4627304        41100690.043036819        657256577.18890786     
  -2955929884.9508095        28855293.717643976        654180300.83510661     
  -2828801273.1411333        10411461.718099952        653469539.32979465     
  -1891481289.5166035       -60917668.626110911        1143468531.9823236     
  -1779739890.0845027       -58301678.704429328        1133827535.7780070     
  -1665545130.5565050       -47507821.796415031        1126166087.0223894     
  -1548897010.9326277       -28536097.902137697        1120484185.7154806     
  -1429795531.2128601       -1386507.0215704441        1116781831.8572693     
  -2117978525.0081110       -40735557.915674806        1024542150.7981573     
  -2001548166.3616593       -43143090.270264030        1016248386.4757148     
  -1882820298.5712173       -37892258.811542511        1010741240.7793666     
  -1761794921.6367774       -24983063.539531827        1008020713.7091043     
  -1638472035.5583701       -4415504.4542462826        1008086805.2649465     
  -2349697600.7760358       -22119999.288157344        903233524.96134579     
  -2226272365.2655463       -28859278.624117970        896105166.41023302     
  -2100705471.5629637       -28459697.319774628        892570497.66260374     
  -1972996919.6682999       -20921255.375142932        892629518.71845841     
  -1843146709.5815427       -6243952.7902143002        896282229.57779431     
  -2586638516.8203702       -5070992.7435560226        779542654.47189009     
  -2453912486.7961636       -15450243.765990973        773397875.58155715     
  -2319200649.5317593       -19210137.321117520        771653857.67209470     
  -2182503005.0271640       -16350673.408953905        774310600.74350703     
  -2043819553.2823918       -6871852.0294883251        781368104.79579139     
  -2828801273.1411333        10411461.718099952        653469539.32979465     
  -2684468530.9535098       -2915985.6958925724        648126513.98968947     
  -2538305832.4776001       -10143578.815585136        647991320.80784452     
  -2390313177.7133989       -11271317.640972376        653063959.78426659     
  -2240490566.6609011       -6299202.1720607281        663344430.91894829     
  -5958062367.7140064       -1787418710.3142021        1150038559.8066721     
  -6088524944.5967627       -1502329221.7294545        1227896478.6773481     
  -6221698780.6827850       -1226277263.8222613        1268414156.3125639     
  -6357583875.9720755       -959262836.59262252        1271591592.7123194     
  -6496180230.4646292       -701285940.04053640        1237428787.8766148     
  -6810762877.2324276       -2043228863.1697283        1353756302.3419490     
  -6828633230.6379604       -1395503102.7197614        1202738914.6911898     
  -6897869555.4307137       -918997246.89386272        1091985877.4433198     
  -7018471851.6106873       -613711295.69203067        1021497190.5983393     
  -7190440119.1778822       -479645249.11426711        991272854.15624726     
  -8338127818.6446352       -2501438345.5933905        1712340039.0955780     
  -8021678543.8919458       -1424558091.8739049        1275683514.0421040     
  -7805249952.7104330       -681080116.72500086        956895931.02986860     
  -7688842045.1000957       -271004420.14667749        755977290.05887210     
  -7672454821.0609274       -194331002.13893509        672927591.12911355     
  -10540157191.950634       -3162047157.5851903        2225789770.0675592     
  -9667660884.3587246       -1589494189.1918862        1446730276.7300906     
  -8943839972.5219460       -512525873.31567717        863144317.07221031     
  -8368694456.4402943        68857790.043437004        475031891.09391725     
  -7942224336.1137714        154656800.88545704        282392998.79521251     
  -13416850997.150419       -4025055299.1451259        2894105495.2578926     
  -11766580252.038296       -1890311394.6737046        1715879202.7551503     
  -10313639614.865250       -413334516.66589022        810731035.57034445     
  -9058029085.6312904        405875334.87831402        178660993.70347637     
  -7999748664.3364115        567318159.95890999       -180330922.84545526     
  -6496180230.4646292       -701285940.04053640        1237428787.8766148     
  -6239298647.0762129       -375707834.15929484        1053270514.3129662     
  -6013359983.8483524       -153272795.47991157        908074636.52231228     
  -5818364240.7810488       -33980824.002389908        801841154.50465238     
  -5654311417.8743057       -17831919.726728678        734570068.25998676     
  -7190440119.1778822       -479645249.11426711        991272854.15624726     
  -6900611076.3749113       -304377688.40809608        846929502.13768947     
  -6623594751.6238260       -171819187.87487650        723655002.78234720     
  -6359391144.9246254       -81969747.514604330        621449356.09022164     
  -6108000256.2773075       -34829367.327283382        540312562.06131172     
  -7672454821.0609274       -194331002.13893509        672927591.12911355     
  -7400802727.7284870       -184711309.27336311        589551063.11576426     
  -7123833150.3392553       -157366669.55182695        509349844.65585411     
  -6841546088.8932390       -112297082.97433281        432323935.74938190     
  -6553941543.3904324       -49502549.540875196        358473336.39634794     
  -7942224336.1137714        154656800.88545704        282392998.79521251     
  -7739873601.1369390       -16708696.755092144        281135197.24719250     
  -7514075179.9946442       -109915240.51076794        265159162.14283139     
  -7264829072.6868858       -124962830.38157129        234464893.48212990     
  -6992135279.2136669       -61851466.367498398        189052391.26509053     
  -7999748664.3364115        567318159.95890999       -180330922.84545526     
  -7917823696.6002655        199630149.14671755       -78318095.468029290     
  -7794320840.5899868       -29464900.751693249       -8917044.7567187306     
  -7629240096.3055716       -119966989.73631573        27872229.288471337     
  -7422581463.7470198       -71876117.807158470        32049726.667546026     
  -5654311417.8743057       -17831919.726728678        734570068.25998676     
  -5520369738.8550320       -49373337.063542366        721488536.31538343     
  -5380973257.3320570       -62732079.388012648        710325147.09856260     
  -5236121973.3053780       -57908146.700138330        701079900.60952699     
  -5085815886.7749968       -34901538.999925375        693752796.84827614     
  -6108000256.2773075       -34829367.327283382        540312562.06131172     
  -5959281002.7040730       -36425735.941378355        534010892.32779342     
  -5809574476.0981979       -34731194.446679115        530248049.04891145     
  -5658880676.4596882       -29745742.843192339        529024032.22466677     
  -5507199603.7885380       -21469381.130910873        530338841.85505944     
  -6553941543.3904324       -49502549.540875196        358473336.39634794     
  -6388671333.1865063       -20621854.809234619        353739411.15766972     
  -6226881379.4210100       -3342014.8723511696        352164996.10048324     
  -6068571682.0939388        2336970.2697682381        353750091.22478801     
  -5913742241.2052994       -3584899.3828670979        358494696.53058231     
  -6992135279.2136669       -61851466.367498398        189052391.26509053     
  -6808540730.3023300       -1961693.6671066284        180674092.80501407     
  -6632893967.3004894        31435459.334973812        176075988.25327805     
  -6465194990.2081394        38339992.638749838        175258077.60988823     
  -6305443799.0252819        18751906.244209528        178220360.87484339     
  -7422581463.7470198       -71876117.807158470        32049726.667546026     
  -7218889194.0515509        19554747.485001564        14814937.269825386     
  -7027612239.7366362        69601228.175306797        1981025.5072979210     
  -6848750600.8022823        78263324.263745308       -6452008.6200289233     
  -6682304277.2484846        45541035.750326157       -10484165.112157628     
  -5085815886.7749968       -34901538.999925375        693752796.84827614     
  -4934701670.4302979       -8170602.3674132824        676305342.73864746     
  -4786746504.9488564        8030164.7209086418        665541770.71113801     
  -4641950390.3306723        13700762.265028000        661462080.76574612     
  -4500313326.5757504        8841190.2649531364        664066272.90247130     
  -5507199603.7885380       -21469381.130910873        530338841.85505944     
  -5345049550.9994240       -9969704.3741688728        515016977.43530595     
  -5183832295.8523502       -1579353.0908963680        505015242.01585567     
  -5023547838.3473158        3701672.7189090252        500333635.59670794     
  -4864196178.4843235        5873373.0552382469        500972158.17786330     
  -5913742241.2052994       -3584899.3828670979        358494696.53058231     
  -5744452789.3483820       -8485413.7148799896        347895717.22545797     
  -5573869881.9122896       -9074409.4496381283        341253113.83882111     
  -5401993518.8970194       -5351886.5871362686        338566886.37067521     
  -5228823700.3025684        2682154.8726248741        339837034.82101321     
  -6305443799.0252819        18751906.244209528        178220360.87484339     
  -6132911385.4771767       -3717730.3895435333        174941562.10910222     
  -5956859263.1286745       -14455004.355310202        174255386.18003657     
  -5777287431.9797802       -13459915.653100014        176161833.08764100     
  -5594195892.0304890       -732464.28290081024        180660902.83192348     
  -6682304277.2484846        45541035.750326157       -10484165.112157628     
  -6510425339.3858013        4333345.6018493176       -3845487.9137589382     
  -6332800439.5015068       -17721137.807923317        4022059.0394981834     
  -6149429577.5955954       -20622414.478967667        13118475.747613737     
  -5960312753.6680708       -4370484.4113116264        23443762.210591566     
  -4500313326.5757504        8841190.2649531364        664066272.90247130     
  -4362813615.6559687        422159.15507221222        660171600.96421814     
  -4223683372.5053988       -2561764.5188589096        659507333.23574328     
  -4082922597.1240563       -110580.75686931610        662073469.71704686     
  -3940531289.5119243        7775710.4410748482        667870010.40812767     
  -4864196178.4843235        5873373.0552382469        500972158.17786330     
  -4716109238.8127394        3787175.4760167599        498085145.18000758     
  -4567668720.3066683        2879574.0117444992        498650326.96668732     
  -4418874622.9661160        3150568.6624107361        502667703.53789914     
  -4269726946.7910805        4600159.4280209541        510137274.89364356     
  -5228823700.3025684        2682154.8726248741        339837034.82101321     
  -5069515844.5227375        7118897.0309989452        336467901.80121022     
  -4911131363.3047228        8477723.9833135605        336772754.14068907     
  -4753670256.6485186        6758635.7295870781        340751591.83946216     
  -4597132524.5541391        1961632.2697961330        348404414.89752167     
  -5594195892.0304890       -732464.28290081024        180660902.83192348     
  -5423033432.7859602        10417323.820004463        175319870.82781988     
  -5254071301.4995546        14232685.395853281        173874614.75775769     
  -5087309498.1712589        10713620.444659472        176325134.62173316     
  -4922748022.8010807       -139871.03358983994        182671430.41976288     
  -5960312753.6680708       -4370484.4113116264        23443762.210591566     
  -5776662003.6024122        13682455.843047619        14641052.259839684     
  -5596488534.8911724        20144458.249351263        9955908.8178788126     
  -5419792347.5343409        15015522.807622910        9388331.8847302459     
  -5246573441.5319252       -1704350.4821603298        12938321.460369807     
  -3940531289.5119243        7775710.4410748482        667870010.40812767     
  -3791962566.4077959        19427916.330226898        660556903.28018951     
  -3643763261.2199874        29848729.164987564        658558478.24318576     
  -3495933373.9484916        39038148.945374012        661874735.29711962     
  -3348472904.5933008        46996175.671397924        670505674.44198668     
  -4269726946.7910805        4600159.4280209541        510137274.89364356     
  -4109959395.3361840        9547466.9133214951        502915054.63449025     
  -3950339870.5383558        14001352.208382368        500539919.87819386     
  -3790868372.3976116        17961815.313158751        503011870.62474948     
  -3631544900.9139423        21428856.227700472        510330906.87416303     
  -4597132524.5541391        1961632.2697961330        348404414.89752167     
  -4427502135.0001202       -196755.72424101830        341531371.30959564     
  -4257798380.8439412       -2110595.0444111824        339037816.63644832     
  -4088021262.0856037       -3779885.6907114983        340923750.87807721     
  -3918170778.7251048       -5204627.6631450653        347189174.03447646     
  -4922748022.8010807       -139871.03358983994        182671430.41976288     
  -4744590785.3996115       -9804751.5824818611        176405853.30551687     
  -4566138792.1367388       -18487112.593363762        174052168.51795772     
  -4387392043.0124722       -26186954.066264391        175610376.05710042     
  -4208350538.0267959       -32904276.001143456        181080475.92293018     
  -5246573441.5319252       -1704350.4821603298        12938321.460369807     
  -5061225346.5346518       -19276520.661374331        7538500.6222382048     
  -4875361104.4167404       -35128200.438459158        5582975.5227147676     
  -4688980715.1782007       -49259389.813455820        7071746.1618114244     
  -4502084178.8190222       -61670088.786315680        12004812.539519930     
  -3348472904.5933008        46996175.671397924        670505674.44198668     
  -3215765700.6768904        47147650.694298148        662698368.39120173     
  -3084918027.4627304        41100690.043036819        657256577.18890786     
  -2955929884.9508095        28855293.717643976        654180300.83510661     
  -2828801273.1411333        10411461.718099952        653469539.32979465     
  -3631544900.9139423        21428856.227700472        510330906.87416303     
  -3492205417.2635651        18762548.782796144        500738720.27231008     
  -3352808996.1931090        16286032.738138437        494533029.95605087     
  -3213355637.7025867        13999308.093703032        491713835.92538375     
  -3073845341.7919941        11902374.849504471        492281138.18031162     
  -3918170778.7251048       -5204627.6631450653        347189174.03447646     
  -3769281925.5204635       -9813590.6297612190        338047986.35759139     
  -3618419666.7734337       -7844535.1217606068        333314276.40339994     
  -3465584002.4840193        702538.86087179184        332988044.17190254     
  -3310774932.6522212        15827631.318104029        337069289.66310483     
  -4208350538.0267959       -32904276.001143456        181080475.92293018     
  -4046995225.4476032       -38580767.543400288        174626166.64704672     
  -3881750039.2037020       -31291013.536630869        173600316.53096059     
  -3712614979.2951021       -11035013.980864048        178002925.57467103     
  -3539590045.7218060        22187231.123890400        187833993.77817610     
  -4502084178.8190222       -61670088.786315680        12004812.539519930     
  -4325345317.0449839       -67538981.958111525        10473261.140665235     
  -4142800113.4839172       -54053402.506492138        15391150.338723591     
  -3954448568.1358409       -21213350.431497097        26758480.133667778     
  -3760290681.0007505        30981174.266868830        44575250.525525652     
  -2828801273.1411333        10411461.718099952        653469539.32979465     
  -2684468530.9535098       -2915985.6958925724        648126513.98968947     
  -2538305832.4776001       -10143578.815585136        647991320.80784452     
  -2390313177.7133989       -11271317.640972376        653063959.78426659     
  -2240490566.6609011       -6299202.1720607281        663344430.91894829     
  -3073845341.7919941        11902374.849504471        492281138.18031162     
  -2913319287.1754651        13247648.518273950        489038830.22484416     
  -2754737546.2639384        8111876.5036926270        489659071.72963756     
  -2598100119.0574250       -3504941.1942545176        494141862.69468349     
  -2443407005.5559149       -21602804.575558662        502487203.12000304     
  -3310774932.6522212        15827631.318104029        337069289.66310483     
  -3137899230.4582157        30692526.614200473        331524384.10009462     
  -2970742111.9625168        26495476.249285460        328496745.29934174     
  -2809303577.1651158        3236480.2233638763        327986373.26084495     
  -2653583626.0660276       -39084461.463572979        329993267.98460692     
  -3539590045.7218060        22187231.123890400        187833993.77817610     
  -3358208360.8017707        49418648.591876268        175583175.61544481     
  -3186319529.5733271        45007220.421215296        164504341.51696897     
  -3023923552.0364866        8952946.6118848324        154597491.48274392     
  -2871020428.1912532       -58744172.836134434        145862625.51277855     
  -3760290681.0007505        30981174.266868830        44575250.525525652     
  -3574246678.2061167        69426014.451314688        21215204.770895179     
  -3401469799.0963712        63647109.019469738       -2318139.6174856066     
  -3241960043.6715279        13644457.971287012       -26024782.639617831     
  -3095717411.9315758       -80581938.693211794       -49904724.295494281     
 </DataArray>
 <DataArray  type="Float64" Name="VM" NumberOfComponents="1" format="ascii">
   12935216187.474094     
   11340473083.514835     
   10210057433.714905     
   9272673464.5906258     
   8303923864.7069645     
   10130209840.064739     
   9321871574.4885445     
   8826127411.8068752     
   8443175535.4664583     
   8035225738.9721327     
   7982436895.6469440     
   7734899703.3399096     
   7668899248.3444290     
   7669144656.5232658     
   7665712910.9296055     
   6491809696.0754280     
   6586842801.4559374     
   6757205377.2405577     
   6960817666.0033112     
   7171021550.4950552     
   5657879677.3946877     
   5890859290.4394283     
   6116232420.2776756     
   6331535436.1385889     
   6536535980.3025875     
   8303923864.7069645     
   8020310685.1631699     
   7778825561.2578268     
   7568796127.4601822     
   7385258586.5820141     
   8035225738.9721327     
   7746462529.0951958     
   7473414460.0678253     
   7214118342.1009941     
   6968577246.5296144     
   7665712910.9296055     
   7380794074.6148224     
   7101309719.9630442     
   6827334064.7424021     
   6559068021.5518179     
   7171021550.4950552     
   6910740097.9831543     
   6658377939.6663876     
   6410081448.9540663     
   6162706908.0006819     
   6536535980.3025875     
   6328649744.4077702     
   6142929618.4533348     
   5965483831.8700085     
   5787303529.4091558     
   7385258586.5820141     
   7228076932.4050255     
   7063291926.0168114     
   6890213892.8111944     
   6708666076.8883438     
   6968577246.5296144     
   6814350163.4032221     
   6655385391.5754089     
   6491394187.1134977     
   6322324160.2617245     
   6559068021.5518179     
   6407485034.7828007     
   6254143615.9873323     
   6099006822.1197481     
   5942101280.8138933     
   6162706908.0006819     
   6012477904.9131708     
   5863482266.4112759     
   5715759530.9189425     
   5569365922.9426422     
   5787303529.4091558     
   5635790249.4135027     
   5488442062.3659220     
   5345178845.7541113     
   5206045794.1197462     
   6708666076.8883438     
   6515197437.8555079     
   6325329683.1474028     
   6138951203.5960245     
   5956053552.5418282     
   6322324160.2617245     
   6138807982.8211784     
   5957846734.0733557     
   5779418551.6852417     
   5603563684.5323153     
   5942101280.8138933     
   5770370508.5237608     
   5600454417.5986128     
   5432382414.9091511     
   5266227572.6896791     
   5569365922.9426422     
   5411674433.4709959     
   5255395688.6976452     
   5100577369.5358849     
   4947321738.7005682     
   5206045794.1197462     
   5065079732.9769545     
   4925511827.8030939     
   4787380353.7263603     
   4650826266.7237329     
   5956053552.5418282     
   5781429973.2794666     
   5605267458.5449324     
   5427531317.0148344     
   5248238543.8596172     
   5603563684.5323153     
   5438465060.6352940     
   5272583710.2890005     
   5105934379.2251997     
   4938576455.9838095     
   5266227572.6896791     
   5110648122.5073528     
   4955084945.8063602     
   4799600063.2492113     
   4644295110.9658260     
   4947321738.7005682     
   4801178370.3088093     
   4655877341.3473415     
   4511523811.7867785     
   4368259669.1029692     
   4650826266.7237329     
   4513934005.9200850     
   4378716668.1104050     
   4245316101.4577017     
   4113910397.2341518     
   5248238543.8596172     
   5049941594.7754068     
   4851375854.0043001     
   4652539299.1693449     
   4453466221.2866001     
   4938576455.9838095     
   4752179799.7614584     
   4566024502.9194136     
   4380158272.8287563     
   4194683274.8880444     
   4644295110.9658260     
   4471267415.4916849     
   4299185152.4448662     
   4128166989.4464145     
   3958408398.1264873     
   4368259669.1029692     
   4210053973.0217848     
   4053703930.0280800     
   3899415444.3984337     
   3747495051.6626368     
   4113910397.2341518     
   3971894979.1530190     
   3832851151.3663244     
   3697077733.5963860     
   3564995060.2915349     
   4453466221.2866001     
   4289159624.2820892     
   4129507766.7591405     
   3974675150.3592067     
   3825201899.7662296     
   4194683274.8880444     
   4037805484.8605700     
   3885181670.0196323     
   3736991288.8751364     
   3593701697.8653250     
   3958408398.1264873     
   3809008263.4635806     
   3663531807.0224090     
   3522174483.0805893     
   3385341620.0321813     
   3747495051.6626368     
   3606088368.0636086     
   3468361910.1888032     
   3334530060.5427785     
   3204952268.3041916     
   3564995060.2915349     
   3432622540.5966477     
   3303798115.1212173     
   3178760635.9157319     
   3057846425.7351313     
   3825201899.7662296     
   3616707806.4720592     
   3382906543.4907374     
   3139761331.4811916     
   2927813550.2523661     
   3593701697.8653250     
   3405771671.7063408     
   3197462311.5385232     
   2975338104.5414152     
   2757537777.5887532     
   3385341620.0321813     
   3224788060.3774157     
   3054422745.4937115     
   2875919231.3816009     
   2694271824.8683825     
   3204952268.3041916     
   3071658777.8710966     
   2941188106.0970449     
   2814277292.3437386     
   2691950437.8568568     
   3057846425.7351313     
   2943660712.9458666     
   2845052359.6214833     
   2765916144.7076168     
   2711775637.8726306     
   5657879677.3946877     
   5890859290.4394283     
   6116232420.2776756     
   6331535436.1385889     
   6536535980.3025875     
   5151387345.0905638     
   5311272269.0380745     
   5467811541.4752283     
   5618110562.2718096     
   5760701263.5896273     
   4643350912.2976513     
   4755505029.6797810     
   4868795247.0443878     
   4980591515.1533556     
   5088971600.0516043     
   4134035301.1999383     
   4224395851.4657712     
   4320678277.6892662     
   4421232409.4556561     
   4524609371.3214788     
   3624961850.1732469     
   3719769491.5753889     
   3825817528.0892973     
   3943047856.7646551     
   4071372399.0849943     
   6536535980.3025875     
   6328649744.4077702     
   6142929618.4533348     
   5965483831.8700085     
   5787303529.4091558     
   5760701263.5896273     
   5652189456.4610271     
   5559648476.8079863     
   5474020196.7641840     
   5389760464.4696732     
   5088971600.0516043     
   5054200138.5465374     
   5029906839.0081167     
   5010880297.0404558     
   4993916509.6907864     
   4524609371.3214788     
   4539272333.4369659     
   4558579057.7351904     
   4580038717.8884163     
   4601923914.9789352     
   4071372399.0849943     
   4112727826.8374257     
   4151434670.8016872     
   4186577014.3470731     
   4217409357.5003581     
   5787303529.4091558     
   5635790249.4135027     
   5488442062.3659220     
   5345178845.7541113     
   5206045794.1197462     
   5389760464.4696732     
   5248221242.1537247     
   5109948658.9391184     
   4974988299.4641151     
   4843439057.3898125     
   4993916509.6907864     
   4866647382.6871462     
   4742676292.5287266     
   4621980450.4537840     
   4504612814.8735266     
   4601923914.9789352     
   4493727829.4112597     
   4389908547.3382978     
   4290168425.6958127     
   4194432234.9319453     
   4217409357.5003581     
   4133409891.1920891     
   4056090770.2433801     
   3984633097.4566064     
   3918748114.3021917     
   5206045794.1197462     
   5065079732.9769545     
   4925511827.8030939     
   4787380353.7263603     
   4650826266.7237329     
   4843439057.3898125     
   4718397303.1039610     
   4595284446.0462160     
   4474207859.7487717     
   4355369108.4573746     
   4504612814.8735266     
   4394627661.5458059     
   4287076758.4453869     
   4182122523.3497567     
   4080009992.4043894     
   4194432234.9319453     
   4098719510.4838624     
   4005890100.2455101     
   3916144119.5656681     
   3829749881.3843422     
   3918748114.3021917     
   3836608965.9779592     
   3757705547.6213117     
   3682255098.9109712     
   3610526535.6436987     
   4650826266.7237329     
   4513934005.9200850     
   4378716668.1104050     
   4245316101.4577017     
   4113910397.2341518     
   4355369108.4573746     
   4228243513.6059256     
   4103592316.4518986     
   3981623341.5217218     
   3862596758.3390646     
   4080009992.4043894     
   3964404073.6659231     
   3852284181.9945259     
   3743930040.9857745     
   3639689495.0678234     
   3829749881.3843422     
   3727266622.1171298     
   3629494958.5794640     
   3536780519.2956595     
   3449548761.9584436     
   3610526535.6436987     
   3522452397.7118011     
   3440509765.2080812     
   3365086947.3680987     
   3296655924.0833831     
   4113910397.2341518     
   3971894979.1530190     
   3832851151.3663244     
   3697077733.5963860     
   3564995060.2915349     
   3862596758.3390646     
   3736534952.3200359     
   3613994085.1928754     
   3495314736.2910104     
   3380943711.4469275     
   3639689495.0678234     
   3528871476.2109656     
   3422039229.9204574     
   3319553381.5920520     
   3221861293.8424792     
   3449548761.9584436     
   3353308543.3300929     
   3261390617.1360040     
   3174150700.1103964     
   3092009068.8483076     
   3296655924.0833831     
   3214337351.5015292     
   3136501567.7155571     
   3063473851.5739141     
   2995621652.0325255     
   3564995060.2915349     
   3432622540.5966477     
   3303798115.1212173     
   3178760635.9157319     
   3057846425.7351313     
   3380943711.4469275     
   3256787710.4742460     
   3135855662.0534673     
   3018385881.8437371     
   2904685211.4730406     
   3221861293.8424792     
   3108506311.2543440     
   2998461148.4241080     
   2892075635.4961400     
   2789801342.4982367     
   3092009068.8483076     
   2992694192.0765204     
   2897237806.4183044     
   2806220009.9252439     
   2720415940.3597088     
   2995621652.0325255     
   2914070806.4881268     
   2837385860.2042084     
   2766473252.4144821     
   2702569169.6323977     
   3057846425.7351313     
   2943660712.9458666     
   2845052359.6214833     
   2765916144.7076168     
   2711775637.8726306     
   2904685211.4730406     
   2790201563.1240501     
   2685299326.1114354     
   2591491096.8358459     
   2511058006.2382364     
   2789801342.4982367     
   2677403637.7285776     
   2570580497.8673396     
   2469691610.9205160     
   2375256748.2506742     
   2720415940.3597088     
   2615581723.8901362     
   2514660660.7161222     
   2418392302.3935633     
   2327653615.5827408     
   2702569169.6323977     
   2613905513.4544387     
   2530073538.1163588     
   2453713602.1354389     
   2388154001.0144739     
   3624961850.1732469     
   3719769491.5753889     
   3825817528.0892973     
   3943047856.7646551     
   4071372399.0849943     
   3138048429.5259137     
   3255646142.2269993     
   3382645382.6027212     
   3518579392.8077984     
   3662992557.6250091     
   2694899265.4668326     
   2830682123.2580566     
   2973758059.0092783     
   3123044420.4236751     
   3277630194.2846637     
   2298997501.1713104     
   2449666776.9616098     
   2605038658.4050465     
   2763187566.5289545     
   2922681227.4002123     
   1955542357.7856772     
   2119550616.6152096     
   2284900022.7687244     
   2448623987.5166063     
   2608758461.9401526     
   4071372399.0849943     
   4112727826.8374257     
   4151434670.8016872     
   4186577014.3470731     
   4217409357.5003581     
   3662992557.6250091     
   3702418501.0468597     
   3740477404.2214208     
   3776260127.1343999     
   3809009899.0897436     
   3277630194.2846637     
   3320956673.7760000     
   3364550088.6348681     
   3407584736.2827082     
   3449380878.2053151     
   2922681227.4002123     
   2975726801.4458799     
   3031026345.5442719     
   3087901589.7889876     
   3145822190.2388048     
   2608758461.9401526     
   2676784027.9003086     
   2749348336.7743077     
   2825951588.9515877     
   2906245219.0779047     
   4217409357.5003581     
   4133409891.1920891     
   4056090770.2433801     
   3984633097.4566064     
   3918748114.3021917     
   3809009899.0897436     
   3756268552.6888332     
   3709606343.6137996     
   3668561425.7713213     
   3633035176.0322838     
   3449380878.2053151     
   3423275243.7595410     
   3402260276.6596584     
   3386106380.4790459     
   3374792272.6156707     
   3145822190.2388048     
   3142057590.2386713     
   3141804019.6395297     
   3144954302.6884379     
   3151489265.7514715     
   2906245219.0779047     
   2920944718.6150537     
   2936810048.1575618     
   2953775941.7270017     
   2971796484.7996674     
   3918748114.3021917     
   3836608965.9779592     
   3757705547.6213117     
   3682255098.9109712     
   3610526535.6436987     
   3633035176.0322838     
   3563391568.4344764     
   3497917390.0581226     
   3436850384.1132150     
   3380483698.6284919     
   3374792272.6156707     
   3318297523.7086515     
   3267027655.7153354     
   3221220740.4687099     
   3181169839.8902254     
   3151489265.7514715     
   3108325086.1741438     
   3071534191.0771937     
   3041324932.3706207     
   3017955957.8499284     
   2971796484.7996674     
   2941387888.7883415     
   2918551464.7011685     
   2903431416.2599335     
   2896214921.2283688     
   3610526535.6436987     
   3522452397.7118011     
   3440509765.2080812     
   3365086947.3680987     
   3296655924.0833831     
   3380483698.6284919     
   3307688263.7827148     
   3241191640.4163122     
   3181340528.9826922     
   3128545560.2147713     
   3181169839.8902254     
   3122791184.4470892     
   3070801267.0260119     
   3025493570.7607555     
   2987207844.3653626     
   3017955957.8499284     
   2973006211.4049754     
   2934430976.4536591     
   2902460617.1180854     
   2877357908.6075416     
   2896214921.2283688     
   2863515805.8357816     
   2837051722.5648508     
   2816984592.7680635     
   2803500209.0900545     
   3296655924.0833831     
   3214337351.5015292     
   3136501567.7155571     
   3063473851.5739141     
   2995621652.0325255     
   3128545560.2147713     
   3057144264.0071273     
   2991267101.9592123     
   2931265510.4473686     
   2877530924.9543071     
   2987207844.3653626     
   2927360051.1002512     
   2874131592.4400082     
   2827869524.1089582     
   2788953600.1765728     
   2877357908.6075416     
   2829109746.6135297     
   2788584150.8116636     
   2756088697.5452018     
   2731953519.5878992     
   2803500209.0900545     
   2766120218.2099619     
   2737535514.8028898     
   2717984124.0240035     
   2707717206.3782382     
   2995621652.0325255     
   2914070806.4881268     
   2837385860.2042084     
   2766473252.4144821     
   2702569169.6323977     
   2877530924.9543071     
   2815933750.7406549     
   2760300523.1978416     
   2711302636.9897671     
   2669764264.1600785     
   2788953600.1765728     
   2744535007.9091139     
   2706760997.5638156     
   2676055818.9258204     
   2652885474.4854813     
   2731953519.5878992     
   2701018579.0353780     
   2676979547.4915199     
   2660053341.9768343     
   2650456421.0347056     
   2707717206.3782382     
   2685781167.4415936     
   2670611549.2582836     
   2662300125.3311710     
   2660958728.4699450     
   2702569169.6323977     
   2613905513.4544387     
   2530073538.1163588     
   2453713602.1354389     
   2388154001.0144739     
   2669764264.1600785     
   2602526114.3170042     
   2543277287.4263992     
   2493242802.1743078     
   2453777771.5354409     
   2652885474.4854813     
   2604829644.9814553     
   2568263920.3408127     
   2543736133.2628889     
   2531767929.2508044     
   2650456421.0347056     
   2616382007.5597935     
   2597605169.9824390     
   2594646286.5498462     
   2608112115.4127226     
   2660958728.4699450     
   2633185876.9644580     
   2625088879.8430820     
   2637770142.1757193     
   2672689944.3663216     
   1955542357.7856772     
   2119550616.6152096     
   2284900022.7687244     
   2448623987.5166063     
   2608758461.9401526     
   1654025414.2395802     
   1820422435.9390347     
   1988514069.5651331     
   2155598485.8747435     
   2319913078.1875048     
   1393792311.4620097     
   1571127608.6008925     
   1749475990.7373705     
   1926829618.1905012     
   2101935034.6063082     
   1207171350.4266312     
   1399095385.1692441     
   1590611206.5191894     
   1780939969.2514873     
   1969621790.4995828     
   1136885034.2639823     
   1335194098.9893482     
   1533830878.3474817     
   1732795371.7030585     
   1932087579.0294476     
   2608758461.9401526     
   2676784027.9003086     
   2749348336.7743077     
   2825951588.9515877     
   2906245219.0779047     
   2319913078.1875048     
   2407003513.9464359     
   2496546226.7601142     
   2588156924.5318561     
   2681562648.0628490     
   2101935034.6063082     
   2205675279.4646187     
   2309317046.5435305     
   2412626754.8378677     
   2515438865.2875199     
   1969621790.4995828     
   2086728903.0727191     
   2200957844.2613392     
   2312234280.3862972     
   2420506468.2254877     
   1932087579.0294476     
   2058710261.8066063     
   2179866542.5840702     
   2295556421.6488528     
   2405779900.0709424     
   2906245219.0779047     
   2920944718.6150537     
   2936810048.1575618     
   2953775941.7270017     
   2971796484.7996674     
   2681562648.0628490     
   2703183730.3300538     
   2727068233.0383811     
   2753193572.0931334     
   2781549069.1434412     
   2515438865.2875199     
   2543916096.4268832     
   2575780809.5027614     
   2611032917.8895717     
   2649677671.7906570     
   2420506468.2254877     
   2454257878.4049468     
   2492517167.1927633     
   2535287536.2589874     
   2582573420.1762118     
   2405779900.0709424     
   2441606827.8654895     
   2483046673.8998785     
   2530099444.6555877     
   2582765148.8580389     
   2971796484.7996674     
   2941387888.7883415     
   2918551464.7011685     
   2903431416.2599335     
   2896214921.2283688     
   2781549069.1434412     
   2765106434.8968005     
   2755984736.0718164     
   2754272641.3798842     
   2760080099.9188619     
   2649677671.7906570     
   2644461054.3893137     
   2646063165.0020347     
   2654523183.2649589     
   2669888031.9221849     
   2582573420.1762118     
   2585411847.2001729     
   2594327842.1865206     
   2609330182.9826899     
   2630429051.4755340     
   2582765148.8580389     
   2590360616.7444391     
   2603104426.2901721     
   2620996569.0669293     
   2644037065.9864812     
   2896214921.2283688     
   2863515805.8357816     
   2837051722.5648508     
   2816984592.7680635     
   2803500209.0900545     
   2760080099.9188619     
   2737168218.5638061     
   2721097024.9914160     
   2711974529.2158413     
   2709920609.3325906     
   2669888031.9221849     
   2654572274.2586970     
   2646579236.7996340     
   2645962220.9515786     
   2652778530.0969353     
   2630429051.4755340     
   2619784152.6412454     
   2616814732.8333988     
   2621534284.3005500     
   2633956769.4247818     
   2644037065.9864812     
   2634617111.8941698     
   2633103452.0090790     
   2639497049.7039461     
   2653799314.8308125     
   2803500209.0900545     
   2766120218.2099619     
   2737535514.8028898     
   2717984124.0240035     
   2707717206.3782382     
   2709920609.3325906     
   2683321737.6939301     
   2665454992.5286856     
   2656460862.4073296     
   2656484853.7445822     
   2652778530.0969353     
   2634422362.9381905     
   2624640172.8073640     
   2623496019.8311539     
   2631055663.3286996     
   2633956769.4247818     
   2620982612.5697517     
   2616360514.2080421     
   2620106646.1437182     
   2632238056.2413564     
   2653799314.8308125     
   2643222665.1624970     
   2640743293.8956852     
   2646359582.5683036     
   2660070543.0153942     
   2707717206.3782382     
   2685781167.4415936     
   2670611549.2582836     
   2662300125.3311710     
   2660958728.4699450     
   2656484853.7445822     
   2639366208.3259315     
   2630016767.3081188     
   2628508996.2048707     
   2634929669.3477888     
   2631055663.3286996     
   2617615293.9271426     
   2612984672.0944123     
   2617206880.5333757     
   2630335779.9151912     
   2632238056.2413564     
   2620686010.5555687     
   2619042000.6626034     
   2627323079.1273122     
   2645554956.1602063     
   2660070543.0153942     
   2648051442.9982448     
   2647123800.8328681     
   2657297487.3294377     
   2678588483.0016184     
   2660958728.4699450     
   2633185876.9644580     
   2625088879.8430820     
   2637770142.1757193     
   2672689944.3663216     
   2634929669.3477888     
   2607688588.9073663     
   2594008302.7661114     
   2594178129.5999250     
   2608571563.9496646     
   2630335779.9151912     
   2606408589.0533805     
   2590584633.6571708     
   2582866143.0852203     
   2583262006.1555047     
   2645554956.1602063     
   2629797638.6913738     
   2617170075.8355007     
   2607844459.1617351     
   2602192206.7344418     
   2678588483.0016184     
   2677660567.4109635     
   2675340716.5399795     
   2672352056.2386246     
   2670084928.1878014     
   1136885034.2639823     
   1335194098.9893482     
   1533830878.3474817     
   1732795371.7030585     
   1932087579.0294476     
   1207115796.3008685     
   1399049246.7113802     
   1590574896.0922637     
   1780916155.3777742     
   1969614450.1673942     
   1393683292.7998483     
   1571035819.7435627     
   1749405752.9977484     
   1926789097.3120415     
   2101935036.7512872     
   1653881079.1549132     
   1820293256.3131120     
   1988411558.4655983     
   2155538932.6483464     
   2319916560.6509700     
   1955382318.0540566     
   2119392927.6521409     
   2284764673.9714289     
   2448536346.9823394     
   2608748662.2764711     
   1932087579.0294476     
   2058710261.8066063     
   2179866542.5840702     
   2295556421.6488528     
   2405779900.0709424     
   1969614450.1673942     
   2086737130.0369401     
   2200973119.1218944     
   2312247832.3744707     
   2420509277.0732598     
   2101935036.7512872     
   2205688314.5242114     
   2309325182.8548703     
   2412610641.2680783     
   2515378352.8675437     
   2319916560.6509700     
   2407011329.2585397     
   2496530194.3483243     
   2588085353.2142339     
   2681402035.0578585     
   2608748662.2764711     
   2676773169.7154756     
   2749297652.4199085     
   2825815735.0672131     
   2905975287.6298766     
   2405779900.0709424     
   2441606827.8654895     
   2483046673.8998785     
   2530099444.6555877     
   2582765148.8580389     
   2420509277.0732598     
   2454435107.6767769     
   2492927105.5237274     
   2535988826.4961853     
   2583624733.3466177     
   2515378352.8675437     
   2544159096.9251156     
   2576445044.2040687     
   2612238265.7819228     
   2651545312.5679193     
   2681402035.0578585     
   2703363200.4344673     
   2727762904.3324161     
   2754583894.2122712     
   2783819399.8056965     
   2905975287.6298766     
   2920934389.5177646     
   2937285552.7091117     
   2954972433.8562255     
   2973956129.2239003     
   2582765148.8580389     
   2590360616.7444391     
   2603104426.2901721     
   2620996569.0669293     
   2644037065.9864812     
   2583624733.3466177     
   2586401561.2699056     
   2595245200.6007156     
   2610164299.4859171     
   2631170379.4906807     
   2651545312.5679193     
   2646083383.8351011     
   2647407084.7948680     
   2655555233.6653280     
   2670578444.7552667     
   2783819399.8056965     
   2766849820.2975535     
   2757135326.6624708     
   2754762866.6481581     
   2759848277.7417397     
   2973956129.2239003     
   2942668827.9305296     
   2918846481.9004126     
   2902627917.4525752     
   2894206737.8678160     
   2644037065.9864812     
   2634617111.8941698     
   2633103452.0090790     
   2639497049.7039461     
   2653799314.8308125     
   2631170379.4906807     
   2620145001.1968756     
   2616788035.6449699     
   2621114989.4624801     
   2633142102.3377819     
   2670578444.7552667     
   2655182077.6658044     
   2647158531.5172348     
   2646560413.8068533     
   2653442341.3524089     
   2759848277.7417397     
   2737762344.0815263     
   2722691145.7214928     
   2714737300.8846841     
   2714008498.7807178     
   2894206737.8678160     
   2863715579.8734641     
   2839823192.1168184     
   2822683727.4376297     
   2812461453.6310458     
   2653799314.8308125     
   2643222665.1624970     
   2640743293.8956852     
   2646359582.5683036     
   2660070543.0153942     
   2633142102.3377819     
   2621246160.9741378     
   2617783988.3066211     
   2622769121.0563064     
   2636215055.0743084     
   2653442341.3524089     
   2636871149.8178029     
   2628991134.7916436     
   2629863989.0999217     
   2639553037.4538541     
   2714008498.7807178     
   2689515116.3975396     
   2673864553.6090479     
   2667197640.6535912     
   2669662802.2229528     
   2812461453.6310458     
   2777147036.7157211     
   2750693730.3206320     
   2733343142.3726425     
   2725357083.4074292     
   2660070543.0153942     
   2648051442.9982448     
   2647123800.8328681     
   2657297487.3294377     
   2678588483.0016184     
   2636215055.0743084     
   2621567972.9048953     
   2616415457.6968756     
   2620781179.5966225     
   2634688684.6799788     
   2639553037.4538541     
   2620738930.2428846     
   2609921277.1225557     
   2607150735.7080536     
   2612475128.0321007     
   2669662802.2229528     
   2645920165.6548481     
   2628748004.9834771     
   2618218425.8816981     
   2614403557.6279411     
   2725357083.4074292     
   2696713954.4058056     
   2673284875.6993761     
   2655144429.0211248     
   2642375743.7934632     
   2678588483.0016184     
   2677660567.4109635     
   2675340716.5399795     
   2672352056.2386246     
   2670084928.1878014     
   2634688684.6799788     
   2643459806.7677374     
   2655824780.5912657     
   2671963764.7110109     
   2692255252.3784347     
   2612475128.0321007     
   2621987858.2172003     
   2639628069.8901410     
   2665405307.8680911     
   2699336547.9767532     
   2614403557.6279411     
   2614168979.5810776     
   2626141388.7357602     
   2650574686.6249299     
   2687792996.1072016     
   2642375743.7934632     
   2620781510.5026197     
   2614984727.0790987     
   2625939058.3065338     
   2655010704.8366971     
   1955382318.0540566     
   2119392927.6521409     
   2284764673.9714289     
   2448536346.9823394     
   2608748662.2764711     
   2298850349.9059215     
   2449497663.5631266     
   2604866669.9719787     
   2763033949.3713574     
   2922568898.1011710     
   2694793556.1928163     
   2830526489.8773799     
   2973567481.4571347     
   3122833245.7964005     
   3277411966.0131564     
   3138001675.9356651     
   3255524047.4293194     
   3382457255.5135283     
   3518330799.9861493     
   3662685701.0686612     
   3624985375.6810803     
   3719697755.5278893     
   3825653825.8648357     
   3942787900.6344757     
   4071005356.2433333     
   2608748662.2764711     
   2676773169.7154756     
   2749297652.4199085     
   2825815735.0672131     
   2905975287.6298766     
   2922568898.1011710     
   2975601312.0560765     
   3030859740.3628826     
   3087663501.8809419     
   3145480518.3499584     
   3277411966.0131564     
   3320753160.7780170     
   3364347356.1758995     
   3407372159.6135421     
   3449149887.6633501     
   3662685701.0686612     
   3702177903.2925487     
   3740304874.9332266     
   3776167012.5589471     
   3809014287.8081679     
   4071005356.2433333     
   4112491705.3319664     
   4151346777.2427101     
   4186670003.5723710     
   4217727111.8326764     
   2905975287.6298766     
   2920934389.5177646     
   2937285552.7091117     
   2954972433.8562255     
   2973956129.2239003     
   3145480518.3499584     
   3141758521.6704392     
   3141659461.3241000     
   3145081491.3334079     
   3152011855.3869634     
   3449149887.6633501     
   3422841538.7924910     
   3401620122.2994084     
   3385254950.7262964     
   3373730660.4332485     
   3809014287.8081679     
   3755873485.7498045     
   3708699660.6771245     
   3667018298.2504621     
   3630732244.0762267     
   4217727111.8326764     
   4133230168.8035398     
   4055207141.4282193     
   3982809070.1728349     
   3915738097.3035197     
   2973956129.2239003     
   2942668827.9305296     
   2918846481.9004126     
   2902627917.4525752     
   2894206737.8678160     
   3152011855.3869634     
   3107441305.9841123     
   3069201921.7688322     
   3037495001.1353326     
   3012571902.7801962     
   3373730660.4332485     
   3315996064.9960814     
   3263574455.2331347     
   3216693248.2796164     
   3175626104.7176270     
   3630732244.0762267     
   3560538674.5264721     
   3494790783.7060456     
   3433713490.2231584     
   3377573693.5865793     
   3915738097.3035197     
   3834102868.5553479     
   3756213780.2757435     
   3682275121.4009323     
   3612528583.5472512     
   2894206737.8678160     
   2863715579.8734641     
   2839823192.1168184     
   2822683727.4376297     
   2812461453.6310458     
   3012571902.7801962     
   2970370646.1255288     
   2934666367.1158466     
   2905691279.9964600     
   2883703680.1876221     
   3175626104.7176270     
   3119684095.3179245     
   3069908436.8686433     
   3026601555.1049447     
   2990115854.4017549     
   3377573693.5865793     
   3306370028.2316070     
   3240812340.4888363     
   3181251173.5200090     
   3128115532.1543598     
   3612528583.5472512     
   3524958260.6524453     
   3442376335.1555452     
   3365151569.8829184     
   3293760065.1923680     
   2812461453.6310458     
   2777147036.7157211     
   2750693730.3206320     
   2733343142.3726425     
   2725357083.4074292     
   2883703680.1876221     
   2835652146.1627841     
   2795462222.5672164     
   2763451405.4961438     
   2739964191.1350942     
   2990115854.4017549     
   2928792005.9092588     
   2874309861.6043925     
   2827029521.1445098     
   2787347249.4650311     
   3128115532.1543598     
   3053727482.9506073     
   2985178490.1106834     
   2922832604.4446497     
   2867097550.5131984     
   3293760065.1923680     
   3207072021.1619616     
   3125285892.8882108     
   3048735636.1003885     
   2977801897.5882111     
   2725357083.4074292     
   2696713954.4058056     
   2673284875.6993761     
   2655144429.0211248     
   2642375743.7934632     
   2739964191.1350942     
   2703270641.2496591     
   2672761922.2042389     
   2648590868.4040546     
   2630917100.1225801     
   2787347249.4650311     
   2739899723.2582088     
   2699378139.9822011     
   2666049942.1629395     
   2640198720.2537184     
   2867097550.5131984     
   2806221754.4936070     
   2752738960.1930184     
   2707057699.9547958     
   2669627298.0252795     
   2977801897.5882111     
   2900983942.7974949     
   2831729061.5035753     
   2770595686.0156412     
   2718225276.0645876     
   2642375743.7934632     
   2620781510.5026197     
   2614984727.0790987     
   2625939058.3065338     
   2655010704.8366971     
   2630917100.1225801     
   2586742339.5412073     
   2555516757.1169505     
   2538059427.2118444     
   2535399647.7278094     
   2640198720.2537184     
   2576851475.8053927     
   2523746315.4110684     
   2481567926.2696061     
   2451080025.7317238     
   2669627298.0252795     
   2591733510.2282553     
   2521550356.5592217     
   2459605634.4178419     
   2406460876.9179358     
   2718225276.0645876     
   2631312596.6927366     
   2549886530.9017024     
   2474298125.5157304     
   2404982274.7442408     
   3624985375.6810803     
   3719697755.5278893     
   3825653825.8648357     
   3942787900.6344757     
   4071005356.2433333     
   4134112181.0778594     
   4224384340.9564385     
   4320572902.9186850     
   4421021578.5306187     
   4524276302.8594627     
   4643440438.5873785     
   4755541187.6414604     
   4868766081.4286299     
   4980483104.3059807     
   5088769262.7095966     
   5151450566.0304127     
   5311343985.7759295     
   5467874671.4797125     
   5618151643.7506027     
   5760712085.7485304     
   5657878289.3772802     
   5890954883.2924795     
   6116403134.5241966     
   6331769067.4026718     
   6536831779.3852739     
   4071005356.2433333     
   4112491705.3319664     
   4151346777.2427101     
   4186670003.5723710     
   4217727111.8326764     
   4524276302.8594627     
   4539113405.3300180     
   4558620570.0129032     
   4580315630.2762604     
   4602474639.6507359     
   5088769262.7095966     
   5054139502.3694572     
   5030007878.9441471     
   5011166070.5286846     
   4994413355.1052694     
   5760712085.7485304     
   5652240969.6297226     
   5559747353.5791321     
   5474167767.5862818     
   5389962519.1299353     
   6536831779.3852739     
   6328821922.8899937     
   6142971999.5061674     
   5965371072.6763506     
   5787012002.3982906     
   4217727111.8326764     
   4133230168.8035398     
   4055207141.4282193     
   3982809070.1728349     
   3915738097.3035197     
   4602474639.6507359     
   4493869665.3806181     
   4389500106.0127211     
   4289051328.3431621     
   4192433563.2219844     
   4994413355.1052694     
   4866993756.2822924     
   4742806262.4929390     
   4621821359.7274485     
   4504082100.1644154     
   5389962519.1299353     
   5248638122.5164528     
   5110598042.6896343     
   4975885983.8572302     
   4844599796.1621428     
   5787012002.3982906     
   5636133233.7295609     
   5489529516.4654293     
   5347116197.9642506     
   5208945899.0743237     
   3915738097.3035197     
   3834102868.5553479     
   3756213780.2757435     
   3682275121.4009323     
   3612528583.5472512     
   4192433563.2219844     
   4098237420.7718201     
   4007263151.9908466     
   3919721169.1054945     
   3835880939.9782858     
   4504082100.1644154     
   4395681968.4646091     
   4289781793.8632174     
   4186566348.1474686     
   4086307405.1090508     
   4844599796.1621428     
   4720525611.4007902     
   4598100947.2600355     
   4477451248.0173893     
   4358819140.0277748     
   5208945899.0743237     
   5067858975.8980312     
   4927502663.0922756     
   4787910363.4878702     
   4649262132.2950268     
   3612528583.5472512     
   3524958260.6524453     
   3442376335.1555452     
   3365151569.8829184     
   3293760065.1923680     
   3835880939.9782858     
   3732851018.8789430     
   3633869919.5653849     
   3539251840.0223846     
   3449395505.1706138     
   4086307405.1090508     
   3969618033.9148803     
   3856290247.9673038     
   3746576160.2228770     
   3640794465.1070461     
   4358819140.0277748     
   4230222849.2244425     
   4104547648.4917932     
   3981986096.6443677     
   3862786309.0989547     
   4649262132.2950268     
   4510372961.6341219     
   4374189922.6472340     
   4240852425.1113515     
   4110552126.9039116     
   3293760065.1923680     
   3207072021.1619616     
   3125285892.8882108     
   3048735636.1003885     
   2977801897.5882111     
   3449395505.1706138     
   3350143036.8628664     
   3255398234.5833850     
   3165524960.6465373     
   3080953983.7206469     
   3640794465.1070461     
   3528361427.1234794     
   3419910871.4514856     
   3315809013.1532574     
   3216507494.9917254     
   3862786309.0989547     
   3736626703.9152832     
   3613842699.9463205     
   3494777631.4108810     
   3379875031.7987857     
   4110552126.9039116     
   3970142786.8342209     
   3832461501.5643291     
   3697807917.6167555     
   3566591991.3210044     
   2977801897.5882111     
   2900983942.7974949     
   2831729061.5035753     
   2770595686.0156412     
   2718225276.0645876     
   3080953983.7206469     
   2988661565.5890846     
   2901986350.4557657     
   2821474948.0735545     
   2747776416.9398780     
   3216507494.9917254     
   3109750692.9085760     
   3006710779.5371714     
   2907848411.6772599     
   2813731544.0615349     
   3379875031.7987857     
   3260486164.8758178     
   3143070570.4259248     
   3027961754.3346286     
   2915590498.8424439     
   3566591991.3210044     
   3436931061.7164302     
   3307742339.9224606     
   3179230085.3763299     
   3051678933.6558828     
   2718225276.0645876     
   2631312596.6927366     
   2549886530.9017024     
   2474298125.5157304     
   2404982274.7442408     
   2747776416.9398780     
   2649525573.4424696     
   2557322301.4272571     
   2471608331.1677680     
   2392925499.9399934     
   2813731544.0615349     
   2702200269.3410268     
   2596927852.4133925     
   2498447386.7982411     
   2407423054.6620746     
   2915590498.8424439     
   2788986281.5452046     
   2668493497.7234583     
   2554715646.9743519     
   2448429927.2719893     
   3051678933.6558828     
   2908394034.3812113     
   2770745412.6350327     
   2639367302.5502911     
   2515114680.9428091     
   5657878289.3772802     
   5890954883.2924795     
   6116403134.5241966     
   6331769067.4026718     
   6536831779.3852739     
   6491786829.8799391     
   6586958671.3687983     
   6757465255.7204876     
   6961224228.8036079     
   7171575408.8231993     
   7982517265.2060966     
   7735079225.3566294     
   7669207642.8591423     
   7669584747.5245085     
   7666278517.9041996     
   10130518351.502298     
   9322153905.3209782     
   8826441025.0377274     
   8443518460.8664303     
   8035571078.4151239     
   12935877762.642836     
   11340895537.172680     
   10210331959.286125     
   9272799768.3594170     
   8303841821.9977751     
   6536831779.3852739     
   6328821922.8899937     
   6142971999.5061674     
   5965371072.6763506     
   5787012002.3982906     
   7171575408.8231993     
   6911045919.4923639     
   6658415598.7126646     
   6409828000.3220148     
   6162138867.7240000     
   7666278517.9041996     
   7381171904.8588133     
   7101480192.0444298     
   6827282754.4157906     
   6558785927.2407808     
   8035571078.4151239     
   7746851640.4145279     
   7473849338.4525652     
   7214599428.9356813     
   6969112566.6462049     
   8303841821.9977751     
   8020649710.8772907     
   7779645570.1721039     
   7570123522.1672688     
   7387114252.3646383     
   5787012002.3982906     
   5636133233.7295609     
   5489529516.4654293     
   5347116197.9642506     
   5208945899.0743237     
   6162138867.7240000     
   6012718903.0086660     
   5864646397.6081324     
   5717961786.3586330     
   5572723759.9380007     
   6558785927.2407808     
   6407744932.8711939     
   6255023029.9896145     
   6100587445.0636435     
   5944469305.0204411     
   6969112566.6462049     
   6814748992.9290648     
   6655658261.8892927     
   6491551272.6992435     
   6322380858.4023714     
   7387114252.3646383     
   7228731948.7275410     
   7062670906.9212170     
   6888224794.1129389     
   6705215376.9144239     
   5208945899.0743237     
   5067858975.8980312     
   4927502663.0922756     
   4787910363.4878702     
   4649262132.2950268     
   5572723759.9380007     
   5414064369.2973862     
   5256334640.0627775     
   5099572860.2755060     
   4943877780.4341812     
   5944469305.0204411     
   5771755372.7619591     
   5600615081.4872446     
   5431071199.4852419     
   5263183127.0129948     
   6322380858.4023714     
   6138536390.9534807     
   5957295495.4508152     
   5778630323.3390121     
   5602574921.5578003     
   6705215376.9144239     
   6512596499.3958683     
   6323962329.6517162     
   6139186396.5387058     
   5958267080.1715126     
   4649262132.2950268     
   4510372961.6341219     
   4374189922.6472340     
   4240852425.1113515     
   4110552126.9039116     
   4943877780.4341812     
   4796230589.1096783     
   4650023141.4808731     
   4505375598.9958553     
   4362447811.0342751     
   5263183127.0129948     
   5106443271.4643688     
   4949865252.6485662     
   4793525827.1723499     
   4637543109.1024504     
   5602574921.5578003     
   5436736594.7254734     
   5269814465.3704748     
   5101823975.2261715     
   4932835505.0798731     
   5958267080.1715126     
   5783570965.8895044     
   5606614424.9771414     
   5427340047.7812986     
   5245769341.3560028     
   4110552126.9039116     
   3970142786.8342209     
   3832461501.5643291     
   3697807917.6167555     
   3566591991.3210044     
   4362447811.0342751     
   4205932446.3563051     
   4051211160.2178783     
   3898481672.0363832     
   3748027523.9560905     
   4637543109.1024504     
   4466747708.4026270     
   4297057707.5127630     
   4128579281.7222557     
   3961479229.6667099     
   4932835505.0798731     
   4749534229.2989597     
   4566884385.7183695     
   4384919528.8269672     
   4203712006.1867003     
   5245769341.3560028     
   5051631544.8243217     
   4857901886.1733828     
   4664562180.3876143     
   4471616437.9969521     
   3566591991.3210044     
   3436931061.7164302     
   3307742339.9224606     
   3179230085.3763299     
   3051678933.6558828     
   3748027523.9560905     
   3607435540.9407697     
   3468412621.0768313     
   3331093315.9985628     
   3195665043.1944709     
   3961479229.6667099     
   3809648497.4433470     
   3660318677.6598749     
   3513595137.7407804     
   3369678027.8989081     
   4203712006.1867003     
   4039183771.8295531     
   3877874393.4096808     
   3719908348.6501746     
   3565609133.8061819     
   4471616437.9969521     
   4292012729.9477072     
   4116125942.0835323     
   3944156998.6254511     
   3776665846.8205061     
   3051678933.6558828     
   2908394034.3812113     
   2770745412.6350327     
   2639367302.5502911     
   2515114680.9428091     
   3195665043.1944709     
   3040341482.7221107     
   2886223979.8209434     
   2733781056.8015528     
   2583679585.3634338     
   3369678027.8989081     
   3205212772.8284411     
   3037836774.4393754     
   2867754261.1040225     
   2695553085.9965940     
   3565609133.8061819     
   3396829708.8529387     
   3221684375.4415412     
   3040224988.8868542     
   2853310563.7571931     
   3776665846.8205061     
   3609647523.5712652     
   3433738136.3602295     
   3249116457.0527186     
   3057445384.1730580     
 </DataArray>
 <DataArray  type="Float64" Name="strain" NumberOfComponents="3" format="ascii">
  0.20347819133138612        0.0000000000000000       0.12540590028364776     
  0.18665049368004583       -2.7324627397264052E-002   7.4356414917029268E-002
  0.16982279602870551       -4.4675068188933194E-002   3.5136384145898099E-002
  0.15299509837736522       -5.2051322375007453E-002   7.7458079702542419E-003
  0.13616740072602490       -4.9453389955486801E-002  -7.8153136099022719E-003
  0.15985388752617261        0.0000000000000000        9.6449003524062257E-002
  0.15317489279887792       -2.1844504767079595E-002   6.2693875873938376E-002
  0.14649589807158322       -3.6173873430099361E-002   3.7406699476418351E-002
  0.13981690334428851       -4.2988105989059291E-002   2.0587474331502237E-002
  0.13313790861699384       -4.2287202443959421E-002   1.2236200439189972E-002
  0.12646003175406806        0.0000000000000000        7.4201754645428747E-002
  0.12656823660793554       -1.6364382136895134E-002   5.5281934210264394E-002
  0.12667644146180301       -2.7672678671265518E-002   4.1468561684820472E-002
  0.12678464631567046       -3.3924889603111158E-002   3.2761637069097002E-002
  0.12689285116953794       -3.5121014932432047E-002   2.9161160363093946E-002
  0.10329662401507252        0.0000000000000000        5.8664153647747234E-002
  0.10683052510721867       -1.0884259506710677E-002   5.2120589926007363E-002
  0.11036442619936487       -1.9171483912431682E-002   4.7321970771104421E-002
  0.11389832729151103       -2.4861673217163018E-002   4.4268296183038541E-002
  0.11743222838365719       -2.7954827420904670E-002   4.2959566161809598E-002
   9.0363664309185937E-002   0.0000000000000000        4.9836200531017720E-002
   9.3961758296727371E-002  -5.4041368765262200E-003   5.3209843021167214E-002
   9.7559852284268805E-002  -1.0670289153597842E-002   5.4966926735270254E-002
  0.10115794627181024       -1.5798456831214870E-002   5.5107451673326840E-002
  0.10475604025935167       -2.0788639909377300E-002   5.3631417835336932E-002
  0.13616740072602490       -4.9453389955486801E-002  -7.8153136099022719E-003
  0.13295520216707243       -4.2918078597214214E-002  -3.4037544121130123E-003
  0.12974300360811997       -3.8482195967032576E-002  -3.9640977815486728E-004
  0.12653080504916753       -3.6145742064942019E-002   1.2067202919721527E-003
  0.12331860649021503       -3.5908716890942466E-002   1.4056357982679957E-003
  0.13313790861699384       -4.2287202443959421E-002   1.2236200439189972E-002
  0.12890767961621263       -3.8420824327305182E-002   1.2176570576035876E-002
  0.12467745061543152       -3.5738633171601954E-002   1.1485094393055433E-002
  0.12044722161465035       -3.4240628976849811E-002   1.0161771890248724E-002
  0.11621699261386920       -3.3926811743048679E-002   8.2066030676158641E-003
  0.12689285116953794       -3.5121014932432047E-002   2.9161160363093946E-002
  0.12241695997093294       -3.3923570057396116E-002   2.5545583206136348E-002
  0.11794106877232800       -3.2995070376171255E-002   2.2070527973357366E-002
  0.11346517757372304       -3.2335515888757542E-002   1.8735994664756981E-002
  0.10898928637511808       -3.1944906595154907E-002   1.5541983280335299E-002
  0.11743222838365719       -2.7954827420904670E-002   4.2959566161809598E-002
  0.11348304323123332       -2.9426315787487070E-002   3.6703283478188485E-002
  0.10953385807880940       -3.0251507580740595E-002   3.1359890962750894E-002
  0.10558467292638549       -3.0430402800665297E-002   2.6929388615496801E-002
  0.10163548777396160       -2.9963001447261127E-002   2.3411776436426224E-002
  0.10475604025935167       -2.0788639909377300E-002   5.3631417835336932E-002
  0.10210592939711371       -2.4929061517578031E-002   4.5649671392192295E-002
   9.9455818534875770E-002  -2.7507944785309942E-002   3.9353183361236034E-002
   9.6805707672637825E-002  -2.8525289712573055E-002   3.4741953742468183E-002
   9.4155596810399866E-002  -2.7981096299367347E-002   3.1815982535888659E-002
  0.12331860649021503       -3.5908716890942466E-002   1.4056357982679957E-003
  0.12040312893246652       -3.6410696916943291E-002   6.6770934343582389E-004
  0.11748765137471798       -3.6291258614853932E-002   9.7639751087286175E-005
  0.11457217381696948       -3.5550401984674448E-002  -3.0457297877784645E-004
  0.11165669625922092       -3.4188127026404613E-002  -5.3892884615969194E-004
  0.11621699261386920       -3.3926811743048679E-002   8.2066030676158641E-003
  0.11345947582199509       -3.4004900670099356E-002   7.8435846374385471E-003
  0.11070195903012095       -3.3682614957902542E-002   7.6286308765261407E-003
  0.10794444223824683       -3.2959954606458147E-002   7.5617417848796095E-003
  0.10518692544637273       -3.1836919615766374E-002   7.6429173624982527E-003
  0.10898928637511808       -3.1944906595154907E-002   1.5541983280335299E-002
  0.10636993815590029       -3.1599104423255406E-002   1.5332829185969739E-002
  0.10375058993668254       -3.1073971300951072E-002   1.5251947567651355E-002
  0.10113124171746482       -3.0369507228241908E-002   1.5299338425380527E-002
   9.8511893498247016E-002  -2.9485712205127967E-002   1.5475001759157031E-002
  0.10163548777396160       -2.9963001447261127E-002   2.3411776436426224E-002
   9.9134515934182224E-002  -2.9193308176411463E-002   2.3135442989029781E-002
   9.6633544094402835E-002  -2.8465327643999672E-002   2.2967589824462720E-002
   9.4132572254623501E-002  -2.7779059850025722E-002   2.2908216942725049E-002
   9.1631600414844083E-002  -2.7134504794489617E-002   2.2957324343816594E-002
   9.4155596810399866E-002  -2.7981096299367347E-002   3.1815982535888659E-002
   9.1753209156840848E-002  -2.6787511929567513E-002   3.1251426046618770E-002
   8.9350821503281830E-002  -2.5856683987048247E-002   3.0775557646960119E-002
   8.6948433849722812E-002  -2.5188612471809486E-002   3.0388377336912846E-002
   8.4546046196163793E-002  -2.4783297383851294E-002   3.0089885116476867E-002
  0.11165669625922092       -3.4188127026404613E-002  -5.3892884615969194E-004
  0.10856999687625846       -3.2645904878619597E-002  -2.6255971041910797E-004
  0.10548329749329610       -3.1365206679893926E-002   9.3293631053509296E-005
  0.10239659811033366       -3.0346032430227508E-002   5.2863117825729944E-004
   9.9309898727371282E-002  -2.9588382129620783E-002   1.0434529311930119E-003
  0.10518692544637273       -3.1836919615766374E-002   7.6429173624982527E-003
  0.10220423139446438       -3.0599559643747914E-002   7.5219221754570798E-003
   9.9221537342555996E-002  -2.9533924348323977E-002   7.5294534447925693E-003
   9.6238843290647635E-002  -2.8640013729494498E-002   7.6655111705043535E-003
   9.3256149238739316E-002  -2.7917827787259597E-002   7.9300953525927309E-003
   9.8511893498247016E-002  -2.9485712205127967E-002   1.5475001759157031E-002
   9.5682247028037681E-002  -2.8553214408876357E-002   1.5046441521799049E-002
   9.2852600557828333E-002  -2.7702642016754195E-002   1.4795449991462428E-002
   9.0022954087618900E-002  -2.6933995028761436E-002   1.4722027168147335E-002
   8.7193307617409566E-002  -2.6247273444898134E-002   1.4826173051853436E-002
   9.1631600414844083E-002  -2.7134504794489617E-002   2.2957324343816594E-002
   8.9004043776978556E-002  -2.6506869174004709E-002   2.2310998328606772E-002
   8.6376487139113028E-002  -2.5871359685184274E-002   2.1891283271063166E-002
   8.3748930501247473E-002  -2.5227976328028333E-002   2.1698179171185786E-002
   8.1121373863381974E-002  -2.4576719102536865E-002   2.1731686028974732E-002
   8.4546046196163793E-002  -2.4783297383851294E-002   3.0089885116476867E-002
   8.2169621641286980E-002  -2.4460523939133130E-002   2.9315592595880124E-002
   7.9793197086410139E-002  -2.4040077353614409E-002   2.8816953283594363E-002
   7.7416772531533326E-002  -2.3521957627295323E-002   2.8593967179620025E-002
   7.5040347976656485E-002  -2.2906164760175624E-002   2.8646634283956723E-002
   9.9309898727371282E-002  -2.9588382129620783E-002   1.0434529311930119E-003
   9.6357420683520156E-002  -2.8900747718006964E-002   7.1254093079980985E-004
   9.3404942639669142E-002  -2.8091621135319517E-002   5.5922445098424700E-004
   9.0452464595818044E-002  -2.7161002381558975E-002   5.8350349174635108E-004
   8.7499986551967002E-002  -2.6108891456724681E-002   7.8537805308620534E-004
   9.3256149238739316E-002  -2.7917827787259597E-002   7.9300953525927309E-003
   9.0475382934407877E-002  -2.7237271265425550E-002   7.6891864418765221E-003
   8.7694616630076466E-002  -2.6468248907799641E-002   7.6141054896217836E-003
   8.4913850325745069E-002  -2.5610760714381564E-002   7.7048524958287720E-003
   8.2133084021413616E-002  -2.4664806685171348E-002   7.9614274604973834E-003
   8.7193307617409566E-002  -2.6247273444898134E-002   1.4826173051853436E-002
   8.4572485490481741E-002  -2.5573794812844261E-002   1.4642240895532704E-002
   8.1951663363553848E-002  -2.4844876680279585E-002   1.4612369135557496E-002
   7.9330841236626010E-002  -2.4060519047204205E-002   1.4736557771927970E-002
   7.6710019109698158E-002  -2.3220721913617903E-002   1.5014806804643982E-002
   8.1121373863381974E-002  -2.4576719102536865E-002   2.1731686028974732E-002
   7.8648728351741665E-002  -2.3910318360262965E-002   2.1571704291768273E-002
   7.6176082840101397E-002  -2.3221504452759674E-002   2.1554015388791429E-002
   7.3703437328461088E-002  -2.2510277380026762E-002   2.1678619320043821E-002
   7.1230791816820821E-002  -2.1776637142064514E-002   2.1945516085525966E-002
   7.5040347976656485E-002  -2.2906164760175624E-002   2.8646634283956723E-002
   7.2704111518187675E-002  -2.2246841907681697E-002   2.8477576630583118E-002
   7.0367875059718893E-002  -2.1598132225239618E-002   2.8439044249323100E-002
   6.8031638601250125E-002  -2.0960035712849483E-002   2.8531037140176359E-002
   6.5695402142781356E-002  -2.0332552370511070E-002   2.8753555303143219E-002
   8.7499986551967002E-002  -2.6108891456724681E-002   7.8537805308620534E-004
   8.4227166704236467E-002  -2.4983438281232229E-002   5.0200858781035418E-004
   8.0954346856505821E-002  -2.3832792775495909E-002   3.9963229313860760E-004
   7.7681527008775259E-002  -2.2656954939515896E-002   4.7824916907007742E-004
   7.4408707161044640E-002  -2.1455924773292279E-002   7.3785921560598489E-004
   8.2133084021413616E-002  -2.4664806685171348E-002   7.9614274604973834E-003
   7.9049911262318306E-002  -2.3663921629601653E-002   7.6538438056766023E-003
   7.5966738503222941E-002  -2.2641640357104420E-002   7.5445611575226390E-003
   7.2883565744127576E-002  -2.1597962867679940E-002   7.6335795160354519E-003
   6.9800392985032211E-002  -2.0532889161327894E-002   7.9208988812144998E-003
   7.6710019109698158E-002  -2.3220721913617903E-002   1.5014806804643982E-002
   7.3833801275301036E-002  -2.2344404977970883E-002   1.4679212846961720E-002
   7.0957583440903929E-002  -2.1450487938713028E-002   1.4559227732009350E-002
   6.8081365606506766E-002  -2.0538970795843870E-002   1.4654851459786560E-002
   6.5205147772109673E-002  -1.9609853549363898E-002   1.4966084030293619E-002
   7.1230791816820821E-002  -2.1776637142064514E-002   2.1945516085525966E-002
   6.8578836743184796E-002  -2.1024888326340266E-002   2.1578115711666110E-002
   6.5926881669548840E-002  -2.0259335520321310E-002   2.1443632016598813E-002
   6.3274926595912842E-002  -1.9479978724007967E-002   2.1542065000324240E-002
   6.0622971522276865E-002  -1.8686817937399708E-002   2.1873414662842268E-002
   6.5695402142781356E-002  -2.0332552370511070E-002   2.8753555303143219E-002
   6.3285017665969528E-002  -1.9705371674709593E-002   2.8350552399789258E-002
   6.0874633189157701E-002  -1.9068183101929884E-002   2.8197774011290866E-002
   5.8464248712345901E-002  -1.8420986652171751E-002   2.8295220137648083E-002
   5.6053864235534046E-002  -1.7763782325435573E-002   2.8642890778861230E-002
   7.4408707161044640E-002  -2.1455924773292279E-002   7.3785921560598489E-004
   7.1713979945461581E-002  -2.0424031271090048E-002   1.1465578829710221E-003
   6.9019252729878411E-002  -1.9755603427174723E-002   1.6487382165704667E-003
   6.6324525514295324E-002  -1.9450641241546905E-002   2.2444002164040688E-003
   6.3629798298712181E-002  -1.9509144714205284E-002   2.9335438824721338E-003
   6.9800392985032211E-002  -2.0532889161327894E-002   7.9208988812144998E-003
   6.7204183393763273E-002  -1.9607677094284015E-002   8.0154098928348905E-003
   6.4607973802494362E-002  -1.8983584522782260E-002   8.2134744868486986E-003
   6.2011764211225409E-002  -1.8660611446823155E-002   8.5150926632565627E-003
   5.9415554619956457E-002  -1.8638757866407119E-002   8.9202644220589544E-003
   6.5205147772109673E-002  -1.9609853549363898E-002   1.4966084030293619E-002
   6.2717527721314531E-002  -1.8791322917477704E-002   1.4808753548912840E-002
   6.0229907670519570E-002  -1.8211565618389700E-002   1.4765048566085487E-002
   5.7742287619724490E-002  -1.7870581652100297E-002   1.4834969081812373E-002
   5.5254667568929494E-002  -1.7768371018609175E-002   1.5018515096093088E-002
   6.0622971522276865E-002  -1.8686817937399708E-002   2.1873414662842268E-002
   5.8254012928115488E-002  -1.7974968740671421E-002   2.1526588851204828E-002
   5.5885054333954021E-002  -1.7439546713996966E-002   2.1303460454280911E-002
   5.3516095739792602E-002  -1.7080551857377106E-002   2.1204029472070576E-002
   5.1147137145631176E-002  -1.6897984170811120E-002   2.1228295904573521E-002
   5.6053864235534046E-002  -1.7763782325435573E-002   2.8642890778861230E-002
   5.3813639014165915E-002  -1.7158614563865082E-002   2.8168915799711591E-002
   5.1573413792797812E-002  -1.6667527809604538E-002   2.7828710151434954E-002
   4.9333188571429668E-002  -1.6290522062653794E-002   2.7622273834031694E-002
   4.7092963350061579E-002  -1.6027597323013121E-002   2.7549606847501462E-002
   6.3629798298712181E-002  -1.9509144714205284E-002   2.9335438824721338E-003
   6.0158728781802284E-002  -1.8580431934282493E-002  -3.6856440824961645E-004
   5.6687659264892498E-002  -1.5313820990911553E-002  -3.3071424936359506E-003
   5.3216589747982684E-002  -9.7093118840908960E-003  -5.8821903736861469E-003
   4.9745520231072815E-002  -1.7669046138224509E-003  -8.0937080484013713E-003
   5.9415554619956457E-002  -1.8638757866407119E-002   8.9202644220589544E-003
   5.6288266424459721E-002  -1.7968454521550992E-002   7.6197224690791043E-003
   5.3160978228963068E-002  -1.5700132152272173E-002   6.6432129535898832E-003
   5.0033690033466430E-002  -1.1833790758571189E-002   5.9907358755916795E-003
   4.6906401837969680E-002  -6.3694303404480124E-003   5.6622912350836607E-003
   5.5254667568929494E-002  -1.7768371018609175E-002   1.5018515096093088E-002
   5.2431662927001105E-002  -1.7356477108819213E-002   1.4979660341828821E-002
   4.9608658285072812E-002  -1.6086443313633375E-002   1.5225340257210146E-002
   4.6785653643144430E-002  -1.3958269633051100E-002   1.5755554842237965E-002
   4.3962649001216103E-002  -1.0971956067073130E-002   1.6570304096911070E-002
   5.1147137145631176E-002  -1.6897984170811120E-002   2.1228295904573521E-002
   4.8588918289426401E-002  -1.6744499696087572E-002   2.1711249209998604E-002
   4.6030699433221550E-002  -1.6472754474994175E-002   2.2439239417224616E-002
   4.3472480577016810E-002  -1.6082748507531202E-002   2.3412266526251880E-002
   4.0914261720811959E-002  -1.5574481793698469E-002   2.4630330537080219E-002
   4.7092963350061579E-002  -1.6027597323013121E-002   2.7549606847501462E-002
   4.4760032511735437E-002  -1.6132522283355821E-002   2.7814489073589077E-002
   4.2427101673409351E-002  -1.6859065636355017E-002   2.8284910433632932E-002
   4.0094170835083251E-002  -1.8207227382011148E-002   2.8960870927633678E-002
   3.7761239996757179E-002  -2.0177007520323809E-002   2.9842370555589914E-002
   9.0363664309185937E-002   0.0000000000000000        4.9836200531017720E-002
   9.3961758296727371E-002  -5.4041368765262200E-003   5.3209843021167214E-002
   9.7559852284268805E-002  -1.0670289153597842E-002   5.4966926735270254E-002
  0.10115794627181024       -1.5798456831214870E-002   5.5107451673326840E-002
  0.10475604025935167       -2.0788639909377300E-002   5.3631417835336932E-002
   8.2424549238880887E-002   0.0000000000000000        4.4784964851091368E-002
   8.4634825773457545E-002  -4.5739164674779356E-003   4.8269007918225200E-002
   8.6845102308034189E-002  -9.0369815027133583E-003   5.0593974855475891E-002
   8.9055378842610833E-002  -1.3389195105706282E-002   5.1759865662843504E-002
   9.1265655377187491E-002  -1.7630557276456699E-002   5.1766680340327983E-002
   7.4242675406629946E-002   0.0000000000000000        4.0577516163819341E-002
   7.5522617134405168E-002  -3.7436960584296460E-003   4.4144826640725415E-002
   7.6802558862180362E-002  -7.4036738518288778E-003   4.7010543633911724E-002
   7.8082500589955584E-002  -1.0979933380197694E-002   4.9174667143378245E-002
   7.9362442317730791E-002  -1.4472474643536095E-002   5.0637197169124994E-002
   6.5818042812433128E-002   0.0000000000000000        3.7213854469201661E-002
   6.6625132379570226E-002  -2.9134756493813599E-003   4.0837299188667880E-002
   6.7432221946707352E-002  -5.7703662009443921E-003   4.4216633070577688E-002
   6.8239311513844464E-002  -8.5706716546891069E-003   4.7351856114931062E-002
   6.9046401080981562E-002  -1.1314392010615496E-002   5.0242968321727977E-002
   5.7150651456290419E-002   0.0000000000000000        3.4693979767238300E-002
   5.7942371508952768E-002  -2.0832552403330720E-003   3.8346425562052588E-002
   5.8734091561615125E-002  -4.1370585500599116E-003   4.2212243165473777E-002
   5.9525811614277474E-002  -6.1614099291805186E-003   4.6291432577501901E-002
   6.0317531666939816E-002  -8.1563093776948880E-003   5.0583993798136918E-002
  0.10475604025935167       -2.0788639909377300E-002   5.3631417835336932E-002
  0.10210592939711371       -2.4929061517578031E-002   4.5649671392192295E-002
   9.9455818534875770E-002  -2.7507944785309942E-002   3.9353183361236034E-002
   9.6805707672637825E-002  -2.8525289712573055E-002   3.4741953742468183E-002
   9.4155596810399866E-002  -2.7981096299367347E-002   3.1815982535888659E-002
   9.1265655377187491E-002  -1.7630557276456699E-002   5.1766680340327983E-002
   9.0063686822827463E-002  -2.1206053355770881E-002   4.6526199161129767E-002
   8.8861718268467463E-002  -2.3560668684455117E-002   4.2496744185499022E-002
   8.7659749714107449E-002  -2.4694403262509428E-002   3.9678315413435722E-002
   8.6457781159747449E-002  -2.4607257089933769E-002   3.8070912844939971E-002
   7.9362442317730791E-002  -1.4472474643536095E-002   5.0637197169124994E-002
   7.9134383862627805E-002  -1.7483045193963747E-002   4.7797323664034295E-002
   7.8906325407524847E-002  -1.9613392583600311E-002   4.5694244153890250E-002
   7.8678266952421874E-002  -2.0863516812445797E-002   4.4327958638692731E-002
   7.8450208497318888E-002  -2.1233417880500191E-002   4.3698467118441824E-002
   6.9046401080981562E-002  -1.1314392010615496E-002   5.0242968321727977E-002
   6.9318020516514728E-002  -1.3760037032156608E-002   4.9463044900906007E-002
   6.9589639952047921E-002  -1.5666116482745504E-002   4.8945683266409717E-002
   6.9861259387581087E-002  -1.7032630362382162E-002   4.8690883418239149E-002
   7.0132878823114253E-002  -1.7859578671066599E-002   4.8698645356394225E-002
   6.0317531666939816E-002  -8.1563093776948880E-003   5.0583993798136918E-002
   6.0614596784488252E-002  -1.0037028870349461E-002   5.1523362871744763E-002
   6.0911661902036666E-002  -1.1718840381890692E-002   5.2251061523057425E-002
   6.1208727019585088E-002  -1.3201743912318546E-002   5.2767089752074850E-002
   6.1505792137133510E-002  -1.4485739461633042E-002   5.3071447558797107E-002
   9.4155596810399866E-002  -2.7981096299367347E-002   3.1815982535888659E-002
   9.1753209156840848E-002  -2.6787511929567513E-002   3.1251426046618770E-002
   8.9350821503281830E-002  -2.5856683987048247E-002   3.0775557646960119E-002
   8.6948433849722812E-002  -2.5188612471809486E-002   3.0388377336912846E-002
   8.4546046196163793E-002  -2.4783297383851294E-002   3.0089885116476867E-002
   8.6457781159747449E-002  -2.4607257089933769E-002   3.8070912844939971E-002
   8.4189757945125690E-002  -2.3961531066068343E-002   3.7059036955554403E-002
   8.1921734730503917E-002  -2.3419526090253356E-002   3.6227201854431887E-002
   7.9653711515882172E-002  -2.2981242162488848E-002   3.5575407541572651E-002
   7.7385688301260386E-002  -2.2646679282774751E-002   3.5103654016976515E-002
   7.8450208497318888E-002  -2.1233417880500191E-002   4.3698467118441824E-002
   7.6407902420286222E-002  -2.1135550202569197E-002   4.2398307208170657E-002
   7.4365596343253570E-002  -2.0982368193458546E-002   4.1369540784814501E-002
   7.2323290266220919E-002  -2.0773871853168233E-002   4.0612167848373272E-002
   7.0280984189188295E-002  -2.0510061181698222E-002   4.0126188398847212E-002
   7.0132878823114253E-002  -1.7859578671066599E-002   4.8698645356394225E-002
   6.8407642582322542E-002  -1.8309569339070075E-002   4.7269236804467533E-002
   6.6682406341530817E-002  -1.8545210296663686E-002   4.6202574438107769E-002
   6.4957170100739092E-002  -1.8566501543847636E-002   4.5498658257314806E-002
   6.3231933859947353E-002  -1.8373443080621728E-002   4.5157488262088652E-002
   6.1505792137133510E-002  -1.4485739461633042E-002   5.3071447558797107E-002
   6.0188978431234566E-002  -1.5483588475570877E-002   5.1671825744445059E-002
   5.8872164725335616E-002  -1.6108052399868872E-002   5.0726302814311786E-002
   5.7555351019436672E-002  -1.6359131234527001E-002   5.0234878768397148E-002
   5.6238537313537756E-002  -1.6236824979545178E-002   5.0197553606701251E-002
   8.4546046196163793E-002  -2.4783297383851294E-002   3.0089885116476867E-002
   8.2169621641286980E-002  -2.4460523939133130E-002   2.9315592595880124E-002
   7.9793197086410139E-002  -2.4040077353614409E-002   2.8816953283594363E-002
   7.7416772531533326E-002  -2.3521957627295323E-002   2.8593967179620025E-002
   7.5040347976656485E-002  -2.2906164760175624E-002   2.8646634283956723E-002
   7.7385688301260386E-002  -2.2646679282774751E-002   3.5103654016976515E-002
   7.5270909549477225E-002  -2.2320943812968244E-002   3.4462877558511379E-002
   7.3156130797694063E-002  -2.1909142114926158E-002   3.4069739497922392E-002
   7.1041352045910888E-002  -2.1411274188648809E-002   3.3924239835209674E-002
   6.8926573294127713E-002  -2.0827340034135999E-002   3.4026378570372801E-002
   7.0280984189188295E-002  -2.0510061181698222E-002   4.0126188398847212E-002
   6.8399836430063740E-002  -2.0181363686803268E-002   3.9607321089948716E-002
   6.6518688670939213E-002  -1.9778206876237936E-002   3.9308077368491186E-002
   6.4637540911814673E-002  -1.9300590750002379E-002   3.9228457234474864E-002
   6.2756393152690118E-002  -1.8748515308096417E-002   3.9368460687899683E-002
   6.3231933859947353E-002  -1.8373443080621728E-002   4.5157488262088652E-002
   6.1556402283046437E-002  -1.8041783560638309E-002   4.4748923190191678E-002
   5.9880870706145492E-002  -1.7647271637549769E-002   4.4531966895300666E-002
   5.8205339129244575E-002  -1.7189907311355907E-002   4.4506619377415860E-002
   5.6529807552343631E-002  -1.6669690582056841E-002   4.4672880636537106E-002
   5.6238537313537756E-002  -1.6236824979545178E-002   5.0197553606701251E-002
   5.4740607108425376E-002  -1.5902203434473405E-002   4.9887683859240584E-002
   5.3242676903313010E-002  -1.5516336398861484E-002   4.9741408078350993E-002
   5.1744746698200637E-002  -1.5079223872709399E-002   4.9758726264032528E-002
   5.0246816493088292E-002  -1.4590865856017210E-002   4.9939638416285098E-002
   7.5040347976656485E-002  -2.2906164760175624E-002   2.8646634283956723E-002
   7.2704111518187675E-002  -2.2246841907681697E-002   2.8477576630583118E-002
   7.0367875059718893E-002  -2.1598132225239618E-002   2.8439044249323100E-002
   6.8031638601250125E-002  -2.0960035712849483E-002   2.8531037140176359E-002
   6.5695402142781356E-002  -2.0332552370511070E-002   2.8753555303143219E-002
   6.8926573294127713E-002  -2.0827340034135999E-002   3.4026378570372801E-002
   6.6734772872660830E-002  -2.0205607165615078E-002   3.3804285237843387E-002
   6.4542972451193920E-002  -1.9594343097313366E-002   3.3740538707204226E-002
   6.2351172029726988E-002  -1.8993547829230718E-002   3.3835138978455255E-002
   6.0159371608260126E-002  -1.8403221361367184E-002   3.4088086051596772E-002
   6.2756393152690118E-002  -1.8748515308096417E-002   3.9368460687899683E-002
   6.0736850298001896E-002  -1.8164372423548583E-002   3.9093476046047002E-002
   5.8717307443313681E-002  -1.7590553969387118E-002   3.9004659735861355E-002
   5.6697764588625535E-002  -1.7027059945612013E-002   3.9102011757343041E-002
   5.4678221733937313E-002  -1.6473890352223325E-002   3.9385532110491603E-002
   5.6529807552343631E-002  -1.6669690582056841E-002   4.4672880636537106E-002
   5.4710343794210969E-002  -1.6123137681481943E-002   4.4345149055193905E-002
   5.2890880036078329E-002  -1.5586764841460867E-002   4.4231407335294730E-002
   5.1071416277945689E-002  -1.5060572061993195E-002   4.4331655476839572E-002
   4.9251952519813035E-002  -1.4544559343079369E-002   4.4645893479828155E-002
   5.0246816493088292E-002  -1.4590865856017210E-002   4.9939638416285098E-002
   4.8655253361288009E-002  -1.4081902939415469E-002   4.9559304265284265E-002
   4.7063690229487726E-002  -1.3582975713534631E-002   4.9420781505504052E-002
   4.5472127097687436E-002  -1.3094084178374574E-002   4.9524070136944903E-002
   4.3880563965887159E-002  -1.2615228333935524E-002   4.9869170159606291E-002
   6.5695402142781356E-002  -2.0332552370511070E-002   2.8753555303143219E-002
   6.3285017665969528E-002  -1.9705371674709593E-002   2.8350552399789258E-002
   6.0874633189157701E-002  -1.9068183101929884E-002   2.8197774011290866E-002
   5.8464248712345901E-002  -1.8420986652171751E-002   2.8295220137648083E-002
   5.6053864235534046E-002  -1.7763782325435573E-002   2.8642890778861230E-002
   6.0159371608260126E-002  -1.8403221361367184E-002   3.4088086051596772E-002
   5.7985774589097122E-002  -1.7814361109739024E-002   3.3735298873597691E-002
   5.5812177569934104E-002  -1.7217964490362558E-002   3.3605862096040801E-002
   5.3638580550771094E-002  -1.6614031503237467E-002   3.3699775718925878E-002
   5.1464983531608083E-002  -1.6002562148363930E-002   3.4017039742252841E-002
   5.4678221733937313E-002  -1.6473890352223325E-002   3.9385532110491603E-002
   5.2714538058009540E-002  -1.5923350544768483E-002   3.9080489148617795E-002
   5.0750854382081753E-002  -1.5367745878795004E-002   3.8971922472772459E-002
   4.8787170706153994E-002  -1.4807076354303070E-002   3.9059832082955617E-002
   4.6823487030226207E-002  -1.4241341971292371E-002   3.9344217979166984E-002
   4.9251952519813035E-002  -1.4544559343079369E-002   4.4645893479828155E-002
   4.7471308072706837E-002  -1.4032339979798039E-002   4.4386123224849840E-002
   4.5690663625600647E-002  -1.3517527267227564E-002   4.4295955141486154E-002
   4.3910019178494450E-002  -1.3000121205368618E-002   4.4375389229737133E-002
   4.2129374731388253E-002  -1.2480121794220769E-002   4.4624425489603207E-002
   4.3880563965887159E-002  -1.2615228333935524E-002   4.9869170159606291E-002
   4.2256084633188973E-002  -1.2141329414827345E-002   4.9652201102293236E-002
   4.0631605300490772E-002  -1.1667308655660139E-002   4.9577960102181684E-002
   3.9007125967792593E-002  -1.1193166056434337E-002   4.9646447159271190E-002
   3.7382646635094385E-002  -1.0718901617149168E-002   4.9857662273561754E-002
   5.6053864235534046E-002  -1.7763782325435573E-002   2.8642890778861230E-002
   5.3813639014165915E-002  -1.7158614563865082E-002   2.8168915799711591E-002
   5.1573413792797812E-002  -1.6667527809604538E-002   2.7828710151434954E-002
   4.9333188571429668E-002  -1.6290522062653794E-002   2.7622273834031694E-002
   4.7092963350061579E-002  -1.6027597323013121E-002   2.7549606847501462E-002
   5.1464983531608083E-002  -1.6002562148363930E-002   3.4017039742252841E-002
   4.9368158137200815E-002  -1.5402258698197363E-002   3.3428104869498793E-002
   4.7271332742793520E-002  -1.4831823425193263E-002   3.2992200319793136E-002
   4.5174507348386253E-002  -1.4291256329351319E-002   3.2709326093136079E-002
   4.3077681953978958E-002  -1.3780557410671634E-002   3.2579482189527553E-002
   4.6823487030226207E-002  -1.4241341971292371E-002   3.9344217979166984E-002
   4.4889322454955083E-002  -1.3645902832529783E-002   3.8724536042956004E-002
   4.2955157879683979E-002  -1.2996119040781837E-002   3.8277145421968903E-002
   4.1020993304412848E-002  -1.2291990596048626E-002   3.8002046116205612E-002
   3.9086828729141709E-002  -1.1533517498330231E-002   3.7899238125666299E-002
   4.2129374731388253E-002  -1.2480121794220769E-002   4.4624425489603207E-002
   4.0377131967428675E-002  -1.1889546966862022E-002   4.4058209320083121E-002
   3.8624889203469077E-002  -1.1160414656370597E-002   4.3683545457962061E-002
   3.6872646439509521E-002  -1.0292724862746043E-002   4.3500433903240349E-002
   3.5120403675549902E-002  -9.2864775859886201E-003   4.3508874655917823E-002
   3.7382646635094385E-002  -1.0718901617149168E-002   4.9857662273561754E-002
   3.5831586674621663E-002  -1.0133191101194539E-002   4.9429124700879901E-002
   3.4280526714148940E-002  -9.3247102719591080E-003   4.9211400427772778E-002
   3.2729466753676204E-002  -8.2934591294434520E-003   4.9204489454240191E-002
   3.1178406793203495E-002  -7.0394376736472308E-003   4.9408391780282002E-002
   4.7092963350061579E-002  -1.6027597323013121E-002   2.7549606847501462E-002
   4.4760032511735437E-002  -1.6132522283355821E-002   2.7814489073589077E-002
   4.2427101673409351E-002  -1.6859065636355017E-002   2.8284910433632932E-002
   4.0094170835083251E-002  -1.8207227382011148E-002   2.8960870927633678E-002
   3.7761239996757179E-002  -2.0177007520323809E-002   2.9842370555589914E-002
   4.3077681953978958E-002  -1.3780557410671634E-002   3.2579482189527553E-002
   4.0930902106185468E-002  -1.3479763283337665E-002   3.2343624544343863E-002
   3.8784122258391965E-002  -1.3568910561532338E-002   3.2274529746269487E-002
   3.6637342410598413E-002  -1.4047999245255717E-002   3.2372197795303703E-002
   3.4490562562805083E-002  -1.4917029334508114E-002   3.2636628691447234E-002
   3.9086828729141709E-002  -1.1533517498330231E-002   3.7899238125666299E-002
   3.7087423585033391E-002  -1.0827004283319452E-002   3.7394317596339627E-002
   3.5088018440924983E-002  -1.0278755486709555E-002   3.7017383627274365E-002
   3.3088613296816616E-002  -9.8887711085004267E-003   3.6768436218470826E-002
   3.1089208152708270E-002  -9.6570511486923083E-003   3.6647475369928129E-002
   3.5120403675549902E-002  -9.2864775859886201E-003   4.3508874655917823E-002
   3.3229596948279233E-002  -8.1742452833012125E-003   4.2966568229575945E-002
   3.1338790221008460E-002  -6.9886004118866578E-003   4.2513472076648164E-002
   2.9447983493737746E-002  -5.7295429717451772E-003   4.2149586197134270E-002
   2.7557176766467122E-002  -4.3970729628765581E-003   4.1874910591034153E-002
   3.1178406793203495E-002  -7.0394376736472308E-003   4.9408391780282002E-002
   2.9357422195922911E-002  -5.5214862832830280E-003   4.9060376444052811E-002
   2.7536437598642355E-002  -3.6984453370640102E-003   4.8762795094390077E-002
   2.5715453001361840E-002  -1.5703148349896848E-003   4.8515647731293798E-002
   2.3894468404081270E-002   8.6290522293919203E-004   4.8318934354764309E-002
   5.7150651456290419E-002   0.0000000000000000        3.4693979767238300E-002
   5.7942371508952768E-002  -2.0832552403330720E-003   3.8346425562052588E-002
   5.8734091561615125E-002  -4.1370585500599116E-003   4.2212243165473777E-002
   5.9525811614277474E-002  -6.1614099291805186E-003   4.6291432577501901E-002
   6.0317531666939816E-002  -8.1563093776948880E-003   5.0583993798136918E-002
   4.8651915693506145E-002   0.0000000000000000        3.2793998684532651E-002
   4.9591730236012245E-002  -1.7092842729718770E-003   3.6968659761352891E-002
   5.0531544778518331E-002  -3.4331751723372696E-003   4.1226138009253704E-002
   5.1471359321024437E-002  -5.1716726980961820E-003   4.5566433428235083E-002
   5.2411173863530523E-002  -6.9247768502486151E-003   4.9989546018297019E-002
   4.0733249879384655E-002   0.0000000000000000        3.1290017847688069E-002
   4.1690604274208135E-002  -1.3353133056106803E-003   3.5942835649514518E-002
   4.2647958669031621E-002  -2.7292917946146284E-003   4.0547915984895183E-002
   4.3605313063855122E-002  -4.1819354670118445E-003   4.5105258853830064E-002
   4.4562667458678602E-002  -5.6932443228023362E-003   4.9614864256319190E-002
   3.3394654013925933E-002   0.0000000000000000        3.0182037256704562E-002
   3.4238993623540465E-002  -9.6134233824948312E-004   3.5268953226537468E-002
   3.5083333233155004E-002  -2.0254084168919852E-003   4.0177577092398248E-002
   3.5927672842769535E-002  -3.1921982359275117E-003   4.4907908854286888E-002
   3.6772012452384067E-002  -4.4617117953560572E-003   4.9459948512203422E-002
   2.6636128097129983E-002   0.0000000000000000        2.9470056911582124E-002
   2.7236898284009218E-002  -5.8737137088828769E-004   3.4947012492421728E-002
   2.7837668470888456E-002  -1.3215250391693436E-003   4.0115121331762857E-002
   2.8438438657767691E-002  -2.2024610048431720E-003   4.4974383429605531E-002
   2.9039208844646922E-002  -3.2301792679097809E-003   4.9524798785949731E-002
   6.0317531666939816E-002  -8.1563093776948880E-003   5.0583993798136918E-002
   6.0614596784488252E-002  -1.0037028870349461E-002   5.1523362871744763E-002
   6.0911661902036666E-002  -1.1718840381890692E-002   5.2251061523057425E-002
   6.1208727019585088E-002  -1.3201743912318546E-002   5.2767089752074850E-002
   6.1505792137133510E-002  -1.4485739461633042E-002   5.3071447558797107E-002
   5.2411173863530523E-002  -6.9247768502486151E-003   4.9989546018297019E-002
   5.2535548894781472E-002  -8.5895683982361928E-003   5.1220816734378269E-002
   5.2659923926032415E-002  -1.0063128111500551E-002   5.2318377700159777E-002
   5.2784298957283364E-002  -1.1345455990041735E-002   5.3282228915641501E-002
   5.2908673988534313E-002  -1.2436552033859648E-002   5.4112370380823518E-002
   4.4562667458678602E-002  -5.6932443228023362E-003   4.9614864256319190E-002
   4.4592313075627527E-002  -7.1421079261229153E-003   5.1130360468483689E-002
   4.4621958692576458E-002  -8.4074158411104449E-003   5.2590107602343887E-002
   4.4651604309525389E-002  -9.4891680677648849E-003   5.3994105657899777E-002
   4.4681249926474306E-002  -1.0387364606086264E-002   5.5342354635151400E-002
   3.6772012452384067E-002  -4.4617117953560572E-003   4.9459948512203422E-002
   3.6784889327026428E-002  -5.6946474540096517E-003   5.1251994074061023E-002
   3.6797766201668781E-002  -6.7517035707202995E-003   5.3066251229609805E-002
   3.6810643076311142E-002  -7.6328801454880546E-003   5.4902719978849691E-002
   3.6823519950953496E-002  -8.3381771783128614E-003   5.6761400321780772E-002
   2.9039208844646922E-002  -3.2301792679097809E-003   4.9524798785949731E-002
   2.9113277648978166E-002  -4.2471869818963542E-003   5.1585717551110279E-002
   2.9187346453309407E-002  -5.0959913003302002E-003   5.3746808581957475E-002
   2.9261415257640644E-002  -5.7765922232112278E-003   5.6008071878491252E-002
   2.9335484061971881E-002  -6.2889897505394934E-003   5.8369507440711642E-002
   6.1505792137133510E-002  -1.4485739461633042E-002   5.3071447558797107E-002
   6.0188978431234566E-002  -1.5483588475570877E-002   5.1671825744445059E-002
   5.8872164725335616E-002  -1.6108052399868872E-002   5.0726302814311786E-002
   5.7555351019436672E-002  -1.6359131234527001E-002   5.0234878768397148E-002
   5.6238537313537756E-002  -1.6236824979545178E-002   5.0197553606701251E-002
   5.2908673988534313E-002  -1.2436552033859648E-002   5.4112370380823518E-002
   5.1993050837033566E-002  -1.3283106480667103E-002   5.3365152547659014E-002
   5.1077427685532827E-002  -1.3831809568176737E-002   5.2966216939072247E-002
   5.0161804534032087E-002  -1.4082661296388655E-002   5.2915563555063209E-002
   4.9246181382531340E-002  -1.4035661665302790E-002   5.3213192395631853E-002
   4.4681249926474306E-002  -1.0387364606086264E-002   5.5342354635151400E-002
   4.4061000669730788E-002  -1.1082624485763274E-002   5.5172007052832338E-002
   4.3440751412987255E-002  -1.1555566736484627E-002   5.5244125035449995E-002
   4.2820502156243723E-002  -1.1806191358250322E-002   5.5558708583004400E-002
   4.2200252899500197E-002  -1.1834498351060360E-002   5.6115757695495448E-002
   3.6823519950953496E-002  -8.3381771783128614E-003   5.6761400321780772E-002
   3.6392827929326202E-002  -8.8821424908594460E-003   5.7092389259965050E-002
   3.5962135907698908E-002  -9.2793239047924900E-003   5.7560027103445002E-002
   3.5531443886071622E-002  -9.5297214201119692E-003   5.8164313852220692E-002
   3.5100751864444328E-002  -9.6333350368179235E-003   5.8905249506292147E-002
   2.9335484061971881E-002  -6.2889897505394934E-003   5.8369507440711642E-002
   2.8988532615819837E-002  -6.6816604959556714E-003   5.9126299169057046E-002
   2.8641581169667793E-002  -7.0030810731003691E-003   5.9913923143057254E-002
   2.8294629723515735E-002  -7.2532514819736681E-003   6.0732379362712155E-002
   2.7947678277363691E-002  -7.4321717225755146E-003   6.1581667828021852E-002
   5.6238537313537756E-002  -1.6236824979545178E-002   5.0197553606701251E-002
   5.4740607108425376E-002  -1.5902203434473405E-002   4.9887683859240584E-002
   5.3242676903313010E-002  -1.5516336398861484E-002   4.9741408078350993E-002
   5.1744746698200637E-002  -1.5079223872709399E-002   4.9758726264032528E-002
   5.0246816493088292E-002  -1.4590865856017210E-002   4.9939638416285098E-002
   4.9246181382531340E-002  -1.4035661665302790E-002   5.3213192395631853E-002
   4.7919948105368010E-002  -1.3812529432901156E-002   5.2910682724461415E-002
   4.6593714828204659E-002  -1.3534983357165575E-002   5.2787972942617944E-002
   4.5267481551041336E-002  -1.3203023438096234E-002   5.2845063050101462E-002
   4.3941248273877992E-002  -1.2816649675693126E-002   5.3081953046911878E-002
   4.2200252899500197E-002  -1.1834498351060360E-002   5.6115757695495448E-002
   4.1061922473041780E-002  -1.1722855431328810E-002   5.5823776453408941E-002
   3.9923592046583370E-002  -1.1553630315469725E-002   5.5727801023405257E-002
   3.8785261620124967E-002  -1.1326823003483113E-002   5.5827831405484481E-002
   3.7646931193666557E-002  -1.1042433495368931E-002   5.6123867599646604E-002
   3.5100751864444328E-002  -9.6333350368179235E-003   5.8905249506292147E-002
   3.4166530211446743E-002  -9.6331814297564711E-003   5.8626965046083168E-002
   3.3232308558449171E-002  -9.5722772737738323E-003   5.8560892320713022E-002
   3.2298086905451592E-002  -9.4506225688698858E-003   5.8707031330181687E-002
   3.1363865252454007E-002  -9.2682173150447494E-003   5.9065382074489026E-002
   2.7947678277363691E-002  -7.4321717225755146E-003   6.1581667828021852E-002
   2.7233771320582863E-002  -7.5435074281842499E-003   6.1320248502484270E-002
   2.6519864363802020E-002  -7.5909242320779391E-003   6.1287246834541259E-002
   2.5805957407021185E-002  -7.5744221342568321E-003   6.1482662824192985E-002
   2.5092050450240350E-002  -7.4940011347206237E-003   6.1906496471439393E-002
   5.0246816493088292E-002  -1.4590865856017210E-002   4.9939638416285098E-002
   4.8655253361288009E-002  -1.4081902939415469E-002   4.9559304265284265E-002
   4.7063690229487726E-002  -1.3582975713534631E-002   4.9420781505504052E-002
   4.5472127097687436E-002  -1.3094084178374574E-002   4.9524070136944903E-002
   4.3880563965887159E-002  -1.2615228333935524E-002   4.9869170159606291E-002
   4.3941248273877992E-002  -1.2816649675693126E-002   5.3081953046911878E-002
   4.2583600907124090E-002  -1.2401098373484867E-002   5.2701927181513272E-002
   4.1225953540370230E-002  -1.1981605835000117E-002   5.2547921454986685E-002
   3.9868306173616350E-002  -1.1558172060239121E-002   5.2619935867332074E-002
   3.8510658806862469E-002  -1.1130797049201613E-002   5.2917970418549648E-002
   3.7646931193666557E-002  -1.1042433495368931E-002   5.6123867599646604E-002
   3.6507408339610331E-002  -1.0720293807554182E-002   5.5758126946847522E-002
   3.5367885485554112E-002  -1.0380235956465762E-002   5.5602615180571753E-002
   3.4228362631497887E-002  -1.0022259942103611E-002   5.5657332300819137E-002
   3.3088839777441682E-002  -9.6463657644677847E-003   5.5922278307589918E-002
   3.1363865252454007E-002  -9.2682173150447494E-003   5.9065382074489026E-002
   3.0426675658746689E-002  -9.0394892416235245E-003   5.8727903561286821E-002
   2.9489486065039362E-002  -8.7788660779313556E-003   5.8584862682259126E-002
   2.8552296471332041E-002  -8.4863478239681558E-003   5.8636259437405885E-002
   2.7615106877624716E-002  -8.1619344797338872E-003   5.8882093826727183E-002
   2.5092050450240350E-002  -7.4940011347206237E-003   6.1906496471439393E-002
   2.4341402864533179E-002  -7.3586846756929225E-003   6.1611257024831306E-002
   2.3590755278825988E-002  -7.1774961993969141E-003   6.1494663960049004E-002
   2.2840107693118800E-002  -6.9504357058326940E-003   6.1556717277092422E-002
   2.2089460107411613E-002  -6.6775031950001007E-003   6.1797416975961583E-002
   4.3880563965887159E-002  -1.2615228333935524E-002   4.9869170159606291E-002
   4.2256084633188973E-002  -1.2141329414827345E-002   4.9652201102293236E-002
   4.0631605300490772E-002  -1.1667308655660139E-002   4.9577960102181684E-002
   3.9007125967792593E-002  -1.1193166056434337E-002   4.9646447159271190E-002
   3.7382646635094385E-002  -1.0718901617149168E-002   4.9857662273561754E-002
   3.8510658806862469E-002  -1.1130797049201613E-002   5.2917970418549648E-002
   3.7039957022739683E-002  -1.0699906632443149E-002   5.2661742689826915E-002
   3.5569255238616898E-002  -1.0265926640519188E-002   5.2570342001054163E-002
   3.4098553454494071E-002  -9.8288570734294430E-003   5.2643768352230814E-002
   3.2627851670371327E-002  -9.3886979311742502E-003   5.2882021743357155E-002
   3.3088839777441682E-002  -9.6463657644677847E-003   5.5922278307589918E-002
   3.1794014524642707E-002  -9.2584838500589933E-003   5.5629759642564322E-002
   3.0499189271843728E-002  -8.8645446253779528E-003   5.5524167000236914E-002
   2.9204364019044762E-002  -8.4645480904247134E-003   5.5605500380607381E-002
   2.7909538766245801E-002  -8.0584942451992214E-003   5.5873759783675980E-002
   2.7615106877624716E-002  -8.1619344797338872E-003   5.8882093826727183E-002
   2.6518257138897994E-002  -7.8170610676748173E-003   5.8556251960505346E-002
   2.5421407400171295E-002  -7.4631626102367767E-003   5.8439435099729861E-002
   2.4324557661444573E-002  -7.1002391074199015E-003   5.8531643244400897E-002
   2.3227707922717878E-002  -6.7282905592241649E-003   5.8832876394518445E-002
   2.2089460107411613E-002  -6.6775031950001007E-003   6.1797416975961583E-002
   2.1212684865505593E-002  -6.3756382852906412E-003   6.1441219643649791E-002
   2.0335909623599574E-002  -6.0617805950957115E-003   6.1316146299533275E-002
   1.9459134381693548E-002  -5.7359301244151867E-003   6.1422196943611396E-002
   1.8582359139787522E-002  -5.3980868732492193E-003   6.1759371575884459E-002
   3.7382646635094385E-002  -1.0718901617149168E-002   4.9857662273561754E-002
   3.5831586674621663E-002  -1.0133191101194539E-002   4.9429124700879901E-002
   3.4280526714148940E-002  -9.3247102719591080E-003   4.9211400427772778E-002
   3.2729466753676204E-002  -8.2934591294434520E-003   4.9204489454240191E-002
   3.1178406793203495E-002  -7.0394376736472308E-003   4.9408391780282002E-002
   3.2627851670371327E-002  -9.3886979311742502E-003   5.2882021743357155E-002
   3.1280086324334516E-002  -8.8745645898238856E-003   5.2666262114286905E-002
   2.9932320978297719E-002  -8.2155724254490969E-003   5.2646278414514053E-002
   2.8584555632260936E-002  -7.4117214380497939E-003   5.2822070644038419E-002
   2.7236790286224125E-002  -6.4630116276260252E-003   5.3193638802860266E-002
   2.7909538766245801E-002  -8.0584942451992214E-003   5.5873759783675980E-002
   2.6750030664367784E-002  -7.6159380784534270E-003   5.5792866607961372E-002
   2.5590522562489733E-002  -7.1064345789389888E-003   5.5892711991266567E-002
   2.4431014460611699E-002  -6.5299837466561393E-003   5.6173295933592236E-002
   2.3271506358733693E-002  -5.8865855816047641E-003   5.6634618434938000E-002
   2.3227707922717878E-002  -6.7282905592241649E-003   5.8832876394518445E-002
   2.2241419694721428E-002  -6.3573115670828156E-003   5.8808938181903171E-002
   2.1255131466724989E-002  -5.9972967324289292E-003   5.8950701158030944E-002
   2.0268843238728552E-002  -5.6482460552624830E-003   5.9258165322901624E-002
   1.9282555010732099E-002  -5.3101595355835862E-003   5.9731330676515489E-002
   1.8582359139787522E-002  -5.3980868732492193E-003   6.1759371575884459E-002
   1.7754253415395493E-002  -5.0986850557122876E-003   6.1714476836112697E-002
   1.6926147691003472E-002  -4.8881588859188280E-003   6.1820245914806782E-002
   1.6098041966611441E-002  -4.7665083638687607E-003   6.2076678811966726E-002
   1.5269936242219409E-002  -4.7337334895624084E-003   6.2483775527592322E-002
   3.1178406793203495E-002  -7.0394376736472308E-003   4.9408391780282002E-002
   2.9357422195922911E-002  -5.5214862832830280E-003   4.9060376444052811E-002
   2.7536437598642355E-002  -3.6984453370640102E-003   4.8762795094390077E-002
   2.5715453001361840E-002  -1.5703148349896848E-003   4.8515647731293798E-002
   2.3894468404081270E-002   8.6290522293919203E-004   4.8318934354764309E-002
   2.7236790286224125E-002  -6.4630116276260252E-003   5.3193638802860266E-002
   2.5515647577816727E-002  -5.3720505088341863E-003   5.3093730623209906E-002
   2.3794504869409309E-002  -4.1414455963309504E-003   5.3143072234739241E-002
   2.2073362161001812E-002  -2.7711968901163869E-003   5.3341663637448258E-002
   2.0352219452594467E-002  -1.2613043901905652E-003   5.3689504831337387E-002
   2.3271506358733693E-002  -5.8865855816047641E-003   5.6634618434938000E-002
   2.1749021343812680E-002  -5.2226147343852058E-003   5.6617371649722747E-002
   2.0226536328891702E-002  -4.5844458555980988E-003   5.6848190460300665E-002
   1.8704051313970706E-002  -3.9720789452430856E-003   5.7327074866671525E-002
   1.7181566299049725E-002  -3.3855140033205444E-003   5.8054024868835485E-002
   1.9282555010732099E-002  -5.3101595355835862E-003   5.9731330676515489E-002
   1.8057543493910908E-002  -5.0731789599362392E-003   5.9631299523591558E-002
   1.6832531977089678E-002  -5.0274461148650321E-003   5.9878149771074002E-002
   1.5607520460268490E-002  -5.1729610003698415E-003   6.0471881418963085E-002
   1.4382508943447229E-002  -5.5097236164504682E-003   6.1412494467258438E-002
   1.5269936242219409E-002  -4.7337334895624084E-003   6.2483775527592322E-002
   1.4441214028111313E-002  -4.9237431854874947E-003   6.2135514244816226E-002
   1.3612491814003209E-002  -5.4704463741322151E-003   6.2232950167059764E-002
   1.2783769599895075E-002  -6.3738430554963268E-003   6.2776083294323465E-002
   1.1955047385786954E-002  -7.6339332295802809E-003   6.3764913626606523E-002
   2.6636128097129983E-002   0.0000000000000000        2.9470056911582124E-002
   2.7236898284009218E-002  -5.8737137088828769E-004   3.4947012492421728E-002
   2.7837668470888456E-002  -1.3215250391693436E-003   4.0115121331762857E-002
   2.8438438657767691E-002  -2.2024610048431720E-003   4.4974383429605531E-002
   2.9039208844646922E-002  -3.2301792679097809E-003   4.9524798785949731E-002
   2.0120136502233991E-002   0.0000000000000000        2.9020391395217730E-002
   2.0451690652685525E-002  -4.4042610057177644E-004   3.4313509937533980E-002
   2.0783244803137063E-002  -9.9100278121333832E-004   3.9377043148493295E-002
   2.1114798953588598E-002  -1.6517300419246839E-003   4.4210991028095684E-002
   2.1446353104040132E-002  -2.4226078827058210E-003   4.8815353576341147E-002
   1.3509143602475146E-002   0.0000000000000000        2.8699355290508356E-002
   1.3650743126640524E-002  -2.9348083025526476E-004   3.3845268511624241E-002
   1.3792342650805905E-002  -6.6048052325733044E-004   3.8840857811524715E-002
   1.3933942174971289E-002  -1.1009990790061966E-003   4.3686123190209813E-002
   1.4075541699136669E-002  -1.6150364975018577E-003   4.8381064647679550E-002
   6.8031493978534478E-003   0.0000000000000000        2.8506948597454000E-002
   6.8340557058742153E-003  -1.4653555993875285E-004   3.3542288214692483E-002
   6.8649620138949846E-003  -3.2995826530132040E-004   3.8506565320857118E-002
   6.8958683219157530E-003  -5.5026811608770371E-004   4.3399779915947935E-002
   6.9267746299365223E-003  -8.0746511229790128E-004   4.8221931999964912E-002
   2.1538883688927354E-006   0.0000000000000000        2.8443171316054661E-002
   1.6283903865954921E-006   4.0971037775817953E-007   3.3404569046738747E-002
   1.1028924042988993E-006   5.6399265468444482E-007   3.8374165676490525E-002
   5.7739442200241495E-007   4.6284683078226529E-007   4.3351961205310020E-002
   5.1896439705063219E-008   1.0627290606291667E-007   4.8337955633197212E-002
   2.9039208844646922E-002  -3.2301792679097809E-003   4.9524798785949731E-002
   2.9113277648978166E-002  -4.2471869818963542E-003   5.1585717551110279E-002
   2.9187346453309407E-002  -5.0959913003302002E-003   5.3746808581957475E-002
   2.9261415257640644E-002  -5.7765922232112278E-003   5.6008071878491252E-002
   2.9335484061971881E-002  -6.2889897505394934E-003   5.8369507440711642E-002
   2.1446353104040132E-002  -2.4226078827058210E-003   4.8815353576341147E-002
   2.1590977481901450E-002  -3.1854300578560376E-003   5.1215932638490697E-002
   2.1735601859762761E-002  -3.8219903216746539E-003   5.3657450582013773E-002
   2.1880226237624076E-002  -4.3322886741616754E-003   5.6139907406910439E-002
   2.2024850615485390E-002  -4.7163251153170896E-003   5.8663303113180604E-002
   1.4075541699136669E-002  -1.6150364975018577E-003   4.8381064647679550E-002
   1.4231488266214991E-002  -2.1236731338157002E-003   5.1079362522596913E-002
   1.4387434833293312E-002  -2.5479893430191279E-003   5.3759365894574737E-002
   1.4543381400371636E-002  -2.8879851251121125E-003   5.6421074763613063E-002
   1.4699327967449955E-002  -3.1436604800946823E-003   5.9064489129711850E-002
   6.9267746299365223E-003  -8.0746511229790128E-004   4.8221931999964912E-002
   7.0348100019187879E-003  -1.0619162097753663E-003   5.1176007203428880E-002
   7.1428453739010517E-003  -1.2739883643635987E-003   5.4052554519640278E-002
   7.2508807458833190E-003  -1.4436815760625688E-003   5.6851573948599118E-002
   7.3589161178655837E-003  -1.5709958448722767E-003   5.9573065490305305E-002
   5.1896439705063219E-008   1.0627290606291667E-007   4.8337955633197212E-002
   9.4268901284621370E-007  -1.5928573503416754E-007   5.1505866680986667E-002
   1.8334815859854126E-006   1.2614291943673431E-008   5.4537016457210465E-002
   2.7242741591238526E-006   6.2197298700256533E-007   5.7431404961868611E-002
   3.6150667322657620E-006   1.6687903501219625E-006   6.0189032194961072E-002
   2.9335484061971881E-002  -6.2889897505394934E-003   5.8369507440711642E-002
   2.8988532615819837E-002  -6.6816604959556714E-003   5.9126299169057046E-002
   2.8641581169667793E-002  -7.0030810731003691E-003   5.9913923143057254E-002
   2.8294629723515735E-002  -7.2532514819736681E-003   6.0732379362712155E-002
   2.7947678277363691E-002  -7.4321717225755146E-003   6.1581667828021852E-002
   2.2024850615485390E-002  -4.7163251153170896E-003   5.8663303113180604E-002
   2.1722430628056247E-002  -5.0103990132429541E-003   5.9481361524744709E-002
   2.1420010640627096E-002  -5.2508097360412839E-003   6.0357650608099792E-002
   2.1117590653197960E-002  -5.4375572837121727E-003   6.1292170363246086E-002
   2.0815170665768802E-002  -5.5706416562555094E-003   6.2284920790183211E-002
   1.4699327967449955E-002  -3.1436604800946823E-003   5.9064489129711850E-002
   1.4468837864879996E-002  -3.3391375305302645E-003   5.9926227231350652E-002
   1.4238347762310036E-002  -3.4985383989822394E-003   6.0873594430916826E-002
   1.4007857659740077E-002  -3.6218630854506755E-003   6.1906590728410274E-002
   1.3777367557170118E-002  -3.7091115899355181E-003   6.3025216123831093E-002
   7.3589161178655837E-003  -1.5709958448722767E-003   5.9573065490305305E-002
   7.2277543262910960E-003  -1.6678760478175611E-003   6.0460896288874910E-002
   7.0965925347166083E-003  -1.7462670619231816E-003   6.1461754611508185E-002
   6.9654307431421215E-003  -1.8061688871891792E-003   6.2575640458205059E-002
   6.8342689515676364E-003  -1.8475815236155477E-003   6.3802553828965547E-002
   3.6150667322657620E-006   1.6687903501219625E-006   6.0189032194961072E-002
  -8.1998771046289110E-007   3.3854348951423141E-006   6.1085368697317580E-002
  -5.2550421531889421E-006   6.0042751358815177E-006   6.2122131149873985E-002
  -9.6900965959149932E-006   9.5253110723356703E-006   6.3299319552630295E-002
  -1.4125151038643646E-005   1.3948542704478317E-005   6.4616933905586538E-002
   2.7947678277363691E-002  -7.4321717225755146E-003   6.1581667828021852E-002
   2.7233771320582863E-002  -7.5435074281842499E-003   6.1320248502484270E-002
   2.6519864363802020E-002  -7.5909242320779391E-003   6.1287246834541259E-002
   2.5805957407021185E-002  -7.5744221342568321E-003   6.1482662824192985E-002
   2.5092050450240350E-002  -7.4940011347206237E-003   6.1906496471439393E-002
   2.0815170665768802E-002  -5.5706416562555094E-003   6.2284920790183211E-002
   2.0317229798814059E-002  -5.6532626277332812E-003   6.2161345664232460E-002
   1.9819288931859327E-002  -5.6886199722072303E-003   6.2241285060339283E-002
   1.9321348064904591E-002  -5.6767136896775840E-003   6.2524738978503552E-002
   1.8823407197949851E-002  -5.6175437801441741E-003   6.3011707418725388E-002
   1.3777367557170118E-002  -3.7091115899355181E-003   6.3025216123831093E-002
   1.3470489644504284E-002  -3.7630178272823507E-003   6.3022829922756152E-002
   1.3163611731838450E-002  -3.7863157123366326E-003   6.3199055108201452E-002
   1.2856733819172616E-002  -3.7790052450984053E-003   6.3553891680167063E-002
   1.2549855906506781E-002  -3.7410864255676551E-003   6.4087339638652985E-002
   6.8342689515676364E-003  -1.8475815236155477E-003   6.3802553828965547E-002
   6.6935508576535085E-003  -1.8727730268314289E-003   6.3904701278055087E-002
   6.5528327637393814E-003  -1.8840114524659654E-003   6.4160556978127725E-002
   6.4121146698252612E-003  -1.8812968005192336E-003   6.4570120929183447E-002
   6.2713965759111272E-003  -1.8646290709911709E-003   6.5133393131222364E-002
  -1.4125151038643646E-005   1.3948542704478317E-005   6.4616933905586538E-002
  -1.3586561738252595E-005   1.7471773619492925E-005   6.4806959730129315E-002
  -1.3047972437865013E-005   1.8292807404667044E-005   6.5125790670118130E-002
  -1.2509383137476564E-005   1.6411644059978123E-005   6.5573426725552830E-002
  -1.1970793837086380E-005   1.1828283585341159E-005   6.6149867896433429E-002
   2.5092050450240350E-002  -7.4940011347206237E-003   6.1906496471439393E-002
   2.4341402864533179E-002  -7.3586846756929225E-003   6.1611257024831306E-002
   2.3590755278825988E-002  -7.1774961993969141E-003   6.1494663960049004E-002
   2.2840107693118800E-002  -6.9504357058326940E-003   6.1556717277092422E-002
   2.2089460107411613E-002  -6.6775031950001007E-003   6.1797416975961583E-002
   1.8823407197949851E-002  -5.6175437801441741E-003   6.3011707418725388E-002
   1.8253799347167449E-002  -5.5189223215413724E-003   6.2752709030265322E-002
   1.7684191496385050E-002  -5.3886613918037451E-003   6.2677143729829035E-002
   1.7114583645602643E-002  -5.2267609909310356E-003   6.2785011517416583E-002
   1.6544975794820241E-002  -5.0332211189234033E-003   6.3076312393027967E-002
   1.2549855906506781E-002  -3.7410864255676551E-003   6.4087339638652985E-002
   1.2166074496847187E-002  -3.6791599673898084E-003   6.3850349762207673E-002
   1.1782293087187598E-002  -3.5998265842104409E-003   6.3801579679984191E-002
   1.1398511677527999E-002  -3.5030862760293780E-003   6.3941029391982526E-002
   1.1014730267868408E-002  -3.3889390428466781E-003   6.4268698898202692E-002
   6.2713965759111272E-003  -1.8646290709911709E-003   6.5133393131222364E-002
   6.0782283135723814E-003  -1.8393976132382930E-003   6.4904179220658414E-002
   5.8850600512336346E-003  -1.8109917766171487E-003   6.4867971810514402E-002
   5.6918917888948905E-003  -1.7794115611276923E-003   6.5024770900790188E-002
   5.4987235265561429E-003  -1.7446569667698836E-003   6.5374576491485897E-002
  -1.1970793837086380E-005   1.1828283585341159E-005   6.6149867896433429E-002
  -9.7392026569588508E-006   3.6474091331950564E-007   6.5914197405617575E-002
  -7.5076114768330565E-006  -2.2156969023974515E-005   6.5876320121419626E-002
  -5.2760202967020581E-006  -5.5736846226036099E-005   6.6036236043839597E-002
  -3.0444291165797333E-006  -1.0037489069325556E-004   6.6393945172877333E-002
   2.2089460107411613E-002  -6.6775031950001007E-003   6.1797416975961583E-002
   2.1212684865505593E-002  -6.3756382852906412E-003   6.1441219643649791E-002
   2.0335909623599574E-002  -6.0617805950957115E-003   6.1316146299533275E-002
   1.9459134381693548E-002  -5.7359301244151867E-003   6.1422196943611396E-002
   1.8582359139787522E-002  -5.3980868732492193E-003   6.1759371575884459E-002
   1.6544975794820241E-002  -5.0332211189234033E-003   6.3076312393027967E-002
   1.5895757575128705E-002  -4.8178185224764386E-003   6.2742826259490056E-002
   1.5246539355437183E-002  -4.5903299482859122E-003   6.2633330182186142E-002
   1.4597321135745651E-002  -4.3507553963517027E-003   6.2747824161116364E-002
   1.3948102916054125E-002  -4.0990948666740357E-003   6.3086308196280777E-002
   1.1014730267868408E-002  -3.3889390428466781E-003   6.4268698898202692E-002
   1.0585935138430556E-002  -3.2599987596623192E-003   6.3958017160696587E-002
   1.0157140008992711E-002  -3.1188793014761684E-003   6.3864191547463769E-002
   9.7283448795548611E-003  -2.9655806682883853E-003   6.3987222058504281E-002
   9.2995497501170109E-003  -2.8001028600987687E-003   6.4327108693817872E-002
   5.4987235265561429E-003  -1.7446569667698836E-003   6.5374576491485897E-002
   5.2832175554111439E-003  -1.7021789968480749E-003   6.5086792347269704E-002
   5.0677115842661692E-003  -1.6474286546664801E-003   6.5008730395366005E-002
   4.8522056131211841E-003  -1.5804059402249569E-003   6.5140390635774745E-002
   4.6366996419761946E-003  -1.5011108535235712E-003   6.5481773068495938E-002
  -3.0444291165797333E-006  -1.0037489069325556E-004   6.6393945172877333E-002
  -1.2395173929515002E-005  -1.4435923403394169E-004   6.6129151819209309E-002
  -2.1745918742452006E-005  -1.7597800785663920E-004   6.6066946725892806E-002
  -3.1096663555386407E-005  -1.9523121216161524E-004   6.6207329892928005E-002
  -4.0447408368324278E-005  -2.0211884694831816E-004   6.6550301320314809E-002
   1.8582359139787522E-002  -5.3980868732492193E-003   6.1759371575884459E-002
   1.7754253415395493E-002  -5.0986850557122876E-003   6.1714476836112697E-002
   1.6926147691003472E-002  -4.8881588859188280E-003   6.1820245914806782E-002
   1.6098041966611441E-002  -4.7665083638687607E-003   6.2076678811966726E-002
   1.5269936242219409E-002  -4.7337334895624084E-003   6.2483775527592322E-002
   1.3948102916054125E-002  -4.0990948666740357E-003   6.3086308196280777E-002
   1.3286464848335081E-002  -3.8799821806369816E-003   6.2959891696128201E-002
   1.2624826780616036E-002  -3.7380511596248056E-003   6.3015746690855759E-002
   1.1963188712896995E-002  -3.6733018036378198E-003   6.3253873180463632E-002
   1.1301550645177932E-002  -3.6857341126756982E-003   6.3674271164951446E-002
   9.2995497501170109E-003  -2.8001028600987687E-003   6.4327108693817872E-002
   8.8359870154852867E-003  -2.6612793055616341E-003   6.4130864416003019E-002
   8.3724242808535607E-003  -2.5879434333309984E-003   6.4148499309482659E-002
   7.9088615462218244E-003  -2.5800952434068217E-003   6.4380013374256764E-002
   7.4452988115901071E-003  -2.6377347357891545E-003   6.4825406610325237E-002
   4.6366996419761946E-003  -1.5011108535235712E-003   6.5481773068495938E-002
   4.4028199168461143E-003  -1.4425764304863073E-003   6.5227394995737320E-002
   4.1689401917160227E-003  -1.4378357070369170E-003   6.5218503770687455E-002
   3.9350604665859424E-003  -1.4868886831757413E-003   6.5455099393346317E-002
   3.7011807414558508E-003  -1.5897353589026386E-003   6.5937181863714139E-002
  -4.0447408368324278E-005  -2.0211884694831816E-004   6.6550301320314809E-002
  -1.3036447582444322E-005  -2.2387355541100828E-004   6.6249483435330769E-002
   1.4374513203439104E-005  -2.8772798074318262E-004   6.6225760074469925E-002
   4.1785473989320795E-005  -3.9368212294488628E-004   6.6479131237732234E-002
   6.9196434775202487E-005  -5.4173598201595619E-004   6.7009596925117487E-002
   1.5269936242219409E-002  -4.7337334895624084E-003   6.2483775527592322E-002
   1.4441214028111313E-002  -4.9237431854874947E-003   6.2135514244816226E-002
   1.3612491814003209E-002  -5.4704463741322151E-003   6.2232950167059764E-002
   1.2783769599895075E-002  -6.3738430554963268E-003   6.2776083294323465E-002
   1.1955047385786954E-002  -7.6339332295802809E-003   6.3764913626606523E-002
   1.1301550645177932E-002  -3.6857341126756982E-003   6.3674271164951446E-002
   1.0858876070993610E-002  -3.8186967157594065E-003   6.3118207872640109E-002
   1.0416201496809246E-002  -4.1155382419091058E-003   6.2888542655156393E-002
   9.9735269226249312E-003  -4.5762586911253997E-003   6.2985275512500216E-002
   9.5308523484405883E-003  -5.2008580634077539E-003   6.3408406444672272E-002
   7.4452988115901071E-003  -2.6377347357891545E-003   6.4825406610325237E-002
   7.2693727471375043E-003  -2.7136502460312628E-003   6.4254355878131802E-002
   7.0934466826849136E-003  -2.7606301096863156E-003   6.3890404090574157E-002
   6.9175206182323151E-003  -2.7786743267543025E-003   6.3733551247652231E-002
   6.7415945537797062E-003  -2.7677828972352270E-003   6.3783797349365901E-002
   3.7011807414558508E-003  -1.5897353589026386E-003   6.5937181863714139E-002
   3.6727040565429940E-003  -1.6086037763032024E-003   6.5543958261291974E-002
   3.6442273716301315E-003  -1.4057219774635324E-003   6.5238534473313625E-002
   3.6157506867172812E-003  -9.8108996238334585E-004   6.5020910499778942E-002
   3.5872740018044330E-003  -3.3470773106270002E-004   6.4891086340687965E-002
   6.9196434775202487E-005  -5.4173598201595619E-004   6.7009596925117487E-002
   6.8869999210074972E-005  -5.0355730657503095E-004   6.6987015022120122E-002
   6.8543563644937050E-005  -5.0813845240568756E-005   6.6932933803374367E-002
   6.8217128079799128E-005   8.1649440198787795E-004   6.6847353268880347E-002
   6.7890692514671613E-005   2.0983674351098269E-003   6.6730273418637909E-002
   2.1538883688927354E-006   0.0000000000000000        2.8443171316054661E-002
   1.6283903865954921E-006   4.0971037775817953E-007   3.3404569046738747E-002
   1.1028924042988993E-006   5.6399265468444482E-007   3.8374165676490525E-002
   5.7739442200241495E-007   4.6284683078226529E-007   4.3351961205310020E-002
   5.1896439705063219E-008   1.0627290606291667E-007   4.8337955633197212E-002
  -6.7989653971148563E-003   0.0000000000000000        2.8507621906077561E-002
  -6.8308314472692094E-003   1.4675553206128233E-004   3.3542498000779589E-002
  -6.8626974974235590E-003   3.3029461700988510E-004   3.8506494092069805E-002
  -6.8945635475779121E-003   5.5061725484581003E-004   4.3399610179948186E-002
  -6.9264295977322643E-003   8.0772344556904845E-004   4.8221846264414787E-002
  -1.3505330929734143E-002   0.0000000000000000        2.8699898827289905E-002
  -1.3647616434540072E-002   2.9310135374480909E-004   3.3845292266998027E-002
  -1.3789901939345999E-002   6.6002524136508488E-004   3.8840726800814816E-002
  -1.3932187444151931E-002   1.1007716628608308E-003   4.3686202428740259E-002
  -1.4074472948957860E-002   1.6153406182320439E-003   4.8381719150774369E-002
  -2.0116942709488966E-002   0.0000000000000000        2.9020002079691708E-002
  -2.0448726571425994E-002   4.3944717542833368E-004   3.4312951845394075E-002
  -2.0780510433363021E-002   9.8975586572028077E-004   3.9376863802725592E-002
  -2.1112294295300052E-002   1.6509260708758534E-003   4.4211737951686231E-002
  -2.1444078157237079E-002   2.4229577908950308E-003   4.8817574292276025E-002
  -2.6633800736379325E-002   0.0000000000000000        2.9467931663282959E-002
  -2.7234161857926972E-002   5.8579299711185914E-004   3.4945476735967720E-002
  -2.7834522979474623E-002   1.3194864900754836E-003   4.0114905097802099E-002
  -2.8434884101022274E-002   2.2010804788908760E-003   4.4976216748786088E-002
  -2.9035245222569922E-002   3.2305749635580258E-003   4.9529411688919708E-002
   5.1896439705063219E-008   1.0627290606291667E-007   4.8337955633197212E-002
   9.4268901284621370E-007  -1.5928573503416754E-007   5.1505866680986667E-002
   1.8334815859854126E-006   1.2614291943673431E-008   5.4537016457210465E-002
   2.7242741591238526E-006   6.2197298700256533E-007   5.7431404961868611E-002
   3.6150667322657620E-006   1.6687903501219625E-006   6.0189032194961072E-002
  -6.9264295977322643E-003   8.0772344556904845E-004   4.8221846264414787E-002
  -7.0328136851176204E-003   1.0621168096823408E-003   5.1176795973038189E-002
  -7.1391977725029704E-003   1.2743009676884072E-003   5.4053957193310277E-002
  -7.2455818598883229E-003   1.4442759195872467E-003   5.6853329925231032E-002
  -7.3519659472736764E-003   1.5720416653788732E-003   5.9574914168800494E-002
  -1.4074472948957860E-002   1.6153406182320439E-003   4.8381719150774369E-002
  -1.4229159133087380E-002   2.1243929050997262E-003   5.1081060855456446E-002
  -1.4383845317216891E-002   2.5485893210848844E-003   5.3761586855001528E-002
  -1.4538531501346407E-002   2.8879298661875080E-003   5.6423297149409621E-002
  -1.4693217685475926E-002   3.1424145404076141E-003   5.9066191738680683E-002
  -2.1444078157237079E-002   2.4229577908950308E-003   4.8817574292276025E-002
  -2.1588093654896424E-002   3.1866690005171133E-003   5.1218661328241467E-002
  -2.1732109152555780E-002   3.8228776744813550E-003   5.3659905442284231E-002
  -2.1876124650215129E-002   4.3315838127877537E-003   5.6141306634404316E-002
  -2.2020140147874474E-002   4.7127874154363463E-003   5.8662864904601764E-002
  -2.9035245222569922E-002   3.2305749635580258E-003   4.9529411688919708E-002
  -2.9109617250544777E-002   4.2489450959344978E-003   5.1589597391393217E-002
  -2.9183989278519631E-002   5.0971660278778270E-003   5.3748912955158365E-002
  -2.9258361306494486E-002   5.7752377593880211E-003   5.6007358380215165E-002
  -2.9332733334469341E-002   6.2831602904650993E-003   5.8364933666563666E-002
   3.6150667322657620E-006   1.6687903501219625E-006   6.0189032194961072E-002
  -8.1998771046289110E-007   3.3854348951423141E-006   6.1085368697317580E-002
  -5.2550421531889421E-006   6.0042751358815177E-006   6.2122131149873985E-002
  -9.6900965959149932E-006   9.5253110723356703E-006   6.3299319552630295E-002
  -1.4125151038643646E-005   1.3948542704478317E-005   6.4616933905586538E-002
  -7.3519659472736764E-003   1.5720416653788732E-003   5.9574914168800494E-002
  -7.2289222536675996E-003   1.6706096417946834E-003   6.0464990676335227E-002
  -7.1058785600615236E-003   1.7529912855660801E-003   6.1469598729767691E-002
  -6.9828348664554476E-003   1.8191865966931189E-003   6.2588738329097837E-002
  -6.8597911728493673E-003   1.8691955751757028E-003   6.3822409474325673E-002
  -1.4693217685475926E-002   3.1424145404076141E-003   5.9066191738680683E-002
  -1.4468589648123241E-002   3.3378338486941966E-003   5.9932919723053590E-002
  -1.4243961610770562E-002   3.4999782959962795E-003   6.0888284849021999E-002
  -1.4019333573417878E-002   3.6288478823138471E-003   6.1932287116585903E-002
  -1.3794705536065197E-002   3.7244426076469550E-003   6.3064926525745302E-002
  -2.2020140147874474E-002   4.7127874154363463E-003   5.8662864904601764E-002
  -2.1719822171077395E-002   5.0050580555937099E-003   5.9489155837472704E-002
  -2.1419504194280306E-002   5.2469653064264998E-003   6.0378189507636917E-002
  -2.1119186217483224E-002   5.4385091679346300E-003   6.1329965915094473E-002
  -2.0818868240686135E-002   5.5796896401181656E-003   6.2344485059845328E-002
  -2.9332733334469341E-002   6.2831602904650993E-003   5.8364933666563666E-002
  -2.8982619822530052E-002   6.6722822624932371E-003   5.9133699019592534E-002
  -2.8632506310590757E-002   6.9939523168566862E-003   5.9939312705612507E-002
  -2.8282392798651461E-002   7.2481704535553530E-003   6.0781774724623573E-002
  -2.7932279286712165E-002   7.4349366725894456E-003   6.1661085076625780E-002
  -1.4125151038643646E-005   1.3948542704478317E-005   6.4616933905586538E-002
  -1.3586561738252595E-005   1.7471773619492925E-005   6.4806959730129315E-002
  -1.3047972437865013E-005   1.8292807404667044E-005   6.5125790670118130E-002
  -1.2509383137476564E-005   1.6411644059978123E-005   6.5573426725552830E-002
  -1.1970793837086380E-005   1.1828283585341159E-005   6.6149867896433429E-002
  -6.8597911728493673E-003   1.8691955751757028E-003   6.3822409474325673E-002
  -6.7179197605624274E-003   1.8998327351756397E-003   6.3923084914278672E-002
  -6.5760483482754841E-003   1.9079125908546338E-003   6.4177620884758854E-002
  -6.4341769359885495E-003   1.8934351422127283E-003   6.4586017385766192E-002
  -6.2923055237016010E-003   1.8564003892499181E-003   6.5148274417300714E-002
  -1.3794705536065197E-002   3.7244426076469550E-003   6.3064926525745302E-002
  -1.3486445885710437E-002   3.7821936967317726E-003   6.3056396473917364E-002
  -1.3178186235355672E-002   3.7975323743046595E-003   6.3226782367697895E-002
  -1.2869926585000904E-002   3.7704586403656043E-003   6.3576084207086894E-002
  -1.2561666934646148E-002   3.7009724949145367E-003   6.4104301992084306E-002
  -2.0818868240686135E-002   5.5796896401181656E-003   6.2344485059845328E-002
  -2.0319164937182270E-002   5.6645546582879541E-003   6.2206894409045449E-002
  -1.9819461633678412E-002   5.6871521577546279E-003   6.2273275118935288E-002
  -1.9319758330174554E-002   5.6474821385184455E-003   6.2543627189514894E-002
  -1.8820055026670692E-002   5.5455446005791623E-003   6.3017950620784233E-002
  -2.7932279286712165E-002   7.4349366725894456E-003   6.1661085076625780E-002
  -2.7216076914977939E-002   7.5469156198440523E-003   6.1374578719662912E-002
  -2.6499874543243717E-002   7.5767719412046276E-003   6.1317099138471033E-002
  -2.5783672171509495E-002   7.5245056366712243E-003   6.1488646333050137E-002
  -2.5067469799775265E-002   7.3901167062437323E-003   6.1889220303400300E-002
  -1.1970793837086380E-005   1.1828283585341159E-005   6.6149867896433429E-002
  -9.7392026569588508E-006   3.6474091331950564E-007   6.5914197405617575E-002
  -7.5076114768330565E-006  -2.2156969023974515E-005   6.5876320121419626E-002
  -5.2760202967020581E-006  -5.5736846226036099E-005   6.6036236043839597E-002
  -3.0444291165797333E-006  -1.0037489069325556E-004   6.6393945172877333E-002
  -6.2923055237016010E-003   1.8564003892499181E-003   6.5148274417300714E-002
  -6.0947004637420541E-003   1.8041360929245548E-003   6.4911677532731790E-002
  -5.8970954037825124E-003   1.7439700141952050E-003   6.4868034379103878E-002
  -5.6994903438229655E-003   1.6759021530615616E-003   6.5017344956416853E-002
  -5.5018852838634238E-003   1.5999325095239492E-003   6.5359609264670770E-002
  -1.2561666934646148E-002   3.7009724949145367E-003   6.4104301992084306E-002
  -1.2173527881584122E-002   3.6079074449359497E-003   6.3869935098623293E-002
  -1.1785388828522109E-002   3.5100969974141659E-003   6.3823682460426245E-002
  -1.1397249775460088E-002   3.4075411523492158E-003   6.3965544077493136E-002
  -1.1009110722398071E-002   3.3002399097410984E-003   6.4295519949824201E-002
  -1.8820055026670692E-002   5.5455446005791623E-003   6.3017950620784233E-002
  -1.8246221456183150E-002   5.4116787969472925E-003   6.2788970103291916E-002
  -1.7672387885695612E-002   5.2762239806331806E-003   6.2743264365386742E-002
  -1.7098554315208070E-002   5.1391801516368699E-003   6.2880833407068598E-002
  -1.6524720744720538E-002   5.0005473099581921E-003   6.3201677228337499E-002
  -2.5067469799775265E-002   7.3901167062437323E-003   6.1889220303400300E-002
  -2.4312781187539149E-002   7.2154501489585937E-003   6.1668782546737771E-002
  -2.3558092575303037E-002   7.0423509638522508E-003   6.1626780093985395E-002
  -2.2803403963066918E-002   6.8708191509244260E-003   6.1763212945143059E-002
  -2.2048715350830805E-002   6.7008547101753968E-003   6.2078081100210902E-002
  -3.0444291165797333E-006  -1.0037489069325556E-004   6.6393945172877333E-002
  -1.2395173929515002E-005  -1.4435923403394169E-004   6.6129151819209309E-002
  -2.1745918742452006E-005  -1.7597800785663920E-004   6.6066946725892806E-002
  -3.1096663555386407E-005  -1.9523121216161524E-004   6.6207329892928005E-002
  -4.0447408368324278E-005  -2.0211884694831816E-004   6.6550301320314809E-002
  -5.5018852838634238E-003   1.5999325095239492E-003   6.5359609264670770E-002
  -5.3042898073931673E-003   1.5203320220870536E-003   6.5097292120208219E-002
  -5.1066943309229194E-003   1.4413716292559081E-003   6.5046279157960379E-002
  -4.9090988544526646E-003   1.3630513310303773E-003   6.5206570377927306E-002
  -4.7115033779824150E-003   1.2853711274106172E-003   6.5578165780108971E-002
  -1.1009110722398071E-002   3.3002399097410984E-003   6.4295519949824201E-002
  -1.0595853102781539E-002   3.1850232782080490E-003   6.4023953539654913E-002
  -1.0182595483165005E-002   3.0587212663684624E-003   6.3972407233563483E-002
  -9.7693378635484805E-003   2.9213338742222605E-003   6.4140881031549829E-002
  -9.3560802439319555E-003   2.7728611017694416E-003   6.4529374933613978E-002
  -1.6524720744720538E-002   5.0005473099581921E-003   6.3201677228337499E-002
  -1.5887085060094633E-002   4.8497145343289888E-003   6.2909136077549235E-002
  -1.5249449375468719E-002   4.6760709034809576E-003   6.2845330952701881E-002
  -1.4611813690842815E-002   4.4796164174141706E-003   6.3010261853795491E-002
  -1.3974178006216907E-002   4.2603510761283214E-003   6.3403928780829955E-002
  -2.2048715350830805E-002   6.7008547101753968E-003   6.2078081100210902E-002
  -2.1177985679332434E-002   6.5144057904500674E-003   6.1752839733891340E-002
  -2.0307256007834059E-002   6.2934205405935223E-003   6.1665050315375836E-002
  -1.9436526336335684E-002   6.0378989606060147E-003   6.1814712844664291E-002
  -1.8565796664837313E-002   5.7478410504872568E-003   6.2201827321756831E-002
  -4.0447408368324278E-005  -2.0211884694831816E-004   6.6550301320314809E-002
  -1.3036447582444322E-005  -2.2387355541100828E-004   6.6249483435330769E-002
   1.4374513203439104E-005  -2.8772798074318262E-004   6.6225760074469925E-002
   4.1785473989320795E-005  -3.9368212294488628E-004   6.6479131237732234E-002
   6.9196434775202487E-005  -5.4173598201595619E-004   6.7009596925117487E-002
  -4.7115033779824150E-003   1.2853711274106172E-003   6.5578165780108971E-002
  -4.4271926298953043E-003   1.1996452952219294E-003   6.5254216727661268E-002
  -4.1428818818081761E-003   1.0971881112901011E-003   6.5166972725692926E-002
  -3.8585711337210541E-003   9.7799957561514259E-004   6.5316433774203847E-002
  -3.5742603856339372E-003   8.4207968819682844E-004   6.5702599873194212E-002
  -9.3560802439319555E-003   2.7728611017694416E-003   6.4529374933613978E-002
  -8.8552591821873770E-003   2.6231641458549365E-003   6.4207663078828983E-002
  -8.3544381204428038E-003   2.4821042033233362E-003   6.4082266800879362E-002
  -7.8536170586982201E-003   2.3496812741748956E-003   6.4153186099765350E-002
  -7.3527959969536521E-003   2.2258953584095298E-003   6.4420420975487017E-002
  -1.3974178006216907E-002   4.2603510761283214E-003   6.3403928780829955E-002
  -1.3297236104458668E-002   4.0466829964878534E-003   6.3109822488833706E-002
  -1.2620294202700430E-002   3.8670202953566234E-003   6.2971642300029371E-002
  -1.1943352300942183E-002   3.7213629727346756E-003   6.2989388214416617E-002
  -1.1266410399183951E-002   3.6097110286222728E-003   6.3163060231995805E-002
  -1.8565796664837313E-002   5.7478410504872568E-003   6.2201827321756831E-002
  -1.7753123396709196E-002   5.4702018471208536E-003   6.1960694957675755E-002
  -1.6940450128581069E-002   5.2519363873898273E-003   6.1835099223142703E-002
  -1.6127776860452948E-002   5.0930446712945873E-003   6.1825040118157676E-002
  -1.5315103592324825E-002   4.9935266988350713E-003   6.1930517642720451E-002
   6.9196434775202487E-005  -5.4173598201595619E-004   6.7009596925117487E-002
   6.8869999210074972E-005  -5.0355730657503095E-004   6.6987015022120122E-002
   6.8543563644937050E-005  -5.0813845240568756E-005   6.6932933803374367E-002
   6.8217128079799128E-005   8.1649440198787795E-004   6.6847353268880347E-002
   6.7890692514671613E-005   2.0983674351098269E-003   6.6730273418637909E-002
  -3.5742603856339372E-003   8.4207968819682844E-004   6.5702599873194212E-002
  -3.5477411913610833E-003   8.1354723552945485E-004   6.5926319628442087E-002
  -3.5212219970882259E-003   1.0165210041078454E-003   6.6235229959114156E-002
  -3.4947028028153937E-003   1.4510009939318266E-003   6.6629330865210501E-002
  -3.4681836085425077E-003   2.1169872050010863E-003   6.7108622346730873E-002
  -7.3527959969536521E-003   2.2258953584095298E-003   6.4420420975487017E-002
  -7.1827412816702803E-003   2.1306517776342737E-003   6.4707383824331915E-002
  -7.0126865663869093E-003   2.0838558534563081E-003   6.5196227139773438E-002
  -6.8426318511035523E-003   2.0855075858757458E-003   6.5886950921811988E-002
  -6.6725771358201527E-003   2.1356069748923456E-003   6.6779555170447091E-002
  -1.1266410399183951E-002   3.6097110286222728E-003   6.3163060231995805E-002
  -1.0836130271717523E-002   3.4477563197390371E-003   6.3330207609789468E-002
  -1.0405850144251104E-002   3.1511907028046911E-003   6.3815925345352506E-002
  -9.9755700167847017E-003   2.7200141778196242E-003   6.4620213438684737E-002
  -9.5452898893182581E-003   2.1542267447836605E-003   6.5743071889786356E-002
  -1.5315103592324825E-002   4.9935266988350713E-003   6.1930517642720451E-002
  -1.4507908161502825E-002   4.7648608618436339E-003   6.1794790984814940E-002
  -1.3700712730680825E-002   4.2185255521532267E-003   6.2094324575851040E-002
  -1.2893517299858839E-002   3.3545207697636518E-003   6.2829118415829319E-002
  -1.2086321869036826E-002   2.1728465146748643E-003   6.3999172504749291E-002
  -2.6633800736379325E-002   0.0000000000000000        2.9467931663282959E-002
  -2.7234161857926972E-002   5.8579299711185914E-004   3.4945476735967720E-002
  -2.7834522979474623E-002   1.3194864900754836E-003   4.0114905097802099E-002
  -2.8434884101022274E-002   2.2010804788908760E-003   4.4976216748786088E-002
  -2.9035245222569922E-002   3.2305749635580258E-003   4.9529411688919708E-002
  -3.3393295012864477E-002   0.0000000000000000        3.0178253730061486E-002
  -3.4236604348301461E-002   9.6040637314715339E-004   3.5266496284355207E-002
  -3.5079913683738445E-002   2.0240227238464623E-003   4.0176959121720646E-002
  -3.5923223019175429E-002   3.1908490520979197E-003   4.4909642242157780E-002
  -3.6766532354612413E-002   4.4608853579015317E-003   4.9464545645666644E-002
  -4.0732815541403664E-002   0.0000000000000000        3.1285534432025107E-002
  -4.1688736096807906E-002   1.3350197491824472E-003   3.5939783949628192E-002
  -4.2644656652212128E-002   2.7285589576174383E-003   4.0546590744225050E-002
  -4.3600577207616356E-002   4.1806176253049703E-003   4.5105954815815731E-002
  -4.4556497763020585E-002   5.6911957522450402E-003   4.9617876164400221E-002
  -4.8652362321996913E-002   0.0000000000000000        3.2789773769173837E-002
  -4.9590557103446294E-002   1.7096331252177421E-003   3.6965339731786645E-002
  -5.0528751884895667E-002   3.4330951913884101E-003   4.1223799965315361E-002
  -5.1466946666345048E-002   5.1703861985120210E-003   4.5565154469759964E-002
  -5.2405141447794436E-002   6.9215061465885512E-003   4.9989403245120440E-002
  -5.7151935354644190E-002   0.0000000000000000        3.4690971741507662E-002
  -5.7942067368216631E-002   2.0842465012530353E-003   3.8343163630830603E-002
  -5.8732199381789064E-002   4.1376314251593931E-003   4.2208586784991523E-002
  -5.9522331395361512E-002   6.1601547717190664E-003   4.6287241203990435E-002
  -6.0312463408933953E-002   8.1518165409320553E-003   5.0579126887827335E-002
  -2.9035245222569922E-002   3.2305749635580258E-003   4.9529411688919708E-002
  -2.9109617250544777E-002   4.2489450959344978E-003   5.1589597391393217E-002
  -2.9183989278519631E-002   5.0971660278778270E-003   5.3748912955158365E-002
  -2.9258361306494486E-002   5.7752377593880211E-003   5.6007358380215165E-002
  -2.9332733334469341E-002   6.2831602904650993E-003   5.8364933666563666E-002
  -3.6766532354612413E-002   4.4608853579015317E-003   4.9464545645666644E-002
  -3.6780639487327918E-002   5.6943692391139104E-003   5.1253956092158270E-002
  -3.6794746620043423E-002   6.7515382935916680E-003   5.3064766467876952E-002
  -3.6808853752758927E-002   7.6323925213348034E-003   5.4896976772822688E-002
  -3.6822960885474432E-002   8.3369319223433325E-003   5.6750587006995465E-002
  -4.4556497763020585E-002   5.6911957522450402E-003   4.9617876164400221E-002
  -4.4588069932541358E-002   7.1397933822933326E-003   5.1130345728608508E-002
  -4.4619642102062110E-002   8.4059105593055159E-003   5.2586485289979223E-002
  -4.4651214271582876E-002   9.4895472832815693E-003   5.3986294848512376E-002
  -4.4682786441103649E-002   1.0390703554221555E-002   5.5329774404207936E-002
  -5.2405141447794436E-002   6.9215061465885512E-003   4.9989403245120440E-002
  -5.2531908586185082E-002   8.5852175254727582E-003   5.1218766300743901E-002
  -5.2658675724575721E-002   1.0060282825019355E-002   5.2314069421465159E-002
  -5.2785442862966353E-002   1.1346702045228365E-002   5.3275312607284263E-002
  -5.2912210001357013E-002   1.2444475186099769E-002   5.4102495858201149E-002
  -6.0312463408933953E-002   8.1518165409320553E-003   5.0579126887827335E-002
  -6.0612155448259097E-002   1.0030641668652168E-002   5.1519217808564492E-002
  -6.0911847487584221E-002   1.1714655090733205E-002   5.2247518862334807E-002
  -6.1211539526909366E-002   1.3203856807175115E-002   5.2764030049138329E-002
  -6.1511231566234503E-002   1.4498246817978018E-002   5.3068751368975063E-002
  -2.9332733334469341E-002   6.2831602904650993E-003   5.8364933666563666E-002
  -2.8982619822530052E-002   6.6722822624932371E-003   5.9133699019592534E-002
  -2.8632506310590757E-002   6.9939523168566862E-003   5.9939312705612507E-002
  -2.8282392798651461E-002   7.2481704535553530E-003   6.0781774724623573E-002
  -2.7932279286712165E-002   7.4349366725894456E-003   6.1661085076625780E-002
  -3.6822960885474432E-002   8.3369319223433325E-003   5.6750587006995465E-002
  -3.6384354482500970E-002   8.8797198308818194E-003   5.7094078875508186E-002
  -3.5945748079527502E-002   9.2753195812148165E-003   5.7577708193098133E-002
  -3.5507141676554034E-002   9.5237311733424625E-003   5.8201474959765326E-002
  -3.5068535273580559E-002   9.6249546072646325E-003   5.8965379175509744E-002
  -4.4682786441103649E-002   1.0390703554221555E-002   5.5329774404207936E-002
  -4.4052398031009889E-002   1.1087157399270388E-002   5.5168256547663788E-002
  -4.3422009620916122E-002   1.1556686845573028E-002   5.5250165256283006E-002
  -4.2791621210822361E-002   1.1799291893129503E-002   5.5575500530065568E-002
  -4.2161232800728587E-002   1.1814972541939812E-002   5.6144262369011461E-002
  -5.2912210001357013E-002   1.2444475186099769E-002   5.4102495858201149E-002
  -5.1986750468056807E-002   1.3294594967658922E-002   5.3356232036059395E-002
  -5.1061290934756615E-002   1.3838054109931207E-002   5.2956683895167118E-002
  -5.0135831401456436E-002   1.4074852612916562E-002   5.2903851435524361E-002
  -4.9210371868156230E-002   1.4004990476614996E-002   5.3197734657131020E-002
  -6.1511231566234503E-002   1.4498246817978018E-002   5.3068751368975063E-002
  -6.0187411793641746E-002   1.5502032536047535E-002   5.1658005340694958E-002
  -5.8863592021049009E-002   1.6119421374289372E-002   5.0697264109750464E-002
  -5.7539772248456258E-002   1.6350413332703644E-002   5.0186527676141582E-002
  -5.6215952475863508E-002   1.6195008411290207E-002   5.0125796039868359E-002
  -2.7932279286712165E-002   7.4349366725894456E-003   6.1661085076625780E-002
  -2.7216076914977939E-002   7.5469156198440523E-003   6.1374578719662912E-002
  -2.6499874543243717E-002   7.5767719412046276E-003   6.1317099138471033E-002
  -2.5783672171509495E-002   7.5245056366712243E-003   6.1488646333050137E-002
  -2.5067469799775265E-002   7.3901167062437323E-003   6.1889220303400300E-002
  -3.5068535273580559E-002   9.6249546072646325E-003   5.8965379175509744E-002
  -3.4132203539124134E-002   9.6226798125633381E-003   5.8642568402750721E-002
  -3.3195871804667695E-002   9.5605967188206013E-003   5.8530989579665099E-002
  -3.2259540070211264E-002   9.4387053260364152E-003   5.8630642706252907E-002
  -3.1323208335754839E-002   9.2570056342107243E-003   5.8941527782514089E-002
  -4.2161232800728587E-002   1.1814972541939812E-002   5.6144262369011461E-002
  -4.1022566529647517E-002   1.1698444005282610E-002   5.5807461507308934E-002
  -3.9883900258566474E-002   1.1544421496436490E-002   5.5664097769182130E-002
  -3.8745233987485396E-002   1.1352905015401562E-002   5.5714171154631162E-002
  -3.7606567716404339E-002   1.1123894562177689E-002   5.5957681663656084E-002
  -4.9210371868156230E-002   1.4004990476614996E-002   5.3197734657131020E-002
  -4.7887165886548122E-002   1.3774208198001903E-002   5.2869258033337418E-002
  -4.6563959904940028E-002   1.3528246274052393E-002   5.2716423707022071E-002
  -4.5240753923331913E-002   1.3267104704766676E-002   5.2739231678184957E-002
  -4.3917547941723797E-002   1.2990783490144653E-002   5.2937681946826090E-002
  -5.6215952475863508E-002   1.6195008411290207E-002   5.0125796039868359E-002
  -5.4726001609825936E-002   1.5849972390721168E-002   4.9827957980836335E-002
  -5.3236050743788357E-002   1.5512071051668352E-002   4.9687967393184929E-002
  -5.1746099877750772E-002   1.5181304394131845E-002   4.9705824276914251E-002
  -5.0256149011713186E-002   1.4857672418111617E-002   4.9881528632024219E-002
  -2.5067469799775265E-002   7.3901167062437323E-003   6.1889220303400300E-002
  -2.4312781187539149E-002   7.2154501489585937E-003   6.1668782546737771E-002
  -2.3558092575303037E-002   7.0423509638522508E-003   6.1626780093985395E-002
  -2.2803403963066918E-002   6.8708191509244260E-003   6.1763212945143059E-002
  -2.2048715350830805E-002   6.7008547101753968E-003   6.2078081100210902E-002
  -3.1323208335754839E-002   9.2570056342107243E-003   5.8941527782514089E-002
  -3.0382944163243969E-002   9.0367768839564044E-003   5.8692768214727714E-002
  -2.9442679990733123E-002   8.7992983158862587E-003   5.8636724463580724E-002
  -2.8502415818222260E-002   8.5445699300001864E-003   5.8773396529073013E-002
  -2.7562151645711408E-002   8.2725917262982396E-003   5.9102784411204784E-002
  -3.7606567716404339E-002   1.1123894562177689E-002   5.5957681663656084E-002
  -3.6466447470889479E-002   1.0858103618954153E-002   5.5661783094751213E-002
  -3.5326327225374612E-002   1.0556245667920322E-002   5.5572880855214987E-002
  -3.4186206979859739E-002   1.0218320709076002E-002   5.5690974945047475E-002
  -3.3046086734344886E-002   9.8443287424212766E-003   5.6016065364248413E-002
  -4.3917547941723797E-002   1.2990783490144653E-002   5.2937681946826090E-002
  -4.2563291110475653E-002   1.2679430353951988E-002   5.2575827186808255E-002
  -4.1209034279227501E-002   1.2313193019954358E-002   5.2435249268888345E-002
  -3.9854777447979363E-002   1.1892071488151790E-002   5.2515948193066306E-002
  -3.8500520616731232E-002   1.1416065758544217E-002   5.2817923959342233E-002
  -5.0256149011713186E-002   1.4857672418111617E-002   4.9881528632024219E-002
  -4.8673475082002531E-002   1.4500757088949698E-002   4.9434900490898881E-002
  -4.7090801152291820E-002   1.4070140371988372E-002   4.9223829704600666E-002
  -4.5508127222581136E-002   1.3565822267227546E-002   4.9248316273129610E-002
  -4.3925453292870439E-002   1.2987802774667212E-002   4.9508360196485801E-002
  -2.2048715350830805E-002   6.7008547101753968E-003   6.2078081100210902E-002
  -2.1177985679332434E-002   6.5144057904500674E-003   6.1752839733891340E-002
  -2.0307256007834059E-002   6.2934205405935223E-003   6.1665050315375836E-002
  -1.9436526336335684E-002   6.0378989606060147E-003   6.1814712844664291E-002
  -1.8565796664837313E-002   5.7478410504872568E-003   6.2201827321756831E-002
  -2.7562151645711408E-002   8.2725917262982396E-003   5.9102784411204784E-002
  -2.6464537613406336E-002   7.9813638619788269E-003   5.8768583747359812E-002
  -2.5366923581101257E-002   7.6688864942401069E-003   5.8650699857324365E-002
  -2.4269309548796174E-002   7.3351596230823921E-003   5.8749132741098144E-002
  -2.3171695516491109E-002   6.9801832485051341E-003   5.9063882398681572E-002
  -3.3046086734344886E-002   9.8443287424212766E-003   5.6016065364248413E-002
  -3.1742723515227715E-002   9.4483219335077112E-003   5.5686192229590120E-002
  -3.0439360296110548E-002   9.0443524478867957E-003   5.5551500694746549E-002
  -2.9135997076993384E-002   8.6324202855586566E-003   5.5611990759717872E-002
  -2.7832633857876210E-002   8.2125254465230946E-003   5.5867662424503833E-002
  -3.8500520616731232E-002   1.1416065758544217E-002   5.2817923959342233E-002
  -3.7012543384796578E-002   1.0915280005036505E-002   5.2505665180582355E-002
  -3.5524566152861939E-002   1.0419818401533432E-002   5.2367452827642616E-002
  -3.4036588920927299E-002   9.9296809480349212E-003   5.2403286900523025E-002
  -3.2548611688992660E-002   9.4448676445410135E-003   5.2613167399223650E-002
  -4.3925453292870439E-002   1.2987802774667212E-002   4.9508360196485801E-002
  -4.2273997222112933E-002   1.2382238076565355E-002   4.9227002600336300E-002
  -4.0622541151355433E-002   1.1795284355180111E-002   4.9098556256012338E-002
  -3.8971085080597948E-002   1.1226941610511226E-002   4.9123021163513941E-002
  -3.7319629009840427E-002   1.0677209842558932E-002   4.9300397322841083E-002
  -1.8565796664837313E-002   5.7478410504872568E-003   6.2201827321756831E-002
  -1.7753123396709196E-002   5.4702018471208536E-003   6.1960694957675755E-002
  -1.6940450128581069E-002   5.2519363873898273E-003   6.1835099223142703E-002
  -1.6127776860452948E-002   5.0930446712945873E-003   6.1825040118157676E-002
  -1.5315103592324825E-002   4.9935266988350713E-003   6.1930517642720451E-002
  -2.3171695516491109E-002   6.9801832485051341E-003   5.9063882398681572E-002
  -2.2227856711798111E-002   6.6357005143052039E-003   5.8834144715790654E-002
  -2.1284017907105109E-002   6.3334545642787510E-003   5.8751201476481427E-002
  -2.0340179102412100E-002   6.0734453984259279E-003   5.8815052680754008E-002
  -1.9396340297719104E-002   5.8556730167464988E-003   5.9025698328608323E-002
  -2.7832633857876210E-002   8.2125254465230946E-003   5.5867662424503833E-002
  -2.6726371702584552E-002   7.8011991814896792E-003   5.5632182463340910E-002
  -2.5620109547292942E-002   7.4149727411677441E-003   5.5574754759793690E-002
  -2.4513847392001312E-002   7.0538461255571054E-003   5.5695379313861877E-002
  -2.3407585236709674E-002   6.7178193346581205E-003   5.5994056125545630E-002
  -3.2548611688992660E-002   9.4448676445410135E-003   5.2613167399223650E-002
  -3.1248668369068630E-002   8.9666978486741475E-003   5.2354808200326827E-002
  -2.9948725049144562E-002   8.4964909180565359E-003   5.2305759073079106E-002
  -2.8648781729220515E-002   8.0342468526884200E-003   5.2466020017480845E-002
  -2.7348838409296462E-002   7.5799656525695341E-003   5.2835591033531845E-002
  -3.7319629009840427E-002   1.0677209842558932E-002   4.9300397322841083E-002
  -3.5794746711250186E-002   1.0132196515858505E-002   4.9002021926748129E-002
  -3.4269864412659973E-002   9.5780090949456886E-003   4.8944214416338117E-002
  -3.2744982114069739E-002   9.0146475798195749E-003   4.9126974791611239E-002
  -3.1220099815479505E-002   8.4421119704811698E-003   4.9550303052567357E-002
  -1.5315103592324825E-002   4.9935266988350713E-003   6.1930517642720451E-002
  -1.4507908161502825E-002   4.7648608618436339E-003   6.1794790984814940E-002
  -1.3700712730680825E-002   4.2185255521532267E-003   6.2094324575851040E-002
  -1.2893517299858839E-002   3.3545207697636518E-003   6.2829118415829319E-002
  -1.2086321869036826E-002   2.1728465146748643E-003   6.3999172504749291E-002
  -1.9396340297719104E-002   5.8556730167464988E-003   5.9025698328608323E-002
  -1.8197569600392538E-002   5.5553968477200233E-003   5.8653821538885736E-002
  -1.6998798903065920E-002   5.0478763198255616E-003   5.8629835033230299E-002
  -1.5800028205739364E-002   4.3331114330630999E-003   5.8953738811642606E-002
  -1.4601257508412728E-002   3.4111021874323466E-003   5.9625532874121534E-002
  -2.3407585236709674E-002   6.7178193346581205E-003   5.5994056125545630E-002
  -2.1904609237753000E-002   6.3459328335962184E-003   5.5496454317836869E-002
  -2.0401633238796353E-002   5.8772270874977370E-003   5.5259372829321078E-002
  -1.8898657239839703E-002   5.3117020963622443E-003   5.5282811659998141E-002
  -1.7395681240883025E-002   4.6493578601898289E-003   5.5566770809867938E-002
  -2.7348838409296462E-002   7.5799656525695341E-003   5.2835591033531845E-002
  -2.5629027073584255E-002   7.1364688194726217E-003   5.2322689321668461E-002
  -2.3909215737871990E-002   6.7065778551699366E-003   5.1982937964123364E-002
  -2.2189404402159829E-002   6.2902927596614850E-003   5.1816336960896457E-002
  -2.0469593066447522E-002   5.8876135329473112E-003   5.1822886311988045E-002
  -3.1220099815479505E-002   8.4421119704811698E-003   4.9550303052567357E-002
  -2.9370823107886232E-002   7.9270048053486919E-003   4.9132526550380307E-002
  -2.7521546400293008E-002   7.5359286228422750E-003   4.8800530437636880E-002
  -2.5672269692699774E-002   7.2688834229608437E-003   4.8554314714337493E-002
  -2.3822992985106484E-002   7.1258692057047934E-003   4.8393879380481675E-002
  -5.7151935354644190E-002   0.0000000000000000        3.4690971741507662E-002
  -5.7942067368216631E-002   2.0842465012530353E-003   3.8343163630830603E-002
  -5.8732199381789064E-002   4.1376314251593931E-003   4.2208586784991523E-002
  -5.9522331395361512E-002   6.1601547717190664E-003   4.6287241203990435E-002
  -6.0312463408933953E-002   8.1518165409320553E-003   5.0579126887827335E-002
  -6.5819875633380223E-002   0.0000000000000000        3.7212231741251288E-002
  -6.6625689930244827E-002   2.9141359661463365E-003   4.0834664310232728E-002
  -6.7431504227109432E-002   5.7708584454636055E-003   4.4212501047791848E-002
  -6.8237318523974050E-002   8.5701674379517999E-003   4.7345741953928627E-002
  -6.9043132820838654E-002   1.1312062943610928E-002   5.0234387028643093E-002
  -7.4244524152239727E-002   0.0000000000000000        4.0576657160629415E-002
  -7.5523847828656815E-002   3.7440254310396369E-003   4.4142778499786962E-002
  -7.6803171505073917E-002   7.4040854657678153E-003   4.7006476911261884E-002
  -7.8082495181491005E-002   1.0980180104184539E-002   4.9167752395054151E-002
  -7.9361818857908106E-002   1.4472309346289798E-002   5.0626604951163785E-002
  -8.2425880911222688E-002   0.0000000000000000        4.4784247999642021E-002
  -8.4636541063452586E-002   4.5739148959329356E-003   4.8267506199493312E-002
  -8.6847201215682471E-002   9.0373124860720268E-003   5.0590514375401623E-002
  -8.9057861367912383E-002   1.3390192770417272E-002   5.1753272527367000E-002
  -9.1268521520142254E-002   1.7632555748968666E-002   5.1755780655389411E-002
  -9.0363945910329105E-002   0.0000000000000000        4.9835004258289128E-002
  -9.3963769634632113E-002   5.4038043608262386E-003   5.3208847409351751E-002
  -9.7563593358935122E-002   1.0670539506376241E-002   5.4964613440211106E-002
 -0.10116341708323816        1.5800205436650006E-002   5.5102302350867174E-002
 -0.10476324080754114        2.0792802151647541E-002   5.3621914141319976E-002
  -6.0312463408933953E-002   8.1518165409320553E-003   5.0579126887827335E-002
  -6.0612155448259097E-002   1.0030641668652168E-002   5.1519217808564492E-002
  -6.0911847487584221E-002   1.1714655090733205E-002   5.2247518862334807E-002
  -6.1211539526909366E-002   1.3203856807175115E-002   5.2764030049138329E-002
  -6.1511231566234503E-002   1.4498246817978018E-002   5.3068751368975063E-002
  -6.9043132820838654E-002   1.1312062943610928E-002   5.0234387028643093E-002
  -6.9317094683322700E-002   1.3756655251337332E-002   4.9457979060685678E-002
  -6.9591056545806745E-002   1.5664054650027372E-002   4.8944821313377261E-002
  -6.9865018408290791E-002   1.7034261139681029E-002   4.8694913786717871E-002
  -7.0138980270774837E-002   1.7867274720298344E-002   4.8708256480707479E-002
  -7.9361818857908106E-002   1.4472309346289798E-002   5.0626604951163785E-002
  -7.9135010455935240E-002   1.7482668834022497E-002   4.7791316891114544E-002
  -7.8908202053962359E-002   1.9613454209321549E-002   4.5694319139330086E-002
  -7.8681393651989506E-002   2.0864665472186947E-002   4.4335611695810476E-002
  -7.8454585250016626E-002   2.1236302622618695E-002   4.3715194560555636E-002
  -9.1268521520142254E-002   1.7632555748968666E-002   5.1755780655389411E-002
  -9.0065902766096689E-002   2.1208682416707675E-002   4.6519231299851041E-002
  -8.8863284012051111E-002   2.3562853768615721E-002   4.2496012340193311E-002
  -8.7660665258005560E-002   2.4695069804692854E-002   3.9686123776416143E-002
  -8.6458046503959982E-002   2.4605330524939018E-002   3.8089565608519636E-002
 -0.10476324080754114        2.0792802151647541E-002   5.3621914141319976E-002
 -0.10210977161380708        2.4934695999392818E-002   4.5641722286895205E-002
  -9.9456302420072973E-002   2.7512253327909898E-002   3.9349900915966865E-002
  -9.6802833226338869E-002   2.8525474137198747E-002   3.4746450028534936E-002
  -9.4149364032604793E-002   2.7974358427259385E-002   3.1831369624599426E-002
  -6.1511231566234503E-002   1.4498246817978018E-002   5.3068751368975063E-002
  -6.0187411793641746E-002   1.5502032536047535E-002   5.1658005340694958E-002
  -5.8863592021049009E-002   1.6119421374289372E-002   5.0697264109750464E-002
  -5.7539772248456258E-002   1.6350413332703644E-002   5.0186527676141582E-002
  -5.6215952475863508E-002   1.6195008411290207E-002   5.0125796039868359E-002
  -7.0138980270774837E-002   1.7867274720298344E-002   4.8708256480707479E-002
  -6.8411016360737903E-002   1.8321264337839687E-002   4.7260167569362785E-002
  -6.6683052450700997E-002   1.8554398938265361E-002   4.6170362135570818E-002
  -6.4955088540664063E-002   1.8566678521575532E-002   4.5438840179331537E-002
  -6.3227124630627130E-002   1.8358103087770056E-002   4.5065601700644997E-002
  -7.8454585250016626E-002   2.1236302622618695E-002   4.3715194560555636E-002
  -7.6414198522318469E-002   2.1140496139631829E-002   4.2395304628858411E-002
  -7.4373811794620298E-002   2.0989376502241391E-002   4.1341976854931024E-002
  -7.2333425066922141E-002   2.0782943710447446E-002   4.0555211238773363E-002
  -7.0293038339223998E-002   2.0521197764249891E-002   4.0035007780385587E-002
  -8.6458046503959982E-002   2.4605330524939018E-002   3.8089565608519636E-002
  -8.4196958278383430E-002   2.3959727941423981E-002   3.7063416519181949E-002
  -8.1935870052806933E-002   2.3424354066217422E-002   3.6212108267831125E-002
  -7.9674781827230423E-002   2.2999208899319348E-002   3.5535640854467219E-002
  -7.7413693601653871E-002   2.2684292440729732E-002   3.5034014279090163E-002
  -9.4149364032604793E-002   2.7974358427259385E-002   3.1831369624599426E-002
  -9.1759295628932813E-002   2.6778959743216119E-002   3.1264503240333280E-002
  -8.9369227225260889E-002   2.5859331630193411E-002   3.0780756374271044E-002
  -8.6979158821588937E-002   2.5215474088191248E-002   3.0380129026412836E-002
  -8.4589090417916984E-002   2.4847387117209560E-002   3.0062621196758635E-002
  -5.6215952475863508E-002   1.6195008411290207E-002   5.0125796039868359E-002
  -5.4726001609825936E-002   1.5849972390721168E-002   4.9827957980836335E-002
  -5.3236050743788357E-002   1.5512071051668352E-002   4.9687967393184929E-002
  -5.1746099877750772E-002   1.5181304394131845E-002   4.9705824276914251E-002
  -5.0256149011713186E-002   1.4857672418111617E-002   4.9881528632024219E-002
  -6.3227124630627130E-002   1.8358103087770056E-002   4.5065601700644997E-002
  -6.1562852865853362E-002   1.8021812204547863E-002   4.4715774915034562E-002
  -5.9898581101079554E-002   1.7650945439607796E-002   4.4556742455515885E-002
  -5.8234309336305738E-002   1.7245502792949882E-002   4.4588504322089030E-002
  -5.6570037571531943E-002   1.6805484264574011E-002   4.4811060514753906E-002
  -7.0293038339223998E-002   2.0521197764249891E-002   4.0035007780385587E-002
  -6.8421498821002846E-002   2.0193652018374558E-002   3.9591481704962600E-002
  -6.6549959302781708E-002   1.9789819827547211E-002   3.9371696810342478E-002
  -6.4678419784560556E-002   1.9309701191767836E-002   3.9375653096525291E-002
  -6.2806880266339404E-002   1.8753296111036447E-002   3.9603350563510949E-002
  -7.7413693601653871E-002   2.2684292440729732E-002   3.5034014279090163E-002
  -7.5301939475274360E-002   2.2365491832201226E-002   3.4455078350620477E-002
  -7.3190185348894793E-002   2.1928694215486683E-002   3.4132830457664812E-002
  -7.1078431222515184E-002   2.1373899590585832E-002   3.4067270600223028E-002
  -6.8966677096135687E-002   2.0701107957498875E-002   3.4258398778295292E-002
  -8.4589090417916984E-002   2.4847387117209560E-002   3.0062621196758635E-002
  -8.2204174828667903E-002   2.4537331646027935E-002   2.9306564852008055E-002
  -7.9819259239418808E-002   2.4067568603426088E-002   2.8840143397482650E-002
  -7.7434343650169685E-002   2.3438097989403831E-002   2.8663356833182333E-002
  -7.5049428060920603E-002   2.2648919803961304E-002   2.8776205159107088E-002
  -5.0256149011713186E-002   1.4857672418111617E-002   4.9881528632024219E-002
  -4.8673475082002531E-002   1.4500757088949698E-002   4.9434900490898881E-002
  -4.7090801152291820E-002   1.4070140371988372E-002   4.9223829704600666E-002
  -4.5508127222581136E-002   1.3565822267227546E-002   4.9248316273129610E-002
  -4.3925453292870439E-002   1.2987802774667212E-002   4.9508360196485801E-002
  -5.6570037571531943E-002   1.6805484264574011E-002   4.4811060514753906E-002
  -5.4763752933544525E-002   1.6330843832761718E-002   4.4375346935612112E-002
  -5.2957468295557086E-002   1.5821535475794526E-002   4.4151297418196601E-002
  -5.1151183657569627E-002   1.5277559193672092E-002   4.4138911962507466E-002
  -4.9344899019582215E-002   1.4698914986394807E-002   4.4338190568544600E-002
  -6.2806880266339404E-002   1.8753296111036447E-002   3.9603350563510949E-002
  -6.0800878213176132E-002   1.8160930576573774E-002   3.9217585008997177E-002
  -5.8794876160012804E-002   1.7572930579600510E-002   3.9019590223108885E-002
  -5.6788874106849470E-002   1.6989296120116664E-002   3.9009366205845934E-002
  -5.4782872053686177E-002   1.6410027198122373E-002   3.9186912957208567E-002
  -6.8966677096135687E-002   2.0701107957498875E-002   3.4258398778295292E-002
  -6.6784850920897351E-002   1.9991017320385756E-002   3.3961614711054092E-002
  -6.4603024745659030E-002   1.9324325683406605E-002   3.3828708119337379E-002
  -6.2421198570420673E-002   1.8701033046561309E-002   3.3859679003145342E-002
  -6.0239372395182400E-002   1.8121139409849954E-002   3.4054527362477757E-002
  -7.5049428060920603E-002   2.2648919803961304E-002   2.8776205159107088E-002
  -7.2715671056708162E-002   2.1821104064197711E-002   2.8607436041782786E-002
  -7.0381914052495692E-002   2.1075720787212683E-002   2.8578651106882208E-002
  -6.8048157048283250E-002   2.0412769973005791E-002   2.8689850354405362E-002
  -6.5714400044070781E-002   1.9832251621577535E-002   2.8941033784352199E-002
  -4.3925453292870439E-002   1.2987802774667212E-002   4.9508360196485801E-002
  -4.2273997222112933E-002   1.2382238076565355E-002   4.9227002600336300E-002
  -4.0622541151355433E-002   1.1795284355180111E-002   4.9098556256012338E-002
  -3.8971085080597948E-002   1.1226941610511226E-002   4.9123021163513941E-002
  -3.7319629009840427E-002   1.0677209842558932E-002   4.9300397322841083E-002
  -4.9344899019582215E-002   1.4698914986394807E-002   4.4338190568544600E-002
  -4.7530857742151440E-002   1.4107581416809720E-002   4.4061929708478567E-002
  -4.5716816464720672E-002   1.3525537047764158E-002   4.3957928009933520E-002
  -4.3902775187289932E-002   1.2952781879258107E-002   4.4026185472909443E-002
  -4.2088733909859122E-002   1.2389315911291776E-002   4.4266702097406352E-002
  -5.4782872053686177E-002   1.6410027198122373E-002   3.9186912957208567E-002
  -5.2786897659886742E-002   1.5832924757054057E-002   3.8906427057049137E-002
  -5.0790923266087307E-002   1.5255789740348268E-002   3.8817548228106007E-002
  -4.8794948872287844E-002   1.4678622148004991E-002   3.8920276470379267E-002
  -4.6798974478488450E-002   1.4101421980024398E-002   3.9214611783869008E-002
  -6.0239372395182400E-002   1.8121139409849954E-002   3.4054527362477757E-002
  -5.8042116975318844E-002   1.7558268097298435E-002   3.3760494646047912E-002
  -5.5844861555455337E-002   1.6986042432932429E-002   3.3677416910529751E-002
  -5.3647606135591795E-002   1.6404462416751930E-002   3.3805294155923336E-002
  -5.1450350715728267E-002   1.5813528048757075E-002   3.4144126382228780E-002
  -6.5714400044070781E-002   1.9832251621577535E-002   2.8941033784352199E-002
  -6.3296515688447727E-002   1.9283611437542758E-002   2.8624132475474878E-002
  -6.0878631332824729E-002   1.8716295125516397E-002   2.8537534057204716E-002
  -5.8460746977201730E-002   1.8130302685498693E-002   2.8681238529541853E-002
  -5.6042862621578676E-002   1.7525634117489808E-002   2.9055245892486092E-002
  -3.7319629009840427E-002   1.0677209842558932E-002   4.9300397322841083E-002
  -3.5794746711250186E-002   1.0132196515858505E-002   4.9002021926748129E-002
  -3.4269864412659973E-002   9.5780090949456886E-003   4.8944214416338117E-002
  -3.2744982114069739E-002   9.0146475798195749E-003   4.9126974791611239E-002
  -3.1220099815479505E-002   8.4421119704811698E-003   4.9550303052567357E-002
  -4.2088733909859122E-002   1.2389315911291776E-002   4.4266702097406352E-002
  -4.0340541505866911E-002   1.1815303057299664E-002   4.3990154719020014E-002
  -3.8592349101874666E-002   1.1210907230716799E-002   4.3919659665754673E-002
  -3.6844156697882435E-002   1.0576128431543562E-002   4.4055216937610192E-002
  -3.5095964293890142E-002   9.9109666597793078E-003   4.4396826534586820E-002
  -4.6798974478488450E-002   1.4101421980024398E-002   3.9214611783869008E-002
  -4.4861987529656325E-002   1.3498409598740657E-002   3.8938683544811448E-002
  -4.2925000580824102E-002   1.2843805366488284E-002   3.8834292070312554E-002
  -4.0988013631991983E-002   1.2137609283267212E-002   3.8901437360372729E-002
  -3.9051026683159809E-002   1.1379821349077557E-002   3.9140119414991653E-002
  -5.1450350715728267E-002   1.5813528048757075E-002   3.4144126382228780E-002
  -4.9359084782618315E-002   1.5181516140181678E-002   3.3847608404121952E-002
  -4.7267818849508356E-002   1.4476703502259748E-002   3.3688111630011883E-002
  -4.5176552916398424E-002   1.3699090134990976E-002   3.3665636059898557E-002
  -4.3085286983288389E-002   1.2848676038375917E-002   3.3780181693781906E-002
  -5.6042862621578676E-002   1.7525634117489808E-002   2.9055245892486092E-002
  -5.3831833264752993E-002   1.6864622681622754E-002   2.8716929296952076E-002
  -5.1620803907927365E-002   1.6109601638030935E-002   2.8481118344852674E-002
  -4.9409774551101709E-002   1.5260570986714780E-002   2.8347813036187955E-002
  -4.7198745194276054E-002   1.4317530727673999E-002   2.8317013370957766E-002
  -3.1220099815479505E-002   8.4421119704811698E-003   4.9550303052567357E-002
  -2.9370823107886232E-002   7.9270048053486919E-003   4.9132526550380307E-002
  -2.7521546400293008E-002   7.5359286228422750E-003   4.8800530437636880E-002
  -2.5672269692699774E-002   7.2688834229608437E-003   4.8554314714337493E-002
  -2.3822992985106484E-002   7.1258692057047934E-003   4.8393879380481675E-002
  -3.5095964293890142E-002   9.9109666597793078E-003   4.4396826534586820E-002
  -3.3143420654676334E-002   9.2886893273038951E-003   4.4037430080614309E-002
  -3.1190877015462574E-002   8.7825638459970434E-003   4.3798787100439218E-002
  -2.9238333376248631E-002   8.3925902158583573E-003   4.3680897594061185E-002
  -2.7285789737034938E-002   8.1187684368877466E-003   4.3683761561481016E-002
  -3.9051026683159809E-002   1.1379821349077557E-002   3.9140119414991653E-002
  -3.6960243027971851E-002   1.0650373849259098E-002   3.8831223877776766E-002
  -3.4869459372783858E-002   1.0029199069151909E-002   3.8678054898712830E-002
  -3.2778675717595955E-002   9.5162970087557842E-003   3.8680612477799865E-002
  -3.0687892062407976E-002   9.1116676680708109E-003   3.8838896615037755E-002
  -4.3085286983288389E-002   1.2848676038375917E-002   3.3780181693781906E-002
  -4.0821290227772769E-002   1.2012058371214301E-002   3.3513907941867475E-002
  -3.8557293472257066E-002   1.1275834292306837E-002   3.3438333832457437E-002
  -3.6293296716741294E-002   1.0640003801653255E-002   3.3553459365551971E-002
  -3.4029299961225751E-002   1.0104566899253820E-002   3.3859284541150961E-002
  -4.7198745194276054E-002   1.4317530727673999E-002   2.8317013370957766E-002
  -4.4726562254079033E-002   1.3373742893169338E-002   2.8085482272886542E-002
  -4.2254379313882082E-002   1.2522469515461584E-002   2.8079623901673262E-002
  -3.9782196373685123E-002   1.1763710594550791E-002   2.8299438257318218E-002
  -3.7310013433488054E-002   1.1097466130436828E-002   2.8744925339821092E-002
  -9.0363945910329105E-002   0.0000000000000000        4.9835004258289128E-002
  -9.3963769634632113E-002   5.4038043608262386E-003   5.3208847409351751E-002
  -9.7563593358935122E-002   1.0670539506376241E-002   5.4964613440211106E-002
 -0.10116341708323816        1.5800205436650006E-002   5.5102302350867174E-002
 -0.10476324080754114        2.0792802151647541E-002   5.3621914141319976E-002
 -0.10329657030469182        0.0000000000000000        5.8662773101484454E-002
 -0.10683303833036720        1.0884781107860442E-002   5.2118686303284895E-002
 -0.11036950635604259        1.9172726995589195E-002   4.7319388022543860E-002
 -0.11390597438171797        2.4863837663186256E-002   4.4264878259261370E-002
 -0.11744244240739336        2.7958113110651626E-002   4.2955157013437384E-002
 -0.12646160524944364        0.0000000000000000        7.4201401694141716E-002
 -0.12657185193882958        1.6365757854894650E-002   5.5279618941824510E-002
 -0.12668209862821556        2.7674914484802152E-002   4.1465490344627640E-002
 -0.12679234531760153        3.3927469889722513E-002   3.2759015902551127E-002
 -0.12690259200698745        3.5123424069655719E-002   2.9160195615594919E-002
 -0.15985905074458462        0.0000000000000000        9.6450890036260895E-002
 -0.15318021046001931        2.1846734601928854E-002   6.2691645324970596E-002
 -0.14650137017545406        3.6177101974015115E-002   3.7402920406462446E-002
 -0.13982252989088875        4.2991102116258756E-002   2.0584715280736413E-002
 -0.13314368960632347        4.2288735028659805E-002   1.2237029947792542E-002
 -0.20348890679011469        0.0000000000000000       0.12541123812784202     
 -0.18665811389393638        2.7327711348963057E-002   7.4354765452723182E-002
 -0.16982732099775805        4.4679289463228078E-002   3.5131678208048259E-002
 -0.15299652810157974        5.2054734342795013E-002   7.7419763938173097E-003
 -0.13616573520540143        4.9454045987663897E-002  -7.8143399899697277E-003
 -0.10476324080754114        2.0792802151647541E-002   5.3621914141319976E-002
 -0.10210977161380708        2.4934695999392818E-002   4.5641722286895205E-002
  -9.9456302420072973E-002   2.7512253327909898E-002   3.9349900915966865E-002
  -9.6802833226338869E-002   2.8525474137198747E-002   3.4746450028534936E-002
  -9.4149364032604793E-002   2.7974358427259385E-002   3.1831369624599426E-002
 -0.11744244240739336        2.7958113110651626E-002   4.2955157013437384E-002
 -0.11348829616420804        2.9430093908406285E-002   3.6700278425966543E-002
 -0.10953414992102271        3.0254320626871185E-002   3.1358383453901711E-002
 -0.10558000367783740        3.0430793266046387E-002   2.6929472097242939E-002
 -0.10162585743465205        2.9959511825931817E-002   2.3413544355990176E-002
 -0.12690259200698745        3.5123424069655719E-002   2.9160195615594919E-002
 -0.12242315558244130        3.3925491817419717E-002   2.5547212735016450E-002
 -0.11794371915789513        3.2996387925832496E-002   2.2071826601753677E-002
 -0.11346428273334899        3.2336112394893986E-002   1.8734037215806548E-002
 -0.10898484630880283        3.1944665224604242E-002   1.5533844577175077E-002
 -0.13314368960632347        4.2288735028659805E-002   1.2237029947792542E-002
 -0.12891434986850686        3.8420889726433163E-002   1.2182525214045009E-002
 -0.12468501013069024        3.5738455224793762E-002   1.1490230359522693E-002
 -0.12045567039287357        3.4241431523741574E-002   1.0160145384225629E-002
 -0.11622633065505696        3.3929818623276695E-002   8.1922702881539224E-003
 -0.13616573520540143        4.9454045987663897E-002  -7.8143399899697277E-003
 -0.13296187902240469        4.2916287635446623E-002  -3.3937841369479360E-003
 -0.12975802283940799        3.8480522523755049E-002  -3.8640527279114496E-004
 -0.12655416665641128        3.6146750652589266E-002   1.2077966025004247E-003
 -0.12335031047341455        3.5914972021949126E-002   1.3888214889269945E-003
  -9.4149364032604793E-002   2.7974358427259385E-002   3.1831369624599426E-002
  -9.1759295628932813E-002   2.6778959743216119E-002   3.1264503240333280E-002
  -8.9369227225260889E-002   2.5859331630193411E-002   3.0780756374271044E-002
  -8.6979158821588937E-002   2.5215474088191248E-002   3.0380129026412836E-002
  -8.4589090417916984E-002   2.4847387117209560E-002   3.0062621196758635E-002
 -0.10162585743465205        2.9959511825931817E-002   2.3413544355990176E-002
  -9.9139221365360991E-002   2.9189309414497391E-002   2.3140472000871048E-002
  -9.6652585296069904E-002   2.8469019139713003E-002   2.2977415458786163E-002
  -9.4165949226778844E-002   2.7798641001578570E-002   2.2924374729735561E-002
  -9.1679313157487743E-002   2.7178175000094174E-002   2.2981349813719243E-002
 -0.10898484630880283        3.1944665224604242E-002   1.5533844577175077E-002
 -0.10637474627906227        3.1599659085778622E-002   1.5328707816832356E-002
 -0.10376464624932173        3.1078706649232526E-002   1.5260483164354275E-002
 -0.10115454621958117        3.0381807914965836E-002   1.5329170619740814E-002
  -9.8544446189840651E-002   2.9508962882978711E-002   1.5534770182991899E-002
 -0.11622633065505696        3.3929818623276695E-002   8.1922702881539224E-003
 -0.11346587037003664        3.4010008757059874E-002   7.8292106882172762E-003
 -0.11070541008501636        3.3688394158752008E-002   7.6299594909753823E-003
 -0.10794494979999607        3.2964974828353193E-002   7.5945166964284903E-003
 -0.10518448951497573        3.1839750765863234E-002   7.7228823045765475E-003
 -0.12335031047341455        3.5914972021949126E-002   1.3888214889269945E-003
 -0.12041259363828419        3.6420358428341112E-002   6.4198061502576675E-004
 -0.11747487680315380        3.6298081668271621E-002   8.5844438649576582E-005
 -0.11453715996802344        3.5548141741740501E-002  -2.7958704020125333E-004
 -0.11159944313289305        3.4170538648747861E-002  -4.5431382152683053E-004
  -8.4589090417916984E-002   2.4847387117209560E-002   3.0062621196758635E-002
  -8.2204174828667903E-002   2.4537331646027935E-002   2.9306564852008055E-002
  -7.9819259239418808E-002   2.4067568603426088E-002   2.8840143397482650E-002
  -7.7434343650169685E-002   2.3438097989403831E-002   2.8663356833182333E-002
  -7.5049428060920603E-002   2.2648919803961304E-002   2.8776205159107088E-002
  -9.1679313157487743E-002   2.7178175000094174E-002   2.2981349813719243E-002
  -8.9034310661452898E-002   2.6559086015427641E-002   2.2317402355529925E-002
  -8.6389308165418011E-002   2.5892838927746811E-002   2.1883993820687078E-002
  -8.3744305669383137E-002   2.5179433737051730E-002   2.1681124209190678E-002
  -8.1099303173348264E-002   2.4418870443342261E-002   2.1708793521040742E-002
  -9.8544446189840651E-002   2.9508962882978711E-002   1.5534770182991899E-002
  -9.5698452753898627E-002   2.8580840384827243E-002   1.5075481079769845E-002
  -9.2852459317956632E-002   2.7718109252067476E-002   1.4787634933015581E-002
  -9.0006465882014636E-002   2.6920769484699490E-002   1.4671231742729260E-002
  -8.7160472446072612E-002   2.6188821082723260E-002   1.4726271508910573E-002
 -0.10518448951497573        3.1839750765863234E-002   7.7228823045765475E-003
 -0.10219660110600523        3.0602594754226827E-002   7.5808010247277631E-003
  -9.9208712697034684E-002   2.9543379576388199E-002   7.5510667344682522E-003
  -9.6220824288064166E-002   2.8662105232347232E-002   7.6336794337977772E-003
  -9.3232935879093648E-002   2.7958771722104099E-002   7.8286391227166841E-003
 -0.11159944313289305        3.4170538648747861E-002  -4.5431382152683053E-004
 -0.10852875571777260        3.2624349123626495E-002  -1.6663780959622065E-004
 -0.10545806830265217        3.1368649900708812E-002   1.7428922504492128E-004
 -0.10238738088753176        3.0403440979995186E-002   5.6846728239659527E-004
  -9.9316693472411288E-002   2.9728722361485160E-002   1.0158963624589679E-003
  -7.5049428060920603E-002   2.2648919803961304E-002   2.8776205159107088E-002
  -7.2715671056708162E-002   2.1821104064197711E-002   2.8607436041782786E-002
  -7.0381914052495692E-002   2.1075720787212683E-002   2.8578651106882208E-002
  -6.8048157048283250E-002   2.0412769973005791E-002   2.8689850354405362E-002
  -6.5714400044070781E-002   1.9832251621577535E-002   2.8941033784352199E-002
  -8.1099303173348264E-002   2.4418870443342261E-002   2.1708793521040742E-002
  -7.8620756524259067E-002   2.3643665785330642E-002   2.1583689624466995E-002
  -7.6142209875169856E-002   2.2886336501729082E-002   2.1608180835223117E-002
  -7.3663663226080645E-002   2.2146882592537422E-002   2.1782267153308964E-002
  -7.1185116576991447E-002   2.1425304057755751E-002   2.2105948578724555E-002
  -8.7160472446072612E-002   2.6188821082723260E-002   1.4726271508910573E-002
  -8.4527525227200626E-002   2.5466227506463671E-002   1.4580275744719109E-002
  -8.1894578008328611E-002   2.4696952216245505E-002   1.4593486012763193E-002
  -7.9261630789456583E-002   2.3880995212069048E-002   1.4765902313043361E-002
  -7.6628683570584638E-002   2.3018356493933967E-002   1.5097524645559274E-002
  -9.3232935879093648E-002   2.7958771722104099E-002   7.8286391227166841E-003
  -9.0435977165532686E-002   2.7288789227596540E-002   7.5971944025388614E-003
  -8.7639018451971848E-002   2.6507567930761998E-002   7.5345666395028330E-003
  -8.4842059738410955E-002   2.5615107831600623E-002   7.6407558336084366E-003
  -8.2045101024850062E-002   2.4611408930112239E-002   7.9157619848563912E-003
  -9.9316693472411288E-002   2.9728722361485160E-002   1.0158963624589679E-003
  -9.6346112339255441E-002   2.9111350948729520E-002   6.3444559792638633E-004
  -9.3375531206099621E-002   2.8318183645278383E-002   4.3142271544141519E-004
  -9.0404950072943788E-002   2.7349220451132084E-002   4.0682771500497733E-004
  -8.7434368939787954E-002   2.6204461366290288E-002   5.6066059661602496E-004
  -6.5714400044070781E-002   1.9832251621577535E-002   2.8941033784352199E-002
  -6.3296515688447727E-002   1.9283611437542758E-002   2.8624132475474878E-002
  -6.0878631332824729E-002   1.8716295125516397E-002   2.8537534057204716E-002
  -5.8460746977201730E-002   1.8130302685498693E-002   2.8681238529541853E-002
  -5.6042862621578676E-002   1.7525634117489808E-002   2.9055245892486092E-002
  -7.1185116576991447E-002   2.1425304057755751E-002   2.2105948578724555E-002
  -6.8547060590169684E-002   2.0708921425236282E-002   2.1792985700827910E-002
  -6.5909004603347837E-002   1.9985055222831484E-002   2.1690063194721734E-002
  -6.3270948616525990E-002   1.9253705450540705E-002   2.1797181060405811E-002
  -6.0632892629704213E-002   1.8514872108364722E-002   2.2114339297880398E-002
  -7.6628683570584638E-002   2.3018356493933967E-002   1.5097524645559274E-002
  -7.3790718471380787E-002   2.2134231412929917E-002   1.4799692756749146E-002
  -7.0952753372176963E-002   2.1253815320146183E-002   1.4691638720912760E-002
  -6.8114788272973181E-002   2.0377108215582831E-002   1.4773362538050012E-002
  -6.5276823173769358E-002   1.9504110099239774E-002   1.5044864208160647E-002
  -8.2045101024850062E-002   2.4611408930112239E-002   7.9157619848563912E-003
  -7.9027489332081105E-002   2.3559541400623357E-002   7.6442536432390646E-003
  -7.6009877639312162E-002   2.2522575417460965E-002   7.5422606357781682E-003
  -7.2992265946543219E-002   2.1500510980624624E-002   7.6097829624743509E-003
  -6.9974654253774221E-002   2.0493348090114924E-002   7.8468206233269742E-003
  -8.7434368939787954E-002   2.6204461366290288E-002   5.6066059661602496E-004
  -8.4257373172270666E-002   2.4984851388317020E-002   3.2666836029698887E-004
  -8.1080377404753379E-002   2.3791335514776052E-002   2.4192893931763992E-004
  -7.7903381637236063E-002   2.2623913745666739E-002   3.0644233367849508E-004
  -7.4726385869718803E-002   2.1482586080989852E-002   5.2020854337919697E-004
  -5.6042862621578676E-002   1.7525634117489808E-002   2.9055245892486092E-002
  -5.3831833264752993E-002   1.6864622681622754E-002   2.8716929296952076E-002
  -5.1620803907927365E-002   1.6109601638030935E-002   2.8481118344852674E-002
  -4.9409774551101709E-002   1.5260570986714780E-002   2.8347813036187955E-002
  -4.7198745194276054E-002   1.4317530727673999E-002   2.8317013370957766E-002
  -6.0632892629704213E-002   1.8514872108364722E-002   2.2114339297880398E-002
  -5.8297236364973401E-002   1.7773736232697762E-002   2.1698677878466771E-002
  -5.5961580100242513E-002   1.7035478859934519E-002   2.1429764631428871E-002
  -5.3625923835511624E-002   1.6300099990074649E-002   2.1307599556766629E-002
  -5.1290267570780756E-002   1.5567599623118378E-002   2.1332182654480170E-002
  -6.5276823173769358E-002   1.9504110099239774E-002   1.5044864208160647E-002
  -6.2772297472192248E-002   1.8682849783772965E-002   1.4648746075495628E-002
  -6.0267771770615090E-002   1.7961356081837826E-002   1.4443618644147331E-002
  -5.7763246069038016E-002   1.7339628993434629E-002   1.4429481914115777E-002
  -5.5258720367460872E-002   1.6817668518562839E-002   1.4606335885401209E-002
  -6.9974654253774221E-002   2.0493348090114924E-002   7.8468206233269742E-003
  -6.7257016586409729E-002   1.9591963334848014E-002   7.5671338880386914E-003
  -6.4539378919045209E-002   1.8887233303741327E-002   7.5226803830082921E-003
  -6.1821741251680717E-002   1.8379157996794442E-002   7.7134601082357451E-003
  -5.9104103584316225E-002   1.8067737414007204E-002   8.1394730637209638E-003
  -7.4726385869718803E-002   2.1482586080989852E-002   5.2020854337919697E-004
  -7.1751393707625843E-002   2.0501076885923064E-002   4.5384131609549350E-004
  -6.8776401545532828E-002   1.9813110525644717E-002   6.6694984801135559E-004
  -6.5801409383439868E-002   1.9418687000154256E-002   1.1595341391256037E-003
  -6.2826417221346853E-002   1.9317806309451568E-002   1.9315941894394451E-003
  -4.7198745194276054E-002   1.4317530727673999E-002   2.8317013370957766E-002
  -4.4726562254079033E-002   1.3373742893169338E-002   2.8085482272886542E-002
  -4.2254379313882082E-002   1.2522469515461584E-002   2.8079623901673262E-002
  -3.9782196373685123E-002   1.1763710594550791E-002   2.8299438257318218E-002
  -3.7310013433488054E-002   1.1097466130436828E-002   2.8744925339821092E-002
  -5.1290267570780756E-002   1.5567599623118378E-002   2.1332182654480170E-002
  -4.8621559695515792E-002   1.4787390577848558E-002   2.1191682643076581E-002
  -4.5952851820250773E-002   1.3908885673047905E-002   2.1218559774950962E-002
  -4.3284143944985809E-002   1.2932084908716217E-002   2.1412814050102952E-002
  -4.0615436069720789E-002   1.1856988284853598E-002   2.1774445468533465E-002
  -5.5258720367460872E-002   1.6817668518562839E-002   1.4606335885401209E-002
  -5.2451783140707926E-002   1.6201038262527750E-002   1.4366056644337433E-002
  -4.9644845913955044E-002   1.5295301830634010E-002   1.4234858962971476E-002
  -4.6837908687202084E-002   1.4100459222881645E-002   1.4212742841303281E-002
  -4.4030971460449264E-002   1.2616510439270590E-002   1.4299708279332968E-002
  -5.9104103584316225E-002   1.8067737414007204E-002   8.1394730637209638E-003
  -5.6217232589655559E-002   1.7614685947206790E-002   7.6086042766692757E-003
  -5.3330361594994866E-002   1.6681717988220223E-002   7.1285214657353223E-003
  -5.0443490600334207E-002   1.5268833537047184E-002   6.6992246309189032E-003
  -4.7556619605673547E-002   1.3376032593687359E-002   6.3207137722204043E-003
  -6.2826417221346853E-002   1.9317806309451568E-002   1.9315941894394451E-003
  -5.9917908042358525E-002   1.9028333631885830E-002   9.1932554007212453E-004
  -5.7009398863370198E-002   1.8068134145806353E-002  -1.0045271675770961E-004
  -5.4100889684381898E-002   1.6437207851212422E-002  -1.1277405810501059E-003
  -5.1192380505393542E-002   1.4135554748104351E-002  -2.1625380528047522E-003
 </DataArray>
 </PointData>
 </Piece>
 <Piece  NumberOfPoints="          1600 "  NumberOfCells="         1024 ">
 <Points>
 <DataArray  type="Float64" NumberOfComponents="3"  format="ascii" >
  0.50000000000000000        0.0000000000000000        0.0000000000000000     
  0.53125000000000000        0.0000000000000000        0.0000000000000000     
  0.56250000000000000        0.0000000000000000        0.0000000000000000     
  0.59375000000000000        0.0000000000000000        0.0000000000000000     
  0.62500000000000000        0.0000000000000000        0.0000000000000000     
  0.50000000000000000        3.1250000000000000E-002   0.0000000000000000     
  0.53125000000000000        3.1250000000000000E-002   0.0000000000000000     
  0.56250000000000000        3.1250000000000000E-002   0.0000000000000000     
  0.59375000000000000        3.1250000000000000E-002   0.0000000000000000     
  0.62500000000000000        3.1250000000000000E-002   0.0000000000000000     
  0.50000000000000000        6.2500000000000000E-002   0.0000000000000000     
  0.53125000000000000        6.2500000000000000E-002   0.0000000000000000     
  0.56250000000000000        6.2500000000000000E-002   0.0000000000000000     
  0.59375000000000000        6.2500000000000000E-002   0.0000000000000000     
  0.62500000000000000        6.2500000000000000E-002   0.0000000000000000     
  0.50000000000000000        9.3750000000000000E-002   0.0000000000000000     
  0.53125000000000000        9.3750000000000000E-002   0.0000000000000000     
  0.56250000000000000        9.3750000000000000E-002   0.0000000000000000     
  0.59375000000000000        9.3750000000000000E-002   0.0000000000000000     
  0.62500000000000000        9.3750000000000000E-002   0.0000000000000000     
  0.50000000000000000       0.12500000000000000        0.0000000000000000     
  0.53125000000000000       0.12500000000000000        0.0000000000000000     
  0.56250000000000000       0.12500000000000000        0.0000000000000000     
  0.59375000000000000       0.12500000000000000        0.0000000000000000     
  0.62500000000000000       0.12500000000000000        0.0000000000000000     
  0.62500000000000000        0.0000000000000000        0.0000000000000000     
  0.65625000000000000        0.0000000000000000        0.0000000000000000     
  0.68750000000000000        0.0000000000000000        0.0000000000000000     
  0.71875000000000000        0.0000000000000000        0.0000000000000000     
  0.75000000000000000        0.0000000000000000        0.0000000000000000     
  0.62500000000000000        3.1250000000000000E-002   0.0000000000000000     
  0.65625000000000000        3.1250000000000000E-002   0.0000000000000000     
  0.68750000000000000        3.1250000000000000E-002   0.0000000000000000     
  0.71875000000000000        3.1250000000000000E-002   0.0000000000000000     
  0.75000000000000000        3.1250000000000000E-002   0.0000000000000000     
  0.62500000000000000        6.2500000000000000E-002   0.0000000000000000     
  0.65625000000000000        6.2500000000000000E-002   0.0000000000000000     
  0.68750000000000000        6.2500000000000000E-002   0.0000000000000000     
  0.71875000000000000        6.2500000000000000E-002   0.0000000000000000     
  0.75000000000000000        6.2500000000000000E-002   0.0000000000000000     
  0.62500000000000000        9.3750000000000000E-002   0.0000000000000000     
  0.65625000000000000        9.3750000000000000E-002   0.0000000000000000     
  0.68750000000000000        9.3750000000000000E-002   0.0000000000000000     
  0.71875000000000000        9.3750000000000000E-002   0.0000000000000000     
  0.75000000000000000        9.3750000000000000E-002   0.0000000000000000     
  0.62500000000000000       0.12500000000000000        0.0000000000000000     
  0.65625000000000000       0.12500000000000000        0.0000000000000000     
  0.68750000000000000       0.12500000000000000        0.0000000000000000     
  0.71875000000000000       0.12500000000000000        0.0000000000000000     
  0.75000000000000000       0.12500000000000000        0.0000000000000000     
  0.75000000000000000        0.0000000000000000        0.0000000000000000     
  0.78125000000000000        0.0000000000000000        0.0000000000000000     
  0.81250000000000000        0.0000000000000000        0.0000000000000000     
  0.84375000000000000        0.0000000000000000        0.0000000000000000     
  0.87500000000000000        0.0000000000000000        0.0000000000000000     
  0.75000000000000000        3.1250000000000000E-002   0.0000000000000000     
  0.78125000000000000        3.1250000000000000E-002   0.0000000000000000     
  0.81250000000000000        3.1250000000000000E-002   0.0000000000000000     
  0.84375000000000000        3.1250000000000000E-002   0.0000000000000000     
  0.87500000000000000        3.1250000000000000E-002   0.0000000000000000     
  0.75000000000000000        6.2500000000000000E-002   0.0000000000000000     
  0.78125000000000000        6.2500000000000000E-002   0.0000000000000000     
  0.81250000000000000        6.2500000000000000E-002   0.0000000000000000     
  0.84375000000000000        6.2500000000000000E-002   0.0000000000000000     
  0.87500000000000000        6.2500000000000000E-002   0.0000000000000000     
  0.75000000000000000        9.3750000000000000E-002   0.0000000000000000     
  0.78125000000000000        9.3750000000000000E-002   0.0000000000000000     
  0.81250000000000000        9.3750000000000000E-002   0.0000000000000000     
  0.84375000000000000        9.3750000000000000E-002   0.0000000000000000     
  0.87500000000000000        9.3750000000000000E-002   0.0000000000000000     
  0.75000000000000000       0.12500000000000000        0.0000000000000000     
  0.78125000000000000       0.12500000000000000        0.0000000000000000     
  0.81250000000000000       0.12500000000000000        0.0000000000000000     
  0.84375000000000000       0.12500000000000000        0.0000000000000000     
  0.87500000000000000       0.12500000000000000        0.0000000000000000     
  0.87500000000000000        0.0000000000000000        0.0000000000000000     
  0.90625000000000000        0.0000000000000000        0.0000000000000000     
  0.93750000000000000        0.0000000000000000        0.0000000000000000     
  0.96875000000000000        0.0000000000000000        0.0000000000000000     
   1.0000000000000000        0.0000000000000000        0.0000000000000000     
  0.87500000000000000        3.1250000000000000E-002   0.0000000000000000     
  0.90625000000000000        3.1250000000000000E-002   0.0000000000000000     
  0.93750000000000000        3.1250000000000000E-002   0.0000000000000000     
  0.96875000000000000        3.1250000000000000E-002   0.0000000000000000     
   1.0000000000000000        3.1250000000000000E-002   0.0000000000000000     
  0.87500000000000000        6.2500000000000000E-002   0.0000000000000000     
  0.90625000000000000        6.2500000000000000E-002   0.0000000000000000     
  0.93750000000000000        6.2500000000000000E-002   0.0000000000000000     
  0.96875000000000000        6.2500000000000000E-002   0.0000000000000000     
   1.0000000000000000        6.2500000000000000E-002   0.0000000000000000     
  0.87500000000000000        9.3750000000000000E-002   0.0000000000000000     
  0.90625000000000000        9.3750000000000000E-002   0.0000000000000000     
  0.93750000000000000        9.3750000000000000E-002   0.0000000000000000     
  0.96875000000000000        9.3750000000000000E-002   0.0000000000000000     
   1.0000000000000000        9.3750000000000000E-002   0.0000000000000000     
  0.87500000000000000       0.12500000000000000        0.0000000000000000     
  0.90625000000000000       0.12500000000000000        0.0000000000000000     
  0.93750000000000000       0.12500000000000000        0.0000000000000000     
  0.96875000000000000       0.12500000000000000        0.0000000000000000     
   1.0000000000000000       0.12500000000000000        0.0000000000000000     
   1.0000000000000000        0.0000000000000000        0.0000000000000000     
   1.0312500000000000        0.0000000000000000        0.0000000000000000     
   1.0625000000000000        0.0000000000000000        0.0000000000000000     
   1.0937500000000000        0.0000000000000000        0.0000000000000000     
   1.1250000000000000        0.0000000000000000        0.0000000000000000     
   1.0000000000000000        3.1250000000000000E-002   0.0000000000000000     
   1.0312500000000000        3.1250000000000000E-002   0.0000000000000000     
   1.0625000000000000        3.1250000000000000E-002   0.0000000000000000     
   1.0937500000000000        3.1250000000000000E-002   0.0000000000000000     
   1.1250000000000000        3.1250000000000000E-002   0.0000000000000000     
   1.0000000000000000        6.2500000000000000E-002   0.0000000000000000     
   1.0312500000000000        6.2500000000000000E-002   0.0000000000000000     
   1.0625000000000000        6.2500000000000000E-002   0.0000000000000000     
   1.0937500000000000        6.2500000000000000E-002   0.0000000000000000     
   1.1250000000000000        6.2500000000000000E-002   0.0000000000000000     
   1.0000000000000000        9.3750000000000000E-002   0.0000000000000000     
   1.0312500000000000        9.3750000000000000E-002   0.0000000000000000     
   1.0625000000000000        9.3750000000000000E-002   0.0000000000000000     
   1.0937500000000000        9.3750000000000000E-002   0.0000000000000000     
   1.1250000000000000        9.3750000000000000E-002   0.0000000000000000     
   1.0000000000000000       0.12500000000000000        0.0000000000000000     
   1.0312500000000000       0.12500000000000000        0.0000000000000000     
   1.0625000000000000       0.12500000000000000        0.0000000000000000     
   1.0937500000000000       0.12500000000000000        0.0000000000000000     
   1.1250000000000000       0.12500000000000000        0.0000000000000000     
   1.1250000000000000        0.0000000000000000        0.0000000000000000     
   1.1562500000000000        0.0000000000000000        0.0000000000000000     
   1.1875000000000000        0.0000000000000000        0.0000000000000000     
   1.2187500000000000        0.0000000000000000        0.0000000000000000     
   1.2500000000000000        0.0000000000000000        0.0000000000000000     
   1.1250000000000000        3.1250000000000000E-002   0.0000000000000000     
   1.1562500000000000        3.1250000000000000E-002   0.0000000000000000     
   1.1875000000000000        3.1250000000000000E-002   0.0000000000000000     
   1.2187500000000000        3.1250000000000000E-002   0.0000000000000000     
   1.2500000000000000        3.1250000000000000E-002   0.0000000000000000     
   1.1250000000000000        6.2500000000000000E-002   0.0000000000000000     
   1.1562500000000000        6.2500000000000000E-002   0.0000000000000000     
   1.1875000000000000        6.2500000000000000E-002   0.0000000000000000     
   1.2187500000000000        6.2500000000000000E-002   0.0000000000000000     
   1.2500000000000000        6.2500000000000000E-002   0.0000000000000000     
   1.1250000000000000        9.3750000000000000E-002   0.0000000000000000     
   1.1562500000000000        9.3750000000000000E-002   0.0000000000000000     
   1.1875000000000000        9.3750000000000000E-002   0.0000000000000000     
   1.2187500000000000        9.3750000000000000E-002   0.0000000000000000     
   1.2500000000000000        9.3750000000000000E-002   0.0000000000000000     
   1.1250000000000000       0.12500000000000000        0.0000000000000000     
   1.1562500000000000       0.12500000000000000        0.0000000000000000     
   1.1875000000000000       0.12500000000000000        0.0000000000000000     
   1.2187500000000000       0.12500000000000000        0.0000000000000000     
   1.2500000000000000       0.12500000000000000        0.0000000000000000     
   1.2500000000000000        0.0000000000000000        0.0000000000000000     
   1.2812500000000000        0.0000000000000000        0.0000000000000000     
   1.3125000000000000        0.0000000000000000        0.0000000000000000     
   1.3437500000000000        0.0000000000000000        0.0000000000000000     
   1.3750000000000000        0.0000000000000000        0.0000000000000000     
   1.2500000000000000        3.1250000000000000E-002   0.0000000000000000     
   1.2812500000000000        3.1250000000000000E-002   0.0000000000000000     
   1.3125000000000000        3.1250000000000000E-002   0.0000000000000000     
   1.3437500000000000        3.1250000000000000E-002   0.0000000000000000     
   1.3750000000000000        3.1250000000000000E-002   0.0000000000000000     
   1.2500000000000000        6.2500000000000000E-002   0.0000000000000000     
   1.2812500000000000        6.2500000000000000E-002   0.0000000000000000     
   1.3125000000000000        6.2500000000000000E-002   0.0000000000000000     
   1.3437500000000000        6.2500000000000000E-002   0.0000000000000000     
   1.3750000000000000        6.2500000000000000E-002   0.0000000000000000     
   1.2500000000000000        9.3750000000000000E-002   0.0000000000000000     
   1.2812500000000000        9.3750000000000000E-002   0.0000000000000000     
   1.3125000000000000        9.3750000000000000E-002   0.0000000000000000     
   1.3437500000000000        9.3750000000000000E-002   0.0000000000000000     
   1.3750000000000000        9.3750000000000000E-002   0.0000000000000000     
   1.2500000000000000       0.12500000000000000        0.0000000000000000     
   1.2812500000000000       0.12500000000000000        0.0000000000000000     
   1.3125000000000000       0.12500000000000000        0.0000000000000000     
   1.3437500000000000       0.12500000000000000        0.0000000000000000     
   1.3750000000000000       0.12500000000000000        0.0000000000000000     
   1.3750000000000000        0.0000000000000000        0.0000000000000000     
   1.4062500000000000        0.0000000000000000        0.0000000000000000     
   1.4375000000000000        0.0000000000000000        0.0000000000000000     
   1.4687500000000000        0.0000000000000000        0.0000000000000000     
   1.5000000000000000        0.0000000000000000        0.0000000000000000     
   1.3750000000000000        3.1250000000000000E-002   0.0000000000000000     
   1.4062500000000000        3.1250000000000000E-002   0.0000000000000000     
   1.4375000000000000        3.1250000000000000E-002   0.0000000000000000     
   1.4687500000000000        3.1250000000000000E-002   0.0000000000000000     
   1.5000000000000000        3.1250000000000000E-002   0.0000000000000000     
   1.3750000000000000        6.2500000000000000E-002   0.0000000000000000     
   1.4062500000000000        6.2500000000000000E-002   0.0000000000000000     
   1.4375000000000000        6.2500000000000000E-002   0.0000000000000000     
   1.4687500000000000        6.2500000000000000E-002   0.0000000000000000     
   1.5000000000000000        6.2500000000000000E-002   0.0000000000000000     
   1.3750000000000000        9.3750000000000000E-002   0.0000000000000000     
   1.4062500000000000        9.3750000000000000E-002   0.0000000000000000     
   1.4375000000000000        9.3750000000000000E-002   0.0000000000000000     
   1.4687500000000000        9.3750000000000000E-002   0.0000000000000000     
   1.5000000000000000        9.3750000000000000E-002   0.0000000000000000     
   1.3750000000000000       0.12500000000000000        0.0000000000000000     
   1.4062500000000000       0.12500000000000000        0.0000000000000000     
   1.4375000000000000       0.12500000000000000        0.0000000000000000     
   1.4687500000000000       0.12500000000000000        0.0000000000000000     
   1.5000000000000000       0.12500000000000000        0.0000000000000000     
  0.50000000000000000       0.12500000000000000        0.0000000000000000     
  0.53125000000000000       0.12500000000000000        0.0000000000000000     
  0.56250000000000000       0.12500000000000000        0.0000000000000000     
  0.59375000000000000       0.12500000000000000        0.0000000000000000     
  0.62500000000000000       0.12500000000000000        0.0000000000000000     
  0.50000000000000000       0.15625000000000000        0.0000000000000000     
  0.53125000000000000       0.15625000000000000        0.0000000000000000     
  0.56250000000000000       0.15625000000000000        0.0000000000000000     
  0.59375000000000000       0.15625000000000000        0.0000000000000000     
  0.62500000000000000       0.15625000000000000        0.0000000000000000     
  0.50000000000000000       0.18750000000000000        0.0000000000000000     
  0.53125000000000000       0.18750000000000000        0.0000000000000000     
  0.56250000000000000       0.18750000000000000        0.0000000000000000     
  0.59375000000000000       0.18750000000000000        0.0000000000000000     
  0.62500000000000000       0.18750000000000000        0.0000000000000000     
  0.50000000000000000       0.21875000000000000        0.0000000000000000     
  0.53125000000000000       0.21875000000000000        0.0000000000000000     
  0.56250000000000000       0.21875000000000000        0.0000000000000000     
  0.59375000000000000       0.21875000000000000        0.0000000000000000     
  0.62500000000000000       0.21875000000000000        0.0000000000000000     
  0.50000000000000000       0.25000000000000000        0.0000000000000000     
  0.53125000000000000       0.25000000000000000        0.0000000000000000     
  0.56250000000000000       0.25000000000000000        0.0000000000000000     
  0.59375000000000000       0.25000000000000000        0.0000000000000000     
  0.62500000000000000       0.25000000000000000        0.0000000000000000     
  0.62500000000000000       0.12500000000000000        0.0000000000000000     
  0.65625000000000000       0.12500000000000000        0.0000000000000000     
  0.68750000000000000       0.12500000000000000        0.0000000000000000     
  0.71875000000000000       0.12500000000000000        0.0000000000000000     
  0.75000000000000000       0.12500000000000000        0.0000000000000000     
  0.62500000000000000       0.15625000000000000        0.0000000000000000     
  0.65625000000000000       0.15625000000000000        0.0000000000000000     
  0.68750000000000000       0.15625000000000000        0.0000000000000000     
  0.71875000000000000       0.15625000000000000        0.0000000000000000     
  0.75000000000000000       0.15625000000000000        0.0000000000000000     
  0.62500000000000000       0.18750000000000000        0.0000000000000000     
  0.65625000000000000       0.18750000000000000        0.0000000000000000     
  0.68750000000000000       0.18750000000000000        0.0000000000000000     
  0.71875000000000000       0.18750000000000000        0.0000000000000000     
  0.75000000000000000       0.18750000000000000        0.0000000000000000     
  0.62500000000000000       0.21875000000000000        0.0000000000000000     
  0.65625000000000000       0.21875000000000000        0.0000000000000000     
  0.68750000000000000       0.21875000000000000        0.0000000000000000     
  0.71875000000000000       0.21875000000000000        0.0000000000000000     
  0.75000000000000000       0.21875000000000000        0.0000000000000000     
  0.62500000000000000       0.25000000000000000        0.0000000000000000     
  0.65625000000000000       0.25000000000000000        0.0000000000000000     
  0.68750000000000000       0.25000000000000000        0.0000000000000000     
  0.71875000000000000       0.25000000000000000        0.0000000000000000     
  0.75000000000000000       0.25000000000000000        0.0000000000000000     
  0.75000000000000000       0.12500000000000000        0.0000000000000000     
  0.78125000000000000       0.12500000000000000        0.0000000000000000     
  0.81250000000000000       0.12500000000000000        0.0000000000000000     
  0.84375000000000000       0.12500000000000000        0.0000000000000000     
  0.87500000000000000       0.12500000000000000        0.0000000000000000     
  0.75000000000000000       0.15625000000000000        0.0000000000000000     
  0.78125000000000000       0.15625000000000000        0.0000000000000000     
  0.81250000000000000       0.15625000000000000        0.0000000000000000     
  0.84375000000000000       0.15625000000000000        0.0000000000000000     
  0.87500000000000000       0.15625000000000000        0.0000000000000000     
  0.75000000000000000       0.18750000000000000        0.0000000000000000     
  0.78125000000000000       0.18750000000000000        0.0000000000000000     
  0.81250000000000000       0.18750000000000000        0.0000000000000000     
  0.84375000000000000       0.18750000000000000        0.0000000000000000     
  0.87500000000000000       0.18750000000000000        0.0000000000000000     
  0.75000000000000000       0.21875000000000000        0.0000000000000000     
  0.78125000000000000       0.21875000000000000        0.0000000000000000     
  0.81250000000000000       0.21875000000000000        0.0000000000000000     
  0.84375000000000000       0.21875000000000000        0.0000000000000000     
  0.87500000000000000       0.21875000000000000        0.0000000000000000     
  0.75000000000000000       0.25000000000000000        0.0000000000000000     
  0.78125000000000000       0.25000000000000000        0.0000000000000000     
  0.81250000000000000       0.25000000000000000        0.0000000000000000     
  0.84375000000000000       0.25000000000000000        0.0000000000000000     
  0.87500000000000000       0.25000000000000000        0.0000000000000000     
  0.87500000000000000       0.12500000000000000        0.0000000000000000     
  0.90625000000000000       0.12500000000000000        0.0000000000000000     
  0.93750000000000000       0.12500000000000000        0.0000000000000000     
  0.96875000000000000       0.12500000000000000        0.0000000000000000     
   1.0000000000000000       0.12500000000000000        0.0000000000000000     
  0.87500000000000000       0.15625000000000000        0.0000000000000000     
  0.90625000000000000       0.15625000000000000        0.0000000000000000     
  0.93750000000000000       0.15625000000000000        0.0000000000000000     
  0.96875000000000000       0.15625000000000000        0.0000000000000000     
   1.0000000000000000       0.15625000000000000        0.0000000000000000     
  0.87500000000000000       0.18750000000000000        0.0000000000000000     
  0.90625000000000000       0.18750000000000000        0.0000000000000000     
  0.93750000000000000       0.18750000000000000        0.0000000000000000     
  0.96875000000000000       0.18750000000000000        0.0000000000000000     
   1.0000000000000000       0.18750000000000000        0.0000000000000000     
  0.87500000000000000       0.21875000000000000        0.0000000000000000     
  0.90625000000000000       0.21875000000000000        0.0000000000000000     
  0.93750000000000000       0.21875000000000000        0.0000000000000000     
  0.96875000000000000       0.21875000000000000        0.0000000000000000     
   1.0000000000000000       0.21875000000000000        0.0000000000000000     
  0.87500000000000000       0.25000000000000000        0.0000000000000000     
  0.90625000000000000       0.25000000000000000        0.0000000000000000     
  0.93750000000000000       0.25000000000000000        0.0000000000000000     
  0.96875000000000000       0.25000000000000000        0.0000000000000000     
   1.0000000000000000       0.25000000000000000        0.0000000000000000     
   1.0000000000000000       0.12500000000000000        0.0000000000000000     
   1.0312500000000000       0.12500000000000000        0.0000000000000000     
   1.0625000000000000       0.12500000000000000        0.0000000000000000     
   1.0937500000000000       0.12500000000000000        0.0000000000000000     
   1.1250000000000000       0.12500000000000000        0.0000000000000000     
   1.0000000000000000       0.15625000000000000        0.0000000000000000     
   1.0312500000000000       0.15625000000000000        0.0000000000000000     
   1.0625000000000000       0.15625000000000000        0.0000000000000000     
   1.0937500000000000       0.15625000000000000        0.0000000000000000     
   1.1250000000000000       0.15625000000000000        0.0000000000000000     
   1.0000000000000000       0.18750000000000000        0.0000000000000000     
   1.0312500000000000       0.18750000000000000        0.0000000000000000     
   1.0625000000000000       0.18750000000000000        0.0000000000000000     
   1.0937500000000000       0.18750000000000000        0.0000000000000000     
   1.1250000000000000       0.18750000000000000        0.0000000000000000     
   1.0000000000000000       0.21875000000000000        0.0000000000000000     
   1.0312500000000000       0.21875000000000000        0.0000000000000000     
   1.0625000000000000       0.21875000000000000        0.0000000000000000     
   1.0937500000000000       0.21875000000000000        0.0000000000000000     
   1.1250000000000000       0.21875000000000000        0.0000000000000000     
   1.0000000000000000       0.25000000000000000        0.0000000000000000     
   1.0312500000000000       0.25000000000000000        0.0000000000000000     
   1.0625000000000000       0.25000000000000000        0.0000000000000000     
   1.0937500000000000       0.25000000000000000        0.0000000000000000     
   1.1250000000000000       0.25000000000000000        0.0000000000000000     
   1.1250000000000000       0.12500000000000000        0.0000000000000000     
   1.1562500000000000       0.12500000000000000        0.0000000000000000     
   1.1875000000000000       0.12500000000000000        0.0000000000000000     
   1.2187500000000000       0.12500000000000000        0.0000000000000000     
   1.2500000000000000       0.12500000000000000        0.0000000000000000     
   1.1250000000000000       0.15625000000000000        0.0000000000000000     
   1.1562500000000000       0.15625000000000000        0.0000000000000000     
   1.1875000000000000       0.15625000000000000        0.0000000000000000     
   1.2187500000000000       0.15625000000000000        0.0000000000000000     
   1.2500000000000000       0.15625000000000000        0.0000000000000000     
   1.1250000000000000       0.18750000000000000        0.0000000000000000     
   1.1562500000000000       0.18750000000000000        0.0000000000000000     
   1.1875000000000000       0.18750000000000000        0.0000000000000000     
   1.2187500000000000       0.18750000000000000        0.0000000000000000     
   1.2500000000000000       0.18750000000000000        0.0000000000000000     
   1.1250000000000000       0.21875000000000000        0.0000000000000000     
   1.1562500000000000       0.21875000000000000        0.0000000000000000     
   1.1875000000000000       0.21875000000000000        0.0000000000000000     
   1.2187500000000000       0.21875000000000000        0.0000000000000000     
   1.2500000000000000       0.21875000000000000        0.0000000000000000     
   1.1250000000000000       0.25000000000000000        0.0000000000000000     
   1.1562500000000000       0.25000000000000000        0.0000000000000000     
   1.1875000000000000       0.25000000000000000        0.0000000000000000     
   1.2187500000000000       0.25000000000000000        0.0000000000000000     
   1.2500000000000000       0.25000000000000000        0.0000000000000000     
   1.2500000000000000       0.12500000000000000        0.0000000000000000     
   1.2812500000000000       0.12500000000000000        0.0000000000000000     
   1.3125000000000000       0.12500000000000000        0.0000000000000000     
   1.3437500000000000       0.12500000000000000        0.0000000000000000     
   1.3750000000000000       0.12500000000000000        0.0000000000000000     
   1.2500000000000000       0.15625000000000000        0.0000000000000000     
   1.2812500000000000       0.15625000000000000        0.0000000000000000     
   1.3125000000000000       0.15625000000000000        0.0000000000000000     
   1.3437500000000000       0.15625000000000000        0.0000000000000000     
   1.3750000000000000       0.15625000000000000        0.0000000000000000     
   1.2500000000000000       0.18750000000000000        0.0000000000000000     
   1.2812500000000000       0.18750000000000000        0.0000000000000000     
   1.3125000000000000       0.18750000000000000        0.0000000000000000     
   1.3437500000000000       0.18750000000000000        0.0000000000000000     
   1.3750000000000000       0.18750000000000000        0.0000000000000000     
   1.2500000000000000       0.21875000000000000        0.0000000000000000     
   1.2812500000000000       0.21875000000000000        0.0000000000000000     
   1.3125000000000000       0.21875000000000000        0.0000000000000000     
   1.3437500000000000       0.21875000000000000        0.0000000000000000     
   1.3750000000000000       0.21875000000000000        0.0000000000000000     
   1.2500000000000000       0.25000000000000000        0.0000000000000000     
   1.2812500000000000       0.25000000000000000        0.0000000000000000     
   1.3125000000000000       0.25000000000000000        0.0000000000000000     
   1.3437500000000000       0.25000000000000000        0.0000000000000000     
   1.3750000000000000       0.25000000000000000        0.0000000000000000     
   1.3750000000000000       0.12500000000000000        0.0000000000000000     
   1.4062500000000000       0.12500000000000000        0.0000000000000000     
   1.4375000000000000       0.12500000000000000        0.0000000000000000     
   1.4687500000000000       0.12500000000000000        0.0000000000000000     
   1.5000000000000000       0.12500000000000000        0.0000000000000000     
   1.3750000000000000       0.15625000000000000        0.0000000000000000     
   1.4062500000000000       0.15625000000000000        0.0000000000000000     
   1.4375000000000000       0.15625000000000000        0.0000000000000000     
   1.4687500000000000       0.15625000000000000        0.0000000000000000     
   1.5000000000000000       0.15625000000000000        0.0000000000000000     
   1.3750000000000000       0.18750000000000000        0.0000000000000000     
   1.4062500000000000       0.18750000000000000        0.0000000000000000     
   1.4375000000000000       0.18750000000000000        0.0000000000000000     
   1.4687500000000000       0.18750000000000000        0.0000000000000000     
   1.5000000000000000       0.18750000000000000        0.0000000000000000     
   1.3750000000000000       0.21875000000000000        0.0000000000000000     
   1.4062500000000000       0.21875000000000000        0.0000000000000000     
   1.4375000000000000       0.21875000000000000        0.0000000000000000     
   1.4687500000000000       0.21875000000000000        0.0000000000000000     
   1.5000000000000000       0.21875000000000000        0.0000000000000000     
   1.3750000000000000       0.25000000000000000        0.0000000000000000     
   1.4062500000000000       0.25000000000000000        0.0000000000000000     
   1.4375000000000000       0.25000000000000000        0.0000000000000000     
   1.4687500000000000       0.25000000000000000        0.0000000000000000     
   1.5000000000000000       0.25000000000000000        0.0000000000000000     
  0.50000000000000000       0.25000000000000000        0.0000000000000000     
  0.53125000000000000       0.25000000000000000        0.0000000000000000     
  0.56250000000000000       0.25000000000000000        0.0000000000000000     
  0.59375000000000000       0.25000000000000000        0.0000000000000000     
  0.62500000000000000       0.25000000000000000        0.0000000000000000     
  0.50000000000000000       0.28125000000000000        0.0000000000000000     
  0.53125000000000000       0.28125000000000000        0.0000000000000000     
  0.56250000000000000       0.28125000000000000        0.0000000000000000     
  0.59375000000000000       0.28125000000000000        0.0000000000000000     
  0.62500000000000000       0.28125000000000000        0.0000000000000000     
  0.50000000000000000       0.31250000000000000        0.0000000000000000     
  0.53125000000000000       0.31250000000000000        0.0000000000000000     
  0.56250000000000000       0.31250000000000000        0.0000000000000000     
  0.59375000000000000       0.31250000000000000        0.0000000000000000     
  0.62500000000000000       0.31250000000000000        0.0000000000000000     
  0.50000000000000000       0.34375000000000000        0.0000000000000000     
  0.53125000000000000       0.34375000000000000        0.0000000000000000     
  0.56250000000000000       0.34375000000000000        0.0000000000000000     
  0.59375000000000000       0.34375000000000000        0.0000000000000000     
  0.62500000000000000       0.34375000000000000        0.0000000000000000     
  0.50000000000000000       0.37500000000000000        0.0000000000000000     
  0.53125000000000000       0.37500000000000000        0.0000000000000000     
  0.56250000000000000       0.37500000000000000        0.0000000000000000     
  0.59375000000000000       0.37500000000000000        0.0000000000000000     
  0.62500000000000000       0.37500000000000000        0.0000000000000000     
  0.62500000000000000       0.25000000000000000        0.0000000000000000     
  0.65625000000000000       0.25000000000000000        0.0000000000000000     
  0.68750000000000000       0.25000000000000000        0.0000000000000000     
  0.71875000000000000       0.25000000000000000        0.0000000000000000     
  0.75000000000000000       0.25000000000000000        0.0000000000000000     
  0.62500000000000000       0.28125000000000000        0.0000000000000000     
  0.65625000000000000       0.28125000000000000        0.0000000000000000     
  0.68750000000000000       0.28125000000000000        0.0000000000000000     
  0.71875000000000000       0.28125000000000000        0.0000000000000000     
  0.75000000000000000       0.28125000000000000        0.0000000000000000     
  0.62500000000000000       0.31250000000000000        0.0000000000000000     
  0.65625000000000000       0.31250000000000000        0.0000000000000000     
  0.68750000000000000       0.31250000000000000        0.0000000000000000     
  0.71875000000000000       0.31250000000000000        0.0000000000000000     
  0.75000000000000000       0.31250000000000000        0.0000000000000000     
  0.62500000000000000       0.34375000000000000        0.0000000000000000     
  0.65625000000000000       0.34375000000000000        0.0000000000000000     
  0.68750000000000000       0.34375000000000000        0.0000000000000000     
  0.71875000000000000       0.34375000000000000        0.0000000000000000     
  0.75000000000000000       0.34375000000000000        0.0000000000000000     
  0.62500000000000000       0.37500000000000000        0.0000000000000000     
  0.65625000000000000       0.37500000000000000        0.0000000000000000     
  0.68750000000000000       0.37500000000000000        0.0000000000000000     
  0.71875000000000000       0.37500000000000000        0.0000000000000000     
  0.75000000000000000       0.37500000000000000        0.0000000000000000     
  0.75000000000000000       0.25000000000000000        0.0000000000000000     
  0.78125000000000000       0.25000000000000000        0.0000000000000000     
  0.81250000000000000       0.25000000000000000        0.0000000000000000     
  0.84375000000000000       0.25000000000000000        0.0000000000000000     
  0.87500000000000000       0.25000000000000000        0.0000000000000000     
  0.75000000000000000       0.28125000000000000        0.0000000000000000     
  0.78125000000000000       0.28125000000000000        0.0000000000000000     
  0.81250000000000000       0.28125000000000000        0.0000000000000000     
  0.84375000000000000       0.28125000000000000        0.0000000000000000     
  0.87500000000000000       0.28125000000000000        0.0000000000000000     
  0.75000000000000000       0.31250000000000000        0.0000000000000000     
  0.78125000000000000       0.31250000000000000        0.0000000000000000     
  0.81250000000000000       0.31250000000000000        0.0000000000000000     
  0.84375000000000000       0.31250000000000000        0.0000000000000000     
  0.87500000000000000       0.31250000000000000        0.0000000000000000     
  0.75000000000000000       0.34375000000000000        0.0000000000000000     
  0.78125000000000000       0.34375000000000000        0.0000000000000000     
  0.81250000000000000       0.34375000000000000        0.0000000000000000     
  0.84375000000000000       0.34375000000000000        0.0000000000000000     
  0.87500000000000000       0.34375000000000000        0.0000000000000000     
  0.75000000000000000       0.37500000000000000        0.0000000000000000     
  0.78125000000000000       0.37500000000000000        0.0000000000000000     
  0.81250000000000000       0.37500000000000000        0.0000000000000000     
  0.84375000000000000       0.37500000000000000        0.0000000000000000     
  0.87500000000000000       0.37500000000000000        0.0000000000000000     
  0.87500000000000000       0.25000000000000000        0.0000000000000000     
  0.90625000000000000       0.25000000000000000        0.0000000000000000     
  0.93750000000000000       0.25000000000000000        0.0000000000000000     
  0.96875000000000000       0.25000000000000000        0.0000000000000000     
   1.0000000000000000       0.25000000000000000        0.0000000000000000     
  0.87500000000000000       0.28125000000000000        0.0000000000000000     
  0.90625000000000000       0.28125000000000000        0.0000000000000000     
  0.93750000000000000       0.28125000000000000        0.0000000000000000     
  0.96875000000000000       0.28125000000000000        0.0000000000000000     
   1.0000000000000000       0.28125000000000000        0.0000000000000000     
  0.87500000000000000       0.31250000000000000        0.0000000000000000     
  0.90625000000000000       0.31250000000000000        0.0000000000000000     
  0.93750000000000000       0.31250000000000000        0.0000000000000000     
  0.96875000000000000       0.31250000000000000        0.0000000000000000     
   1.0000000000000000       0.31250000000000000        0.0000000000000000     
  0.87500000000000000       0.34375000000000000        0.0000000000000000     
  0.90625000000000000       0.34375000000000000        0.0000000000000000     
  0.93750000000000000       0.34375000000000000        0.0000000000000000     
  0.96875000000000000       0.34375000000000000        0.0000000000000000     
   1.0000000000000000       0.34375000000000000        0.0000000000000000     
  0.87500000000000000       0.37500000000000000        0.0000000000000000     
  0.90625000000000000       0.37500000000000000        0.0000000000000000     
  0.93750000000000000       0.37500000000000000        0.0000000000000000     
  0.96875000000000000       0.37500000000000000        0.0000000000000000     
   1.0000000000000000       0.37500000000000000        0.0000000000000000     
   1.0000000000000000       0.25000000000000000        0.0000000000000000     
   1.0312500000000000       0.25000000000000000        0.0000000000000000     
   1.0625000000000000       0.25000000000000000        0.0000000000000000     
   1.0937500000000000       0.25000000000000000        0.0000000000000000     
   1.1250000000000000       0.25000000000000000        0.0000000000000000     
   1.0000000000000000       0.28125000000000000        0.0000000000000000     
   1.0312500000000000       0.28125000000000000        0.0000000000000000     
   1.0625000000000000       0.28125000000000000        0.0000000000000000     
   1.0937500000000000       0.28125000000000000        0.0000000000000000     
   1.1250000000000000       0.28125000000000000        0.0000000000000000     
   1.0000000000000000       0.31250000000000000        0.0000000000000000     
   1.0312500000000000       0.31250000000000000        0.0000000000000000     
   1.0625000000000000       0.31250000000000000        0.0000000000000000     
   1.0937500000000000       0.31250000000000000        0.0000000000000000     
   1.1250000000000000       0.31250000000000000        0.0000000000000000     
   1.0000000000000000       0.34375000000000000        0.0000000000000000     
   1.0312500000000000       0.34375000000000000        0.0000000000000000     
   1.0625000000000000       0.34375000000000000        0.0000000000000000     
   1.0937500000000000       0.34375000000000000        0.0000000000000000     
   1.1250000000000000       0.34375000000000000        0.0000000000000000     
   1.0000000000000000       0.37500000000000000        0.0000000000000000     
   1.0312500000000000       0.37500000000000000        0.0000000000000000     
   1.0625000000000000       0.37500000000000000        0.0000000000000000     
   1.0937500000000000       0.37500000000000000        0.0000000000000000     
   1.1250000000000000       0.37500000000000000        0.0000000000000000     
   1.1250000000000000       0.25000000000000000        0.0000000000000000     
   1.1562500000000000       0.25000000000000000        0.0000000000000000     
   1.1875000000000000       0.25000000000000000        0.0000000000000000     
   1.2187500000000000       0.25000000000000000        0.0000000000000000     
   1.2500000000000000       0.25000000000000000        0.0000000000000000     
   1.1250000000000000       0.28125000000000000        0.0000000000000000     
   1.1562500000000000       0.28125000000000000        0.0000000000000000     
   1.1875000000000000       0.28125000000000000        0.0000000000000000     
   1.2187500000000000       0.28125000000000000        0.0000000000000000     
   1.2500000000000000       0.28125000000000000        0.0000000000000000     
   1.1250000000000000       0.31250000000000000        0.0000000000000000     
   1.1562500000000000       0.31250000000000000        0.0000000000000000     
   1.1875000000000000       0.31250000000000000        0.0000000000000000     
   1.2187500000000000       0.31250000000000000        0.0000000000000000     
   1.2500000000000000       0.31250000000000000        0.0000000000000000     
   1.1250000000000000       0.34375000000000000        0.0000000000000000     
   1.1562500000000000       0.34375000000000000        0.0000000000000000     
   1.1875000000000000       0.34375000000000000        0.0000000000000000     
   1.2187500000000000       0.34375000000000000        0.0000000000000000     
   1.2500000000000000       0.34375000000000000        0.0000000000000000     
   1.1250000000000000       0.37500000000000000        0.0000000000000000     
   1.1562500000000000       0.37500000000000000        0.0000000000000000     
   1.1875000000000000       0.37500000000000000        0.0000000000000000     
   1.2187500000000000       0.37500000000000000        0.0000000000000000     
   1.2500000000000000       0.37500000000000000        0.0000000000000000     
   1.2500000000000000       0.25000000000000000        0.0000000000000000     
   1.2812500000000000       0.25000000000000000        0.0000000000000000     
   1.3125000000000000       0.25000000000000000        0.0000000000000000     
   1.3437500000000000       0.25000000000000000        0.0000000000000000     
   1.3750000000000000       0.25000000000000000        0.0000000000000000     
   1.2500000000000000       0.28125000000000000        0.0000000000000000     
   1.2812500000000000       0.28125000000000000        0.0000000000000000     
   1.3125000000000000       0.28125000000000000        0.0000000000000000     
   1.3437500000000000       0.28125000000000000        0.0000000000000000     
   1.3750000000000000       0.28125000000000000        0.0000000000000000     
   1.2500000000000000       0.31250000000000000        0.0000000000000000     
   1.2812500000000000       0.31250000000000000        0.0000000000000000     
   1.3125000000000000       0.31250000000000000        0.0000000000000000     
   1.3437500000000000       0.31250000000000000        0.0000000000000000     
   1.3750000000000000       0.31250000000000000        0.0000000000000000     
   1.2500000000000000       0.34375000000000000        0.0000000000000000     
   1.2812500000000000       0.34375000000000000        0.0000000000000000     
   1.3125000000000000       0.34375000000000000        0.0000000000000000     
   1.3437500000000000       0.34375000000000000        0.0000000000000000     
   1.3750000000000000       0.34375000000000000        0.0000000000000000     
   1.2500000000000000       0.37500000000000000        0.0000000000000000     
   1.2812500000000000       0.37500000000000000        0.0000000000000000     
   1.3125000000000000       0.37500000000000000        0.0000000000000000     
   1.3437500000000000       0.37500000000000000        0.0000000000000000     
   1.3750000000000000       0.37500000000000000        0.0000000000000000     
   1.3750000000000000       0.25000000000000000        0.0000000000000000     
   1.4062500000000000       0.25000000000000000        0.0000000000000000     
   1.4375000000000000       0.25000000000000000        0.0000000000000000     
   1.4687500000000000       0.25000000000000000        0.0000000000000000     
   1.5000000000000000       0.25000000000000000        0.0000000000000000     
   1.3750000000000000       0.28125000000000000        0.0000000000000000     
   1.4062500000000000       0.28125000000000000        0.0000000000000000     
   1.4375000000000000       0.28125000000000000        0.0000000000000000     
   1.4687500000000000       0.28125000000000000        0.0000000000000000     
   1.5000000000000000       0.28125000000000000        0.0000000000000000     
   1.3750000000000000       0.31250000000000000        0.0000000000000000     
   1.4062500000000000       0.31250000000000000        0.0000000000000000     
   1.4375000000000000       0.31250000000000000        0.0000000000000000     
   1.4687500000000000       0.31250000000000000        0.0000000000000000     
   1.5000000000000000       0.31250000000000000        0.0000000000000000     
   1.3750000000000000       0.34375000000000000        0.0000000000000000     
   1.4062500000000000       0.34375000000000000        0.0000000000000000     
   1.4375000000000000       0.34375000000000000        0.0000000000000000     
   1.4687500000000000       0.34375000000000000        0.0000000000000000     
   1.5000000000000000       0.34375000000000000        0.0000000000000000     
   1.3750000000000000       0.37500000000000000        0.0000000000000000     
   1.4062500000000000       0.37500000000000000        0.0000000000000000     
   1.4375000000000000       0.37500000000000000        0.0000000000000000     
   1.4687500000000000       0.37500000000000000        0.0000000000000000     
   1.5000000000000000       0.37500000000000000        0.0000000000000000     
  0.50000000000000000       0.37500000000000000        0.0000000000000000     
  0.53125000000000000       0.37500000000000000        0.0000000000000000     
  0.56250000000000000       0.37500000000000000        0.0000000000000000     
  0.59375000000000000       0.37500000000000000        0.0000000000000000     
  0.62500000000000000       0.37500000000000000        0.0000000000000000     
  0.50000000000000000       0.40625000000000000        0.0000000000000000     
  0.53125000000000000       0.40625000000000000        0.0000000000000000     
  0.56250000000000000       0.40625000000000000        0.0000000000000000     
  0.59375000000000000       0.40625000000000000        0.0000000000000000     
  0.62500000000000000       0.40625000000000000        0.0000000000000000     
  0.50000000000000000       0.43750000000000000        0.0000000000000000     
  0.53125000000000000       0.43750000000000000        0.0000000000000000     
  0.56250000000000000       0.43750000000000000        0.0000000000000000     
  0.59375000000000000       0.43750000000000000        0.0000000000000000     
  0.62500000000000000       0.43750000000000000        0.0000000000000000     
  0.50000000000000000       0.46875000000000000        0.0000000000000000     
  0.53125000000000000       0.46875000000000000        0.0000000000000000     
  0.56250000000000000       0.46875000000000000        0.0000000000000000     
  0.59375000000000000       0.46875000000000000        0.0000000000000000     
  0.62500000000000000       0.46875000000000000        0.0000000000000000     
  0.50000000000000000       0.50000000000000000        0.0000000000000000     
  0.53125000000000000       0.50000000000000000        0.0000000000000000     
  0.56250000000000000       0.50000000000000000        0.0000000000000000     
  0.59375000000000000       0.50000000000000000        0.0000000000000000     
  0.62500000000000000       0.50000000000000000        0.0000000000000000     
  0.62500000000000000       0.37500000000000000        0.0000000000000000     
  0.65625000000000000       0.37500000000000000        0.0000000000000000     
  0.68750000000000000       0.37500000000000000        0.0000000000000000     
  0.71875000000000000       0.37500000000000000        0.0000000000000000     
  0.75000000000000000       0.37500000000000000        0.0000000000000000     
  0.62500000000000000       0.40625000000000000        0.0000000000000000     
  0.65625000000000000       0.40625000000000000        0.0000000000000000     
  0.68750000000000000       0.40625000000000000        0.0000000000000000     
  0.71875000000000000       0.40625000000000000        0.0000000000000000     
  0.75000000000000000       0.40625000000000000        0.0000000000000000     
  0.62500000000000000       0.43750000000000000        0.0000000000000000     
  0.65625000000000000       0.43750000000000000        0.0000000000000000     
  0.68750000000000000       0.43750000000000000        0.0000000000000000     
  0.71875000000000000       0.43750000000000000        0.0000000000000000     
  0.75000000000000000       0.43750000000000000        0.0000000000000000     
  0.62500000000000000       0.46875000000000000        0.0000000000000000     
  0.65625000000000000       0.46875000000000000        0.0000000000000000     
  0.68750000000000000       0.46875000000000000        0.0000000000000000     
  0.71875000000000000       0.46875000000000000        0.0000000000000000     
  0.75000000000000000       0.46875000000000000        0.0000000000000000     
  0.62500000000000000       0.50000000000000000        0.0000000000000000     
  0.65625000000000000       0.50000000000000000        0.0000000000000000     
  0.68750000000000000       0.50000000000000000        0.0000000000000000     
  0.71875000000000000       0.50000000000000000        0.0000000000000000     
  0.75000000000000000       0.50000000000000000        0.0000000000000000     
  0.75000000000000000       0.37500000000000000        0.0000000000000000     
  0.78125000000000000       0.37500000000000000        0.0000000000000000     
  0.81250000000000000       0.37500000000000000        0.0000000000000000     
  0.84375000000000000       0.37500000000000000        0.0000000000000000     
  0.87500000000000000       0.37500000000000000        0.0000000000000000     
  0.75000000000000000       0.40625000000000000        0.0000000000000000     
  0.78125000000000000       0.40625000000000000        0.0000000000000000     
  0.81250000000000000       0.40625000000000000        0.0000000000000000     
  0.84375000000000000       0.40625000000000000        0.0000000000000000     
  0.87500000000000000       0.40625000000000000        0.0000000000000000     
  0.75000000000000000       0.43750000000000000        0.0000000000000000     
  0.78125000000000000       0.43750000000000000        0.0000000000000000     
  0.81250000000000000       0.43750000000000000        0.0000000000000000     
  0.84375000000000000       0.43750000000000000        0.0000000000000000     
  0.87500000000000000       0.43750000000000000        0.0000000000000000     
  0.75000000000000000       0.46875000000000000        0.0000000000000000     
  0.78125000000000000       0.46875000000000000        0.0000000000000000     
  0.81250000000000000       0.46875000000000000        0.0000000000000000     
  0.84375000000000000       0.46875000000000000        0.0000000000000000     
  0.87500000000000000       0.46875000000000000        0.0000000000000000     
  0.75000000000000000       0.50000000000000000        0.0000000000000000     
  0.78125000000000000       0.50000000000000000        0.0000000000000000     
  0.81250000000000000       0.50000000000000000        0.0000000000000000     
  0.84375000000000000       0.50000000000000000        0.0000000000000000     
  0.87500000000000000       0.50000000000000000        0.0000000000000000     
  0.87500000000000000       0.37500000000000000        0.0000000000000000     
  0.90625000000000000       0.37500000000000000        0.0000000000000000     
  0.93750000000000000       0.37500000000000000        0.0000000000000000     
  0.96875000000000000       0.37500000000000000        0.0000000000000000     
   1.0000000000000000       0.37500000000000000        0.0000000000000000     
  0.87500000000000000       0.40625000000000000        0.0000000000000000     
  0.90625000000000000       0.40625000000000000        0.0000000000000000     
  0.93750000000000000       0.40625000000000000        0.0000000000000000     
  0.96875000000000000       0.40625000000000000        0.0000000000000000     
   1.0000000000000000       0.40625000000000000        0.0000000000000000     
  0.87500000000000000       0.43750000000000000        0.0000000000000000     
  0.90625000000000000       0.43750000000000000        0.0000000000000000     
  0.93750000000000000       0.43750000000000000        0.0000000000000000     
  0.96875000000000000       0.43750000000000000        0.0000000000000000     
   1.0000000000000000       0.43750000000000000        0.0000000000000000     
  0.87500000000000000       0.46875000000000000        0.0000000000000000     
  0.90625000000000000       0.46875000000000000        0.0000000000000000     
  0.93750000000000000       0.46875000000000000        0.0000000000000000     
  0.96875000000000000       0.46875000000000000        0.0000000000000000     
   1.0000000000000000       0.46875000000000000        0.0000000000000000     
  0.87500000000000000       0.50000000000000000        0.0000000000000000     
  0.90625000000000000       0.50000000000000000        0.0000000000000000     
  0.93750000000000000       0.50000000000000000        0.0000000000000000     
  0.96875000000000000       0.50000000000000000        0.0000000000000000     
   1.0000000000000000       0.50000000000000000        0.0000000000000000     
   1.0000000000000000       0.37500000000000000        0.0000000000000000     
   1.0312500000000000       0.37500000000000000        0.0000000000000000     
   1.0625000000000000       0.37500000000000000        0.0000000000000000     
   1.0937500000000000       0.37500000000000000        0.0000000000000000     
   1.1250000000000000       0.37500000000000000        0.0000000000000000     
   1.0000000000000000       0.40625000000000000        0.0000000000000000     
   1.0312500000000000       0.40625000000000000        0.0000000000000000     
   1.0625000000000000       0.40625000000000000        0.0000000000000000     
   1.0937500000000000       0.40625000000000000        0.0000000000000000     
   1.1250000000000000       0.40625000000000000        0.0000000000000000     
   1.0000000000000000       0.43750000000000000        0.0000000000000000     
   1.0312500000000000       0.43750000000000000        0.0000000000000000     
   1.0625000000000000       0.43750000000000000        0.0000000000000000     
   1.0937500000000000       0.43750000000000000        0.0000000000000000     
   1.1250000000000000       0.43750000000000000        0.0000000000000000     
   1.0000000000000000       0.46875000000000000        0.0000000000000000     
   1.0312500000000000       0.46875000000000000        0.0000000000000000     
   1.0625000000000000       0.46875000000000000        0.0000000000000000     
   1.0937500000000000       0.46875000000000000        0.0000000000000000     
   1.1250000000000000       0.46875000000000000        0.0000000000000000     
   1.0000000000000000       0.50000000000000000        0.0000000000000000     
   1.0312500000000000       0.50000000000000000        0.0000000000000000     
   1.0625000000000000       0.50000000000000000        0.0000000000000000     
   1.0937500000000000       0.50000000000000000        0.0000000000000000     
   1.1250000000000000       0.50000000000000000        0.0000000000000000     
   1.1250000000000000       0.37500000000000000        0.0000000000000000     
   1.1562500000000000       0.37500000000000000        0.0000000000000000     
   1.1875000000000000       0.37500000000000000        0.0000000000000000     
   1.2187500000000000       0.37500000000000000        0.0000000000000000     
   1.2500000000000000       0.37500000000000000        0.0000000000000000     
   1.1250000000000000       0.40625000000000000        0.0000000000000000     
   1.1562500000000000       0.40625000000000000        0.0000000000000000     
   1.1875000000000000       0.40625000000000000        0.0000000000000000     
   1.2187500000000000       0.40625000000000000        0.0000000000000000     
   1.2500000000000000       0.40625000000000000        0.0000000000000000     
   1.1250000000000000       0.43750000000000000        0.0000000000000000     
   1.1562500000000000       0.43750000000000000        0.0000000000000000     
   1.1875000000000000       0.43750000000000000        0.0000000000000000     
   1.2187500000000000       0.43750000000000000        0.0000000000000000     
   1.2500000000000000       0.43750000000000000        0.0000000000000000     
   1.1250000000000000       0.46875000000000000        0.0000000000000000     
   1.1562500000000000       0.46875000000000000        0.0000000000000000     
   1.1875000000000000       0.46875000000000000        0.0000000000000000     
   1.2187500000000000       0.46875000000000000        0.0000000000000000     
   1.2500000000000000       0.46875000000000000        0.0000000000000000     
   1.1250000000000000       0.50000000000000000        0.0000000000000000     
   1.1562500000000000       0.50000000000000000        0.0000000000000000     
   1.1875000000000000       0.50000000000000000        0.0000000000000000     
   1.2187500000000000       0.50000000000000000        0.0000000000000000     
   1.2500000000000000       0.50000000000000000        0.0000000000000000     
   1.2500000000000000       0.37500000000000000        0.0000000000000000     
   1.2812500000000000       0.37500000000000000        0.0000000000000000     
   1.3125000000000000       0.37500000000000000        0.0000000000000000     
   1.3437500000000000       0.37500000000000000        0.0000000000000000     
   1.3750000000000000       0.37500000000000000        0.0000000000000000     
   1.2500000000000000       0.40625000000000000        0.0000000000000000     
   1.2812500000000000       0.40625000000000000        0.0000000000000000     
   1.3125000000000000       0.40625000000000000        0.0000000000000000     
   1.3437500000000000       0.40625000000000000        0.0000000000000000     
   1.3750000000000000       0.40625000000000000        0.0000000000000000     
   1.2500000000000000       0.43750000000000000        0.0000000000000000     
   1.2812500000000000       0.43750000000000000        0.0000000000000000     
   1.3125000000000000       0.43750000000000000        0.0000000000000000     
   1.3437500000000000       0.43750000000000000        0.0000000000000000     
   1.3750000000000000       0.43750000000000000        0.0000000000000000     
   1.2500000000000000       0.46875000000000000        0.0000000000000000     
   1.2812500000000000       0.46875000000000000        0.0000000000000000     
   1.3125000000000000       0.46875000000000000        0.0000000000000000     
   1.3437500000000000       0.46875000000000000        0.0000000000000000     
   1.3750000000000000       0.46875000000000000        0.0000000000000000     
   1.2500000000000000       0.50000000000000000        0.0000000000000000     
   1.2812500000000000       0.50000000000000000        0.0000000000000000     
   1.3125000000000000       0.50000000000000000        0.0000000000000000     
   1.3437500000000000       0.50000000000000000        0.0000000000000000     
   1.3750000000000000       0.50000000000000000        0.0000000000000000     
   1.3750000000000000       0.37500000000000000        0.0000000000000000     
   1.4062500000000000       0.37500000000000000        0.0000000000000000     
   1.4375000000000000       0.37500000000000000        0.0000000000000000     
   1.4687500000000000       0.37500000000000000        0.0000000000000000     
   1.5000000000000000       0.37500000000000000        0.0000000000000000     
   1.3750000000000000       0.40625000000000000        0.0000000000000000     
   1.4062500000000000       0.40625000000000000        0.0000000000000000     
   1.4375000000000000       0.40625000000000000        0.0000000000000000     
   1.4687500000000000       0.40625000000000000        0.0000000000000000     
   1.5000000000000000       0.40625000000000000        0.0000000000000000     
   1.3750000000000000       0.43750000000000000        0.0000000000000000     
   1.4062500000000000       0.43750000000000000        0.0000000000000000     
   1.4375000000000000       0.43750000000000000        0.0000000000000000     
   1.4687500000000000       0.43750000000000000        0.0000000000000000     
   1.5000000000000000       0.43750000000000000        0.0000000000000000     
   1.3750000000000000       0.46875000000000000        0.0000000000000000     
   1.4062500000000000       0.46875000000000000        0.0000000000000000     
   1.4375000000000000       0.46875000000000000        0.0000000000000000     
   1.4687500000000000       0.46875000000000000        0.0000000000000000     
   1.5000000000000000       0.46875000000000000        0.0000000000000000     
   1.3750000000000000       0.50000000000000000        0.0000000000000000     
   1.4062500000000000       0.50000000000000000        0.0000000000000000     
   1.4375000000000000       0.50000000000000000        0.0000000000000000     
   1.4687500000000000       0.50000000000000000        0.0000000000000000     
   1.5000000000000000       0.50000000000000000        0.0000000000000000     
  0.50000000000000000       0.50000000000000000        0.0000000000000000     
  0.53125000000000000       0.50000000000000000        0.0000000000000000     
  0.56250000000000000       0.50000000000000000        0.0000000000000000     
  0.59375000000000000       0.50000000000000000        0.0000000000000000     
  0.62500000000000000       0.50000000000000000        0.0000000000000000     
  0.50000000000000000       0.53125000000000000        0.0000000000000000     
  0.53125000000000000       0.53125000000000000        0.0000000000000000     
  0.56250000000000000       0.53125000000000000        0.0000000000000000     
  0.59375000000000000       0.53125000000000000        0.0000000000000000     
  0.62500000000000000       0.53125000000000000        0.0000000000000000     
  0.50000000000000000       0.56250000000000000        0.0000000000000000     
  0.53125000000000000       0.56250000000000000        0.0000000000000000     
  0.56250000000000000       0.56250000000000000        0.0000000000000000     
  0.59375000000000000       0.56250000000000000        0.0000000000000000     
  0.62500000000000000       0.56250000000000000        0.0000000000000000     
  0.50000000000000000       0.59375000000000000        0.0000000000000000     
  0.53125000000000000       0.59375000000000000        0.0000000000000000     
  0.56250000000000000       0.59375000000000000        0.0000000000000000     
  0.59375000000000000       0.59375000000000000        0.0000000000000000     
  0.62500000000000000       0.59375000000000000        0.0000000000000000     
  0.50000000000000000       0.62500000000000000        0.0000000000000000     
  0.53125000000000000       0.62500000000000000        0.0000000000000000     
  0.56250000000000000       0.62500000000000000        0.0000000000000000     
  0.59375000000000000       0.62500000000000000        0.0000000000000000     
  0.62500000000000000       0.62500000000000000        0.0000000000000000     
  0.62500000000000000       0.50000000000000000        0.0000000000000000     
  0.65625000000000000       0.50000000000000000        0.0000000000000000     
  0.68750000000000000       0.50000000000000000        0.0000000000000000     
  0.71875000000000000       0.50000000000000000        0.0000000000000000     
  0.75000000000000000       0.50000000000000000        0.0000000000000000     
  0.62500000000000000       0.53125000000000000        0.0000000000000000     
  0.65625000000000000       0.53125000000000000        0.0000000000000000     
  0.68750000000000000       0.53125000000000000        0.0000000000000000     
  0.71875000000000000       0.53125000000000000        0.0000000000000000     
  0.75000000000000000       0.53125000000000000        0.0000000000000000     
  0.62500000000000000       0.56250000000000000        0.0000000000000000     
  0.65625000000000000       0.56250000000000000        0.0000000000000000     
  0.68750000000000000       0.56250000000000000        0.0000000000000000     
  0.71875000000000000       0.56250000000000000        0.0000000000000000     
  0.75000000000000000       0.56250000000000000        0.0000000000000000     
  0.62500000000000000       0.59375000000000000        0.0000000000000000     
  0.65625000000000000       0.59375000000000000        0.0000000000000000     
  0.68750000000000000       0.59375000000000000        0.0000000000000000     
  0.71875000000000000       0.59375000000000000        0.0000000000000000     
  0.75000000000000000       0.59375000000000000        0.0000000000000000     
  0.62500000000000000       0.62500000000000000        0.0000000000000000     
  0.65625000000000000       0.62500000000000000        0.0000000000000000     
  0.68750000000000000       0.62500000000000000        0.0000000000000000     
  0.71875000000000000       0.62500000000000000        0.0000000000000000     
  0.75000000000000000       0.62500000000000000        0.0000000000000000     
  0.75000000000000000       0.50000000000000000        0.0000000000000000     
  0.78125000000000000       0.50000000000000000        0.0000000000000000     
  0.81250000000000000       0.50000000000000000        0.0000000000000000     
  0.84375000000000000       0.50000000000000000        0.0000000000000000     
  0.87500000000000000       0.50000000000000000        0.0000000000000000     
  0.75000000000000000       0.53125000000000000        0.0000000000000000     
  0.78125000000000000       0.53125000000000000        0.0000000000000000     
  0.81250000000000000       0.53125000000000000        0.0000000000000000     
  0.84375000000000000       0.53125000000000000        0.0000000000000000     
  0.87500000000000000       0.53125000000000000        0.0000000000000000     
  0.75000000000000000       0.56250000000000000        0.0000000000000000     
  0.78125000000000000       0.56250000000000000        0.0000000000000000     
  0.81250000000000000       0.56250000000000000        0.0000000000000000     
  0.84375000000000000       0.56250000000000000        0.0000000000000000     
  0.87500000000000000       0.56250000000000000        0.0000000000000000     
  0.75000000000000000       0.59375000000000000        0.0000000000000000     
  0.78125000000000000       0.59375000000000000        0.0000000000000000     
  0.81250000000000000       0.59375000000000000        0.0000000000000000     
  0.84375000000000000       0.59375000000000000        0.0000000000000000     
  0.87500000000000000       0.59375000000000000        0.0000000000000000     
  0.75000000000000000       0.62500000000000000        0.0000000000000000     
  0.78125000000000000       0.62500000000000000        0.0000000000000000     
  0.81250000000000000       0.62500000000000000        0.0000000000000000     
  0.84375000000000000       0.62500000000000000        0.0000000000000000     
  0.87500000000000000       0.62500000000000000        0.0000000000000000     
  0.87500000000000000       0.50000000000000000        0.0000000000000000     
  0.90625000000000000       0.50000000000000000        0.0000000000000000     
  0.93750000000000000       0.50000000000000000        0.0000000000000000     
  0.96875000000000000       0.50000000000000000        0.0000000000000000     
   1.0000000000000000       0.50000000000000000        0.0000000000000000     
  0.87500000000000000       0.53125000000000000        0.0000000000000000     
  0.90625000000000000       0.53125000000000000        0.0000000000000000     
  0.93750000000000000       0.53125000000000000        0.0000000000000000     
  0.96875000000000000       0.53125000000000000        0.0000000000000000     
   1.0000000000000000       0.53125000000000000        0.0000000000000000     
  0.87500000000000000       0.56250000000000000        0.0000000000000000     
  0.90625000000000000       0.56250000000000000        0.0000000000000000     
  0.93750000000000000       0.56250000000000000        0.0000000000000000     
  0.96875000000000000       0.56250000000000000        0.0000000000000000     
   1.0000000000000000       0.56250000000000000        0.0000000000000000     
  0.87500000000000000       0.59375000000000000        0.0000000000000000     
  0.90625000000000000       0.59375000000000000        0.0000000000000000     
  0.93750000000000000       0.59375000000000000        0.0000000000000000     
  0.96875000000000000       0.59375000000000000        0.0000000000000000     
   1.0000000000000000       0.59375000000000000        0.0000000000000000     
  0.87500000000000000       0.62500000000000000        0.0000000000000000     
  0.90625000000000000       0.62500000000000000        0.0000000000000000     
  0.93750000000000000       0.62500000000000000        0.0000000000000000     
  0.96875000000000000       0.62500000000000000        0.0000000000000000     
   1.0000000000000000       0.62500000000000000        0.0000000000000000     
   1.0000000000000000       0.50000000000000000        0.0000000000000000     
   1.0312500000000000       0.50000000000000000        0.0000000000000000     
   1.0625000000000000       0.50000000000000000        0.0000000000000000     
   1.0937500000000000       0.50000000000000000        0.0000000000000000     
   1.1250000000000000       0.50000000000000000        0.0000000000000000     
   1.0000000000000000       0.53125000000000000        0.0000000000000000     
   1.0312500000000000       0.53125000000000000        0.0000000000000000     
   1.0625000000000000       0.53125000000000000        0.0000000000000000     
   1.0937500000000000       0.53125000000000000        0.0000000000000000     
   1.1250000000000000       0.53125000000000000        0.0000000000000000     
   1.0000000000000000       0.56250000000000000        0.0000000000000000     
   1.0312500000000000       0.56250000000000000        0.0000000000000000     
   1.0625000000000000       0.56250000000000000        0.0000000000000000     
   1.0937500000000000       0.56250000000000000        0.0000000000000000     
   1.1250000000000000       0.56250000000000000        0.0000000000000000     
   1.0000000000000000       0.59375000000000000        0.0000000000000000     
   1.0312500000000000       0.59375000000000000        0.0000000000000000     
   1.0625000000000000       0.59375000000000000        0.0000000000000000     
   1.0937500000000000       0.59375000000000000        0.0000000000000000     
   1.1250000000000000       0.59375000000000000        0.0000000000000000     
   1.0000000000000000       0.62500000000000000        0.0000000000000000     
   1.0312500000000000       0.62500000000000000        0.0000000000000000     
   1.0625000000000000       0.62500000000000000        0.0000000000000000     
   1.0937500000000000       0.62500000000000000        0.0000000000000000     
   1.1250000000000000       0.62500000000000000        0.0000000000000000     
   1.1250000000000000       0.50000000000000000        0.0000000000000000     
   1.1562500000000000       0.50000000000000000        0.0000000000000000     
   1.1875000000000000       0.50000000000000000        0.0000000000000000     
   1.2187500000000000       0.50000000000000000        0.0000000000000000     
   1.2500000000000000       0.50000000000000000        0.0000000000000000     
   1.1250000000000000       0.53125000000000000        0.0000000000000000     
   1.1562500000000000       0.53125000000000000        0.0000000000000000     
   1.1875000000000000       0.53125000000000000        0.0000000000000000     
   1.2187500000000000       0.53125000000000000        0.0000000000000000     
   1.2500000000000000       0.53125000000000000        0.0000000000000000     
   1.1250000000000000       0.56250000000000000        0.0000000000000000     
   1.1562500000000000       0.56250000000000000        0.0000000000000000     
   1.1875000000000000       0.56250000000000000        0.0000000000000000     
   1.2187500000000000       0.56250000000000000        0.0000000000000000     
   1.2500000000000000       0.56250000000000000        0.0000000000000000     
   1.1250000000000000       0.59375000000000000        0.0000000000000000     
   1.1562500000000000       0.59375000000000000        0.0000000000000000     
   1.1875000000000000       0.59375000000000000        0.0000000000000000     
   1.2187500000000000       0.59375000000000000        0.0000000000000000     
   1.2500000000000000       0.59375000000000000        0.0000000000000000     
   1.1250000000000000       0.62500000000000000        0.0000000000000000     
   1.1562500000000000       0.62500000000000000        0.0000000000000000     
   1.1875000000000000       0.62500000000000000        0.0000000000000000     
   1.2187500000000000       0.62500000000000000        0.0000000000000000     
   1.2500000000000000       0.62500000000000000        0.0000000000000000     
   1.2500000000000000       0.50000000000000000        0.0000000000000000     
   1.2812500000000000       0.50000000000000000        0.0000000000000000     
   1.3125000000000000       0.50000000000000000        0.0000000000000000     
   1.3437500000000000       0.50000000000000000        0.0000000000000000     
   1.3750000000000000       0.50000000000000000        0.0000000000000000     
   1.2500000000000000       0.53125000000000000        0.0000000000000000     
   1.2812500000000000       0.53125000000000000        0.0000000000000000     
   1.3125000000000000       0.53125000000000000        0.0000000000000000     
   1.3437500000000000       0.53125000000000000        0.0000000000000000     
   1.3750000000000000       0.53125000000000000        0.0000000000000000     
   1.2500000000000000       0.56250000000000000        0.0000000000000000     
   1.2812500000000000       0.56250000000000000        0.0000000000000000     
   1.3125000000000000       0.56250000000000000        0.0000000000000000     
   1.3437500000000000       0.56250000000000000        0.0000000000000000     
   1.3750000000000000       0.56250000000000000        0.0000000000000000     
   1.2500000000000000       0.59375000000000000        0.0000000000000000     
   1.2812500000000000       0.59375000000000000        0.0000000000000000     
   1.3125000000000000       0.59375000000000000        0.0000000000000000     
   1.3437500000000000       0.59375000000000000        0.0000000000000000     
   1.3750000000000000       0.59375000000000000        0.0000000000000000     
   1.2500000000000000       0.62500000000000000        0.0000000000000000     
   1.2812500000000000       0.62500000000000000        0.0000000000000000     
   1.3125000000000000       0.62500000000000000        0.0000000000000000     
   1.3437500000000000       0.62500000000000000        0.0000000000000000     
   1.3750000000000000       0.62500000000000000        0.0000000000000000     
   1.3750000000000000       0.50000000000000000        0.0000000000000000     
   1.4062500000000000       0.50000000000000000        0.0000000000000000     
   1.4375000000000000       0.50000000000000000        0.0000000000000000     
   1.4687500000000000       0.50000000000000000        0.0000000000000000     
   1.5000000000000000       0.50000000000000000        0.0000000000000000     
   1.3750000000000000       0.53125000000000000        0.0000000000000000     
   1.4062500000000000       0.53125000000000000        0.0000000000000000     
   1.4375000000000000       0.53125000000000000        0.0000000000000000     
   1.4687500000000000       0.53125000000000000        0.0000000000000000     
   1.5000000000000000       0.53125000000000000        0.0000000000000000     
   1.3750000000000000       0.56250000000000000        0.0000000000000000     
   1.4062500000000000       0.56250000000000000        0.0000000000000000     
   1.4375000000000000       0.56250000000000000        0.0000000000000000     
   1.4687500000000000       0.56250000000000000        0.0000000000000000     
   1.5000000000000000       0.56250000000000000        0.0000000000000000     
   1.3750000000000000       0.59375000000000000        0.0000000000000000     
   1.4062500000000000       0.59375000000000000        0.0000000000000000     
   1.4375000000000000       0.59375000000000000        0.0000000000000000     
   1.4687500000000000       0.59375000000000000        0.0000000000000000     
   1.5000000000000000       0.59375000000000000        0.0000000000000000     
   1.3750000000000000       0.62500000000000000        0.0000000000000000     
   1.4062500000000000       0.62500000000000000        0.0000000000000000     
   1.4375000000000000       0.62500000000000000        0.0000000000000000     
   1.4687500000000000       0.62500000000000000        0.0000000000000000     
   1.5000000000000000       0.62500000000000000        0.0000000000000000     
  0.50000000000000000       0.62500000000000000        0.0000000000000000     
  0.53125000000000000       0.62500000000000000        0.0000000000000000     
  0.56250000000000000       0.62500000000000000        0.0000000000000000     
  0.59375000000000000       0.62500000000000000        0.0000000000000000     
  0.62500000000000000       0.62500000000000000        0.0000000000000000     
  0.50000000000000000       0.65625000000000000        0.0000000000000000     
  0.53125000000000000       0.65625000000000000        0.0000000000000000     
  0.56250000000000000       0.65625000000000000        0.0000000000000000     
  0.59375000000000000       0.65625000000000000        0.0000000000000000     
  0.62500000000000000       0.65625000000000000        0.0000000000000000     
  0.50000000000000000       0.68750000000000000        0.0000000000000000     
  0.53125000000000000       0.68750000000000000        0.0000000000000000     
  0.56250000000000000       0.68750000000000000        0.0000000000000000     
  0.59375000000000000       0.68750000000000000        0.0000000000000000     
  0.62500000000000000       0.68750000000000000        0.0000000000000000     
  0.50000000000000000       0.71875000000000000        0.0000000000000000     
  0.53125000000000000       0.71875000000000000        0.0000000000000000     
  0.56250000000000000       0.71875000000000000        0.0000000000000000     
  0.59375000000000000       0.71875000000000000        0.0000000000000000     
  0.62500000000000000       0.71875000000000000        0.0000000000000000     
  0.50000000000000000       0.75000000000000000        0.0000000000000000     
  0.53125000000000000       0.75000000000000000        0.0000000000000000     
  0.56250000000000000       0.75000000000000000        0.0000000000000000     
  0.59375000000000000       0.75000000000000000        0.0000000000000000     
  0.62500000000000000       0.75000000000000000        0.0000000000000000     
  0.62500000000000000       0.62500000000000000        0.0000000000000000     
  0.65625000000000000       0.62500000000000000        0.0000000000000000     
  0.68750000000000000       0.62500000000000000        0.0000000000000000     
  0.71875000000000000       0.62500000000000000        0.0000000000000000     
  0.75000000000000000       0.62500000000000000        0.0000000000000000     
  0.62500000000000000       0.65625000000000000        0.0000000000000000     
  0.65625000000000000       0.65625000000000000        0.0000000000000000     
  0.68750000000000000       0.65625000000000000        0.0000000000000000     
  0.71875000000000000       0.65625000000000000        0.0000000000000000     
  0.75000000000000000       0.65625000000000000        0.0000000000000000     
  0.62500000000000000       0.68750000000000000        0.0000000000000000     
  0.65625000000000000       0.68750000000000000        0.0000000000000000     
  0.68750000000000000       0.68750000000000000        0.0000000000000000     
  0.71875000000000000       0.68750000000000000        0.0000000000000000     
  0.75000000000000000       0.68750000000000000        0.0000000000000000     
  0.62500000000000000       0.71875000000000000        0.0000000000000000     
  0.65625000000000000       0.71875000000000000        0.0000000000000000     
  0.68750000000000000       0.71875000000000000        0.0000000000000000     
  0.71875000000000000       0.71875000000000000        0.0000000000000000     
  0.75000000000000000       0.71875000000000000        0.0000000000000000     
  0.62500000000000000       0.75000000000000000        0.0000000000000000     
  0.65625000000000000       0.75000000000000000        0.0000000000000000     
  0.68750000000000000       0.75000000000000000        0.0000000000000000     
  0.71875000000000000       0.75000000000000000        0.0000000000000000     
  0.75000000000000000       0.75000000000000000        0.0000000000000000     
  0.75000000000000000       0.62500000000000000        0.0000000000000000     
  0.78125000000000000       0.62500000000000000        0.0000000000000000     
  0.81250000000000000       0.62500000000000000        0.0000000000000000     
  0.84375000000000000       0.62500000000000000        0.0000000000000000     
  0.87500000000000000       0.62500000000000000        0.0000000000000000     
  0.75000000000000000       0.65625000000000000        0.0000000000000000     
  0.78125000000000000       0.65625000000000000        0.0000000000000000     
  0.81250000000000000       0.65625000000000000        0.0000000000000000     
  0.84375000000000000       0.65625000000000000        0.0000000000000000     
  0.87500000000000000       0.65625000000000000        0.0000000000000000     
  0.75000000000000000       0.68750000000000000        0.0000000000000000     
  0.78125000000000000       0.68750000000000000        0.0000000000000000     
  0.81250000000000000       0.68750000000000000        0.0000000000000000     
  0.84375000000000000       0.68750000000000000        0.0000000000000000     
  0.87500000000000000       0.68750000000000000        0.0000000000000000     
  0.75000000000000000       0.71875000000000000        0.0000000000000000     
  0.78125000000000000       0.71875000000000000        0.0000000000000000     
  0.81250000000000000       0.71875000000000000        0.0000000000000000     
  0.84375000000000000       0.71875000000000000        0.0000000000000000     
  0.87500000000000000       0.71875000000000000        0.0000000000000000     
  0.75000000000000000       0.75000000000000000        0.0000000000000000     
  0.78125000000000000       0.75000000000000000        0.0000000000000000     
  0.81250000000000000       0.75000000000000000        0.0000000000000000     
  0.84375000000000000       0.75000000000000000        0.0000000000000000     
  0.87500000000000000       0.75000000000000000        0.0000000000000000     
  0.87500000000000000       0.62500000000000000        0.0000000000000000     
  0.90625000000000000       0.62500000000000000        0.0000000000000000     
  0.93750000000000000       0.62500000000000000        0.0000000000000000     
  0.96875000000000000       0.62500000000000000        0.0000000000000000     
   1.0000000000000000       0.62500000000000000        0.0000000000000000     
  0.87500000000000000       0.65625000000000000        0.0000000000000000     
  0.90625000000000000       0.65625000000000000        0.0000000000000000     
  0.93750000000000000       0.65625000000000000        0.0000000000000000     
  0.96875000000000000       0.65625000000000000        0.0000000000000000     
   1.0000000000000000       0.65625000000000000        0.0000000000000000     
  0.87500000000000000       0.68750000000000000        0.0000000000000000     
  0.90625000000000000       0.68750000000000000        0.0000000000000000     
  0.93750000000000000       0.68750000000000000        0.0000000000000000     
  0.96875000000000000       0.68750000000000000        0.0000000000000000     
   1.0000000000000000       0.68750000000000000        0.0000000000000000     
  0.87500000000000000       0.71875000000000000        0.0000000000000000     
  0.90625000000000000       0.71875000000000000        0.0000000000000000     
  0.93750000000000000       0.71875000000000000        0.0000000000000000     
  0.96875000000000000       0.71875000000000000        0.0000000000000000     
   1.0000000000000000       0.71875000000000000        0.0000000000000000     
  0.87500000000000000       0.75000000000000000        0.0000000000000000     
  0.90625000000000000       0.75000000000000000        0.0000000000000000     
  0.93750000000000000       0.75000000000000000        0.0000000000000000     
  0.96875000000000000       0.75000000000000000        0.0000000000000000     
   1.0000000000000000       0.75000000000000000        0.0000000000000000     
   1.0000000000000000       0.62500000000000000        0.0000000000000000     
   1.0312500000000000       0.62500000000000000        0.0000000000000000     
   1.0625000000000000       0.62500000000000000        0.0000000000000000     
   1.0937500000000000       0.62500000000000000        0.0000000000000000     
   1.1250000000000000       0.62500000000000000        0.0000000000000000     
   1.0000000000000000       0.65625000000000000        0.0000000000000000     
   1.0312500000000000       0.65625000000000000        0.0000000000000000     
   1.0625000000000000       0.65625000000000000        0.0000000000000000     
   1.0937500000000000       0.65625000000000000        0.0000000000000000     
   1.1250000000000000       0.65625000000000000        0.0000000000000000     
   1.0000000000000000       0.68750000000000000        0.0000000000000000     
   1.0312500000000000       0.68750000000000000        0.0000000000000000     
   1.0625000000000000       0.68750000000000000        0.0000000000000000     
   1.0937500000000000       0.68750000000000000        0.0000000000000000     
   1.1250000000000000       0.68750000000000000        0.0000000000000000     
   1.0000000000000000       0.71875000000000000        0.0000000000000000     
   1.0312500000000000       0.71875000000000000        0.0000000000000000     
   1.0625000000000000       0.71875000000000000        0.0000000000000000     
   1.0937500000000000       0.71875000000000000        0.0000000000000000     
   1.1250000000000000       0.71875000000000000        0.0000000000000000     
   1.0000000000000000       0.75000000000000000        0.0000000000000000     
   1.0312500000000000       0.75000000000000000        0.0000000000000000     
   1.0625000000000000       0.75000000000000000        0.0000000000000000     
   1.0937500000000000       0.75000000000000000        0.0000000000000000     
   1.1250000000000000       0.75000000000000000        0.0000000000000000     
   1.1250000000000000       0.62500000000000000        0.0000000000000000     
   1.1562500000000000       0.62500000000000000        0.0000000000000000     
   1.1875000000000000       0.62500000000000000        0.0000000000000000     
   1.2187500000000000       0.62500000000000000        0.0000000000000000     
   1.2500000000000000       0.62500000000000000        0.0000000000000000     
   1.1250000000000000       0.65625000000000000        0.0000000000000000     
   1.1562500000000000       0.65625000000000000        0.0000000000000000     
   1.1875000000000000       0.65625000000000000        0.0000000000000000     
   1.2187500000000000       0.65625000000000000        0.0000000000000000     
   1.2500000000000000       0.65625000000000000        0.0000000000000000     
   1.1250000000000000       0.68750000000000000        0.0000000000000000     
   1.1562500000000000       0.68750000000000000        0.0000000000000000     
   1.1875000000000000       0.68750000000000000        0.0000000000000000     
   1.2187500000000000       0.68750000000000000        0.0000000000000000     
   1.2500000000000000       0.68750000000000000        0.0000000000000000     
   1.1250000000000000       0.71875000000000000        0.0000000000000000     
   1.1562500000000000       0.71875000000000000        0.0000000000000000     
   1.1875000000000000       0.71875000000000000        0.0000000000000000     
   1.2187500000000000       0.71875000000000000        0.0000000000000000     
   1.2500000000000000       0.71875000000000000        0.0000000000000000     
   1.1250000000000000       0.75000000000000000        0.0000000000000000     
   1.1562500000000000       0.75000000000000000        0.0000000000000000     
   1.1875000000000000       0.75000000000000000        0.0000000000000000     
   1.2187500000000000       0.75000000000000000        0.0000000000000000     
   1.2500000000000000       0.75000000000000000        0.0000000000000000     
   1.2500000000000000       0.62500000000000000        0.0000000000000000     
   1.2812500000000000       0.62500000000000000        0.0000000000000000     
   1.3125000000000000       0.62500000000000000        0.0000000000000000     
   1.3437500000000000       0.62500000000000000        0.0000000000000000     
   1.3750000000000000       0.62500000000000000        0.0000000000000000     
   1.2500000000000000       0.65625000000000000        0.0000000000000000     
   1.2812500000000000       0.65625000000000000        0.0000000000000000     
   1.3125000000000000       0.65625000000000000        0.0000000000000000     
   1.3437500000000000       0.65625000000000000        0.0000000000000000     
   1.3750000000000000       0.65625000000000000        0.0000000000000000     
   1.2500000000000000       0.68750000000000000        0.0000000000000000     
   1.2812500000000000       0.68750000000000000        0.0000000000000000     
   1.3125000000000000       0.68750000000000000        0.0000000000000000     
   1.3437500000000000       0.68750000000000000        0.0000000000000000     
   1.3750000000000000       0.68750000000000000        0.0000000000000000     
   1.2500000000000000       0.71875000000000000        0.0000000000000000     
   1.2812500000000000       0.71875000000000000        0.0000000000000000     
   1.3125000000000000       0.71875000000000000        0.0000000000000000     
   1.3437500000000000       0.71875000000000000        0.0000000000000000     
   1.3750000000000000       0.71875000000000000        0.0000000000000000     
   1.2500000000000000       0.75000000000000000        0.0000000000000000     
   1.2812500000000000       0.75000000000000000        0.0000000000000000     
   1.3125000000000000       0.75000000000000000        0.0000000000000000     
   1.3437500000000000       0.75000000000000000        0.0000000000000000     
   1.3750000000000000       0.75000000000000000        0.0000000000000000     
   1.3750000000000000       0.62500000000000000        0.0000000000000000     
   1.4062500000000000       0.62500000000000000        0.0000000000000000     
   1.4375000000000000       0.62500000000000000        0.0000000000000000     
   1.4687500000000000       0.62500000000000000        0.0000000000000000     
   1.5000000000000000       0.62500000000000000        0.0000000000000000     
   1.3750000000000000       0.65625000000000000        0.0000000000000000     
   1.4062500000000000       0.65625000000000000        0.0000000000000000     
   1.4375000000000000       0.65625000000000000        0.0000000000000000     
   1.4687500000000000       0.65625000000000000        0.0000000000000000     
   1.5000000000000000       0.65625000000000000        0.0000000000000000     
   1.3750000000000000       0.68750000000000000        0.0000000000000000     
   1.4062500000000000       0.68750000000000000        0.0000000000000000     
   1.4375000000000000       0.68750000000000000        0.0000000000000000     
   1.4687500000000000       0.68750000000000000        0.0000000000000000     
   1.5000000000000000       0.68750000000000000        0.0000000000000000     
   1.3750000000000000       0.71875000000000000        0.0000000000000000     
   1.4062500000000000       0.71875000000000000        0.0000000000000000     
   1.4375000000000000       0.71875000000000000        0.0000000000000000     
   1.4687500000000000       0.71875000000000000        0.0000000000000000     
   1.5000000000000000       0.71875000000000000        0.0000000000000000     
   1.3750000000000000       0.75000000000000000        0.0000000000000000     
   1.4062500000000000       0.75000000000000000        0.0000000000000000     
   1.4375000000000000       0.75000000000000000        0.0000000000000000     
   1.4687500000000000       0.75000000000000000        0.0000000000000000     
   1.5000000000000000       0.75000000000000000        0.0000000000000000     
  0.50000000000000000       0.75000000000000000        0.0000000000000000     
  0.53125000000000000       0.75000000000000000        0.0000000000000000     
  0.56250000000000000       0.75000000000000000        0.0000000000000000     
  0.59375000000000000       0.75000000000000000        0.0000000000000000     
  0.62500000000000000       0.75000000000000000        0.0000000000000000     
  0.50000000000000000       0.78125000000000000        0.0000000000000000     
  0.53125000000000000       0.78125000000000000        0.0000000000000000     
  0.56250000000000000       0.78125000000000000        0.0000000000000000     
  0.59375000000000000       0.78125000000000000        0.0000000000000000     
  0.62500000000000000       0.78125000000000000        0.0000000000000000     
  0.50000000000000000       0.81250000000000000        0.0000000000000000     
  0.53125000000000000       0.81250000000000000        0.0000000000000000     
  0.56250000000000000       0.81250000000000000        0.0000000000000000     
  0.59375000000000000       0.81250000000000000        0.0000000000000000     
  0.62500000000000000       0.81250000000000000        0.0000000000000000     
  0.50000000000000000       0.84375000000000000        0.0000000000000000     
  0.53125000000000000       0.84375000000000000        0.0000000000000000     
  0.56250000000000000       0.84375000000000000        0.0000000000000000     
  0.59375000000000000       0.84375000000000000        0.0000000000000000     
  0.62500000000000000       0.84375000000000000        0.0000000000000000     
  0.50000000000000000       0.87500000000000000        0.0000000000000000     
  0.53125000000000000       0.87500000000000000        0.0000000000000000     
  0.56250000000000000       0.87500000000000000        0.0000000000000000     
  0.59375000000000000       0.87500000000000000        0.0000000000000000     
  0.62500000000000000       0.87500000000000000        0.0000000000000000     
  0.62500000000000000       0.75000000000000000        0.0000000000000000     
  0.65625000000000000       0.75000000000000000        0.0000000000000000     
  0.68750000000000000       0.75000000000000000        0.0000000000000000     
  0.71875000000000000       0.75000000000000000        0.0000000000000000     
  0.75000000000000000       0.75000000000000000        0.0000000000000000     
  0.62500000000000000       0.78125000000000000        0.0000000000000000     
  0.65625000000000000       0.78125000000000000        0.0000000000000000     
  0.68750000000000000       0.78125000000000000        0.0000000000000000     
  0.71875000000000000       0.78125000000000000        0.0000000000000000     
  0.75000000000000000       0.78125000000000000        0.0000000000000000     
  0.62500000000000000       0.81250000000000000        0.0000000000000000     
  0.65625000000000000       0.81250000000000000        0.0000000000000000     
  0.68750000000000000       0.81250000000000000        0.0000000000000000     
  0.71875000000000000       0.81250000000000000        0.0000000000000000     
  0.75000000000000000       0.81250000000000000        0.0000000000000000     
  0.62500000000000000       0.84375000000000000        0.0000000000000000     
  0.65625000000000000       0.84375000000000000        0.0000000000000000     
  0.68750000000000000       0.84375000000000000        0.0000000000000000     
  0.71875000000000000       0.84375000000000000        0.0000000000000000     
  0.75000000000000000       0.84375000000000000        0.0000000000000000     
  0.62500000000000000       0.87500000000000000        0.0000000000000000     
  0.65625000000000000       0.87500000000000000        0.0000000000000000     
  0.68750000000000000       0.87500000000000000        0.0000000000000000     
  0.71875000000000000       0.87500000000000000        0.0000000000000000     
  0.75000000000000000       0.87500000000000000        0.0000000000000000     
  0.75000000000000000       0.75000000000000000        0.0000000000000000     
  0.78125000000000000       0.75000000000000000        0.0000000000000000     
  0.81250000000000000       0.75000000000000000        0.0000000000000000     
  0.84375000000000000       0.75000000000000000        0.0000000000000000     
  0.87500000000000000       0.75000000000000000        0.0000000000000000     
  0.75000000000000000       0.78125000000000000        0.0000000000000000     
  0.78125000000000000       0.78125000000000000        0.0000000000000000     
  0.81250000000000000       0.78125000000000000        0.0000000000000000     
  0.84375000000000000       0.78125000000000000        0.0000000000000000     
  0.87500000000000000       0.78125000000000000        0.0000000000000000     
  0.75000000000000000       0.81250000000000000        0.0000000000000000     
  0.78125000000000000       0.81250000000000000        0.0000000000000000     
  0.81250000000000000       0.81250000000000000        0.0000000000000000     
  0.84375000000000000       0.81250000000000000        0.0000000000000000     
  0.87500000000000000       0.81250000000000000        0.0000000000000000     
  0.75000000000000000       0.84375000000000000        0.0000000000000000     
  0.78125000000000000       0.84375000000000000        0.0000000000000000     
  0.81250000000000000       0.84375000000000000        0.0000000000000000     
  0.84375000000000000       0.84375000000000000        0.0000000000000000     
  0.87500000000000000       0.84375000000000000        0.0000000000000000     
  0.75000000000000000       0.87500000000000000        0.0000000000000000     
  0.78125000000000000       0.87500000000000000        0.0000000000000000     
  0.81250000000000000       0.87500000000000000        0.0000000000000000     
  0.84375000000000000       0.87500000000000000        0.0000000000000000     
  0.87500000000000000       0.87500000000000000        0.0000000000000000     
  0.87500000000000000       0.75000000000000000        0.0000000000000000     
  0.90625000000000000       0.75000000000000000        0.0000000000000000     
  0.93750000000000000       0.75000000000000000        0.0000000000000000     
  0.96875000000000000       0.75000000000000000        0.0000000000000000     
   1.0000000000000000       0.75000000000000000        0.0000000000000000     
  0.87500000000000000       0.78125000000000000        0.0000000000000000     
  0.90625000000000000       0.78125000000000000        0.0000000000000000     
  0.93750000000000000       0.78125000000000000        0.0000000000000000     
  0.96875000000000000       0.78125000000000000        0.0000000000000000     
   1.0000000000000000       0.78125000000000000        0.0000000000000000     
  0.87500000000000000       0.81250000000000000        0.0000000000000000     
  0.90625000000000000       0.81250000000000000        0.0000000000000000     
  0.93750000000000000       0.81250000000000000        0.0000000000000000     
  0.96875000000000000       0.81250000000000000        0.0000000000000000     
   1.0000000000000000       0.81250000000000000        0.0000000000000000     
  0.87500000000000000       0.84375000000000000        0.0000000000000000     
  0.90625000000000000       0.84375000000000000        0.0000000000000000     
  0.93750000000000000       0.84375000000000000        0.0000000000000000     
  0.96875000000000000       0.84375000000000000        0.0000000000000000     
   1.0000000000000000       0.84375000000000000        0.0000000000000000     
  0.87500000000000000       0.87500000000000000        0.0000000000000000     
  0.90625000000000000       0.87500000000000000        0.0000000000000000     
  0.93750000000000000       0.87500000000000000        0.0000000000000000     
  0.96875000000000000       0.87500000000000000        0.0000000000000000     
   1.0000000000000000       0.87500000000000000        0.0000000000000000     
   1.0000000000000000       0.75000000000000000        0.0000000000000000     
   1.0312500000000000       0.75000000000000000        0.0000000000000000     
   1.0625000000000000       0.75000000000000000        0.0000000000000000     
   1.0937500000000000       0.75000000000000000        0.0000000000000000     
   1.1250000000000000       0.75000000000000000        0.0000000000000000     
   1.0000000000000000       0.78125000000000000        0.0000000000000000     
   1.0312500000000000       0.78125000000000000        0.0000000000000000     
   1.0625000000000000       0.78125000000000000        0.0000000000000000     
   1.0937500000000000       0.78125000000000000        0.0000000000000000     
   1.1250000000000000       0.78125000000000000        0.0000000000000000     
   1.0000000000000000       0.81250000000000000        0.0000000000000000     
   1.0312500000000000       0.81250000000000000        0.0000000000000000     
   1.0625000000000000       0.81250000000000000        0.0000000000000000     
   1.0937500000000000       0.81250000000000000        0.0000000000000000     
   1.1250000000000000       0.81250000000000000        0.0000000000000000     
   1.0000000000000000       0.84375000000000000        0.0000000000000000     
   1.0312500000000000       0.84375000000000000        0.0000000000000000     
   1.0625000000000000       0.84375000000000000        0.0000000000000000     
   1.0937500000000000       0.84375000000000000        0.0000000000000000     
   1.1250000000000000       0.84375000000000000        0.0000000000000000     
   1.0000000000000000       0.87500000000000000        0.0000000000000000     
   1.0312500000000000       0.87500000000000000        0.0000000000000000     
   1.0625000000000000       0.87500000000000000        0.0000000000000000     
   1.0937500000000000       0.87500000000000000        0.0000000000000000     
   1.1250000000000000       0.87500000000000000        0.0000000000000000     
   1.1250000000000000       0.75000000000000000        0.0000000000000000     
   1.1562500000000000       0.75000000000000000        0.0000000000000000     
   1.1875000000000000       0.75000000000000000        0.0000000000000000     
   1.2187500000000000       0.75000000000000000        0.0000000000000000     
   1.2500000000000000       0.75000000000000000        0.0000000000000000     
   1.1250000000000000       0.78125000000000000        0.0000000000000000     
   1.1562500000000000       0.78125000000000000        0.0000000000000000     
   1.1875000000000000       0.78125000000000000        0.0000000000000000     
   1.2187500000000000       0.78125000000000000        0.0000000000000000     
   1.2500000000000000       0.78125000000000000        0.0000000000000000     
   1.1250000000000000       0.81250000000000000        0.0000000000000000     
   1.1562500000000000       0.81250000000000000        0.0000000000000000     
   1.1875000000000000       0.81250000000000000        0.0000000000000000     
   1.2187500000000000       0.81250000000000000        0.0000000000000000     
   1.2500000000000000       0.81250000000000000        0.0000000000000000     
   1.1250000000000000       0.84375000000000000        0.0000000000000000     
   1.1562500000000000       0.84375000000000000        0.0000000000000000     
   1.1875000000000000       0.84375000000000000        0.0000000000000000     
   1.2187500000000000       0.84375000000000000        0.0000000000000000     
   1.2500000000000000       0.84375000000000000        0.0000000000000000     
   1.1250000000000000       0.87500000000000000        0.0000000000000000     
   1.1562500000000000       0.87500000000000000        0.0000000000000000     
   1.1875000000000000       0.87500000000000000        0.0000000000000000     
   1.2187500000000000       0.87500000000000000        0.0000000000000000     
   1.2500000000000000       0.87500000000000000        0.0000000000000000     
   1.2500000000000000       0.75000000000000000        0.0000000000000000     
   1.2812500000000000       0.75000000000000000        0.0000000000000000     
   1.3125000000000000       0.75000000000000000        0.0000000000000000     
   1.3437500000000000       0.75000000000000000        0.0000000000000000     
   1.3750000000000000       0.75000000000000000        0.0000000000000000     
   1.2500000000000000       0.78125000000000000        0.0000000000000000     
   1.2812500000000000       0.78125000000000000        0.0000000000000000     
   1.3125000000000000       0.78125000000000000        0.0000000000000000     
   1.3437500000000000       0.78125000000000000        0.0000000000000000     
   1.3750000000000000       0.78125000000000000        0.0000000000000000     
   1.2500000000000000       0.81250000000000000        0.0000000000000000     
   1.2812500000000000       0.81250000000000000        0.0000000000000000     
   1.3125000000000000       0.81250000000000000        0.0000000000000000     
   1.3437500000000000       0.81250000000000000        0.0000000000000000     
   1.3750000000000000       0.81250000000000000        0.0000000000000000     
   1.2500000000000000       0.84375000000000000        0.0000000000000000     
   1.2812500000000000       0.84375000000000000        0.0000000000000000     
   1.3125000000000000       0.84375000000000000        0.0000000000000000     
   1.3437500000000000       0.84375000000000000        0.0000000000000000     
   1.3750000000000000       0.84375000000000000        0.0000000000000000     
   1.2500000000000000       0.87500000000000000        0.0000000000000000     
   1.2812500000000000       0.87500000000000000        0.0000000000000000     
   1.3125000000000000       0.87500000000000000        0.0000000000000000     
   1.3437500000000000       0.87500000000000000        0.0000000000000000     
   1.3750000000000000       0.87500000000000000        0.0000000000000000     
   1.3750000000000000       0.75000000000000000        0.0000000000000000     
   1.4062500000000000       0.75000000000000000        0.0000000000000000     
   1.4375000000000000       0.75000000000000000        0.0000000000000000     
   1.4687500000000000       0.75000000000000000        0.0000000000000000     
   1.5000000000000000       0.75000000000000000        0.0000000000000000     
   1.3750000000000000       0.78125000000000000        0.0000000000000000     
   1.4062500000000000       0.78125000000000000        0.0000000000000000     
   1.4375000000000000       0.78125000000000000        0.0000000000000000     
   1.4687500000000000       0.78125000000000000        0.0000000000000000     
   1.5000000000000000       0.78125000000000000        0.0000000000000000     
   1.3750000000000000       0.81250000000000000        0.0000000000000000     
   1.4062500000000000       0.81250000000000000        0.0000000000000000     
   1.4375000000000000       0.81250000000000000        0.0000000000000000     
   1.4687500000000000       0.81250000000000000        0.0000000000000000     
   1.5000000000000000       0.81250000000000000        0.0000000000000000     
   1.3750000000000000       0.84375000000000000        0.0000000000000000     
   1.4062500000000000       0.84375000000000000        0.0000000000000000     
   1.4375000000000000       0.84375000000000000        0.0000000000000000     
   1.4687500000000000       0.84375000000000000        0.0000000000000000     
   1.5000000000000000       0.84375000000000000        0.0000000000000000     
   1.3750000000000000       0.87500000000000000        0.0000000000000000     
   1.4062500000000000       0.87500000000000000        0.0000000000000000     
   1.4375000000000000       0.87500000000000000        0.0000000000000000     
   1.4687500000000000       0.87500000000000000        0.0000000000000000     
   1.5000000000000000       0.87500000000000000        0.0000000000000000     
  0.50000000000000000       0.87500000000000000        0.0000000000000000     
  0.53125000000000000       0.87500000000000000        0.0000000000000000     
  0.56250000000000000       0.87500000000000000        0.0000000000000000     
  0.59375000000000000       0.87500000000000000        0.0000000000000000     
  0.62500000000000000       0.87500000000000000        0.0000000000000000     
  0.50000000000000000       0.90625000000000000        0.0000000000000000     
  0.53125000000000000       0.90625000000000000        0.0000000000000000     
  0.56250000000000000       0.90625000000000000        0.0000000000000000     
  0.59375000000000000       0.90625000000000000        0.0000000000000000     
  0.62500000000000000       0.90625000000000000        0.0000000000000000     
  0.50000000000000000       0.93750000000000000        0.0000000000000000     
  0.53125000000000000       0.93750000000000000        0.0000000000000000     
  0.56250000000000000       0.93750000000000000        0.0000000000000000     
  0.59375000000000000       0.93750000000000000        0.0000000000000000     
  0.62500000000000000       0.93750000000000000        0.0000000000000000     
  0.50000000000000000       0.96875000000000000        0.0000000000000000     
  0.53125000000000000       0.96875000000000000        0.0000000000000000     
  0.56250000000000000       0.96875000000000000        0.0000000000000000     
  0.59375000000000000       0.96875000000000000        0.0000000000000000     
  0.62500000000000000       0.96875000000000000        0.0000000000000000     
  0.50000000000000000        1.0000000000000000        0.0000000000000000     
  0.53125000000000000        1.0000000000000000        0.0000000000000000     
  0.56250000000000000        1.0000000000000000        0.0000000000000000     
  0.59375000000000000        1.0000000000000000        0.0000000000000000     
  0.62500000000000000        1.0000000000000000        0.0000000000000000     
  0.62500000000000000       0.87500000000000000        0.0000000000000000     
  0.65625000000000000       0.87500000000000000        0.0000000000000000     
  0.68750000000000000       0.87500000000000000        0.0000000000000000     
  0.71875000000000000       0.87500000000000000        0.0000000000000000     
  0.75000000000000000       0.87500000000000000        0.0000000000000000     
  0.62500000000000000       0.90625000000000000        0.0000000000000000     
  0.65625000000000000       0.90625000000000000        0.0000000000000000     
  0.68750000000000000       0.90625000000000000        0.0000000000000000     
  0.71875000000000000       0.90625000000000000        0.0000000000000000     
  0.75000000000000000       0.90625000000000000        0.0000000000000000     
  0.62500000000000000       0.93750000000000000        0.0000000000000000     
  0.65625000000000000       0.93750000000000000        0.0000000000000000     
  0.68750000000000000       0.93750000000000000        0.0000000000000000     
  0.71875000000000000       0.93750000000000000        0.0000000000000000     
  0.75000000000000000       0.93750000000000000        0.0000000000000000     
  0.62500000000000000       0.96875000000000000        0.0000000000000000     
  0.65625000000000000       0.96875000000000000        0.0000000000000000     
  0.68750000000000000       0.96875000000000000        0.0000000000000000     
  0.71875000000000000       0.96875000000000000        0.0000000000000000     
  0.75000000000000000       0.96875000000000000        0.0000000000000000     
  0.62500000000000000        1.0000000000000000        0.0000000000000000     
  0.65625000000000000        1.0000000000000000        0.0000000000000000     
  0.68750000000000000        1.0000000000000000        0.0000000000000000     
  0.71875000000000000        1.0000000000000000        0.0000000000000000     
  0.75000000000000000        1.0000000000000000        0.0000000000000000     
  0.75000000000000000       0.87500000000000000        0.0000000000000000     
  0.78125000000000000       0.87500000000000000        0.0000000000000000     
  0.81250000000000000       0.87500000000000000        0.0000000000000000     
  0.84375000000000000       0.87500000000000000        0.0000000000000000     
  0.87500000000000000       0.87500000000000000        0.0000000000000000     
  0.75000000000000000       0.90625000000000000        0.0000000000000000     
  0.78125000000000000       0.90625000000000000        0.0000000000000000     
  0.81250000000000000       0.90625000000000000        0.0000000000000000     
  0.84375000000000000       0.90625000000000000        0.0000000000000000     
  0.87500000000000000       0.90625000000000000        0.0000000000000000     
  0.75000000000000000       0.93750000000000000        0.0000000000000000     
  0.78125000000000000       0.93750000000000000        0.0000000000000000     
  0.81250000000000000       0.93750000000000000        0.0000000000000000     
  0.84375000000000000       0.93750000000000000        0.0000000000000000     
  0.87500000000000000       0.93750000000000000        0.0000000000000000     
  0.75000000000000000       0.96875000000000000        0.0000000000000000     
  0.78125000000000000       0.96875000000000000        0.0000000000000000     
  0.81250000000000000       0.96875000000000000        0.0000000000000000     
  0.84375000000000000       0.96875000000000000        0.0000000000000000     
  0.87500000000000000       0.96875000000000000        0.0000000000000000     
  0.75000000000000000        1.0000000000000000        0.0000000000000000     
  0.78125000000000000        1.0000000000000000        0.0000000000000000     
  0.81250000000000000        1.0000000000000000        0.0000000000000000     
  0.84375000000000000        1.0000000000000000        0.0000000000000000     
  0.87500000000000000        1.0000000000000000        0.0000000000000000     
  0.87500000000000000       0.87500000000000000        0.0000000000000000     
  0.90625000000000000       0.87500000000000000        0.0000000000000000     
  0.93750000000000000       0.87500000000000000        0.0000000000000000     
  0.96875000000000000       0.87500000000000000        0.0000000000000000     
   1.0000000000000000       0.87500000000000000        0.0000000000000000     
  0.87500000000000000       0.90625000000000000        0.0000000000000000     
  0.90625000000000000       0.90625000000000000        0.0000000000000000     
  0.93750000000000000       0.90625000000000000        0.0000000000000000     
  0.96875000000000000       0.90625000000000000        0.0000000000000000     
   1.0000000000000000       0.90625000000000000        0.0000000000000000     
  0.87500000000000000       0.93750000000000000        0.0000000000000000     
  0.90625000000000000       0.93750000000000000        0.0000000000000000     
  0.93750000000000000       0.93750000000000000        0.0000000000000000     
  0.96875000000000000       0.93750000000000000        0.0000000000000000     
   1.0000000000000000       0.93750000000000000        0.0000000000000000     
  0.87500000000000000       0.96875000000000000        0.0000000000000000     
  0.90625000000000000       0.96875000000000000        0.0000000000000000     
  0.93750000000000000       0.96875000000000000        0.0000000000000000     
  0.96875000000000000       0.96875000000000000        0.0000000000000000     
   1.0000000000000000       0.96875000000000000        0.0000000000000000     
  0.87500000000000000        1.0000000000000000        0.0000000000000000     
  0.90625000000000000        1.0000000000000000        0.0000000000000000     
  0.93750000000000000        1.0000000000000000        0.0000000000000000     
  0.96875000000000000        1.0000000000000000        0.0000000000000000     
   1.0000000000000000        1.0000000000000000        0.0000000000000000     
   1.0000000000000000       0.87500000000000000        0.0000000000000000     
   1.0312500000000000       0.87500000000000000        0.0000000000000000     
   1.0625000000000000       0.87500000000000000        0.0000000000000000     
   1.0937500000000000       0.87500000000000000        0.0000000000000000     
   1.1250000000000000       0.87500000000000000        0.0000000000000000     
   1.0000000000000000       0.90625000000000000        0.0000000000000000     
   1.0312500000000000       0.90625000000000000        0.0000000000000000     
   1.0625000000000000       0.90625000000000000        0.0000000000000000     
   1.0937500000000000       0.90625000000000000        0.0000000000000000     
   1.1250000000000000       0.90625000000000000        0.0000000000000000     
   1.0000000000000000       0.93750000000000000        0.0000000000000000     
   1.0312500000000000       0.93750000000000000        0.0000000000000000     
   1.0625000000000000       0.93750000000000000        0.0000000000000000     
   1.0937500000000000       0.93750000000000000        0.0000000000000000     
   1.1250000000000000       0.93750000000000000        0.0000000000000000     
   1.0000000000000000       0.96875000000000000        0.0000000000000000     
   1.0312500000000000       0.96875000000000000        0.0000000000000000     
   1.0625000000000000       0.96875000000000000        0.0000000000000000     
   1.0937500000000000       0.96875000000000000        0.0000000000000000     
   1.1250000000000000       0.96875000000000000        0.0000000000000000     
   1.0000000000000000        1.0000000000000000        0.0000000000000000     
   1.0312500000000000        1.0000000000000000        0.0000000000000000     
   1.0625000000000000        1.0000000000000000        0.0000000000000000     
   1.0937500000000000        1.0000000000000000        0.0000000000000000     
   1.1250000000000000        1.0000000000000000        0.0000000000000000     
   1.1250000000000000       0.87500000000000000        0.0000000000000000     
   1.1562500000000000       0.87500000000000000        0.0000000000000000     
   1.1875000000000000       0.87500000000000000        0.0000000000000000     
   1.2187500000000000       0.87500000000000000        0.0000000000000000     
   1.2500000000000000       0.87500000000000000        0.0000000000000000     
   1.1250000000000000       0.90625000000000000        0.0000000000000000     
   1.1562500000000000       0.90625000000000000        0.0000000000000000     
   1.1875000000000000       0.90625000000000000        0.0000000000000000     
   1.2187500000000000       0.90625000000000000        0.0000000000000000     
   1.2500000000000000       0.90625000000000000        0.0000000000000000     
   1.1250000000000000       0.93750000000000000        0.0000000000000000     
   1.1562500000000000       0.93750000000000000        0.0000000000000000     
   1.1875000000000000       0.93750000000000000        0.0000000000000000     
   1.2187500000000000       0.93750000000000000        0.0000000000000000     
   1.2500000000000000       0.93750000000000000        0.0000000000000000     
   1.1250000000000000       0.96875000000000000        0.0000000000000000     
   1.1562500000000000       0.96875000000000000        0.0000000000000000     
   1.1875000000000000       0.96875000000000000        0.0000000000000000     
   1.2187500000000000       0.96875000000000000        0.0000000000000000     
   1.2500000000000000       0.96875000000000000        0.0000000000000000     
   1.1250000000000000        1.0000000000000000        0.0000000000000000     
   1.1562500000000000        1.0000000000000000        0.0000000000000000     
   1.1875000000000000        1.0000000000000000        0.0000000000000000     
   1.2187500000000000        1.0000000000000000        0.0000000000000000     
   1.2500000000000000        1.0000000000000000        0.0000000000000000     
   1.2500000000000000       0.87500000000000000        0.0000000000000000     
   1.2812500000000000       0.87500000000000000        0.0000000000000000     
   1.3125000000000000       0.87500000000000000        0.0000000000000000     
   1.3437500000000000       0.87500000000000000        0.0000000000000000     
   1.3750000000000000       0.87500000000000000        0.0000000000000000     
   1.2500000000000000       0.90625000000000000        0.0000000000000000     
   1.2812500000000000       0.90625000000000000        0.0000000000000000     
   1.3125000000000000       0.90625000000000000        0.0000000000000000     
   1.3437500000000000       0.90625000000000000        0.0000000000000000     
   1.3750000000000000       0.90625000000000000        0.0000000000000000     
   1.2500000000000000       0.93750000000000000        0.0000000000000000     
   1.2812500000000000       0.93750000000000000        0.0000000000000000     
   1.3125000000000000       0.93750000000000000        0.0000000000000000     
   1.3437500000000000       0.93750000000000000        0.0000000000000000     
   1.3750000000000000       0.93750000000000000        0.0000000000000000     
   1.2500000000000000       0.96875000000000000        0.0000000000000000     
   1.2812500000000000       0.96875000000000000        0.0000000000000000     
   1.3125000000000000       0.96875000000000000        0.0000000000000000     
   1.3437500000000000       0.96875000000000000        0.0000000000000000     
   1.3750000000000000       0.96875000000000000        0.0000000000000000     
   1.2500000000000000        1.0000000000000000        0.0000000000000000     
   1.2812500000000000        1.0000000000000000        0.0000000000000000     
   1.3125000000000000        1.0000000000000000        0.0000000000000000     
   1.3437500000000000        1.0000000000000000        0.0000000000000000     
   1.3750000000000000        1.0000000000000000        0.0000000000000000     
   1.3750000000000000       0.87500000000000000        0.0000000000000000     
   1.4062500000000000       0.87500000000000000        0.0000000000000000     
   1.4375000000000000       0.87500000000000000        0.0000000000000000     
   1.4687500000000000       0.87500000000000000        0.0000000000000000     
   1.5000000000000000       0.87500000000000000        0.0000000000000000     
   1.3750000000000000       0.90625000000000000        0.0000000000000000     
   1.4062500000000000       0.90625000000000000        0.0000000000000000     
   1.4375000000000000       0.90625000000000000        0.0000000000000000     
   1.4687500000000000       0.90625000000000000        0.0000000000000000     
   1.5000000000000000       0.90625000000000000        0.0000000000000000     
   1.3750000000000000       0.93750000000000000        0.0000000000000000     
   1.4062500000000000       0.93750000000000000        0.0000000000000000     
   1.4375000000000000       0.93750000000000000        0.0000000000000000     
   1.4687500000000000       0.93750000000000000        0.0000000000000000     
   1.5000000000000000       0.93750000000000000        0.0000000000000000     
   1.3750000000000000       0.96875000000000000        0.0000000000000000     
   1.4062500000000000       0.96875000000000000        0.0000000000000000     
   1.4375000000000000       0.96875000000000000        0.0000000000000000     
   1.4687500000000000       0.96875000000000000        0.0000000000000000     
   1.5000000000000000       0.96875000000000000        0.0000000000000000     
   1.3750000000000000        1.0000000000000000        0.0000000000000000     
   1.4062500000000000        1.0000000000000000        0.0000000000000000     
   1.4375000000000000        1.0000000000000000        0.0000000000000000     
   1.4687500000000000        1.0000000000000000        0.0000000000000000     
   1.5000000000000000        1.0000000000000000        0.0000000000000000     
 </DataArray>
 </Points>
 <Cells>
 <DataArray  type="Int32"  Name="connectivity"  format="ascii">
           0           1           6           5
           1           2           7           6
           2           3           8           7
           3           4           9           8
           5           6          11          10
           6           7          12          11
           7           8          13          12
           8           9          14          13
          10          11          16          15
          11          12          17          16
          12          13          18          17
          13          14          19          18
          15          16          21          20
          16          17          22          21
          17          18          23          22
          18          19          24          23
          25          26          31          30
          26          27          32          31
          27          28          33          32
          28          29          34          33
          30          31          36          35
          31          32          37          36
          32          33          38          37
          33          34          39          38
          35          36          41          40
          36          37          42          41
          37          38          43          42
          38          39          44          43
          40          41          46          45
          41          42          47          46
          42          43          48          47
          43          44          49          48
          50          51          56          55
          51          52          57          56
          52          53          58          57
          53          54          59          58
          55          56          61          60
          56          57          62          61
          57          58          63          62
          58          59          64          63
          60          61          66          65
          61          62          67          66
          62          63          68          67
          63          64          69          68
          65          66          71          70
          66          67          72          71
          67          68          73          72
          68          69          74          73
          75          76          81          80
          76          77          82          81
          77          78          83          82
          78          79          84          83
          80          81          86          85
          81          82          87          86
          82          83          88          87
          83          84          89          88
          85          86          91          90
          86          87          92          91
          87          88          93          92
          88          89          94          93
          90          91          96          95
          91          92          97          96
          92          93          98          97
          93          94          99          98
         100         101         106         105
         101         102         107         106
         102         103         108         107
         103         104         109         108
         105         106         111         110
         106         107         112         111
         107         108         113         112
         108         109         114         113
         110         111         116         115
         111         112         117         116
         112         113         118         117
         113         114         119         118
         115         116         121         120
         116         117         122         121
         117         118         123         122
         118         119         124         123
         125         126         131         130
         126         127         132         131
         127         128         133         132
         128         129         134         133
         130         131         136         135
         131         132         137         136
         132         133         138         137
         133         134         139         138
         135         136         141         140
         136         137         142         141
         137         138         143         142
         138         139         144         143
         140         141         146         145
         141         142         147         146
         142         143         148         147
         143         144         149         148
         150         151         156         155
         151         152         157         156
         152         153         158         157
         153         154         159         158
         155         156         161         160
         156         157         162         161
         157         158         163         162
         158         159         164         163
         160         161         166         165
         161         162         167         166
         162         163         168         167
         163         164         169         168
         165         166         171         170
         166         167         172         171
         167         168         173         172
         168         169         174         173
         175         176         181         180
         176         177         182         181
         177         178         183         182
         178         179         184         183
         180         181         186         185
         181         182         187         186
         182         183         188         187
         183         184         189         188
         185         186         191         190
         186         187         192         191
         187         188         193         192
         188         189         194         193
         190         191         196         195
         191         192         197         196
         192         193         198         197
         193         194         199         198
         200         201         206         205
         201         202         207         206
         202         203         208         207
         203         204         209         208
         205         206         211         210
         206         207         212         211
         207         208         213         212
         208         209         214         213
         210         211         216         215
         211         212         217         216
         212         213         218         217
         213         214         219         218
         215         216         221         220
         216         217         222         221
         217         218         223         222
         218         219         224         223
         225         226         231         230
         226         227         232         231
         227         228         233         232
         228         229         234         233
         230         231         236         235
         231         232         237         236
         232         233         238         237
         233         234         239         238
         235         236         241         240
         236         237         242         241
         237         238         243         242
         238         239         244         243
         240         241         246         245
         241         242         247         246
         242         243         248         247
         243         244         249         248
         250         251         256         255
         251         252         257         256
         252         253         258         257
         253         254         259         258
         255         256         261         260
         256         257         262         261
         257         258         263         262
         258         259         264         263
         260         261         266         265
         261         262         267         266
         262         263         268         267
         263         264         269         268
         265         266         271         270
         266         267         272         271
         267         268         273         272
         268         269         274         273
         275         276         281         280
         276         277         282         281
         277         278         283         282
         278         279         284         283
         280         281         286         285
         281         282         287         286
         282         283         288         287
         283         284         289         288
         285         286         291         290
         286         287         292         291
         287         288         293         292
         288         289         294         293
         290         291         296         295
         291         292         297         296
         292         293         298         297
         293         294         299         298
         300         301         306         305
         301         302         307         306
         302         303         308         307
         303         304         309         308
         305         306         311         310
         306         307         312         311
         307         308         313         312
         308         309         314         313
         310         311         316         315
         311         312         317         316
         312         313         318         317
         313         314         319         318
         315         316         321         320
         316         317         322         321
         317         318         323         322
         318         319         324         323
         325         326         331         330
         326         327         332         331
         327         328         333         332
         328         329         334         333
         330         331         336         335
         331         332         337         336
         332         333         338         337
         333         334         339         338
         335         336         341         340
         336         337         342         341
         337         338         343         342
         338         339         344         343
         340         341         346         345
         341         342         347         346
         342         343         348         347
         343         344         349         348
         350         351         356         355
         351         352         357         356
         352         353         358         357
         353         354         359         358
         355         356         361         360
         356         357         362         361
         357         358         363         362
         358         359         364         363
         360         361         366         365
         361         362         367         366
         362         363         368         367
         363         364         369         368
         365         366         371         370
         366         367         372         371
         367         368         373         372
         368         369         374         373
         375         376         381         380
         376         377         382         381
         377         378         383         382
         378         379         384         383
         380         381         386         385
         381         382         387         386
         382         383         388         387
         383         384         389         388
         385         386         391         390
         386         387         392         391
         387         388         393         392
         388         389         394         393
         390         391         396         395
         391         392         397         396
         392         393         398         397
         393         394         399         398
         400         401         406         405
         401         402         407         406
         402         403         408         407
         403         404         409         408
         405         406         411         410
         406         407         412         411
         407         408         413         412
         408         409         414         413
         410         411         416         415
         411         412         417         416
         412         413         418         417
         413         414         419         418
         415         416         421         420
         416         417         422         421
         417         418         423         422
         418         419         424         423
         425         426         431         430
         426         427         432         431
         427         428         433         432
         428         429         434         433
         430         431         436         435
         431         432         437         436
         432         433         438         437
         433         434         439         438
         435         436         441         440
         436         437         442         441
         437         438         443         442
         438         439         444         443
         440         441         446         445
         441         442         447         446
         442         443         448         447
         443         444         449         448
         450         451         456         455
         451         452         457         456
         452         453         458         457
         453         454         459         458
         455         456         461         460
         456         457         462         461
         457         458         463         462
         458         459         464         463
         460         461         466         465
         461         462         467         466
         462         463         468         467
         463         464         469         468
         465         466         471         470
         466         467         472         471
         467         468         473         472
         468         469         474         473
         475         476         481         480
         476         477         482         481
         477         478         483         482
         478         479         484         483
         480         481         486         485
         481         482         487         486
         482         483         488         487
         483         484         489         488
         485         486         491         490
         486         487         492         491
         487         488         493         492
         488         489         494         493
         490         491         496         495
         491         492         497         496
         492         493         498         497
         493         494         499         498
         500         501         506         505
         501         502         507         506
         502         503         508         507
         503         504         509         508
         505         506         511         510
         506         507         512         511
         507         508         513         512
         508         509         514         513
         510         511         516         515
         511         512         517         516
         512         513         518         517
         513         514         519         518
         515         516         521         520
         516         517         522         521
         517         518         523         522
         518         519         524         523
         525         526         531         530
         526         527         532         531
         527         528         533         532
         528         529         534         533
         530         531         536         535
         531         532         537         536
         532         533         538         537
         533         534         539         538
         535         536         541         540
         536         537         542         541
         537         538         543         542
         538         539         544         543
         540         541         546         545
         541         542         547         546
         542         543         548         547
         543         544         549         548
         550         551         556         555
         551         552         557         556
         552         553         558         557
         553         554         559         558
         555         556         561         560
         556         557         562         561
         557         558         563         562
         558         559         564         563
         560         561         566         565
         561         562         567         566
         562         563         568         567
         563         564         569         568
         565         566         571         570
         566         567         572         571
         567         568         573         572
         568         569         574         573
         575         576         581         580
         576         577         582         581
         577         578         583         582
         578         579         584         583
         580         581         586         585
         581         582         587         586
         582         583         588         587
         583         584         589         588
         585         586         591         590
         586         587         592         591
         587         588         593         592
         588         589         594         593
         590         591         596         595
         591         592         597         596
         592         593         598         597
         593         594         599         598
         600         601         606         605
         601         602         607         606
         602         603         608         607
         603         604         609         608
         605         606         611         610
         606         607         612         611
         607         608         613         612
         608         609         614         613
         610         611         616         615
         611         612         617         616
         612         613         618         617
         613         614         619         618
         615         616         621         620
         616         617         622         621
         617         618         623         622
         618         619         624         623
         625         626         631         630
         626         627         632         631
         627         628         633         632
         628         629         634         633
         630         631         636         635
         631         632         637         636
         632         633         638         637
         633         634         639         638
         635         636         641         640
         636         637         642         641
         637         638         643         642
         638         639         644         643
         640         641         646         645
         641         642         647         646
         642         643         648         647
         643         644         649         648
         650         651         656         655
         651         652         657         656
         652         653         658         657
         653         654         659         658
         655         656         661         660
         656         657         662         661
         657         658         663         662
         658         659         664         663
         660         661         666         665
         661         662         667         666
         662         663         668         667
         663         664         669         668
         665         666         671         670
         666         667         672         671
         667         668         673         672
         668         669         674         673
         675         676         681         680
         676         677         682         681
         677         678         683         682
         678         679         684         683
         680         681         686         685
         681         682         687         686
         682         683         688         687
         683         684         689         688
         685         686         691         690
         686         687         692         691
         687         688         693         692
         688         689         694         693
         690         691         696         695
         691         692         697         696
         692         693         698         697
         693         694         699         698
         700         701         706         705
         701         702         707         706
         702         703         708         707
         703         704         709         708
         705         706         711         710
         706         707         712         711
         707         708         713         712
         708         709         714         713
         710         711         716         715
         711         712         717         716
         712         713         718         717
         713         714         719         718
         715         716         721         720
         716         717         722         721
         717         718         723         722
         718         719         724         723
         725         726         731         730
         726         727         732         731
         727         728         733         732
         728         729         734         733
         730         731         736         735
         731         732         737         736
         732         733         738         737
         733         734         739         738
         735         736         741         740
         736         737         742         741
         737         738         743         742
         738         739         744         743
         740         741         746         745
         741         742         747         746
         742         743         748         747
         743         744         749         748
         750         751         756         755
         751         752         757         756
         752         753         758         757
         753         754         759         758
         755         756         761         760
         756         757         762         761
         757         758         763         762
         758         759         764         763
         760         761         766         765
         761         762         767         766
         762         763         768         767
         763         764         769         768
         765         766         771         770
         766         767         772         771
         767         768         773         772
         768         769         774         773
         775         776         781         780
         776         777         782         781
         777         778         783         782
         778         779         784         783
         780         781         786         785
         781         782         787         786
         782         783         788         787
         783         784         789         788
         785         786         791         790
         786         787         792         791
         787         788         793         792
         788         789         794         793
         790         791         796         795
         791         792         797         796
         792         793         798         797
         793         794         799         798
         800         801         806         805
         801         802         807         806
         802         803         808         807
         803         804         809         808
         805         806         811         810
         806         807         812         811
         807         808         813         812
         808         809         814         813
         810         811         816         815
         811         812         817         816
         812         813         818         817
         813         814         819         818
         815         816         821         820
         816         817         822         821
         817         818         823         822
         818         819         824         823
         825         826         831         830
         826         827         832         831
         827         828         833         832
         828         829         834         833
         830         831         836         835
         831         832         837         836
         832         833         838         837
         833         834         839         838
         835         836         841         840
         836         837         842         841
         837         838         843         842
         838         839         844         843
         840         841         846         845
         841         842         847         846
         842         843         848         847
         843         844         849         848
         850         851         856         855
         851         852         857         856
         852         853         858         857
         853         854         859         858
         855         856         861         860
         856         857         862         861
         857         858         863         862
         858         859         864         863
         860         861         866         865
         861         862         867         866
         862         863         868         867
         863         864         869         868
         865         866         871         870
         866         867         872         871
         867         868         873         872
         868         869         874         873
         875         876         881         880
         876         877         882         881
         877         878         883         882
         878         879         884         883
         880         881         886         885
         881         882         887         886
         882         883         888         887
         883         884         889         888
         885         886         891         890
         886         887         892         891
         887         888         893         892
         888         889         894         893
         890         891         896         895
         891         892         897         896
         892         893         898         897
         893         894         899         898
         900         901         906         905
         901         902         907         906
         902         903         908         907
         903         904         909         908
         905         906         911         910
         906         907         912         911
         907         908         913         912
         908         909         914         913
         910         911         916         915
         911         912         917         916
         912         913         918         917
         913         914         919         918
         915         916         921         920
         916         917         922         921
         917         918         923         922
         918         919         924         923
         925         926         931         930
         926         927         932         931
         927         928         933         932
         928         929         934         933
         930         931         936         935
         931         932         937         936
         932         933         938         937
         933         934         939         938
         935         936         941         940
         936         937         942         941
         937         938         943         942
         938         939         944         943
         940         941         946         945
         941         942         947         946
         942         943         948         947
         943         944         949         948
         950         951         956         955
         951         952         957         956
         952         953         958         957
         953         954         959         958
         955         956         961         960
         956         957         962         961
         957         958         963         962
         958         959         964         963
         960         961         966         965
         961         962         967         966
         962         963         968         967
         963         964         969         968
         965         966         971         970
         966         967         972         971
         967         968         973         972
         968         969         974         973
         975         976         981         980
         976         977         982         981
         977         978         983         982
         978         979         984         983
         980         981         986         985
         981         982         987         986
         982         983         988         987
         983         984         989         988
         985         986         991         990
         986         987         992         991
         987         988         993         992
         988         989         994         993
         990         991         996         995
         991         992         997         996
         992         993         998         997
         993         994         999         998
        1000        1001        1006        1005
        1001        1002        1007        1006
        1002        1003        1008        1007
        1003        1004        1009        1008
        1005        1006        1011        1010
        1006        1007        1012        1011
        1007        1008        1013        1012
        1008        1009        1014        1013
        1010        1011        1016        1015
        1011        1012        1017        1016
        1012        1013        1018        1017
        1013        1014        1019        1018
        1015        1016        1021        1020
        1016        1017        1022        1021
        1017        1018        1023        1022
        1018        1019        1024        1023
        1025        1026        1031        1030
        1026        1027        1032        1031
        1027        1028        1033        1032
        1028        1029        1034        1033
        1030        1031        1036        1035
        1031        1032        1037        1036
        1032        1033        1038        1037
        1033        1034        1039        1038
        1035        1036        1041        1040
        1036        1037        1042        1041
        1037        1038        1043        1042
        1038        1039        1044        1043
        1040        1041        1046        1045
        1041        1042        1047        1046
        1042        1043        1048        1047
        1043        1044        1049        1048
        1050        1051        1056        1055
        1051        1052        1057        1056
        1052        1053        1058        1057
        1053        1054        1059        1058
        1055        1056        1061        1060
        1056        1057        1062        1061
        1057        1058        1063        1062
        1058        1059        1064        1063
        1060        1061        1066        1065
        1061        1062        1067        1066
        1062        1063        1068        1067
        1063        1064        1069        1068
        1065        1066        1071        1070
        1066        1067        1072        1071
        1067        1068        1073        1072
        1068        1069        1074        1073
        1075        1076        1081        1080
        1076        1077        1082        1081
        1077        1078        1083        1082
        1078        1079        1084        1083
        1080        1081        1086        1085
        1081        1082        1087        1086
        1082        1083        1088        1087
        1083        1084        1089        1088
        1085        1086        1091        1090
        1086        1087        1092        1091
        1087        1088        1093        1092
        1088        1089        1094        1093
        1090        1091        1096        1095
        1091        1092        1097        1096
        1092        1093        1098        1097
        1093        1094        1099        1098
        1100        1101        1106        1105
        1101        1102        1107        1106
        1102        1103        1108        1107
        1103        1104        1109        1108
        1105        1106        1111        1110
        1106        1107        1112        1111
        1107        1108        1113        1112
        1108        1109        1114        1113
        1110        1111        1116        1115
        1111        1112        1117        1116
        1112        1113        1118        1117
        1113        1114        1119        1118
        1115        1116        1121        1120
        1116        1117        1122        1121
        1117        1118        1123        1122
        1118        1119        1124        1123
        1125        1126        1131        1130
        1126        1127        1132        1131
        1127        1128        1133        1132
        1128        1129        1134        1133
        1130        1131        1136        1135
        1131        1132        1137        1136
        1132        1133        1138        1137
        1133        1134        1139        1138
        1135        1136        1141        1140
        1136        1137        1142        1141
        1137        1138        1143        1142
        1138        1139        1144        1143
        1140        1141        1146        1145
        1141        1142        1147        1146
        1142        1143        1148        1147
        1143        1144        1149        1148
        1150        1151        1156        1155
        1151        1152        1157        1156
        1152        1153        1158        1157
        1153        1154        1159        1158
        1155        1156        1161        1160
        1156        1157        1162        1161
        1157        1158        1163        1162
        1158        1159        1164        1163
        1160        1161        1166        1165
        1161        1162        1167        1166
        1162        1163        1168        1167
        1163        1164        1169        1168
        1165        1166        1171        1170
        1166        1167        1172        1171
        1167        1168        1173        1172
        1168        1169        1174        1173
        1175        1176        1181        1180
        1176        1177        1182        1181
        1177        1178        1183        1182
        1178        1179        1184        1183
        1180        1181        1186        1185
        1181        1182        1187        1186
        1182        1183        1188        1187
        1183        1184        1189        1188
        1185        1186        1191        1190
        1186        1187        1192        1191
        1187        1188        1193        1192
        1188        1189        1194        1193
        1190        1191        1196        1195
        1191        1192        1197        1196
        1192        1193        1198        1197
        1193        1194        1199        1198
        1200        1201        1206        1205
        1201        1202        1207        1206
        1202        1203        1208        1207
        1203        1204        1209        1208
        1205        1206        1211        1210
        1206        1207        1212        1211
        1207        1208        1213        1212
        1208        1209        1214        1213
        1210        1211        1216        1215
        1211        1212        1217        1216
        1212        1213        1218        1217
        1213        1214        1219        1218
        1215        1216        1221        1220
        1216        1217        1222        1221
        1217        1218        1223        1222
        1218        1219        1224        1223
        1225        1226        1231        1230
        1226        1227        1232        1231
        1227        1228        1233        1232
        1228        1229        1234        1233
        1230        1231        1236        1235
        1231        1232        1237        1236
        1232        1233        1238        1237
        1233        1234        1239        1238
        1235        1236        1241        1240
        1236        1237        1242        1241
        1237        1238        1243        1242
        1238        1239        1244        1243
        1240        1241        1246        1245
        1241        1242        1247        1246
        1242        1243        1248        1247
        1243        1244        1249        1248
        1250        1251        1256        1255
        1251        1252        1257        1256
        1252        1253        1258        1257
        1253        1254        1259        1258
        1255        1256        1261        1260
        1256        1257        1262        1261
        1257        1258        1263        1262
        1258        1259        1264        1263
        1260        1261        1266        1265
        1261        1262        1267        1266
        1262        1263        1268        1267
        1263        1264        1269        1268
        1265        1266        1271        1270
        1266        1267        1272        1271
        1267        1268        1273        1272
        1268        1269        1274        1273
        1275        1276        1281        1280
        1276        1277        1282        1281
        1277        1278        1283        1282
        1278        1279        1284        1283
        1280        1281        1286        1285
        1281        1282        1287        1286
        1282        1283        1288        1287
        1283        1284        1289        1288
        1285        1286        1291        1290
        1286        1287        1292        1291
        1287        1288        1293        1292
        1288        1289        1294        1293
        1290        1291        1296        1295
        1291        1292        1297        1296
        1292        1293        1298        1297
        1293        1294        1299        1298
        1300        1301        1306        1305
        1301        1302        1307        1306
        1302        1303        1308        1307
        1303        1304        1309        1308
        1305        1306        1311        1310
        1306        1307        1312        1311
        1307        1308        1313        1312
        1308        1309        1314        1313
        1310        1311        1316        1315
        1311        1312        1317        1316
        1312        1313        1318        1317
        1313        1314        1319        1318
        1315        1316        1321        1320
        1316        1317        1322        1321
        1317        1318        1323        1322
        1318        1319        1324        1323
        1325        1326        1331        1330
        1326        1327        1332        1331
        1327        1328        1333        1332
        1328        1329        1334        1333
        1330        1331        1336        1335
        1331        1332        1337        1336
        1332        1333        1338        1337
        1333        1334        1339        1338
        1335        1336        1341        1340
        1336        1337        1342        1341
        1337        1338        1343        1342
        1338        1339        1344        1343
        1340        1341        1346        1345
        1341        1342        1347        1346
        1342        1343        1348        1347
        1343        1344        1349        1348
        1350        1351        1356        1355
        1351        1352        1357        1356
        1352        1353        1358        1357
        1353        1354        1359        1358
        1355        1356        1361        1360
        1356        1357        1362        1361
        1357        1358        1363        1362
        1358        1359        1364        1363
        1360        1361        1366        1365
        1361        1362        1367        1366
        1362        1363        1368        1367
        1363        1364        1369        1368
        1365        1366        1371        1370
        1366        1367        1372        1371
        1367        1368        1373        1372
        1368        1369        1374        1373
        1375        1376        1381        1380
        1376        1377        1382        1381
        1377        1378        1383        1382
        1378        1379        1384        1383
        1380        1381        1386        1385
        1381        1382        1387        1386
        1382        1383        1388        1387
        1383        1384        1389        1388
        1385        1386        1391        1390
        1386        1387        1392        1391
        1387        1388        1393        1392
        1388        1389        1394        1393
        1390        1391        1396        1395
        1391        1392        1397        1396
        1392        1393        1398        1397
        1393        1394        1399        1398
        1400        1401        1406        1405
        1401        1402        1407        1406
        1402        1403        1408        1407
        1403        1404        1409        1408
        1405        1406        1411        1410
        1406        1407        1412        1411
        1407        1408        1413        1412
        1408        1409        1414        1413
        1410        1411        1416        1415
        1411        1412        1417        1416
        1412        1413        1418        1417
        1413        1414        1419        1418
        1415        1416        1421        1420
        1416        1417        1422        1421
        1417        1418        1423        1422
        1418        1419        1424        1423
        1425        1426        1431        1430
        1426        1427        1432        1431
        1427        1428        1433        1432
        1428        1429        1434        1433
        1430        1431        1436        1435
        1431        1432        1437        1436
        1432        1433        1438        1437
        1433        1434        1439        1438
        1435        1436        1441        1440
        1436        1437        1442        1441
        1437        1438        1443        1442
        1438        1439        1444        1443
        1440        1441        1446        1445
        1441        1442        1447        1446
        1442        1443        1448        1447
        1443        1444        1449        1448
        1450        1451        1456        1455
        1451        1452        1457        1456
        1452        1453        1458        1457
        1453        1454        1459        1458
        1455        1456        1461        1460
        1456        1457        1462        1461
        1457        1458        1463        1462
        1458        1459        1464        1463
        1460        1461        1466        1465
        1461        1462        1467        1466
        1462        1463        1468        1467
        1463        1464        1469        1468
        1465        1466        1471        1470
        1466        1467        1472        1471
        1467        1468        1473        1472
        1468        1469        1474        1473
        1475        1476        1481        1480
        1476        1477        1482        1481
        1477        1478        1483        1482
        1478        1479        1484        1483
        1480        1481        1486        1485
        1481        1482        1487        1486
        1482        1483        1488        1487
        1483        1484        1489        1488
        1485        1486        1491        1490
        1486        1487        1492        1491
        1487        1488        1493        1492
        1488        1489        1494        1493
        1490        1491        1496        1495
        1491        1492        1497        1496
        1492        1493        1498        1497
        1493        1494        1499        1498
        1500        1501        1506        1505
        1501        1502        1507        1506
        1502        1503        1508        1507
        1503        1504        1509        1508
        1505        1506        1511        1510
        1506        1507        1512        1511
        1507        1508        1513        1512
        1508        1509        1514        1513
        1510        1511        1516        1515
        1511        1512        1517        1516
        1512        1513        1518        1517
        1513        1514        1519        1518
        1515        1516        1521        1520
        1516        1517        1522        1521
        1517        1518        1523        1522
        1518        1519        1524        1523
        1525        1526        1531        1530
        1526        1527        1532        1531
        1527        1528        1533        1532
        1528        1529        1534        1533
        1530        1531        1536        1535
        1531        1532        1537        1536
        1532        1533        1538        1537
        1533        1534        1539        1538
        1535        1536        1541        1540
        1536        1537        1542        1541
        1537        1538        1543        1542
        1538        1539        1544        1543
        1540        1541        1546        1545
        1541        1542        1547        1546
        1542        1543        1548        1547
        1543        1544        1549        1548
        1550        1551        1556        1555
        1551        1552        1557        1556
        1552        1553        1558        1557
        1553        1554        1559        1558
        1555        1556        1561        1560
        1556        1557        1562        1561
        1557        1558        1563        1562
        1558        1559        1564        1563
        1560        1561        1566        1565
        1561        1562        1567        1566
        1562        1563        1568        1567
        1563        1564        1569        1568
        1565        1566        1571        1570
        1566        1567        1572        1571
        1567        1568        1573        1572
        1568        1569        1574        1573
        1575        1576        1581        1580
        1576        1577        1582        1581
        1577        1578        1583        1582
        1578        1579        1584        1583
        1580        1581        1586        1585
        1581        1582        1587        1586
        1582        1583        1588        1587
        1583        1584        1589        1588
        1585        1586        1591        1590
        1586        1587        1592        1591
        1587        1588        1593        1592
        1588        1589        1594        1593
        1590        1591        1596        1595
        1591        1592        1597        1596
        1592        1593        1598        1597
        1593        1594        1599        1598
 </DataArray>
 <DataArray  type="Int32"  Name="offsets"  format="ascii"> 
           4
           8
          12
          16
          20
          24
          28
          32
          36
          40
          44
          48
          52
          56
          60
          64
          68
          72
          76
          80
          84
          88
          92
          96
         100
         104
         108
         112
         116
         120
         124
         128
         132
         136
         140
         144
         148
         152
         156
         160
         164
         168
         172
         176
         180
         184
         188
         192
         196
         200
         204
         208
         212
         216
         220
         224
         228
         232
         236
         240
         244
         248
         252
         256
         260
         264
         268
         272
         276
         280
         284
         288
         292
         296
         300
         304
         308
         312
         316
         320
         324
         328
         332
         336
         340
         344
         348
         352
         356
         360
         364
         368
         372
         376
         380
         384
         388
         392
         396
         400
         404
         408
         412
         416
         420
         424
         428
         432
         436
         440
         444
         448
         452
         456
         460
         464
         468
         472
         476
         480
         484
         488
         492
         496
         500
         504
         508
         512
         516
         520
         524
         528
         532
         536
         540
         544
         548
         552
         556
         560
         564
         568
         572
         576
         580
         584
         588
         592
         596
         600
         604
         608
         612
         616
         620
         624
         628
         632
         636
         640
         644
         648
         652
         656
         660
         664
         668
         672
         676
         680
         684
         688
         692
         696
         700
         704
         708
         712
         716
         720
         724
         728
         732
         736
         740
         744
         748
         752
         756
         760
         764
         768
         772
         776
         780
         784
         788
         792
         796
         800
         804
         808
         812
         816
         820
         824
         828
         832
         836
         840
         844
         848
         852
         856
         860
         864
         868
         872
         876
         880
         884
         888
         892
         896
         900
         904
         908
         912
         916
         920
         924
         928
         932
         936
         940
         944
         948
         952
         956
         960
         964
         968
         972
         976
         980
         984
         988
         992
         996
        1000
        1004
        1008
        1012
        1016
        1020
        1024
        1028
        1032
        1036
        1040
        1044
        1048
        1052
        1056
        1060
        1064
        1068
        1072
        1076
        1080
        1084
        1088
        1092
        1096
        1100
        1104
        1108
        1112
        1116
        1120
        1124
        1128
        1132
        1136
        1140
        1144
        1148
        1152
        1156
        1160
        1164
        1168
        1172
        1176
        1180
        1184
        1188
        1192
        1196
        1200
        1204
        1208
        1212
        1216
        1220
        1224
        1228
        1232
        1236
        1240
        1244
        1248
        1252
        1256
        1260
        1264
        1268
        1272
        1276
        1280
        1284
        1288
        1292
        1296
        1300
        1304
        1308
        1312
        1316
        1320
        1324
        1328
        1332
        1336
        1340
        1344
        1348
        1352
        1356
        1360
        1364
        1368
        1372
        1376
        1380
        1384
        1388
        1392
        1396
        1400
        1404
        1408
        1412
        1416
        1420
        1424
        1428
        1432
        1436
        1440
        1444
        1448
        1452
        1456
        1460
        1464
        1468
        1472
        1476
        1480
        1484
        1488
        1492
        1496
        1500
        1504
        1508
        1512
        1516
        1520
        1524
        1528
        1532
        1536
        1540
        1544
        1548
        1552
        1556
        1560
        1564
        1568
        1572
        1576
        1580
        1584
        1588
        1592
        1596
        1600
        1604
        1608
        1612
        1616
        1620
        1624
        1628
        1632
        1636
        1640
        1644
        1648
        1652
        1656
        1660
        1664
        1668
        1672
        1676
        1680
        1684
        1688
        1692
        1696
        1700
        1704
        1708
        1712
        1716
        1720
        1724
        1728
        1732
        1736
        1740
        1744
        1748
        1752
        1756
        1760
        1764
        1768
        1772
        1776
        1780
        1784
        1788
        1792
        1796
        1800
        1804
        1808
        1812
        1816
        1820
        1824
        1828
        1832
        1836
        1840
        1844
        1848
        1852
        1856
        1860
        1864
        1868
        1872
        1876
        1880
        1884
        1888
        1892
        1896
        1900
        1904
        1908
        1912
        1916
        1920
        1924
        1928
        1932
        1936
        1940
        1944
        1948
        1952
        1956
        1960
        1964
        1968
        1972
        1976
        1980
        1984
        1988
        1992
        1996
        2000
        2004
        2008
        2012
        2016
        2020
        2024
        2028
        2032
        2036
        2040
        2044
        2048
        2052
        2056
        2060
        2064
        2068
        2072
        2076
        2080
        2084
        2088
        2092
        2096
        2100
        2104
        2108
        2112
        2116
        2120
        2124
        2128
        2132
        2136
        2140
        2144
        2148
        2152
        2156
        2160
        2164
        2168
        2172
        2176
        2180
        2184
        2188
        2192
        2196
        2200
        2204
        2208
        2212
        2216
        2220
        2224
        2228
        2232
        2236
        2240
        2244
        2248
        2252
        2256
        2260
        2264
        2268
        2272
        2276
        2280
        2284
        2288
        2292
        2296
        2300
        2304
        2308
        2312
        2316
        2320
        2324
        2328
        2332
        2336
        2340
        2344
        2348
        2352
        2356
        2360
        2364
        2368
        2372
        2376
        2380
        2384
        2388
        2392
        2396
        2400
        2404
        2408
        2412
        2416
        2420
        2424
        2428
        2432
        2436
        2440
        2444
        2448
        2452
        2456
        2460
        2464
        2468
        2472
        2476
        2480
        2484
        2488
        2492
        2496
        2500
        2504
        2508
        2512
        2516
        2520
        2524
        2528
        2532
        2536
        2540
        2544
        2548
        2552
        2556
        2560
        2564
        2568
        2572
        2576
        2580
        2584
        2588
        2592
        2596
        2600
        2604
        2608
        2612
        2616
        2620
        2624
        2628
        2632
        2636
        2640
        2644
        2648
        2652
        2656
        2660
        2664
        2668
        2672
        2676
        2680
        2684
        2688
        2692
        2696
        2700
        2704
        2708
        2712
        2716
        2720
        2724
        2728
        2732
        2736
        2740
        2744
        2748
        2752
        2756
        2760
        2764
        2768
        2772
        2776
        2780
        2784
        2788
        2792
        2796
        2800
        2804
        2808
        2812
        2816
        2820
        2824
        2828
        2832
        2836
        2840
        2844
        2848
        2852
        2856
        2860
        2864
        2868
        2872
        2876
        2880
        2884
        2888
        2892
        2896
        2900
        2904
        2908
        2912
        2916
        2920
        2924
        2928
        2932
        2936
        2940
        2944
        2948
        2952
        2956
        2960
        2964
        2968
        2972
        2976
        2980
        2984
        2988
        2992
        2996
        3000
        3004
        3008
        3012
        3016
        3020
        3024
        3028
        3032
        3036
        3040
        3044
        3048
        3052
        3056
        3060
        3064
        3068
        3072
        3076
        3080
        3084
        3088
        3092
        3096
        3100
        3104
        3108
        3112
        3116
        3120
        3124
        3128
        3132
        3136
        3140
        3144
        3148
        3152
        3156
        3160
        3164
        3168
        3172
        3176
        3180
        3184
        3188
        3192
        3196
        3200
        3204
        3208
        3212
        3216
        3220
        3224
        3228
        3232
        3236
        3240
        3244
        3248
        3252
        3256
        3260
        3264
        3268
        3272
        3276
        3280
        3284
        3288
        3292
        3296
        3300
        3304
        3308
        3312
        3316
        3320
        3324
        3328
        3332
        3336
        3340
        3344
        3348
        3352
        3356
        3360
        3364
        3368
        3372
        3376
        3380
        3384
        3388
        3392
        3396
        3400
        3404
        3408
        3412
        3416
        3420
        3424
        3428
        3432
        3436
        3440
        3444
        3448
        3452
        3456
        3460
        3464
        3468
        3472
        3476
        3480
        3484
        3488
        3492
        3496
        3500
        3504
        3508
        3512
        3516
        3520
        3524
        3528
        3532
        3536
        3540
        3544
        3548
        3552
        3556
        3560
        3564
        3568
        3572
        3576
        3580
        3584
        3588
        3592
        3596
        3600
        3604
        3608
        3612
        3616
        3620
        3624
        3628
        3632
        3636
        3640
        3644
        3648
        3652
        3656
        3660
        3664
        3668
        3672
        3676
        3680
        3684
        3688
        3692
        3696
        3700
        3704
        3708
        3712
        3716
        3720
        3724
        3728
        3732
        3736
        3740
        3744
        3748
        3752
        3756
        3760
        3764
        3768
        3772
        3776
        3780
        3784
        3788
        3792
        3796
        3800
        3804
        3808
        3812
        3816
        3820
        3824
        3828
        3832
        3836
        3840
        3844
        3848
        3852
        3856
        3860
        3864
        3868
        3872
        3876
        3880
        3884
        3888
        3892
        3896
        3900
        3904
        3908
        3912
        3916
        3920
        3924
        3928
        3932
        3936
        3940
        3944
        3948
        3952
        3956
        3960
        3964
        3968
        3972
        3976
        3980
        3984
        3988
        3992
        3996
        4000
        4004
        4008
        4012
        4016
        4020
        4024
        4028
        4032
        4036
        4040
        4044
        4048
        4052
        4056
        4060
        4064
        4068
        4072
        4076
        4080
        4084
        4088
        4092
        4096
 </DataArray>
 <DataArray  type="UInt8"  Name="types"  format="ascii">
 9
 9
 9
 9
 9
 9
 9
 9
 9
 9
 9
 9
 9
 9
 9
 9
 9
 9
 9
 9
 9
 9
 9
 9
 9
 9
 9
 9
 9
 9
 9
 9
 9
 9
 9
 9
 9
 9
 9
 9
 9
 9
 9
 9
 9
 9
 9
 9
 9
 9
 9
 9
 9
 9
 9
 9
 9
 9
 9
 9
 9
 9
 9
 9
 9
 9
 9
 9
 9
 9
 9
 9
 9
 9
 9
 9
 9
 9
 9
 9
 9
 9
 9
 9
 9
 9
 9
 9
 9
 9
 9
 9
 9
 9
 9
 9
 9
 9
 9
 9
 9
 9
 9
 9
 9
 9
 9
 9
 9
 9
 9
 9
 9
 9
 9
 9
 9
 9
 9
 9
 9
 9
 9
 9
 9
 9
 9
 9
 9
 9
 9
 9
 9
 9
 9
 9
 9
 9
 9
 9
 9
 9
 9
 9
 9
 9
 9
 9
 9
 9
 9
 9
 9
 9
 9
 9
 9
 9
 9
 9
 9
 9
 9
 9
 9
 9
 9
 9
 9
 9
 9
 9
 9
 9
 9
 9
 9
 9
 9
 9
 9
 9
 9
 9
 9
 9
 9
 9
 9
 9
 9
 9
 9
 9
 9
 9
 9
 9
 9
 9
 9
 9
 9
 9
 9
 9
 9
 9
 9
 9
 9
 9
 9
 9
 9
 9
 9
 9
 9
 9
 9
 9
 9
 9
 9
 9
 9
 9
 9
 9
 9
 9
 9
 9
 9
 9
 9
 9
 9
 9
 9
 9
 9
 9
 9
 9
 9
 9
 9
 9
 9
 9
 9
 9
 9
 9
 9
 9
 9
 9
 9
 9
 9
 9
 9
 9
 9
 9
 9
 9
 9
 9
 9
 9
 9
 9
 9
 9
 9
 9
 9
 9
 9
 9
 9
 9
 9
 9
 9
 9
 9
 9
 9
 9
 9
 9
 9
 9
 9
 9
 9
 9
 9
 9
 9
 9
 9
 9
 9
 9
 9
 9
 9
 9
 9
 9
 9
 9
 9
 9
 9
 9
 9
 9
 9
 9
 9
 9
 9
 9
 9
 9
 9
 9
 9
 9
 9
 9
 9
 9
 9
 9
 9
 9
 9
 9
 9
 9
 9
 9
 9
 9
 9
 9
 9
 9
 9
 9
 9
 9
 9
 9
 9
 9
 9
 9
 9
 9
 9
 9
 9
 9
 9
 9
 9
 9
 9
 9
 9
 9
 9
 9
 9
 9
 9
 9
 9
 9
 9
 9
 9
 9
 9
 9
 9
 9
 9
 9
 9
 9
 9
 9
 9
 9
 9
 9
 9
 9
 9
 9
 9
 9
 9
 9
 9
 9
 9
 9
 9
 9
 9
 9
 9
 9
 9
 9
 9
 9
 9
 9
 9
 9
 9
 9
 9
 9
 9
 9
 9
 9
 9
 9
 9
 9
 9
 9
 9
 9
 9
 9
 9
 9
 9
 9
 9
 9
 9
 9
 9
 9
 9
 9
 9
 9
 9
 9
 9
 9
 9
 9
 9
 9
 9
 9
 9
 9
 9
 9
 9
 9
 9
 9
 9
 9
 9
 9
 9
 9
 9
 9
 9
 9
 9
 9
 9
 9
 9
 9
 9
 9
 9
 9
 9
 9
 9
 9
 9
 9
 9
 9
 9
 9
 9
 9
 9
 9
 9
 9
 9
 9
 9
 9
 9
 9
 9
 9
 9
 9
 9
 9
 9
 9
 9
 9
 9
 9
 9
 9
 9
 9
 9
 9
 9
 9
 9
 9
 9
 9
 9
 9
 9
 9
 9
 9
 9
 9
 9
 9
 9
 9
 9
 9
 9
 9
 9
 9
 9
 9
 9
 9
 9
 9
 9
 9
 9
 9
 9
 9
 9
 9
 9
 9
 9
 9
 9
 9
 9
 9
 9
 9
 9
 9
 9
 9
 9
 9
 9
 9
 9
 9
 9
 9
 9
 9
 9
 9
 9
 9
 9
 9
 9
 9
 9
 9
 9
 9
 9
 9
 9
 9
 9
 9
 9
 9
 9
 9
 9
 9
 9
 9
 9
 9
 9
 9
 9
 9
 9
 9
 9
 9
 9
 9
 9
 9
 9
 9
 9
 9
 9
 9
 9
 9
 9
 9
 9
 9
 9
 9
 9
 9
 9
 9
 9
 9
 9
 9
 9
 9
 9
 9
 9
 9
 9
 9
 9
 9
 9
 9
 9
 9
 9
 9
 9
 9
 9
 9
 9
 9
 9
 9
 9
 9
 9
 9
 9
 9
 9
 9
 9
 9
 9
 9
 9
 9
 9
 9
 9
 9
 9
 9
 9
 9
 9
 9
 9
 9
 9
 9
 9
 9
 9
 9
 9
 9
 9
 9
 9
 9
 9
 9
 9
 9
 9
 9
 9
 9
 9
 9
 9
 9
 9
 9
 9
 9
 9
 9
 9
 9
 9
 9
 9
 9
 9
 9
 9
 9
 9
 9
 9
 9
 9
 9
 9
 9
 9
 9
 9
 9
 9
 9
 9
 9
 9
 9
 9
 9
 9
 9
 9
 9
 9
 9
 9
 9
 9
 9
 9
 9
 9
 9
 9
 9
 9
 9
 9
 9
 9
 9
 9
 9
 9
 9
 9
 9
 9
 9
 9
 9
 9
 9
 9
 9
 9
 9
 9
 9
 9
 9
 9
 9
 9
 9
 9
 9
 9
 9
 9
 9
 9
 9
 9
 9
 9
 9
 9
 9
 9
 9
 9
 9
 9
 9
 9
 9
 9
 9
 9
 9
 9
 9
 9
 9
 9
 9
 9
 9
 9
 9
 9
 9
 9
 9
 9
 9
 9
 9
 9
 9
 9
 9
 9
 9
 9
 9
 9
 9
 9
 9
 9
 9
 9
 9
 9
 9
 9
 9
 9
 9
 9
 9
 9
 9
 9
 9
 9
 9
 9
 9
 9
 9
 9
 9
 9
 9
 9
 9
 9
 9
 9
 9
 9
 9
 9
 9
 9
 9
 9
 9
 9
 9
 9
 9
 9
 9
 9
 9
 9
 9
 9
 9
 9
 9
 9
 9
 9
 9
 9
 9
 9
 9
 9
 9
 9
 9
 9
 9
 9
 9
 9
 9
 9
 9
 9
 9
 9
 9
 9
 9
 9
 9
 9
 9
 9
 9
 9
 9
 9
 9
 9
 9
 9
 9
 9
 9
 9
 9
 9
 9
 9
 9
 9
 9
 9
 9
 9
 9
 9
 9
 9
 9
 9
 9
 9
 9
 9
 9
 9
 9
 9
 9
 9
 9
 9
 9
 9
 9
 9
 9
 9
 9
 9
 9
 9
 9
 9
 9
 9
 9
 9
 9
 9
 9
 9
 9
 </DataArray>
 </Cells> 
 <PointData>
 <DataArray  type="Float64" Name="disp" NumberOfComponents="3" format="ascii">
   6.5293119710383304E-002   6.3069901390280569E-002   0.0000000000000000     
   6.8397428846031560E-002   6.8215886790021552E-002   0.0000000000000000     
   7.1384936963639220E-002   7.3634662145646179E-002   0.0000000000000000     
   7.4255644063206283E-002   7.9326227457154452E-002   0.0000000000000000     
   7.7009550144732763E-002   8.5290582724546399E-002   0.0000000000000000     
   6.0114027794768821E-002   6.1823152348916721E-002   0.0000000000000000     
   6.3003863341267285E-002   6.7188106531458291E-002   0.0000000000000000     
   6.5793306542357974E-002   7.2760310541021458E-002   0.0000000000000000     
   6.8482357398040872E-002   7.8539764377606222E-002   0.0000000000000000     
   7.1071015908315965E-002   8.4526468041212610E-002   0.0000000000000000     
   5.5137113810197411E-002   6.0813162833145619E-002   0.0000000000000000     
   5.7821843023589878E-002   6.6316748318650920E-002   0.0000000000000000     
   6.0418884859981349E-002   7.1986337439976678E-002   0.0000000000000000     
   6.2928239319371776E-002   7.7821930197122885E-002   0.0000000000000000     
   6.5349906401761193E-002   8.3823526590089598E-002   0.0000000000000000     
   5.0362377756669081E-002   6.0039932842967249E-002   0.0000000000000000     
   5.2851367892999351E-002   6.5601812151599409E-002   0.0000000000000000     
   5.5261671916509325E-002   7.1312742842511809E-002   0.0000000000000000     
   5.7593289827199023E-002   7.7172724915704483E-002   0.0000000000000000     
   5.9846221625068453E-002   8.3181758371177375E-002   0.0000000000000000     
   4.5789819634183826E-002   5.9503462378381625E-002   0.0000000000000000     
   4.8092437949495671E-002   6.5043298030303787E-002   0.0000000000000000     
   5.0321667711941936E-002   7.0739526748626880E-002   0.0000000000000000     
   5.2477508921522621E-002   7.6592148533350946E-002   0.0000000000000000     
   5.4559961578237740E-002   8.2601163384475929E-002   0.0000000000000000     
   7.7009550144732763E-002   8.5290582724546399E-002   0.0000000000000000     
   7.9662973501752249E-002   9.1457562908197579E-002   0.0000000000000000     
   8.2232232427798327E-002   9.7757002968483553E-002   0.0000000000000000     
   8.4717326922870997E-002  0.10418890290540431        0.0000000000000000     
   8.7118256986970288E-002  0.11075326271895988        0.0000000000000000     
   7.1071015908315965E-002   8.4526468041212610E-002   0.0000000000000000     
   7.3568996527859615E-002   9.0689178766965597E-002   0.0000000000000000     
   7.5986013711348152E-002   9.6996653789990187E-002   0.0000000000000000     
   7.8322067458781577E-002  0.10344889311028639        0.0000000000000000     
   8.0577157770159863E-002  0.11004589672785421        0.0000000000000000     
   6.5349906401761193E-002   8.3823526590089598E-002   0.0000000000000000     
   6.7688942801891458E-002   8.9985387870883851E-002   0.0000000000000000     
   6.9950405214504449E-002   9.6301775291512764E-002   0.0000000000000000     
   7.2134293639600153E-002  0.10277268885197637        0.0000000000000000     
   7.4240608077178583E-002  0.10939812855227463        0.0000000000000000     
   5.9846221625068453E-002   8.3181758371177375E-002   0.0000000000000000     
   6.2022812323847785E-002   8.9346190219952368E-002   0.0000000000000000     
   6.4125406937267218E-002   9.5672367473051328E-002   0.0000000000000000     
   6.6154005465326751E-002  0.10216029013047423        0.0000000000000000     
   6.8108607908026392E-002  0.10880995819222110        0.0000000000000000     
   5.4559961578237740E-002   8.2601163384475929E-002   0.0000000000000000     
   5.6570605093728590E-002   8.8771585814171147E-002   0.0000000000000000     
   5.8511018879636459E-002   9.5108430334605851E-002   0.0000000000000000     
   6.0381202935961366E-002  0.10161169694578001        0.0000000000000000     
   6.2181157262703304E-002  0.10828138564769367        0.0000000000000000     
   8.7118256986970288E-002  0.11075326271895988        0.0000000000000000     
   8.9426369484141066E-002  0.11745286048761412        0.0000000000000000     
   9.1633011278428267E-002  0.12429047428983084        0.0000000000000000     
   9.3738182369831877E-002  0.13126610412561010        0.0000000000000000     
   9.5741882758351909E-002  0.13837974999495184        0.0000000000000000     
   8.0577157770159863E-002  0.11004589672785421        0.0000000000000000     
   8.2744053364701808E-002  0.11678307664846642        0.0000000000000000     
   8.4815522961626047E-002  0.12365584487789580        0.0000000000000000     
   8.6791566560932648E-002  0.13066420141614232        0.0000000000000000     
   8.8672184162621584E-002  0.13780814626320603        0.0000000000000000     
   7.4240608077178583E-002  0.10939812855227463        0.0000000000000000     
   7.6263597139928585E-002  0.11616782392839578        0.0000000000000000     
   7.8197509440539076E-002  0.12307150451632808        0.0000000000000000     
   8.0042344979009999E-002  0.13010917031607153        0.0000000000000000     
   8.1798103755341411E-002  0.13728082132762609        0.0000000000000000     
   6.8108607908026392E-002  0.10880995819222110        0.0000000000000000     
   6.9985000809821465E-002  0.11560710232740218        0.0000000000000000     
   7.1778970715167312E-002  0.12253745320512768        0.0000000000000000     
   7.3490517624063945E-002  0.12960101082539766        0.0000000000000000     
   7.5119641536511378E-002  0.13679777518821204        0.0000000000000000     
   6.2181157262703304E-002  0.10828138564769367        0.0000000000000000     
   6.3908264374380408E-002  0.11510091184548561        0.0000000000000000     
   6.5559906785510796E-002  0.12205369094429463        0.0000000000000000     
   6.7136084496094470E-002  0.12913972294412068        0.0000000000000000     
   6.8636797506131469E-002  0.13635900784496388        0.0000000000000000     
   9.5741882758351909E-002  0.13837974999495184        0.0000000000000000     
   9.7649216000999170E-002  0.14561799332354047        0.0000000000000000     
   9.9465285654784477E-002  0.15296741553706045        0.0000000000000000     
  0.10119009171970784       0.16042801663551173        0.0000000000000000     
  0.10282363419576926       0.16799979661889436        0.0000000000000000     
   8.8672184162621584E-002  0.13780814626320603        0.0000000000000000     
   9.0462031006497301E-002  0.14507488755680720        0.0000000000000000     
   9.2165762332364246E-002  0.15245163343466606        0.0000000000000000     
   9.3783378140222404E-002  0.15993838389678267        0.0000000000000000     
   9.5314878430071762E-002  0.16753513894315694        0.0000000000000000     
   8.1798103755341411E-002  0.13728082132762609        0.0000000000000000     
   8.3468722463002173E-002  0.14457396577154052        0.0000000000000000     
   8.5058137795461189E-002  0.15197611186836352        0.0000000000000000     
   8.6566349752718430E-002  0.15948725961809512        0.0000000000000000     
   8.7993358334773925E-002  0.16710740902073526        0.0000000000000000     
   7.5119641536511378E-002  0.13679777518821204        0.0000000000000000     
   7.6669290370513746E-002  0.14411522796774062        0.0000000000000000     
   7.8142412044075280E-002  0.15154085083815302        0.0000000000000000     
   7.9539006557195938E-002  0.15907464379944922        0.0000000000000000     
   8.0859073909875775E-002  0.16671660685162931        0.0000000000000000     
   6.8636797506131469E-002  0.13635900784496388        0.0000000000000000     
   7.0063734729032046E-002  0.14369867414540735        0.0000000000000000     
   7.1418585078206545E-002  0.15114585034403435        0.0000000000000000     
   7.2701348553654954E-002  0.15870053644084492        0.0000000000000000     
   7.3912025155377287E-002  0.16636273243583904        0.0000000000000000     
  0.10282363419576926       0.16799979661889436        0.0000000000000000     
  0.10436872630165946       0.17567078075252043        0.0000000000000000     
  0.10582818125606909       0.18342899430170209        0.0000000000000000     
  0.10720199905899823       0.19127443726643933        0.0000000000000000     
  0.10849017971044680       0.19920710964673219        0.0000000000000000     
   9.5314878430071762E-002  0.16753513894315694        0.0000000000000000     
   9.6761593242055896E-002  0.17523099901284758        0.0000000000000000     
   9.8124852616318370E-002  0.18301506454491306        0.0000000000000000     
   9.9404656552859169E-002  0.19088733553935344        0.0000000000000000     
  0.10060100505167829       0.19884781199616863        0.0000000000000000     
   8.7993358334773925E-002  0.16710740902073526        0.0000000000000000     
   8.9339357590586976E-002  0.17482662599356236        0.0000000000000000     
   9.0604541569116889E-002  0.18263497645385493        0.0000000000000000     
   9.1788910270363636E-002  0.19053246040161287        0.0000000000000000     
   9.2892463694327229E-002  0.19851907783683620        0.0000000000000000     
   8.0859073909875775E-002  0.16671660685162931        0.0000000000000000     
   8.2102019347252683E-002  0.17445766169466490        0.0000000000000000     
   8.3267248114464648E-002  0.18228873002852763        0.0000000000000000     
   8.4354760211511642E-002  0.19020981185321761        0.0000000000000000     
   8.5364555638393666E-002  0.19822090716873478        0.0000000000000000     
   7.3912025155377287E-002  0.16636273243583904        0.0000000000000000     
   7.5049578512053017E-002  0.17412410611615506        0.0000000000000000     
   7.6112972252361633E-002  0.18197632526893126        0.0000000000000000     
   7.7102206376303134E-002  0.18991938989416771        0.0000000000000000     
   7.8017280883877521E-002  0.19795329999186442        0.0000000000000000     
  0.10849017971044680       0.19920710964673219        0.0000000000000000     
  0.10969798145061541       0.20722455499146347        0.0000000000000000     
  0.11083066251970458       0.21532431684951614        0.0000000000000000     
  0.11188822291771432       0.22350639522089014        0.0000000000000000     
  0.11287066264464461       0.23177079010558549        0.0000000000000000     
  0.10060100505167829       0.19884781199616863        0.0000000000000000     
  0.10171892464293469       0.20689135382123428        0.0000000000000000     
  0.10276344185678732       0.21501282092042573        0.0000000000000000     
  0.10373455669323617       0.22321221329374297        0.0000000000000000     
  0.10463226915228124       0.23148953094118610        0.0000000000000000     
   9.2892463694327229E-002  0.19851907783683620        0.0000000000000000     
   9.3919315340583537E-002  0.20658788137958567        0.0000000000000000     
   9.4873578708708384E-002  0.21473192364992200        0.0000000000000000     
   9.5755253798701770E-002  0.22295120464784518        0.0000000000000000     
   9.6564340610563695E-002  0.23124572437335528        0.0000000000000000     
   8.5364555638393666E-002  0.19822090716873478        0.0000000000000000     
   8.6299153543561963E-002  0.20631413766651771        0.0000000000000000     
   8.7161073075467763E-002  0.21448162503800508        0.0000000000000000     
   8.7950314234111107E-002  0.22272336928319678        0.0000000000000000     
   8.8666877019491969E-002  0.23103937040209291        0.0000000000000000     
   7.8017280883877521E-002  0.19795329999186442        0.0000000000000000     
   7.8858439251869944E-002  0.20607012268203043        0.0000000000000000     
   7.9625924957065511E-002  0.21426192508467487        0.0000000000000000     
   8.0319737999464194E-002  0.22252870719979775        0.0000000000000000     
   8.0939878379066035E-002  0.23087046902739908        0.0000000000000000     
  0.11287066264464461       0.23177079010558549        0.0000000000000000     
  0.11380593132064454       0.24013374762055190        0.0000000000000000     
  0.11472197856586314       0.24861151388273919        0.0000000000000000     
  0.11561880438030044       0.25720408889214735        0.0000000000000000     
  0.11649640876395639       0.26591147264877635        0.0000000000000000     
  0.10463226915228124       0.23148953094118610        0.0000000000000000     
  0.10546172176622953       0.23986805789618981        0.0000000000000000     
  0.10622805706738797       0.24837107819218887        0.0000000000000000     
  0.10693127505575663       0.25699859182918322        0.0000000000000000     
  0.10757137573133543       0.26575059880717289        0.0000000000000000     
   9.6564340610563695E-002  0.23124572437335528        0.0000000000000000     
   9.7291998458962858E-002  0.23964187911918236        0.0000000000000000     
   9.7929386658567971E-002  0.24816606517805656        0.0000000000000000     
   9.8476505209379020E-002  0.25681828254997807        0.0000000000000000     
   9.8933354111396060E-002  0.26559853123494659        0.0000000000000000     
   8.8666877019491969E-002  0.23103937040209291        0.0000000000000000     
   8.9296761398844557E-002  0.23945521128952943        0.0000000000000000     
   8.9825967339403123E-002  0.24799647484034237        0.0000000000000000     
   9.0254494841167682E-002  0.25666316105453174        0.0000000000000000     
   9.0582343904138204E-002  0.26545526993209750        0.0000000000000000     
   8.0939878379066035E-002  0.23087046902739908        0.0000000000000000     
   8.1476010585874586E-002  0.23930805440723116        0.0000000000000000     
   8.1917799109893427E-002  0.24786230717904625        0.0000000000000000     
   8.2265243951122544E-002  0.25653322734284445        0.0000000000000000     
   8.2518345109561936E-002  0.26532081489862569        0.0000000000000000     
  0.11649640876395639       0.26591147264877635        0.0000000000000000     
  0.11729526781668970       0.27489826242586046        0.0000000000000000     
  0.11795585763835896       0.28432905549663390        0.0000000000000000     
  0.11847817822896420       0.29420385186109665        0.0000000000000000     
  0.11886222958850540       0.30452265151924873        0.0000000000000000     
  0.10757137573133543       0.26575059880717289        0.0000000000000000     
  0.10812935414395919       0.27475920956641026        0.0000000000000000     
  0.10858620534346262       0.28415653454714779        0.0000000000000000     
  0.10894192932984575       0.29394257374938526        0.0000000000000000     
  0.10919652610310857       0.30411732717312295        0.0000000000000000     
   9.8933354111396060E-002  0.26559853123494659        0.0000000000000000     
   9.9310836477701878E-002  0.27460504130060143        0.0000000000000000     
   9.9619855421379438E-002  0.28393604281458129        0.0000000000000000     
   9.9860410942428687E-002  0.29359153577688629        0.0000000000000000     
  0.10003250304084967       0.30357152018751654        0.0000000000000000     
   9.0582343904138204E-002  0.26545526993209750        0.0000000000000000     
   9.0839714817917749E-002  0.27443575762843375        0.0000000000000000     
   9.1056807872109347E-002  0.28366758029893452        0.0000000000000000     
   9.1233623066713010E-002  0.29315073794359975        0.0000000000000000     
   9.1370160401728712E-002  0.30288523056242955        0.0000000000000000     
   8.2518345109561936E-002  0.26532081489862569        0.0000000000000000     
   8.2715989164606804E-002  0.27425135854990745        0.0000000000000000     
   8.2897062695652404E-002  0.28335114700020747        0.0000000000000000     
   8.3061565702698709E-002  0.29262018024952569        0.0000000000000000     
   8.3209498185745689E-002  0.30205845829786193        0.0000000000000000     
   4.5789819634183826E-002   5.9503462378381625E-002   0.0000000000000000     
   4.8092437949495671E-002   6.5043298030303787E-002   0.0000000000000000     
   5.0321667711941936E-002   7.0739526748626880E-002   0.0000000000000000     
   5.2477508921522621E-002   7.6592148533350946E-002   0.0000000000000000     
   5.4559961578237740E-002   8.2601163384475929E-002   0.0000000000000000     
   4.1386457215954416E-002   5.9050215240695494E-002   0.0000000000000000     
   4.3505265946309629E-002   6.4543961416109824E-002   0.0000000000000000     
   4.5554781750203728E-002   7.0210243664322727E-002   0.0000000000000000     
   4.7535004627636691E-002   7.6049061985334232E-002   0.0000000000000000     
   4.9445934578608533E-002   8.2060416379144338E-002   0.0000000000000000     
   3.7119308275193587E-002   5.8526655231215641E-002   0.0000000000000000     
   3.9050064636672037E-002   6.4006557770363279E-002   0.0000000000000000     
   4.0916923535219307E-002   6.9668448095600147E-002   0.0000000000000000     
   4.2719884970835398E-002   7.5512326206926300E-002   0.0000000000000000     
   4.4458948943520316E-002   8.1538192104341670E-002   0.0000000000000000     
   3.2988372811901354E-002   5.7932782349942036E-002   0.0000000000000000     
   3.4726834020582853E-002   6.3431087093064178E-002   0.0000000000000000     
   3.6408093066988653E-002   6.9114140042459166E-002   0.0000000000000000     
   3.8032149951118727E-002   7.4981941198127067E-002   0.0000000000000000     
   3.9599004672973087E-002   8.1034490560067882E-002   0.0000000000000000     
   2.8993650826077712E-002   5.7268596596874707E-002   0.0000000000000000     
   3.0535574098042115E-002   6.2817549384212495E-002   0.0000000000000000     
   3.2028290345511773E-002   6.8547319504899812E-002   0.0000000000000000     
   3.3471799568486678E-002   7.4457906958936643E-002   0.0000000000000000     
   3.4866101766966834E-002   8.0549311746322988E-002   0.0000000000000000     
   5.4559961578237740E-002   8.2601163384475929E-002   0.0000000000000000     
   5.6570605093728590E-002   8.8771585814171147E-002   0.0000000000000000     
   5.8511018879636459E-002   9.5108430334605851E-002   0.0000000000000000     
   6.0381202935961366E-002  0.10161169694578001        0.0000000000000000     
   6.2181157262703304E-002  0.10828138564769367        0.0000000000000000     
   4.9445934578608533E-002   8.2060416379144338E-002   0.0000000000000000     
   5.1289194798401022E-002   8.8242340295372174E-002   0.0000000000000000     
   5.3066408482295949E-002   9.4592867183636853E-002   0.0000000000000000     
   5.4777575630293313E-002  0.10111199704393838        0.0000000000000000     
   5.6422696242393100E-002  0.10779972987627674        0.0000000000000000     
   4.4458948943520316E-002   8.1538192104341670E-002   0.0000000000000000     
   4.6135455124732265E-002   8.7739219305387472E-002   0.0000000000000000     
   4.7750743185929451E-002   9.4108581327604912E-002   0.0000000000000000     
   4.9304813127111879E-002  0.10064627817099400        0.0000000000000000     
   5.0797664948279538E-002  0.10735230983555474        0.0000000000000000     
   3.9599004672973087E-002   8.1034490560067882E-002   0.0000000000000000     
   4.1109386072722312E-002   8.7262222844217030E-002   0.0000000000000000     
   4.2564022990536979E-002   9.3655572766510042E-002   0.0000000000000000     
   4.3962915426417080E-002  0.10021454032694693        0.0000000000000000     
   4.5306063380362624E-002  0.10693912552552766        0.0000000000000000     
   3.4866101766966834E-002   8.0549311746322988E-002   0.0000000000000000     
   3.6210987642371142E-002   8.6811350911860846E-002   0.0000000000000000     
   3.7506247896118491E-002   9.3233841500352230E-002   0.0000000000000000     
   3.8751882528208902E-002   9.9816783511797097E-002   0.0000000000000000     
   3.9947891538642345E-002  0.10656017694619549        0.0000000000000000     
   6.2181157262703304E-002  0.10828138564769367        0.0000000000000000     
   6.3908264374380408E-002  0.11510091184548561        0.0000000000000000     
   6.5559906785510796E-002  0.12205369094429463        0.0000000000000000     
   6.7136084496094470E-002  0.12913972294412068        0.0000000000000000     
   6.8636797506131469E-002  0.13635900784496388        0.0000000000000000     
   5.6422696242393100E-002  0.10779972987627674        0.0000000000000000     
   5.8000476993797449E-002  0.11463859519482833        0.0000000000000000     
   5.9509624559708485E-002  0.12161112251376950        0.0000000000000000     
   6.0950138940126193E-002  0.12871731183310031        0.0000000000000000     
   6.2322020135050615E-002  0.13595716315282069        0.0000000000000000     
   5.0797664948279538E-002  0.10735230983555474        0.0000000000000000     
   5.2228727828264640E-002  0.11420949508761256        0.0000000000000000     
   5.3597430945899367E-002  0.12120065269349302        0.0000000000000000     
   5.4903774301183726E-002  0.12832578265319605        0.0000000000000000     
   5.6147757894117717E-002  0.13558488496672166        0.0000000000000000     
   4.5306063380362624E-002  0.10693912552552766        0.0000000000000000     
   4.6593016877781959E-002  0.11381361152383836        0.0000000000000000     
   4.7823325944083429E-002  0.12082228148346509        0.0000000000000000     
   4.8996990579267041E-002  0.12796513540440790        0.0000000000000000     
   5.0114010783332795E-002  0.13524217328666671        0.0000000000000000     
   3.9947891538642345E-002  0.10656017694619549        0.0000000000000000     
   4.1093344142349414E-002  0.11345094450350562        0.0000000000000000     
   4.2187309554260692E-002  0.12047600888368576        0.0000000000000000     
   4.3229787774376159E-002  0.12763537008673587        0.0000000000000000     
   4.4220778802695829E-002  0.13492902811265597        0.0000000000000000     
   6.8636797506131469E-002  0.13635900784496388        0.0000000000000000     
   7.0063734729032046E-002  0.14369867414540735        0.0000000000000000     
   7.1418585078206545E-002  0.15114585034403435        0.0000000000000000     
   7.2701348553654954E-002  0.15870053644084492        0.0000000000000000     
   7.3912025155377287E-002  0.16636273243583904        0.0000000000000000     
   6.2322020135050615E-002  0.13595716315282069        0.0000000000000000     
   6.3625782505955311E-002  0.14331748278148038        0.0000000000000000     
   6.4861940414313909E-002  0.15078507702762906        0.0000000000000000     
   6.6030493860126424E-002  0.15835994589126676        0.0000000000000000     
   6.7131442843392827E-002  0.16604208937239348        0.0000000000000000     
   5.6147757894117717E-002  0.13558488496672166        0.0000000000000000     
   5.7329160668681760E-002  0.14296483235289933        0.0000000000000000     
   5.8447761568856275E-002  0.15045249753055853        0.0000000000000000     
   5.9503560594641285E-002  0.15804788049969928        0.0000000000000000     
   6.0496557746036739E-002  0.16575098126032153        0.0000000000000000     
   5.0114010783332795E-002  0.13524217328666671        0.0000000000000000     
   5.1173869217211412E-002  0.14264072285966423        0.0000000000000000     
   5.2176048541833657E-002  0.15014811185282276        0.0000000000000000     
   5.3120548757199536E-002  0.15776434026614247        0.0000000000000000     
   5.4007369863309014E-002  0.16548940809962326        0.0000000000000000     
   4.4220778802695829E-002  0.13492902811265597        0.0000000000000000     
   4.5159908151544276E-002  0.14234515430177494        0.0000000000000000     
   4.6046801333246054E-002  0.14987191999442170        0.0000000000000000     
   4.6881458347801191E-002  0.15750932519059627        0.0000000000000000     
   4.7663879195209674E-002  0.16525736989029860        0.0000000000000000     
   7.3912025155377287E-002  0.16636273243583904        0.0000000000000000     
   7.5049578512053017E-002  0.17412410611615506        0.0000000000000000     
   7.6112972252361633E-002  0.18197632526893126        0.0000000000000000     
   7.7102206376303134E-002  0.18991938989416771        0.0000000000000000     
   7.8017280883877521E-002  0.19795329999186442        0.0000000000000000     
   6.7131442843392827E-002  0.16604208937239348        0.0000000000000000     
   6.8163494018066040E-002  0.17382354826080809        0.0000000000000000     
   6.9125354038098927E-002  0.18169636334630959        0.0000000000000000     
   7.0017022903491516E-002  0.18966053462889790        0.0000000000000000     
   7.0838500614243766E-002  0.19771606210857309        0.0000000000000000     
   6.0496557746036739E-002  0.16575098126032153        0.0000000000000000     
   6.1425224798369794E-002  0.17355357713139924        0.0000000000000000     
   6.2288033526967566E-002  0.18144744543190636        0.0000000000000000     
   6.3084983931830041E-002  0.18943258616184291        0.0000000000000000     
   6.3816076012957232E-002  0.19750899932120883        0.0000000000000000     
   5.4007369863309014E-002  0.16548940809962326        0.0000000000000000     
   5.4834770852964301E-002  0.17331419272792853        0.0000000000000000     
   5.5601010718967538E-002  0.18122957152572172        0.0000000000000000     
   5.6306089461318758E-002  0.18923554449300276        0.0000000000000000     
   5.6950007080017920E-002  0.19733211162977171        0.0000000000000000     
   4.7663879195209674E-002  0.16525736989029860        0.0000000000000000     
   4.8392132181849540E-002  0.17310539505039593        0.0000000000000000     
   4.9064285614098868E-002  0.18104274162775558        0.0000000000000000     
   4.9680339491957638E-002  0.18906940962237742        0.0000000000000000     
   5.0240293815425864E-002  0.19718539903426158        0.0000000000000000     
   7.8017280883877521E-002  0.19795329999186442        0.0000000000000000     
   7.8858439251869944E-002  0.20607012268203043        0.0000000000000000     
   7.9625924957065511E-002  0.21426192508467487        0.0000000000000000     
   8.0319737999464194E-002  0.22252870719979775        0.0000000000000000     
   8.0939878379066035E-002  0.23087046902739908        0.0000000000000000     
   7.0838500614243766E-002  0.19771606210857309        0.0000000000000000     
   7.1587919629625088E-002  0.20585524110956402        0.0000000000000000     
   7.2263412408904881E-002  0.21407036695609952        0.0000000000000000     
   7.2864978952083159E-002  0.22236143964817964        0.0000000000000000     
   7.3392619259159880E-002  0.23072845918580431        0.0000000000000000     
   6.3816076012957232E-002  0.19750899932120883        0.0000000000000000     
   6.4478341840945017E-002  0.20566889763255874        0.0000000000000000     
   6.5068813486389321E-002  0.21390449381844709        0.0000000000000000     
   6.5587490949290117E-002  0.22221578787887386        0.0000000000000000     
   6.6034374229647433E-002  0.23060277981383917        0.0000000000000000     
   5.6950007080017920E-002  0.19733211162977171        0.0000000000000000     
   5.7529705885829709E-002  0.20551109225101458        0.0000000000000000     
   5.8042128189518774E-002  0.21376430567171753        0.0000000000000000     
   5.8487273991085102E-002  0.22209175189188057        0.0000000000000000     
   5.8865143290528714E-002  0.23049343091150362        0.0000000000000000     
   5.0240293815425864E-002  0.19718539903426158        0.0000000000000000     
   5.0742011764279192E-002  0.20538182496493154        0.0000000000000000     
   5.1183356518293262E-002  0.21364980251591090        0.0000000000000000     
   5.1564328077468101E-002  0.22198933168719961        0.0000000000000000     
   5.1884926441803703E-002  0.23040041247879775        0.0000000000000000     
   8.0939878379066035E-002  0.23087046902739908        0.0000000000000000     
   8.1476010585874586E-002  0.23930805440723116        0.0000000000000000     
   8.1917799109893427E-002  0.24786230717904625        0.0000000000000000     
   8.2265243951122544E-002  0.25653322734284445        0.0000000000000000     
   8.2518345109561936E-002  0.26532081489862569        0.0000000000000000     
   7.3392619259159880E-002  0.23072845918580431        0.0000000000000000     
   7.3843197284673603E-002  0.23918542017275116        0.0000000000000000     
   7.4213576983162874E-002  0.24774631721279763        0.0000000000000000     
   7.4503758354627636E-002  0.25641115030594375        0.0000000000000000     
   7.4713741399067959E-002  0.26517991945218966        0.0000000000000000     
   6.6034374229647433E-002  0.23060277981383917        0.0000000000000000     
   6.6411772759862223E-002  0.23907232028655309        0.0000000000000000     
   6.6721995972335413E-002  0.24763125996022592        0.0000000000000000     
   6.6965043867067017E-002  0.25627959883485762        0.0000000000000000     
   6.7140916444057036E-002  0.26501733691044815        0.0000000000000000     
   5.8865143290528714E-002  0.23049343091150362        0.0000000000000000     
   5.9181737011440423E-002  0.23896875474863707        0.0000000000000000     
   5.9443056077411072E-002  0.24751713542133114        0.0000000000000000     
   5.9649100488440653E-002  0.25613857292958586        0.0000000000000000     
   5.9799870244529159E-002  0.26483306727340122        0.0000000000000000     
   5.1884926441803703E-002  0.23040041247879775        0.0000000000000000     
   5.2153090039408226E-002  0.23887472355900305        0.0000000000000000     
   5.2376757298389830E-002  0.24740394359611334        0.0000000000000000     
   5.2555928218748535E-002  0.25598807259012862        0.0000000000000000     
   5.2690602800484328E-002  0.26462711054104887        0.0000000000000000     
   8.2518345109561936E-002  0.26532081489862569        0.0000000000000000     
   8.2715989164606804E-002  0.27425135854990745        0.0000000000000000     
   8.2897062695652404E-002  0.28335114700020747        0.0000000000000000     
   8.3061565702698709E-002  0.29262018024952569        0.0000000000000000     
   8.3209498185745689E-002  0.30205845829786193        0.0000000000000000     
   7.4713741399067959E-002  0.26517991945218966        0.0000000000000000     
   7.4884448546830240E-002  0.27404616989191888        0.0000000000000000     
   7.5056802228260944E-002  0.28300344686551504        0.0000000000000000     
   7.5230802443360070E-002  0.29205175037297826        0.0000000000000000     
   7.5406449192127592E-002  0.30119108041430848        0.0000000000000000     
   6.7140916444057036E-002  0.26501733691044815        0.0000000000000000     
   6.7289881993649228E-002  0.27381451748136415        0.0000000000000000     
   6.7452208806187339E-002  0.28264118384197212        0.0000000000000000     
   6.7627896881671395E-002  0.29149733599227201        0.0000000000000000     
   6.7816946220101357E-002  0.30038297393226387        0.0000000000000000     
   5.9799870244529159E-002  0.26483306727340122        0.0000000000000000     
   5.9932289505063768E-002  0.27355640131824349        0.0000000000000000     
   6.0083282429431610E-002  0.28226435792957871        0.0000000000000000     
   6.0252849017632677E-002  0.29095693710740689        0.0000000000000000     
   6.0440989269666998E-002  0.29963413885172813        0.0000000000000000     
   5.2690602800484328E-002  0.26462711054104887        0.0000000000000000     
   5.2811671081073847E-002  0.27327182140255674        0.0000000000000000     
   5.2950023097993716E-002  0.28187296912833470        0.0000000000000000     
   5.3105658851243943E-002  0.29043055371838289        0.0000000000000000     
   5.3278578340824521E-002  0.29894457517270118        0.0000000000000000     
   2.8993650826077712E-002   5.7268596596874707E-002   0.0000000000000000     
   3.0535574098042115E-002   6.2817549384212495E-002   0.0000000000000000     
   3.2028290345511773E-002   6.8547319504899812E-002   0.0000000000000000     
   3.3471799568486678E-002   7.4457906958936643E-002   0.0000000000000000     
   3.4866101766966834E-002   8.0549311746322988E-002   0.0000000000000000     
   2.5111859521086882E-002   5.6645217657519252E-002   0.0000000000000000     
   2.6457259437717349E-002   6.2247388792078098E-002   0.0000000000000000     
   2.7761198925554439E-002   6.8025410290912608E-002   0.0000000000000000     
   2.9023677984598144E-002   7.3979282154022774E-002   0.0000000000000000     
   3.0244696614848472E-002   8.0109004381408583E-002   0.0000000000000000     
   2.1319716100293096E-002   5.6173765217381266E-002   0.0000000000000000     
   2.2472864608276112E-002   6.1802049464930835E-002   0.0000000000000000     
   2.3590502361882423E-002   6.7605836208488174E-002   0.0000000000000000     
   2.4672629361112024E-002   7.3585125448053304E-002   0.0000000000000000     
   2.5719245605964901E-002   7.9739917183626233E-002   0.0000000000000000     
   1.7617220563696342E-002   5.5854239276460757E-002   0.0000000000000000     
   1.8582389609718416E-002   6.1481531402770670E-002   0.0000000000000000     
   1.9516200654495733E-002   6.7288597257626495E-002   0.0000000000000000     
   2.0418653698028300E-002   7.3275436841028246E-002   0.0000000000000000     
   2.1289748740316122E-002   7.9442050152975924E-002   0.0000000000000000     
   1.4004372911296629E-002   5.5686639834757731E-002   0.0000000000000000     
   1.4785834442044239E-002   6.1285834605597625E-002   0.0000000000000000     
   1.5538293803394360E-002   6.7073693438327572E-002   0.0000000000000000     
   1.6261750995346991E-002   7.3050216332947587E-002   0.0000000000000000     
   1.6956206017902133E-002   7.9215403289457670E-002   0.0000000000000000     
   3.4866101766966834E-002   8.0549311746322988E-002   0.0000000000000000     
   3.6210987642371142E-002   8.6811350911860846E-002   0.0000000000000000     
   3.7506247896118491E-002   9.3233841500352230E-002   0.0000000000000000     
   3.8751882528208902E-002   9.9816783511797097E-002   0.0000000000000000     
   3.9947891538642345E-002  0.10656017694619549        0.0000000000000000     
   3.0244696614848472E-002   8.0109004381408583E-002   0.0000000000000000     
   3.1423439310658219E-002   8.6404267164111162E-002   0.0000000000000000     
   3.2559090566380157E-002   9.2854760693171584E-002   0.0000000000000000     
   3.3651650382014286E-002   9.9460484968589877E-002   0.0000000000000000     
   3.4701118757560635E-002  0.10622143999036601        0.0000000000000000     
   2.5719245605964901E-002   7.9739917183626233E-002   0.0000000000000000     
   2.6729920554562952E-002   8.6058635256760135E-002   0.0000000000000000     
   2.7704223665028054E-002   9.2529703509008243E-002   0.0000000000000000     
   2.8642154937360210E-002   9.9153121940370514E-002   0.0000000000000000     
   2.9543714371559421E-002  0.10592889055084699        0.0000000000000000     
   2.1289748740316122E-002   7.9442050152975924E-002   0.0000000000000000     
   2.2130431374085366E-002   8.5774455189807808E-002   0.0000000000000000     
   2.2941647192062212E-002   9.2258669947862179E-002   0.0000000000000000     
   2.3723396194246661E-002   9.8894694427139038E-002   0.0000000000000000     
   2.4475678380638695E-002  0.10568252862763838        0.0000000000000000     
   1.6956206017902133E-002   7.9215403289457670E-002   0.0000000000000000     
   1.7624971769225454E-002   8.5551726963254165E-002   0.0000000000000000     
   1.8271361147482616E-002   9.2041660009733406E-002   0.0000000000000000     
   1.8895374152673623E-002   9.8685202428895447E-002   0.0000000000000000     
   1.9497010784798471E-002  0.10548235422074023        0.0000000000000000     
   3.9947891538642345E-002  0.10656017694619549        0.0000000000000000     
   4.1093344142349414E-002  0.11345094450350562        0.0000000000000000     
   4.2187309554260692E-002  0.12047600888368576        0.0000000000000000     
   4.3229787774376159E-002  0.12763537008673587        0.0000000000000000     
   4.4220778802695829E-002  0.13492902811265597        0.0000000000000000     
   3.4701118757560635E-002  0.10622143999036601        0.0000000000000000     
   3.5705860522086845E-002  0.11312722958141314        0.0000000000000000     
   3.6664240504660585E-002  0.12016745756464438        0.0000000000000000     
   3.7576258705281869E-002  0.12734212394005970        0.0000000000000000     
   3.8441915123950690E-002  0.13465122870765911        0.0000000000000000     
   2.9543714371559421E-002  0.10592889055084699        0.0000000000000000     
   3.0406716917114086E-002  0.11284820231235961        0.0000000000000000     
   3.1228977523512596E-002  0.11990225019683026        0.0000000000000000     
   3.2010496190754981E-002  0.12709103420425905        0.0000000000000000     
   3.2751272918841216E-002  0.13441455433464589        0.0000000000000000     
   2.4475678380638695E-002  0.10568252862763838        0.0000000000000000     
   2.5195913327431128E-002  0.11261386269634494        0.0000000000000000     
   2.5881520610816725E-002  0.11968038678024348        0.0000000000000000     
   2.6532500230795487E-002  0.12688210087933394        0.0000000000000000     
   2.7148852187367421E-002  0.13421900499361630        0.0000000000000000     
   1.9497010784798471E-002  0.10548235422074023        0.0000000000000000     
   2.0073449753037976E-002  0.11242421073336925        0.0000000000000000     
   2.0621869766572952E-002  0.11950186731488396        0.0000000000000000     
   2.1142270825403393E-002  0.12671532396528434        0.0000000000000000     
   2.1634652929529305E-002  0.13406458068457044        0.0000000000000000     
   4.4220778802695829E-002  0.13492902811265597        0.0000000000000000     
   4.5159908151544276E-002  0.14234515430177494        0.0000000000000000     
   4.6046801333246054E-002  0.14987191999442170        0.0000000000000000     
   4.6881458347801191E-002  0.15750932519059627        0.0000000000000000     
   4.7663879195209674E-002  0.16525736989029860        0.0000000000000000     
   3.8441915123950690E-002  0.13465122870765911        0.0000000000000000     
   3.9261135196872486E-002  0.14208374369381954        0.0000000000000000     
   4.0033844360252716E-002  0.14962864072491797        0.0000000000000000     
   4.0760042614091392E-002  0.15728591980095438        0.0000000000000000     
   4.1439729958388516E-002  0.16505558092192876        0.0000000000000000     
   3.2751272918841216E-002  0.13441455433464589        0.0000000000000000     
   3.3451408078388221E-002  0.14186210805038588        0.0000000000000000     
   3.4111002040012925E-002  0.14942299281387403        0.0000000000000000     
   3.4730054803715313E-002  0.15709720862511040        0.0000000000000000     
   3.5308566369495392E-002  0.16488475548409492        0.0000000000000000     
   2.7148852187367421E-002  0.13421900499361630        0.0000000000000000     
   2.7730726796091495E-002  0.14168024737147392        0.0000000000000000     
   2.8278274372526668E-002  0.14925497626128992        0.0000000000000000     
   2.8791494916672940E-002  0.15694319166306434        0.0000000000000000     
   2.9270388428530310E-002  0.16474489357679717        0.0000000000000000     
   2.1634652929529305E-002  0.13406458068457044        0.0000000000000000     
   2.2099091349982287E-002  0.14153816165708372        0.0000000000000000     
   2.2535661357793939E-002  0.14912459106716561        0.0000000000000000     
   2.2944362952964262E-002  0.15682386891481617        0.0000000000000000     
   2.3325196135493255E-002  0.16463599520003538        0.0000000000000000     
   4.7663879195209674E-002  0.16525736989029860        0.0000000000000000     
   4.8392132181849540E-002  0.17310539505039593        0.0000000000000000     
   4.9064285614098868E-002  0.18104274162775558        0.0000000000000000     
   4.9680339491957638E-002  0.18906940962237742        0.0000000000000000     
   5.0240293815425864E-002  0.19718539903426158        0.0000000000000000     
   4.1439729958388516E-002  0.16505558092192876        0.0000000000000000     
   4.2070890633028477E-002  0.17292541956613428        0.0000000000000000     
   4.2651508877895677E-002  0.18088323121186395        0.0000000000000000     
   4.3181584692990133E-002  0.18892901585911787        0.0000000000000000     
   4.3661118078311828E-002  0.19706277350789597        0.0000000000000000     
   3.5308566369495392E-002  0.16488475548409492        0.0000000000000000     
   3.5844628054504044E-002  0.17277250174247633        0.0000000000000000     
   3.6336331175892127E-002  0.18074731575190295        0.0000000000000000     
   3.6783675733659649E-002  0.18880919751237490        0.0000000000000000     
   3.7186661727806616E-002  0.19695814702389222        0.0000000000000000     
   2.9270388428530310E-002  0.16474489357679717        0.0000000000000000     
   2.9713344446276244E-002  0.17264664157942203        0.0000000000000000     
   3.0118752508088216E-002  0.18063499524787249        0.0000000000000000     
   3.0486612613966207E-002  0.18870995458214865        0.0000000000000000     
   3.0816924763910233E-002  0.19687151958225035        0.0000000000000000     
   2.3325196135493255E-002  0.16463599520003538        0.0000000000000000     
   2.3677039808345089E-002  0.17254783907697144        0.0000000000000000     
   2.3998772874483938E-002  0.18054626969977267        0.0000000000000000     
   2.4290395333909802E-002  0.18863128706843896        0.0000000000000000     
   2.4551907186622673E-002  0.19680289118297042        0.0000000000000000     
   5.0240293815425864E-002  0.19718539903426158        0.0000000000000000     
   5.0742011764279192E-002  0.20538182496493154        0.0000000000000000     
   5.1183356518293262E-002  0.21364980251591090        0.0000000000000000     
   5.1564328077468101E-002  0.22198933168719961        0.0000000000000000     
   5.1884926441803703E-002  0.23040041247879775        0.0000000000000000     
   4.3661118078311828E-002  0.19706277350789597        0.0000000000000000     
   4.4089204310778778E-002  0.20527462809139041        0.0000000000000000     
   4.4464938667308988E-002  0.21355470354279341        0.0000000000000000     
   4.4788321147902467E-002  0.22190299986210493        0.0000000000000000     
   4.5059351752559200E-002  0.23031951704932505        0.0000000000000000     
   3.7186661727806616E-002  0.19695814702389222        0.0000000000000000     
   3.7545228359813845E-002  0.20518303394747200        0.0000000000000000     
   3.7859314831162158E-002  0.21347272794413139        0.0000000000000000     
   3.8128921141851554E-002  0.22182722901387042        0.0000000000000000     
   3.8354047291882042E-002  0.23024653715668900        0.0000000000000000     
   3.0816924763910233E-002  0.19687151958225035        0.0000000000000000     
   3.1110083911384385E-002  0.20510704253317627        0.0000000000000000     
   3.1366485009852757E-002  0.21340387571992475        0.0000000000000000     
   3.1586128059315370E-002  0.22176201914249594        0.0000000000000000     
   3.1769013059772200E-002  0.23018147280088971        0.0000000000000000     
   2.4551907186622673E-002  0.19680289118297042        0.0000000000000000     
   2.4783770965490393E-002  0.20504665384850321        0.0000000000000000     
   2.4986449203380810E-002  0.21334814687017353        0.0000000000000000     
   2.5159941900293907E-002  0.22170737024798157        0.0000000000000000     
   2.5304249056229688E-002  0.23012432398192711        0.0000000000000000     
   5.1884926441803703E-002  0.23040041247879775        0.0000000000000000     
   5.2153090039408226E-002  0.23887472355900305        0.0000000000000000     
   5.2376757298389830E-002  0.24740394359611334        0.0000000000000000     
   5.2555928218748535E-002  0.25598807259012862        0.0000000000000000     
   5.2690602800484328E-002  0.26462711054104887        0.0000000000000000     
   4.5059351752559200E-002  0.23031951704932505        0.0000000000000000     
   4.5286663804736539E-002  0.23878881305023167        0.0000000000000000     
   4.5478890627891795E-002  0.24729544581060295        0.0000000000000000     
   4.5636032222024982E-002  0.25583941533043891        0.0000000000000000     
   4.5758088587136078E-002  0.26442072160973951        0.0000000000000000     
   3.8354047291882042E-002  0.23024653715668900        0.0000000000000000     
   3.8543290268396306E-002  0.23870960955490364        0.0000000000000000     
   3.8705247058537041E-002  0.24719540339083054        0.0000000000000000     
   3.8839917662304262E-002  0.25570391866446984        0.0000000000000000     
   3.8947302079697953E-002  0.26423515537582148        0.0000000000000000     
   3.1769013059772200E-002  0.23018147280088971        0.0000000000000000     
   3.1922969430387520E-002  0.23863711307301885        0.0000000000000000     
   3.2055826590325590E-002  0.24710381633679615        0.0000000000000000     
   3.2167584539586395E-002  0.25558158259222147        0.0000000000000000     
   3.2258243278169937E-002  0.26407041183929492        0.0000000000000000     
   2.5304249056229688E-002  0.23012432398192711        0.0000000000000000     
   2.5425701290710180E-002  0.23857132360457742        0.0000000000000000     
   2.5530629223257405E-002  0.24702068464849966        0.0000000000000000     
   2.5619032853871359E-002  0.25547240711369379        0.0000000000000000     
   2.5690912182552046E-002  0.26392649100015980        0.0000000000000000     
   5.2690602800484328E-002  0.26462711054104887        0.0000000000000000     
   5.2811671081073847E-002  0.27327182140255674        0.0000000000000000     
   5.2950023097993716E-002  0.28187296912833470        0.0000000000000000     
   5.3105658851243943E-002  0.29043055371838289        0.0000000000000000     
   5.3278578340824521E-002  0.29894457517270118        0.0000000000000000     
   4.5758088587136078E-002  0.26442072160973951        0.0000000000000000     
   4.5869244837163273E-002  0.27298946423696052        0.0000000000000000     
   4.5993686086044712E-002  0.28149574280055772        0.0000000000000000     
   4.6131412333780396E-002  0.28993955730053123        0.0000000000000000     
   4.6282423580370338E-002  0.29832090773688091        0.0000000000000000     
   3.8947302079697953E-002  0.26423515537582148        0.0000000000000000     
   3.9046228888815829E-002  0.27273801632411132        0.0000000000000000     
   3.9155526667755604E-002  0.28116140430856518        0.0000000000000000     
   3.9275195416517278E-002  0.28950531932918316        0.0000000000000000     
   3.9405235135100865E-002  0.29776976138596523        0.0000000000000000     
   3.2258243278169937E-002  0.26407041183929492        0.0000000000000000     
   3.2342623236031515E-002  0.27251747766400924        0.0000000000000000     
   3.2435544843126399E-002  0.28086995365235717        0.0000000000000000     
   3.2537008099454590E-002  0.28912783980433882        0.0000000000000000     
   3.2647013005016101E-002  0.29729113611995400        0.0000000000000000     
   2.5690912182552046E-002  0.26392649100015980        0.0000000000000000     
   2.5758427878810337E-002  0.27232784825665424        0.0000000000000000     
   2.5833740612157097E-002  0.28062139083193366        0.0000000000000000     
   2.5916850382592335E-002  0.28880711872599801        0.0000000000000000     
   2.6007757190116047E-002  0.29688503193884730        0.0000000000000000     
   1.4004372911296629E-002   5.5686639834757731E-002   0.0000000000000000     
   1.4785834442044239E-002   6.1285834605597625E-002   0.0000000000000000     
   1.5538293803394360E-002   6.7073693438327572E-002   0.0000000000000000     
   1.6261750995346991E-002   7.3050216332947587E-002   0.0000000000000000     
   1.6956206017902133E-002   7.9215403289457670E-002   0.0000000000000000     
   1.0453345700378699E-002   5.5598605577815624E-002   0.0000000000000000     
   1.1049794406220878E-002   6.1166008827600683E-002   0.0000000000000000     
   1.1620124210244966E-002   6.6930404724556664E-002   0.0000000000000000     
   1.2164335112450965E-002   7.2891793268683544E-002   0.0000000000000000     
   1.2682427112838880E-002   7.9050174459981346E-002   0.0000000000000000     
   6.9363114882272986E-003   5.5517775191177898E-002   0.0000000000000000     
   7.3408648032156059E-003   6.1073103822968822E-002   0.0000000000000000     
   7.7250342767142093E-003   6.6828011090278958E-002   0.0000000000000000     
   8.0888199087231077E-003   7.2782496993108306E-002   0.0000000000000000     
   8.4322216992423048E-003   7.8936561531456811E-002   0.0000000000000000     
   3.4532702748424279E-003   5.5444148674844547E-002   0.0000000000000000     
   3.6590456330284271E-003   6.1007119591702075E-002   0.0000000000000000     
   3.8530240028020898E-003   6.6766512535494510E-002   0.0000000000000000     
   4.0352053841634181E-003   7.2722327506221845E-002   0.0000000000000000     
   4.2055897771124109E-003   7.8874564503884095E-002   0.0000000000000000     
   4.2220602240869085E-006   5.5377726028815577E-002   0.0000000000000000     
   4.3368956593396301E-006   6.0968056133800408E-002   0.0000000000000000     
   4.0933885086084660E-006   6.6745909060203293E-002   0.0000000000000000     
   3.4915387718936872E-006   7.2711284808024218E-002   0.0000000000000000     
   2.5313464491944805E-006   7.8864183377263197E-002   0.0000000000000000     
   1.6956206017902133E-002   7.9215403289457670E-002   0.0000000000000000     
   1.7624971769225454E-002   8.5551726963254165E-002   0.0000000000000000     
   1.8271361147482616E-002   9.2041660009733406E-002   0.0000000000000000     
   1.8895374152673623E-002   9.8685202428895447E-002   0.0000000000000000     
   1.9497010784798471E-002  0.10548235422074023        0.0000000000000000     
   1.2682427112838880E-002   7.9050174459981346E-002   0.0000000000000000     
   1.3179676930858466E-002   8.5385213436704591E-002   0.0000000000000000     
   1.3661361285959486E-002   9.1876575337107802E-002   0.0000000000000000     
   1.4127480178141940E-002   9.8524260161190980E-002   0.0000000000000000     
   1.4578033607405824E-002  0.10532826790895408        0.0000000000000000     
   8.4322216992423048E-003   7.8936561531456811E-002   0.0000000000000000     
   8.7606820498596603E-003   8.5269677469764465E-002   0.0000000000000000     
   9.0796433621630358E-003   9.1761317572471121E-002   0.0000000000000000     
   9.3891056361524294E-003   9.8411481839576806E-002   0.0000000000000000     
   9.6890688718278464E-003  0.10522017027108153        0.0000000000000000     
   4.2055897771124109E-003   7.8874564503884095E-002   0.0000000000000000     
   4.3679871262290370E-003   8.5205119062433776E-002   0.0000000000000000     
   4.5262073760932659E-003   9.1695886715823419E-002   0.0000000000000000     
   4.6802505267050975E-003   9.8346867464053037E-002   0.0000000000000000     
   4.8301165780645335E-003  0.10515806130712257        0.0000000000000000     
   2.5313464491944805E-006   7.8864183377263197E-002   0.0000000000000000     
   1.5921599665954383E-006   8.5191538214712564E-002   0.0000000000000000     
   1.0533277501775752E-006   9.1680282767164667E-002   0.0000000000000000     
   9.1484979994108074E-007   9.8330417034619561E-002   0.0000000000000000     
   1.1767261158864700E-006  0.10514194101707719        0.0000000000000000     
   1.9497010784798471E-002  0.10548235422074023        0.0000000000000000     
   2.0073449753037976E-002  0.11242421073336925        0.0000000000000000     
   2.0621869766572952E-002  0.11950186731488396        0.0000000000000000     
   2.1142270825403393E-002  0.12671532396528434        0.0000000000000000     
   2.1634652929529305E-002  0.13406458068457044        0.0000000000000000     
   1.4578033607405824E-002  0.10532826790895408        0.0000000000000000     
   1.5010230625765916E-002  0.11227862132956221        0.0000000000000000     
   1.5421280285236972E-002  0.11936534317218035        0.0000000000000000     
   1.5811182585818997E-002  0.12658843343680848        0.0000000000000000     
   1.6179937527511987E-002  0.13394789212344663        0.0000000000000000     
   9.6890688718278464E-003  0.10522017027108153        0.0000000000000000     
   9.9771603774462120E-003  0.11217646939105358        0.0000000000000000     
   1.0251007461264457E-002  0.11926946572356119        0.0000000000000000     
   1.0510610123282584E-002  0.12649915926860442        0.0000000000000000     
   1.0755968363500588E-002  0.13386555002618322        0.0000000000000000     
   4.8301165780645335E-003  0.10515806130712257        0.0000000000000000     
   4.9742390080788719E-003  0.11211775491784334        0.0000000000000000     
   5.1110512946554148E-003  0.11921423496902654        0.0000000000000000     
   5.2405534377941605E-003  0.12644750146067216        0.0000000000000000     
   5.3627454374951108E-003  0.13381755439278026        0.0000000000000000     
   1.1767261158864700E-006  0.10514194101707719        0.0000000000000000     
   1.4665176638929689E-006  0.11210247790993150        0.0000000000000000     
   1.4117854098408874E-006  0.11919965090857634        0.0000000000000000     
   1.0125293537270271E-006  0.12643346001301176        0.0000000000000000     
   2.6874949555230968E-007  0.13380390522323773        0.0000000000000000     
   2.1634652929529305E-002  0.13406458068457044        0.0000000000000000     
   2.2099091349982287E-002  0.14153816165708372        0.0000000000000000     
   2.2535661357793939E-002  0.14912459106716561        0.0000000000000000     
   2.2944362952964262E-002  0.15682386891481617        0.0000000000000000     
   2.3325196135493255E-002  0.16463599520003538        0.0000000000000000     
   1.6179937527511987E-002  0.13394789212344663        0.0000000000000000     
   1.6527532375222406E-002  0.14143152165524872        0.0000000000000000     
   1.6853954393856712E-002  0.14902712445536881        0.0000000000000000     
   1.7159203583414911E-002  0.15673470052380689        0.0000000000000000     
   1.7443279943896994E-002  0.16455424986056286        0.0000000000000000     
   1.0755968363500588E-002  0.13386555002618322        0.0000000000000000     
   1.0987080506973654E-002  0.14135599811400254        0.0000000000000000     
   1.1203944878756958E-002  0.14895786364976726        0.0000000000000000     
   1.1406561478850502E-002  0.15667114663347739        0.0000000000000000     
   1.1594930307254284E-002  0.16449584706513290        0.0000000000000000     
   5.3627454374951108E-003  0.13381755439278026        0.0000000000000000     
   5.4777357452360249E-003  0.14131159103334509        0.0000000000000000     
   5.5856328124946663E-003  0.14891680865036086        0.0000000000000000     
   5.6864366392710341E-003  0.15663320724382770        0.0000000000000000     
   5.7801472255651267E-003  0.16446078681374549        0.0000000000000000     
   2.6874949555230968E-007  0.13380390522323773        0.0000000000000000     
  -5.0190999047704243E-007  0.14129830041327637        0.0000000000000000     
  -9.8180493015979399E-007  0.14890395945714974        0.0000000000000000     
  -1.1709353234936140E-006  0.15662088235485783        0.0000000000000000     
  -1.0693011704785566E-006  0.16444906910640064        0.0000000000000000     
   2.3325196135493255E-002  0.16463599520003538        0.0000000000000000     
   2.3677039808345089E-002  0.17254783907697144        0.0000000000000000     
   2.3998772874483938E-002  0.18054626969977267        0.0000000000000000     
   2.4290395333909802E-002  0.18863128706843896        0.0000000000000000     
   2.4551907186622673E-002  0.19680289118297042        0.0000000000000000     
   1.7443279943896994E-002  0.16455424986056286        0.0000000000000000     
   1.7705564334728332E-002  0.17247317717120406        0.0000000000000000     
   1.7945437615334289E-002  0.18047888716129784        0.0000000000000000     
   1.8162899785714875E-002  0.18857137983084413        0.0000000000000000     
   1.8357950845870084E-002  0.19675065517984291        0.0000000000000000     
   1.1594930307254284E-002  0.16449584706513290        0.0000000000000000     
   1.1768768219443731E-002  0.17241973879819941        0.0000000000000000     
   1.1927792070894266E-002  0.18043059568614253        0.0000000000000000     
   1.2072001861605890E-002  0.18852841772896220        0.0000000000000000     
   1.2201397591578603E-002  0.19671320492665847        0.0000000000000000     
   5.7801472255651267E-003  0.16446078681374549        0.0000000000000000     
   5.8666514624912862E-003  0.17238752395795742        0.0000000000000000     
   5.9458362411638575E-003  0.18040139527430671        0.0000000000000000     
   6.0177015615828378E-003  0.18850240076279323        0.0000000000000000     
   6.0822474237482290E-003  0.19669054042341710        0.0000000000000000     
  -1.0693011704785566E-006  0.16444906910640064        0.0000000000000000     
  -7.8593612899604398E-007  0.17237653265047814        0.0000000000000000     
  -4.2987385692934161E-007  0.18039128592579037        0.0000000000000000     
  -1.1143542744649921E-009  0.18849332893233725        0.0000000000000000     
   5.0034237896422196E-007  0.19668266167011880        0.0000000000000000     
   2.4551907186622673E-002  0.19680289118297042        0.0000000000000000     
   2.4783770965490393E-002  0.20504665384850321        0.0000000000000000     
   2.4986449203380810E-002  0.21334814687017353        0.0000000000000000     
   2.5159941900293907E-002  0.22170737024798157        0.0000000000000000     
   2.5304249056229688E-002  0.23012432398192711        0.0000000000000000     
   1.8357950845870084E-002  0.19675065517984291        0.0000000000000000     
   1.8530922478556238E-002  0.20500060030941017        0.0000000000000000     
   1.8682146366529657E-002  0.21330510232066191        0.0000000000000000     
   1.8811622509790349E-002  0.22166416121359811        0.0000000000000000     
   1.8919350908338309E-002  0.23007777698821871        0.0000000000000000     
   1.2201397591578603E-002  0.19671320492665847        0.0000000000000000     
   1.2316171407006247E-002  0.20496761433185459        0.0000000000000000     
   1.2416515454082674E-002  0.21327430299717393        0.0000000000000000     
   1.2502429732807881E-002  0.22163327092261637        0.0000000000000000     
   1.2573914243181867E-002  0.23004451810818202        0.0000000000000000     
   6.0822474237482290E-003  0.19669054042341710        0.0000000000000000     
   6.1395177508404338E-003  0.20494769591583650        0.0000000000000000     
   6.1895564660398566E-003  0.21325574889970955        0.0000000000000000     
   6.2323635693464982E-003  0.22161469937503639        0.0000000000000000     
   6.2679390607603604E-003  0.23002454734181699        0.0000000000000000     
   5.0034237896422196E-007  0.19668266167011880        0.0000000000000000     
   9.6151005878953623E-007  0.20494084506135576        0.0000000000000000     
   1.2694024012044032E-006  0.21324944002826887        0.0000000000000000     
   1.4240194062039712E-006  0.22160844657085821        0.0000000000000000     
   1.4253610737917366E-006  0.23001786468912364        0.0000000000000000     
   2.5304249056229688E-002  0.23012432398192711        0.0000000000000000     
   2.5425701290710180E-002  0.23857132360457742        0.0000000000000000     
   2.5530629223257405E-002  0.24702068464849966        0.0000000000000000     
   2.5619032853871359E-002  0.25547240711369379        0.0000000000000000     
   2.5690912182552046E-002  0.26392649100015980        0.0000000000000000     
   1.8919350908338309E-002  0.23007777698821871        0.0000000000000000     
   1.9009873881047152E-002  0.23851669127212322        0.0000000000000000     
   1.9087733746790472E-002  0.24695164569291098        0.0000000000000000     
   1.9152930505568298E-002  0.25538264025058199        0.0000000000000000     
   1.9205464157380600E-002  0.26380967494513630        0.0000000000000000     
   1.2573914243181867E-002  0.23004451810818202        0.0000000000000000     
   1.2633875233081276E-002  0.23847766619820010        0.0000000000000000     
   1.2685218950382758E-002  0.24690233683699986        0.0000000000000000     
   1.2727945395086305E-002  0.25531853002458144        0.0000000000000000     
   1.2762054567191922E-002  0.26372624576094467        0.0000000000000000     
   6.2679390607603604E-003  0.23002454734181699        0.0000000000000000     
   6.2977053468125672E-003  0.23845424838280802        0.0000000000000000     
   6.3230848340342450E-003  0.24687275808076636        0.0000000000000000     
   6.3440775224253955E-003  0.25528007643569195        0.0000000000000000     
   6.3606834119860154E-003  0.26367620344758486        0.0000000000000000     
   1.4253610737917366E-006  0.23001786468912364        0.0000000000000000     
   1.3642222410196504E-006  0.23844643782594710        0.0000000000000000     
   1.3313977449436751E-006  0.24686290942421046        0.0000000000000000     
   1.3268875855644883E-006  0.25526727948391370        0.0000000000000000     
   1.3506917628802739E-006  0.26365954800505681        0.0000000000000000     
   2.5690912182552046E-002  0.26392649100015980        0.0000000000000000     
   2.5758427878810337E-002  0.27232784825665424        0.0000000000000000     
   2.5833740612157097E-002  0.28062139083193366        0.0000000000000000     
   2.5916850382592335E-002  0.28880711872599801        0.0000000000000000     
   2.6007757190116047E-002  0.29688503193884730        0.0000000000000000     
   1.9205464157380600E-002  0.26380967494513630        0.0000000000000000     
   1.9255244496110022E-002  0.27217545105826008        0.0000000000000000     
   1.9312181315639197E-002  0.28042266987163939        0.0000000000000000     
   1.9376274615968123E-002  0.28855133138527428        0.0000000000000000     
   1.9447524397096790E-002  0.29656143559916476        0.0000000000000000     
   1.2762054567191922E-002  0.26372624576094467        0.0000000000000000     
   1.2794674766888316E-002  0.27206660902504032        0.0000000000000000     
   1.2832934294364199E-002  0.28028074479581905        0.0000000000000000     
   1.2876833149619564E-002  0.28836865307328091        0.0000000000000000     
   1.2926371332654417E-002  0.29633033385742580        0.0000000000000000     
   6.3606834119860154E-003  0.26367620344758486        0.0000000000000000     
   6.3767186911452148E-003  0.27200132215699507        0.0000000000000000     
   6.3959995483320988E-003  0.28019561560447281        0.0000000000000000     
   6.4185259835466673E-003  0.28825908379001791        0.0000000000000000     
   6.4442979967889204E-003  0.29619172671363053        0.0000000000000000     
   1.3506917628802739E-006  0.26365954800505681        0.0000000000000000     
   1.3762688807173688E-006  0.27197959045412429        0.0000000000000000     
   1.3770775429002664E-006  0.28016728229760052        0.0000000000000000     
   1.3531177494303492E-006  0.28822262353548533        0.0000000000000000     
   1.3043895003058553E-006  0.29614561416777896        0.0000000000000000     
   4.2220602240869085E-006   5.5377726028815577E-002   0.0000000000000000     
   4.3368956593396301E-006   6.0968056133800408E-002   0.0000000000000000     
   4.0933885086084660E-006   6.6745909060203293E-002   0.0000000000000000     
   3.4915387718936872E-006   7.2711284808024218E-002   0.0000000000000000     
   2.5313464491944805E-006   7.8864183377263197E-002   0.0000000000000000     
  -3.4461431068898186E-003   5.5355050693471471E-002   0.0000000000000000     
  -3.6516130479288282E-003   6.0974142935108847E-002   0.0000000000000000     
  -3.8459659666045380E-003   6.6771465064929564E-002   0.0000000000000000     
  -4.0292018629169493E-003   7.2747017082933602E-002   0.0000000000000000     
  -4.2013207368660592E-003   7.8900798989120974E-002   0.0000000000000000     
  -6.9331351777613846E-003   5.5412666109192731E-002   0.0000000000000000     
  -7.3371558367732502E-003   6.1043609481472402E-002   0.0000000000000000     
  -7.7213624629756542E-003   6.6848444950197553E-002   0.0000000000000000     
  -8.0857550563685956E-003   7.2827172515368202E-002   0.0000000000000000     
  -8.4303336169520762E-003   7.8979792176984309E-002   0.0000000000000000     
  -1.0456754152390609E-002   5.5550572275979350E-002   0.0000000000000000     
  -1.1052291470873925E-002   6.1176455772891075E-002   0.0000000000000000     
  -1.1622096100604740E-002   6.6976848716007314E-002   0.0000000000000000     
  -1.2166168041583049E-002   7.2951751105328061E-002   0.0000000000000000     
  -1.2684507293808852E-002   7.9101162940853287E-002   0.0000000000000000     
  -1.4017000030777493E-002   5.5768769193831322E-002   0.0000000000000000     
  -1.4797019950230857E-002   6.1372681809364865E-002   0.0000000000000000     
  -1.5548166879491794E-002   6.7156676362358794E-002   0.0000000000000000     
  -1.6270440818560303E-002   7.3120752852813109E-002   0.0000000000000000     
  -1.6963841767436386E-002   7.9264911280727809E-002   0.0000000000000000     
   2.5313464491944805E-006   7.8864183377263197E-002   0.0000000000000000     
   1.5921599665954383E-006   8.5191538214712564E-002   0.0000000000000000     
   1.0533277501775752E-006   9.1680282767164667E-002   0.0000000000000000     
   9.1484979994108074E-007   9.8330417034619561E-002   0.0000000000000000     
   1.1767261158864700E-006  0.10514194101707719        0.0000000000000000     
  -4.2013207368660592E-003   7.8900798989120974E-002   0.0000000000000000     
  -4.3654123617379928E-003   8.5224706370696929E-002   0.0000000000000000     
  -4.5245665108188610E-003   9.1710634814866729E-002   0.0000000000000000     
  -4.6787831841086707E-003   9.8358584321630374E-002   0.0000000000000000     
  -4.8280623816074168E-003  0.10516855489098788        0.0000000000000000     
  -8.4303336169520762E-003   7.8979792176984309E-002   0.0000000000000000     
  -8.7599359516950508E-003   8.5300394974483024E-002   0.0000000000000000     
  -9.0793998675664841E-003   9.1783071947301370E-002   0.0000000000000000     
  -9.3887253645663638E-003   9.8427823095439390E-002   0.0000000000000000     
  -9.6879124426947020E-003  0.10523464841889704        0.0000000000000000     
  -1.2684507293808852E-002   7.9101162940853287E-002   0.0000000000000000     
  -1.3181978609904589E-002   8.5418604026070835E-002   0.0000000000000000     
  -1.3663446742492681E-002   9.1897594164468618E-002   0.0000000000000000     
  -1.4128911691573145E-002   9.8538133356046581E-002   0.0000000000000000     
  -1.4578373457145969E-002  0.10534022160080472        0.0000000000000000     
  -1.6963841767436386E-002   7.9264911280727809E-002   0.0000000000000000     
  -1.7631540336366588E-002   8.5579333525460419E-002   0.0000000000000000     
  -1.8276707135597463E-002   9.2054201466368474E-002   0.0000000000000000     
  -1.8899342165129007E-002   9.8689515103451975E-002   0.0000000000000000     
  -1.9499445424961216E-002  0.10548527443671094        0.0000000000000000     
   1.1767261158864700E-006  0.10514194101707719        0.0000000000000000     
   1.4665176638929689E-006  0.11210247790993150        0.0000000000000000     
   1.4117854098408874E-006  0.11919965090857634        0.0000000000000000     
   1.0125293537270271E-006  0.12643346001301176        0.0000000000000000     
   2.6874949555230968E-007  0.13380390522323773        0.0000000000000000     
  -4.8280623816074168E-003  0.10516855489098788        0.0000000000000000     
  -4.9715457989473579E-003  0.11212772542396079        0.0000000000000000     
  -5.1083751317607482E-003  0.11922327482157076        0.0000000000000000     
  -5.2385503800475887E-003  0.12645520308381775        0.0000000000000000     
  -5.3620715438078784E-003  0.13382351021070180        0.0000000000000000     
  -9.6879124426947020E-003  0.10523464841889704        0.0000000000000000     
  -9.9751866469035191E-003  0.11219058451657399        0.0000000000000000     
  -1.0248773522144835E-002  0.11928266798736992        0.0000000000000000     
  -1.0508673068418658E-002  0.12651089883128475        0.0000000000000000     
  -1.0754885285724979E-002  0.13387527704831856        0.0000000000000000     
  -1.4578373457145969E-002  0.10534022160080472        0.0000000000000000     
  -1.5009456026204585E-002  0.11229105518777112        0.0000000000000000     
  -1.5419783385742417E-002  0.11937783040597379        0.0000000000000000     
  -1.5809355535759476E-002  0.12660054725541275        0.0000000000000000     
  -1.6178172476255744E-002  0.13395920573608802        0.0000000000000000     
  -1.9499445424961216E-002  0.10548527443671094        0.0000000000000000     
  -2.0074353936850562E-002  0.11242913743755213        0.0000000000000000     
  -2.0621404722553499E-002  0.11950876207738241        0.0000000000000000     
  -2.1140597782070045E-002  0.12672414835620174        0.0000000000000000     
  -2.1631933115400185E-002  0.13407529627401016        0.0000000000000000     
   2.6874949555230968E-007  0.13380390522323773        0.0000000000000000     
  -5.0190999047704243E-007  0.14129830041327637        0.0000000000000000     
  -9.8180493015979399E-007  0.14890395945714974        0.0000000000000000     
  -1.1709353234936140E-006  0.15662088235485783        0.0000000000000000     
  -1.0693011704785566E-006  0.16444906910640064        0.0000000000000000     
  -5.3620715438078784E-003  0.13382351021070180        0.0000000000000000     
  -5.4784545116302588E-003  0.14131572660525235        0.0000000000000000     
  -5.5872151721033641E-003  0.14891938267049881        0.0000000000000000     
  -5.6883535252271970E-003  0.15663447840644126        0.0000000000000000     
  -5.7818695710017574E-003  0.16446101381307968        0.0000000000000000     
  -1.0754885285724979E-002  0.13387527704831856        0.0000000000000000     
  -1.0986944112607720E-002  0.14136346996072885        0.0000000000000000     
  -1.1204383487610790E-002  0.14896314489077317        0.0000000000000000     
  -1.1407203410734198E-002  0.15667430183845157        0.0000000000000000     
  -1.1595403881977936E-002  0.16449694080376401        0.0000000000000000     
  -1.6178172476255744E-002  0.13395920573608802        0.0000000000000000     
  -1.6525970712922861E-002  0.14144153047970590        0.0000000000000000     
  -1.6852486751452445E-002  0.14903524611797275        0.0000000000000000     
  -1.7157720591844495E-002  0.15674035265088865        0.0000000000000000     
  -1.7441672234099009E-002  0.16455685007845353        0.0000000000000000     
  -2.1631933115400185E-002  0.13407529627401016        0.0000000000000000     
  -2.2095534312575688E-002  0.14154990816218349        0.0000000000000000     
  -2.2531524963628320E-002  0.14913568635209765        0.0000000000000000     
  -2.2939905068558090E-002  0.15683263084375260        0.0000000000000000     
  -2.3320674627364986E-002  0.16464074163714831        0.0000000000000000     
  -1.0693011704785566E-006  0.16444906910640064        0.0000000000000000     
  -7.8593612899604398E-007  0.17237653265047814        0.0000000000000000     
  -4.2987385692934161E-007  0.18039128592579037        0.0000000000000000     
  -1.1143542744649921E-009  0.18849332893233725        0.0000000000000000     
   5.0034237896422196E-007  0.19668266167011880        0.0000000000000000     
  -5.7818695710017574E-003  0.16446101381307968        0.0000000000000000     
  -5.8678491461456039E-003  0.17238699621076256        0.0000000000000000     
  -5.9463780873773011E-003  0.18040043291983832        0.0000000000000000     
  -6.0174563946968490E-003  0.18850132394030703        0.0000000000000000     
  -6.0810840681042424E-003  0.19668966927216863        0.0000000000000000     
  -1.1595403881977936E-002  0.16449694080376401        0.0000000000000000     
  -1.1768843337287019E-002  0.17241914597381156        0.0000000000000000     
  -1.1927380212606465E-002  0.18042900153569541        0.0000000000000000     
  -1.2071014507936274E-002  0.18852650748941546        0.0000000000000000     
  -1.2199746223276447E-002  0.19671166383497182        0.0000000000000000     
  -1.7441672234099009E-002  0.16455685007845353        0.0000000000000000     
  -1.7703768509553238E-002  0.17247298193962524        0.0000000000000000     
  -1.7943436249544416E-002  0.18047699177336157        0.0000000000000000     
  -1.8160675454072555E-002  0.18856887957966256        0.0000000000000000     
  -1.8355486123137643E-002  0.19674864535852826        0.0000000000000000     
  -2.3320674627364986E-002  0.16464074163714831        0.0000000000000000     
  -2.3672624662944262E-002  0.17254850410820349        0.0000000000000000     
  -2.3994546198191156E-002  0.18054440363283686        0.0000000000000000     
  -2.4286439233105687E-002  0.18862844021104835        0.0000000000000000     
  -2.4548303767687837E-002  0.19680061384283801        0.0000000000000000     
   5.0034237896422196E-007  0.19668266167011880        0.0000000000000000     
   9.6151005878953623E-007  0.20494084506135576        0.0000000000000000     
   1.2694024012044032E-006  0.21324944002826887        0.0000000000000000     
   1.4240194062039712E-006  0.22160844657085821        0.0000000000000000     
   1.4253610737917366E-006  0.23001786468912364        0.0000000000000000     
  -6.0810840681042424E-003  0.19668966927216863        0.0000000000000000     
  -6.1375113672796910E-003  0.20494715059515850        0.0000000000000000     
  -6.1869885519033937E-003  0.21325544958901185        0.0000000000000000     
  -6.2295156219753529E-003  0.22161456625372866        0.0000000000000000     
  -6.2650925774955686E-003  0.23002450058930901        0.0000000000000000     
  -1.2199746223276447E-002  0.19671166383497182        0.0000000000000000     
  -1.2313914933116024E-002  0.20496670134399070        0.0000000000000000     
  -1.2413860211944050E-002  0.21327385078809835        0.0000000000000000     
  -1.2499582059760525E-002  0.22163311216729487        0.0000000000000000     
  -1.2571080476565452E-002  0.23004448548158016        0.0000000000000000     
  -1.8355486123137643E-002  0.19674864535852826        0.0000000000000000     
  -1.8528249187450208E-002  0.20499949730785236        0.0000000000000000     
  -1.8679345577720764E-002  0.21330464362552851        0.0000000000000000     
  -1.8808775293949313E-002  0.22166408431155674        0.0000000000000000     
  -1.8916538336135852E-002  0.23007781936593713        0.0000000000000000     
  -2.4548303767687837E-002  0.19680061384283801        0.0000000000000000     
  -2.4780514130282236E-002  0.20504553848674342        0.0000000000000000     
  -2.4983444649233532E-002  0.21334782810130221        0.0000000000000000     
  -2.5157095324541710E-002  0.22170748268651433        0.0000000000000000     
  -2.5301466156206778E-002  0.23012450224237987        0.0000000000000000     
   1.4253610737917366E-006  0.23001786468912364        0.0000000000000000     
   1.3642222410196504E-006  0.23844643782594710        0.0000000000000000     
   1.3313977449436751E-006  0.24686290942421046        0.0000000000000000     
   1.3268875855644883E-006  0.25526727948391370        0.0000000000000000     
   1.3506917628802739E-006  0.26365954800505681        0.0000000000000000     
  -6.2650925774955686E-003  0.23002450058930901        0.0000000000000000     
  -6.2949750240836131E-003  0.23845424423623504        0.0000000000000000     
  -6.3204185673590499E-003  0.24687278883498903        0.0000000000000000     
  -6.3414232073218859E-003  0.25528013438557101        0.0000000000000000     
  -6.3579889439721159E-003  0.26367628088798079        0.0000000000000000     
  -1.2571080476565452E-002  0.23004448548158016        0.0000000000000000     
  -1.2631139275611573E-002  0.23847767732228978        0.0000000000000000     
  -1.2682542270151639E-002  0.24690239428075908        0.0000000000000000     
  -1.2725289460185649E-002  0.25531863635698804        0.0000000000000000     
  -1.2759380845713606E-002  0.26372640355097676        0.0000000000000000     
  -1.8916538336135852E-002  0.23007781936593713        0.0000000000000000     
  -1.9007128532342866E-002  0.23851673708411114        0.0000000000000000     
  -1.9085039710632822E-002  0.24695172576152047        0.0000000000000000     
  -1.9150271871005733E-002  0.25538278539816495        0.0000000000000000     
  -1.9202825013461582E-002  0.26380991599404474        0.0000000000000000     
  -2.5301466156206778E-002  0.23012450224237987        0.0000000000000000     
  -2.5422942794277485E-002  0.23857142352169927        0.0000000000000000     
  -2.5527910888802602E-002  0.24702078327727328        0.0000000000000000     
  -2.5616370439782123E-002  0.25547258150910179        0.0000000000000000     
  -2.5688321447216056E-002  0.26392681821718472        0.0000000000000000     
   1.3506917628802739E-006  0.26365954800505681        0.0000000000000000     
   1.3762688807173688E-006  0.27197959045412429        0.0000000000000000     
   1.3770775429002664E-006  0.28016728229760052        0.0000000000000000     
   1.3531177494303492E-006  0.28822262353548533        0.0000000000000000     
   1.3043895003058553E-006  0.29614561416777896        0.0000000000000000     
  -6.3579889439721159E-003  0.26367628088798079        0.0000000000000000     
  -6.3739810735052235E-003  0.27200142297243851        0.0000000000000000     
  -6.3932648921166913E-003  0.28019575526916424        0.0000000000000000     
  -6.4158403998065133E-003  0.28825927777815780        0.0000000000000000     
  -6.4417075965746921E-003  0.29619199049941924        0.0000000000000000     
  -1.2759380845713606E-002  0.26372640355097676        0.0000000000000000     
  -1.2791981909612659E-002  0.27206682876794835        0.0000000000000000     
  -1.2830258134759966E-002  0.28028104491312605        0.0000000000000000     
  -1.2874209521155528E-002  0.28836905198650986        0.0000000000000000     
  -1.2923836068799344E-002  0.29633084998809972        0.0000000000000000     
  -1.9202825013461582E-002  0.26380991599404474        0.0000000000000000     
  -1.9252626239441583E-002  0.27217580784065371        0.0000000000000000     
  -1.9309602650386924E-002  0.28042315122948602        0.0000000000000000     
  -1.9373754246297611E-002  0.28855194616054164        0.0000000000000000     
  -1.9445081027173638E-002  0.29656219263382033        0.0000000000000000     
  -2.5688321447216056E-002  0.26392681821718472        0.0000000000000000     
  -2.5755914062991998E-002  0.27232836019055473        0.0000000000000000     
  -2.5831298438997570E-002  0.28062207421824409        0.0000000000000000     
  -2.5914474575232761E-002  0.28880796030025291        0.0000000000000000     
  -2.6005442471697587E-002  0.29688601843658113        0.0000000000000000     
  -1.4017000030777493E-002   5.5768769193831322E-002   0.0000000000000000     
  -1.4797019950230857E-002   6.1372681809364865E-002   0.0000000000000000     
  -1.5548166879491794E-002   6.7156676362358794E-002   0.0000000000000000     
  -1.6270440818560303E-002   7.3120752852813109E-002   0.0000000000000000     
  -1.6963841767436386E-002   7.9264911280727809E-002   0.0000000000000000     
  -1.7635623660930223E-002   5.6051077282957412E-002   0.0000000000000000     
  -1.8599094875518089E-002   6.1628784690702376E-002   0.0000000000000000     
  -1.9531057970707769E-002   6.7392942335460310E-002   0.0000000000000000     
  -2.0431512946499260E-002   7.3343550217231185E-002   0.0000000000000000     
  -2.1300459802892569E-002   7.9480608336015016E-002   0.0000000000000000     
  -2.1334375890856988E-002   5.6381316963566401E-002   0.0000000000000000     
  -2.2486269847409673E-002   6.1941261516712247E-002   0.0000000000000000     
  -2.3602252545323617E-002   6.7690661081520137E-002   0.0000000000000000     
  -2.4682323984598822E-002   7.3629515657990030E-002   0.0000000000000000     
  -2.5726484165235292E-002   7.9757825246121974E-002   0.0000000000000000     
  -2.5113256720557784E-002   5.6759488235658268E-002   0.0000000000000000     
  -2.6458544865905608E-002   6.2310112287394463E-002   0.0000000000000000     
  -2.7761750603339339E-002   6.8049832600538263E-002   0.0000000000000000     
  -2.9022873932858986E-002   7.3978649175089686E-002   0.0000000000000000     
  -3.0241914854464549E-002   8.0096562011048714E-002   0.0000000000000000     
  -2.8972266150032615E-002   5.7185591099233019E-002   0.0000000000000000     
  -3.0515919931005893E-002   6.2735337002749011E-002   0.0000000000000000     
  -3.2009552144754941E-002   6.8470456892514714E-002   0.0000000000000000     
  -3.3453162791279759E-002   7.4390950768530112E-002   0.0000000000000000     
  -3.4846751870580339E-002   8.0496818630795219E-002   0.0000000000000000     
  -1.6963841767436386E-002   7.9264911280727809E-002   0.0000000000000000     
  -1.7631540336366588E-002   8.5579333525460419E-002   0.0000000000000000     
  -1.8276707135597463E-002   9.2054201466368474E-002   0.0000000000000000     
  -1.8899342165129007E-002   9.8689515103451975E-002   0.0000000000000000     
  -1.9499445424961216E-002  0.10548527443671094        0.0000000000000000     
  -2.1300459802892569E-002   7.9480608336015016E-002   0.0000000000000000     
  -2.2139004127852913E-002   8.5790466434359849E-002   0.0000000000000000     
  -2.2948251509345513E-002   9.2259474254813775E-002   0.0000000000000000     
  -2.3728201947370367E-002   9.8887631797376779E-002   0.0000000000000000     
  -2.4478855441927475E-002  0.10567493906204888        0.0000000000000000     
  -2.5726484165235292E-002   7.9757825246121974E-002   0.0000000000000000     
  -2.6734752981135392E-002   8.6059885714477313E-002   0.0000000000000000     
  -2.7707150326201507E-002   9.2519992931617390E-002   0.0000000000000000     
  -2.8643676200433631E-002   9.9138146897542231E-002   0.0000000000000000     
  -2.9544330603831773E-002  0.10591434761225182        0.0000000000000000     
  -3.0241914854464549E-002   8.0096562011048714E-002   0.0000000000000000     
  -3.1418786896214038E-002   8.6387591365812769E-002   0.0000000000000000     
  -3.2553403586165458E-002   9.2835757496779303E-002   0.0000000000000000     
  -3.3645764924318818E-002   9.9441060403948317E-002   0.0000000000000000     
  -3.4695870910674109E-002  0.10620350008731975        0.0000000000000000     
  -3.4846751870580339E-002   8.0496818630795219E-002   0.0000000000000000     
  -3.6191105873088832E-002   8.6773583388366285E-002   0.0000000000000000     
  -3.7487011289237350E-002   9.3206767950299529E-002   0.0000000000000000     
  -3.8734468119025901E-002   9.9796372316595008E-002   0.0000000000000000     
  -3.9933476362454486E-002  0.10654239648725269        0.0000000000000000     
  -1.9499445424961216E-002  0.10548527443671094        0.0000000000000000     
  -2.0074353936850562E-002  0.11242913743755213        0.0000000000000000     
  -2.0621404722553499E-002  0.11950876207738241        0.0000000000000000     
  -2.1140597782070045E-002  0.12672414835620174        0.0000000000000000     
  -2.1631933115400185E-002  0.13407529627401016        0.0000000000000000     
  -2.4478855441927475E-002  0.10567493906204888        0.0000000000000000     
  -2.5197495955527758E-002  0.11260959432661624        0.0000000000000000     
  -2.5881407450682143E-002  0.11967979586886508        0.0000000000000000     
  -2.6530589927390619E-002  0.12688554368879534        0.0000000000000000     
  -2.7145043385653191E-002  0.13422683778640709        0.0000000000000000     
  -2.9544330603831773E-002  0.10591434761225182        0.0000000000000000     
  -3.0406497658922501E-002  0.11283718891566262        0.0000000000000000     
  -3.1227561488232393E-002  0.11989526464769105        0.0000000000000000     
  -3.2007522091761449E-002  0.12708857480833718        0.0000000000000000     
  -3.2746379469509673E-002  0.13441711939760093        0.0000000000000000     
  -3.4695870910674109E-002  0.10620350008731975        0.0000000000000000     
  -3.5701359047034788E-002  0.11311192120469128        0.0000000000000000     
  -3.6659866835204259E-002  0.12015516841386041        0.0000000000000000     
  -3.7571394275182544E-002  0.12733324171482721        0.0000000000000000     
  -3.8435941366969630E-002  0.13464614110759163        0.0000000000000000     
  -3.9933476362454486E-002  0.10654239648725269        0.0000000000000000     
  -4.1082080119864604E-002  0.11343379119370220        0.0000000000000000     
  -4.2178323491597731E-002  0.12045950716737312        0.0000000000000000     
  -4.3222206477653888E-002  0.12761954440826545        0.0000000000000000     
  -4.4213729078033073E-002  0.13491390291637920        0.0000000000000000     
  -2.1631933115400185E-002  0.13407529627401016        0.0000000000000000     
  -2.2095534312575688E-002  0.14154990816218349        0.0000000000000000     
  -2.2531524963628320E-002  0.14913568635209765        0.0000000000000000     
  -2.2939905068558090E-002  0.15683263084375260        0.0000000000000000     
  -2.3320674627364986E-002  0.16464074163714831        0.0000000000000000     
  -2.7145043385653191E-002  0.13422683778640709        0.0000000000000000     
  -2.7725249138636620E-002  0.14169138639697409        0.0000000000000000     
  -2.8271688499507654E-002  0.14926689775577001        0.0000000000000000     
  -2.8784361468266309E-002  0.15695337186279487        0.0000000000000000     
  -2.9263268044912569E-002  0.16475080871804870        0.0000000000000000     
  -3.2746379469509673E-002  0.13441711939760093        0.0000000000000000     
  -3.3444729418176077E-002  0.14186874857289000        0.0000000000000000     
  -3.4103167734459677E-002  0.14943131249161207        0.0000000000000000     
  -3.4721694418360469E-002  0.15710481115376709        0.0000000000000000     
  -3.5300309469878464E-002  0.16488924455935511        0.0000000000000000     
  -3.8435941366969630E-002  0.13464614110759163        0.0000000000000000     
  -3.9253975151194075E-002  0.14208199468993132        0.0000000000000000     
  -4.0025962668484398E-002  0.14962893055962381        0.0000000000000000     
  -4.0751903918840593E-002  0.15728694871666921        0.0000000000000000     
  -4.1431798902262673E-002  0.16505604916106745        0.0000000000000000     
  -4.4213729078033073E-002  0.13491390291637920        0.0000000000000000     
  -4.5152986337690597E-002  0.14233112474809792        0.0000000000000000     
  -4.6040073301581788E-002  0.14985975195980530        0.0000000000000000     
  -4.6874989969706661E-002  0.15749978455150124        0.0000000000000000     
  -4.7657736342065202E-002  0.16525122252318578        0.0000000000000000     
  -2.3320674627364986E-002  0.16464074163714831        0.0000000000000000     
  -2.3672624662944262E-002  0.17254850410820349        0.0000000000000000     
  -2.3994546198191156E-002  0.18054440363283686        0.0000000000000000     
  -2.4286439233105687E-002  0.18862844021104835        0.0000000000000000     
  -2.4548303767687837E-002  0.19680061384283801        0.0000000000000000     
  -2.9263268044912569E-002  0.16475080871804870        0.0000000000000000     
  -2.9706603122884583E-002  0.17264790208564784        0.0000000000000000     
  -3.0112561595620497E-002  0.18063334572970871        0.0000000000000000     
  -3.0481143463120305E-002  0.18870713965023128        0.0000000000000000     
  -3.0812348725384013E-002  0.19686928384721555        0.0000000000000000     
  -3.5300309469878464E-002  0.16488924455935511        0.0000000000000000     
  -3.5836895214798700E-002  0.17277336547805969        0.0000000000000000     
  -3.6329333978906225E-002  0.18074592667956463        0.0000000000000000     
  -3.6777625762201054E-002  0.18880692816386987        0.0000000000000000     
  -3.7181770564683164E-002  0.19695636993097543        0.0000000000000000     
  -4.1431798902262673E-002  0.16505604916106745        0.0000000000000000     
  -4.2063500938686611E-002  0.17292489428543908        0.0000000000000000     
  -4.2644863348048359E-002  0.18088214648240461        0.0000000000000000     
  -4.3175886130347930E-002  0.18892780575196411        0.0000000000000000     
  -4.3656569285585291E-002  0.19706187209411752        0.0000000000000000     
  -4.7657736342065202E-002  0.16525122252318578        0.0000000000000000     
  -4.8386420294548309E-002  0.17310248850778592        0.0000000000000000     
  -4.9059149703046881E-002  0.18104200513822868        0.0000000000000000     
  -4.9675924567560904E-002  0.18906977241451403        0.0000000000000000     
  -5.0236744888090393E-002  0.19718579033664199        0.0000000000000000     
  -2.4548303767687837E-002  0.19680061384283801        0.0000000000000000     
  -2.4780514130282236E-002  0.20504553848674342        0.0000000000000000     
  -2.4983444649233532E-002  0.21334782810130221        0.0000000000000000     
  -2.5157095324541710E-002  0.22170748268651433        0.0000000000000000     
  -2.5301466156206778E-002  0.23012450224237987        0.0000000000000000     
  -3.0812348725384013E-002  0.19686928384721555        0.0000000000000000     
  -3.1106359295836369E-002  0.20510605352603492        0.0000000000000000     
  -3.1363357087902125E-002  0.21340372389206283        0.0000000000000000     
  -3.1583342101581299E-002  0.22176229494529917        0.0000000000000000     
  -3.1766314336873866E-002  0.23018176668574397        0.0000000000000000     
  -3.7181770564683164E-002  0.19695636993097543        0.0000000000000000     
  -3.7541434218336840E-002  0.20518227107109777        0.0000000000000000     
  -3.7856282555146330E-002  0.21347265067445351        0.0000000000000000     
  -3.8126315575111654E-002  0.22182750874104265        0.0000000000000000     
  -3.8351533278232791E-002  0.23024684527086517        0.0000000000000000     
  -4.3656569285585291E-002  0.19706187209411752        0.0000000000000000     
  -4.4085738897783645E-002  0.20527419112193196        0.0000000000000000     
  -4.4462221050966144E-002  0.21355460844847440        0.0000000000000000     
  -4.4786015745132766E-002  0.22190312407374488        0.0000000000000000     
  -4.5057122980283547E-002  0.23031973799774336        0.0000000000000000     
  -5.0236744888090393E-002  0.19718579033664199        0.0000000000000000     
  -5.0739273334176792E-002  0.20538181367853750        0.0000000000000000     
  -5.1181172575361540E-002  0.21364959721412541        0.0000000000000000     
  -5.1562442611644652E-002  0.22198914094340580        0.0000000000000000     
  -5.1883083443026119E-002  0.23040044486637862        0.0000000000000000     
  -2.5301466156206778E-002  0.23012450224237987        0.0000000000000000     
  -2.5422942794277485E-002  0.23857142352169927        0.0000000000000000     
  -2.5527910888802602E-002  0.24702078327727328        0.0000000000000000     
  -2.5616370439782123E-002  0.25547258150910179        0.0000000000000000     
  -2.5688321447216056E-002  0.26392681821718472        0.0000000000000000     
  -3.1766314336873866E-002  0.23018176668574397        0.0000000000000000     
  -3.1920253540604362E-002  0.23863727565991355        0.0000000000000000     
  -3.2053139459597292E-002  0.24710395841432409        0.0000000000000000     
  -3.2164972093852669E-002  0.25558181494897558        0.0000000000000000     
  -3.2255751443370471E-002  0.26407084526386804        0.0000000000000000     
  -3.8351533278232791E-002  0.23024684527086517        0.0000000000000000     
  -3.8540732250512424E-002  0.23870983252361339        0.0000000000000000     
  -3.8702709077953222E-002  0.24719564275897954        0.0000000000000000     
  -3.8837463760555170E-002  0.25570427597696377        0.0000000000000000     
  -3.8944996298318289E-002  0.26423573217756602        0.0000000000000000     
  -4.5057122980283547E-002  0.23031973799774336        0.0000000000000000     
  -4.5284378924001674E-002  0.23878909411279875        0.0000000000000000     
  -4.5476619743870364E-002  0.24729583631123969        0.0000000000000000     
  -4.5633845439889652E-002  0.25583996459306629        0.0000000000000000     
  -4.5756056012059496E-002  0.26442147895827856        0.0000000000000000     
  -5.1883083443026119E-002  0.23040044486637862        0.0000000000000000     
  -5.2151193561072104E-002  0.23887506042746964        0.0000000000000000     
  -5.2374871457348753E-002  0.24740453907110449        0.0000000000000000     
  -5.2554117131856093E-002  0.25598888079728316        0.0000000000000000     
  -5.2688930584594097E-002  0.26462808560600570        0.0000000000000000     
  -2.5688321447216056E-002  0.26392681821718472        0.0000000000000000     
  -2.5755914062991998E-002  0.27232836019055473        0.0000000000000000     
  -2.5831298438997570E-002  0.28062207421824409        0.0000000000000000     
  -2.5914474575232761E-002  0.28880796030025291        0.0000000000000000     
  -2.6005442471697587E-002  0.29688601843658113        0.0000000000000000     
  -3.2255751443370471E-002  0.26407084526386804        0.0000000000000000     
  -3.2340260787186936E-002  0.27251815189125611        0.0000000000000000     
  -3.2433283404338278E-002  0.28087083736339447        0.0000000000000000     
  -3.2534819294824512E-002  0.28912890168028310        0.0000000000000000     
  -3.2644868458645615E-002  0.29729234484192191        0.0000000000000000     
  -3.8944996298318289E-002  0.26423573217756602        0.0000000000000000     
  -3.9044081818949417E-002  0.27273884901636292        0.0000000000000000     
  -3.9153495450155451E-002  0.28116246414893137        0.0000000000000000     
  -3.9273237191936351E-002  0.28950657757527121        0.0000000000000000     
  -3.9403307044292159E-002  0.29777118929538260        0.0000000000000000     
  -4.5756056012059496E-002  0.26442147895827856        0.0000000000000000     
  -4.5867377158279453E-002  0.27299045156587509        0.0000000000000000     
  -4.5991934576449060E-002  0.28149695457485469        0.0000000000000000     
  -4.6129728266568304E-002  0.28994098798521739        0.0000000000000000     
  -4.6280758228637212E-002  0.29832255179696310        0.0000000000000000     
  -5.2688930584594097E-002  0.26462808560600570        0.0000000000000000     
  -5.2810146805177011E-002  0.27327295953979269        0.0000000000000000     
  -5.2948600783219106E-002  0.28187430864116458        0.0000000000000000     
  -5.3104292518720363E-002  0.29043213291012154        0.0000000000000000     
  -5.3277222011680780E-002  0.29894643234666352        0.0000000000000000     
  -2.8972266150032615E-002   5.7185591099233019E-002   0.0000000000000000     
  -3.0515919931005893E-002   6.2735337002749011E-002   0.0000000000000000     
  -3.2009552144754941E-002   6.8470456892514714E-002   0.0000000000000000     
  -3.3453162791279759E-002   7.4390950768530112E-002   0.0000000000000000     
  -3.4846751870580339E-002   8.0496818630795219E-002   0.0000000000000000     
  -3.2947141326379853E-002   5.7667486228692805E-002   0.0000000000000000     
  -3.4689335649231025E-002   6.3217394016580525E-002   0.0000000000000000     
  -3.6373265216309673E-002   6.8947678493183992E-002   0.0000000000000000     
  -3.7998930027615785E-002   7.4858339658503165E-002   0.0000000000000000     
  -3.9566330083149345E-002   8.0949377512538084E-002   0.0000000000000000     
  -3.7073619396697871E-002   5.8213034298439777E-002   0.0000000000000000     
  -3.9009732627101529E-002   6.3756741682693602E-002   0.0000000000000000     
  -4.0880497864742821E-002   6.9476641938280556E-002   0.0000000000000000     
  -4.2685915109621719E-002   7.5372735065200674E-002   0.0000000000000000     
  -4.4425984361738231E-002   8.1445021063453901E-002   0.0000000000000000     
  -4.1351700360986676E-002   5.8822235308473948E-002   0.0000000000000000     
  -4.3477110864617398E-002   6.4353380001088228E-002   0.0000000000000000     
  -4.5531250090054355E-002   7.0057347227804476E-002   0.0000000000000000     
  -4.7514118037297569E-002   7.5934136988622628E-002   0.0000000000000000     
  -4.9425714706347004E-002   8.1983749283542726E-002   0.0000000000000000     
  -4.5781384219246254E-002   5.9495089258795306E-002   0.0000000000000000     
  -4.8091470361778611E-002   6.5007308971764433E-002   0.0000000000000000     
  -5.0325521892244304E-002   7.0689794361755667E-002   0.0000000000000000     
  -5.2483538810643313E-002   7.6542545428769024E-002   0.0000000000000000     
  -5.4565521116975657E-002   8.2565562172804502E-002   0.0000000000000000     
  -3.4846751870580339E-002   8.0496818630795219E-002   0.0000000000000000     
  -3.6191105873088832E-002   8.6773583388366285E-002   0.0000000000000000     
  -3.7487011289237350E-002   9.3206767950299529E-002   0.0000000000000000     
  -3.8734468119025901E-002   9.9796372316595008E-002   0.0000000000000000     
  -3.9933476362454486E-002  0.10654239648725269        0.0000000000000000     
  -3.9566330083149345E-002   8.0949377512538084E-002   0.0000000000000000     
  -4.1077424820084869E-002   8.7208712558072887E-002   0.0000000000000000     
  -4.2534173675596858E-002   9.3624265297891723E-002   0.0000000000000000     
  -4.3936576649685311E-002  0.10019603573199462        0.0000000000000000     
  -4.5284633742350228E-002  0.10692402386038151        0.0000000000000000     
  -4.4425984361738231E-002   8.1445021063453901E-002   0.0000000000000000     
  -4.6103458645527257E-002   8.7683829650867740E-002   0.0000000000000000     
  -4.7721090985423667E-002   9.4079490545269526E-002   0.0000000000000000     
  -4.9278881381427476E-002  0.10063200374665932        0.0000000000000000     
  -5.0776829833538657E-002  0.10734136925503708        0.0000000000000000     
  -4.9425714706347004E-002   8.1983749283542726E-002   0.0000000000000000     
  -5.1269207349415973E-002   8.8198934666750828E-002   0.0000000000000000     
  -5.3047763218717757E-002   9.4572443692432964E-002   0.0000000000000000     
  -5.4761382314252371E-002  0.10110427636058915        0.0000000000000000     
  -5.6410064636019788E-002  0.10779443267121940        0.0000000000000000     
  -5.4565521116975657E-002   8.2565562172804502E-002   0.0000000000000000     
  -5.6574670931751024E-002   8.8754027605722124E-002   0.0000000000000000     
  -5.8514190375479141E-002   9.5103124739381997E-002   0.0000000000000000     
  -6.0384079448160009E-002  0.10161285357378412        0.0000000000000000     
  -6.2184338149793614E-002  0.10828321410892847        0.0000000000000000     
  -3.9933476362454486E-002  0.10654239648725269        0.0000000000000000     
  -4.1082080119864604E-002  0.11343379119370220        0.0000000000000000     
  -4.2178323491597731E-002  0.12045950716737312        0.0000000000000000     
  -4.3222206477653888E-002  0.12761954440826545        0.0000000000000000     
  -4.4213729078033073E-002  0.13491390291637920        0.0000000000000000     
  -4.5284633742350228E-002  0.10692402386038151        0.0000000000000000     
  -4.6576683510080027E-002  0.11379704109215880        0.0000000000000000     
  -4.7811064509363156E-002  0.12080389883643285        0.0000000000000000     
  -4.8987776740199586E-002  0.12794459709320358        0.0000000000000000     
  -5.0106820202589331E-002  0.13521913586247108        0.0000000000000000     
  -5.0776829833538657E-002  0.10734136925503708        0.0000000000000000     
  -5.2213191850349158E-002  0.11419591310952448        0.0000000000000000     
  -5.3586222940450838E-002  0.12118396134924325        0.0000000000000000     
  -5.4895923103843718E-002  0.12830551397419332        0.0000000000000000     
  -5.6142292340527797E-002  0.13556057098437474        0.0000000000000000     
  -5.6410064636019788E-002  0.10779443267121940        0.0000000000000000     
  -5.7991605140671955E-002  0.11463040724579926        0.0000000000000000     
  -5.9503798784860784E-002  0.12159969470580434        0.0000000000000000     
  -6.0946645568586283E-002  0.12870229505123468        0.0000000000000000     
  -6.2320145491848444E-002  0.13593820828209016        0.0000000000000000     
  -6.2184338149793614E-002  0.10828321410892847        0.0000000000000000     
  -6.3911923381048452E-002  0.11510052350098313        0.0000000000000000     
  -6.5563792042593022E-002  0.12205109890611614        0.0000000000000000     
  -6.7139944134427296E-002  0.12913494032432757        0.0000000000000000     
  -6.8640379656551287E-002  0.13635204775561738        0.0000000000000000     
  -4.4213729078033073E-002  0.13491390291637920        0.0000000000000000     
  -4.5152986337690597E-002  0.14233112474809792        0.0000000000000000     
  -4.6040073301581788E-002  0.14985975195980530        0.0000000000000000     
  -4.6874989969706661E-002  0.15749978455150124        0.0000000000000000     
  -4.7657736342065202E-002  0.16525122252318578        0.0000000000000000     
  -5.0106820202589331E-002  0.13521913586247108        0.0000000000000000     
  -5.1168032969635416E-002  0.14261637049794992        0.0000000000000000     
  -5.2171253114440833E-002  0.15012515635335480        0.0000000000000000     
  -5.3116480637005602E-002  0.15774549342868568        0.0000000000000000     
  -5.4003715537329688E-002  0.16547738172394258        0.0000000000000000     
  -5.6142292340527797E-002  0.13556057098437474        0.0000000000000000     
  -5.7325385038998304E-002  0.14293796369004727        0.0000000000000000     
  -5.8445255587750468E-002  0.15042652340147067        0.0000000000000000     
  -5.9501903986784316E-002  0.15802625011864502        0.0000000000000000     
  -6.0495330236099820E-002  0.16573714384157023        0.0000000000000000     
  -6.2320145491848444E-002  0.13593820828209016        0.0000000000000000     
  -6.3625042545779262E-002  0.14329590432438993        0.0000000000000000     
  -6.4862080721510715E-002  0.15076385310415291        0.0000000000000000     
  -6.6031260019042803E-002  0.15834205462137926        0.0000000000000000     
  -6.7132580438375555E-002  0.16603050887606882        0.0000000000000000     
  -6.8640379656551287E-002  0.13635204775561738        0.0000000000000000     
  -7.0067005489978282E-002  0.14369019240097791        0.0000000000000000     
  -7.1421728515721553E-002  0.15113714546140161        0.0000000000000000     
  -7.2704548733781099E-002  0.15869290693688837        0.0000000000000000     
  -7.3915466144156908E-002  0.16635747682743829        0.0000000000000000     
  -4.7657736342065202E-002  0.16525122252318578        0.0000000000000000     
  -4.8386420294548309E-002  0.17310248850778592        0.0000000000000000     
  -4.9059149703046881E-002  0.18104200513822868        0.0000000000000000     
  -4.9675924567560904E-002  0.18906977241451403        0.0000000000000000     
  -5.0236744888090393E-002  0.19718579033664199        0.0000000000000000     
  -5.4003715537329688E-002  0.16547738172394258        0.0000000000000000     
  -5.4831398894311399E-002  0.17330914349853274        0.0000000000000000     
  -5.5597971786848950E-002  0.18122910101186343        0.0000000000000000     
  -5.6303434214942334E-002  0.18923725426393470        0.0000000000000000     
  -5.6947786178591586E-002  0.19733360325474650        0.0000000000000000     
  -6.0495330236099820E-002  0.16573714384157023        0.0000000000000000     
  -6.1424182349903454E-002  0.17354785461111191        0.0000000000000000     
  -6.2287108342401698E-002  0.18144703246813559        0.0000000000000000     
  -6.3084108213594545E-002  0.18943467741264119        0.0000000000000000     
  -6.3815181963482001E-002  0.19751078944462877        0.0000000000000000     
  -6.7132580438375555E-002  0.16603050887606882        0.0000000000000000     
  -6.8164770661324481E-002  0.17381862184552346        0.0000000000000000     
  -6.9126559369705132E-002  0.18169579950704506        0.0000000000000000     
  -7.0017946563517522E-002  0.18966204186063351        0.0000000000000000     
  -7.0838932242761624E-002  0.19771734890628892        0.0000000000000000     
  -7.3915466144156908E-002  0.16635747682743829        0.0000000000000000     
  -7.5053163828574479E-002  0.17412144520176742        0.0000000000000000     
  -7.6116324868759272E-002  0.18197540212859187        0.0000000000000000     
  -7.7104949264711259E-002  0.18991934760791168        0.0000000000000000     
  -7.8019037016430454E-002  0.19795328163972681        0.0000000000000000     
  -5.0236744888090393E-002  0.19718579033664199        0.0000000000000000     
  -5.0739273334176792E-002  0.20538181367853750        0.0000000000000000     
  -5.1181172575361540E-002  0.21364959721412541        0.0000000000000000     
  -5.1562442611644652E-002  0.22198914094340580        0.0000000000000000     
  -5.1883083443026119E-002  0.23040044486637862        0.0000000000000000     
  -5.6947786178591586E-002  0.19733360325474650        0.0000000000000000     
  -5.7527880799028555E-002  0.20551141896087502        0.0000000000000000     
  -5.8040571197485104E-002  0.21376397235889649        0.0000000000000000     
  -5.8485857373961239E-002  0.22209126344881089        0.0000000000000000     
  -5.8863739328456961E-002  0.23049329223061824        0.0000000000000000     
  -6.3815181963482001E-002  0.19751078944462877        0.0000000000000000     
  -6.4477404563851232E-002  0.20566928718890529        0.0000000000000000     
  -6.5067850986489387E-002  0.21390408927027751        0.0000000000000000     
  -6.5586521231396494E-002  0.22221519568874559        0.0000000000000000     
  -6.6033415298572526E-002  0.23060260644430947        0.0000000000000000     
  -7.0838932242761624E-002  0.19771734890628892        0.0000000000000000     
  -7.1587844628644801E-002  0.20585541836262822        0.0000000000000000     
  -7.2263011942374403E-002  0.21406994794826859        0.0000000000000000     
  -7.2864434183950402E-002  0.22236093766320997        0.0000000000000000     
  -7.3392111353372813E-002  0.23072838750745234        0.0000000000000000     
  -7.8019037016430454E-002  0.19795328163972681        0.0000000000000000     
  -7.8859200993409262E-002  0.20606981248204390        0.0000000000000000     
  -7.9626054065140117E-002  0.21426154839286957        0.0000000000000000     
  -8.0319596231622950E-002  0.22252848937220390        0.0000000000000000     
  -8.0939827492857816E-002  0.23087063542004682        0.0000000000000000     
  -5.1883083443026119E-002  0.23040044486637862        0.0000000000000000     
  -5.2151193561072104E-002  0.23887506042746964        0.0000000000000000     
  -5.2374871457348753E-002  0.24740453907110449        0.0000000000000000     
  -5.2554117131856093E-002  0.25598888079728316        0.0000000000000000     
  -5.2688930584594097E-002  0.26462808560600570        0.0000000000000000     
  -5.8863739328456961E-002  0.23049329223061824        0.0000000000000000     
  -5.9180304185662932E-002  0.23896914987284429        0.0000000000000000     
  -5.9441639070269843E-002  0.24751792754401483        0.0000000000000000     
  -5.9647743982277672E-002  0.25613962524412986        0.0000000000000000     
  -5.9798618921686433E-002  0.26483424297318947        0.0000000000000000     
  -6.6033415298572526E-002  0.23060260644430947        0.0000000000000000     
  -6.6410838821713433E-002  0.23907278085414091        0.0000000000000000     
  -6.6721097434515111E-002  0.24763217823541178        0.0000000000000000     
  -6.6964191136977588E-002  0.25628079858812203        0.0000000000000000     
  -6.7140119929100822E-002  0.26501864191227170        0.0000000000000000     
  -7.3392111353372813E-002  0.23072838750745234        0.0000000000000000     
  -7.3842797469223564E-002  0.23918595337135951        0.0000000000000000     
  -7.4213246550084558E-002  0.24774729114529531        0.0000000000000000     
  -7.4503458595955821E-002  0.25641240082925965        0.0000000000000000     
  -7.4713433606837298E-002  0.26518128242325262        0.0000000000000000     
  -8.0939827492857816E-002  0.23087063542004682        0.0000000000000000     
  -8.1476180128193354E-002  0.23930866742450008        0.0000000000000000     
  -8.1918086416978175E-002  0.24786326627366534        0.0000000000000000     
  -8.2265546359212377E-002  0.25653443196754261        0.0000000000000000     
  -8.2518559954895848E-002  0.26532216450613194        0.0000000000000000     
  -5.2688930584594097E-002  0.26462808560600570        0.0000000000000000     
  -5.2810146805177011E-002  0.27327295953979269        0.0000000000000000     
  -5.2948600783219106E-002  0.28187430864116458        0.0000000000000000     
  -5.3104292518720363E-002  0.29043213291012154        0.0000000000000000     
  -5.3277222011680780E-002  0.29894643234666352        0.0000000000000000     
  -5.9798618921686433E-002  0.26483424297318947        0.0000000000000000     
  -5.9931148545723859E-002  0.27355767274307158        0.0000000000000000     
  -6.0082217511617748E-002  0.28226580656565448        0.0000000000000000     
  -6.0251825819368054E-002  0.29095864444093816        0.0000000000000000     
  -6.0439973468974811E-002  0.29963618636892253        0.0000000000000000     
  -6.7140119929100822E-002  0.26501864191227170        0.0000000000000000     
  -6.7289140166001710E-002  0.27381589098066794        0.0000000000000000     
  -6.7451508202797078E-002  0.28264272856611794        0.0000000000000000     
  -6.7627224039486927E-002  0.29149915466862159        0.0000000000000000     
  -6.7816287676071244E-002  0.30038516928817893        0.0000000000000000     
  -7.4713433606837298E-002  0.26518128242325262        0.0000000000000000     
  -7.4884121666010578E-002  0.27404761425258167        0.0000000000000000     
  -7.5056472856757137E-002  0.28300507464255481        0.0000000000000000     
  -7.5230487179076946E-002  0.29205366359317181        0.0000000000000000     
  -7.5406164632970077E-002  0.30119338110443272        0.0000000000000000     
  -8.2518559954895848E-002  0.26532216450613194        0.0000000000000000     
  -8.2716093045750436E-002  0.27425284255881294        0.0000000000000000     
  -8.2897111473497875E-002  0.28335284479496525        0.0000000000000000     
  -8.3061615238138153E-002  0.29262217121458889        0.0000000000000000     
  -8.3209604339671298E-002  0.30206082181768384        0.0000000000000000     
  -4.5781384219246254E-002   5.9495089258795306E-002   0.0000000000000000     
  -4.8091470361778611E-002   6.5007308971764433E-002   0.0000000000000000     
  -5.0325521892244304E-002   7.0689794361755667E-002   0.0000000000000000     
  -5.2483538810643313E-002   7.6542545428769024E-002   0.0000000000000000     
  -5.4565521116975657E-002   8.2565562172804502E-002   0.0000000000000000     
  -5.0380728189523841E-002   6.0232872073016371E-002   0.0000000000000000     
  -5.2875513973575518E-002   6.5716345112037944E-002   0.0000000000000000     
  -5.5289383329451526E-002   7.1371018113402088E-002   0.0000000000000000     
  -5.7622336257151852E-002   7.7196891077108837E-002   0.0000000000000000     
  -5.9874372756676494E-002   8.3193964003158163E-002   0.0000000000000000     
  -5.5167789489866670E-002   6.1036859674749630E-002   0.0000000000000000     
  -5.7851944554998438E-002   6.6478304939224478E-002   0.0000000000000000     
  -6.0448904459814899E-002   7.2098053256011596E-002   0.0000000000000000     
  -6.2958669204316017E-002   7.7896104625110998E-002   0.0000000000000000     
  -6.5381238788501814E-002   8.3872459046522643E-002   0.0000000000000000     
  -6.0142568120274721E-002   6.1907052063995105E-002   0.0000000000000000     
  -6.3020762106047359E-002   6.7293188453324063E-002   0.0000000000000000     
  -6.5804085283334410E-002   7.2870899789584179E-002   0.0000000000000000     
  -6.8492537652135810E-002   7.8640186072775481E-002   0.0000000000000000     
  -7.1086119212451643E-002   8.4601047302897969E-002   0.0000000000000000     
  -6.5305064080748015E-002   6.2843449240752788E-002   0.0000000000000000     
  -6.8381966626722301E-002   6.8160995654336670E-002   0.0000000000000000     
  -7.1354925800010072E-002   7.3689557714119849E-002   0.0000000000000000     
  -7.4223941600611257E-002   7.9429135420102326E-002   0.0000000000000000     
  -7.6989014028525926E-002   8.5379728772284100E-002   0.0000000000000000     
  -5.4565521116975657E-002   8.2565562172804502E-002   0.0000000000000000     
  -5.6574670931751024E-002   8.8754027605722124E-002   0.0000000000000000     
  -5.8514190375479141E-002   9.5103124739381997E-002   0.0000000000000000     
  -6.0384079448160009E-002  0.10161285357378412        0.0000000000000000     
  -6.2184338149793614E-002  0.10828321410892847        0.0000000000000000     
  -5.9874372756676494E-002   8.3193964003158163E-002   0.0000000000000000     
  -6.2048799485259362E-002   8.9357494775683249E-002   0.0000000000000000     
  -6.4148923100134356E-002   9.5682741278817277E-002   0.0000000000000000     
  -6.6174743601301475E-002  0.10216970351256020        0.0000000000000000     
  -6.8126260988760720E-002  0.10881838147691208        0.0000000000000000     
  -6.5381238788501814E-002   8.3872459046522643E-002   0.0000000000000000     
  -6.7720543102667910E-002   9.0017722484535739E-002   0.0000000000000000     
  -6.9980512037109935E-002   9.6322500903439329E-002   0.0000000000000000     
  -7.2161145591827833E-002  0.10278679430323343        0.0000000000000000     
  -7.4262443766821701E-002  0.10941060268391808        0.0000000000000000     
  -7.1086119212451643E-002   8.4601047302897969E-002   0.0000000000000000     
  -7.3589901783976688E-002   9.0734710732279567E-002   0.0000000000000000     
  -7.6008957186405837E-002   9.7022403613248168E-002   0.0000000000000000     
  -7.8343285419739131E-002  0.10346412594580380        0.0000000000000000     
  -8.0592886483976528E-002  0.11005987772994646        0.0000000000000000     
  -7.6989014028525926E-002   8.5379728772284100E-002   0.0000000000000000     
  -7.9656875529185656E-002   9.1508459518914745E-002   0.0000000000000000     
  -8.2234258548022132E-002   9.7782449408243821E-002   0.0000000000000000     
  -8.4721163085035300E-002  0.10420169844027129        0.0000000000000000     
  -8.7117589140225216E-002  0.11076620661499720        0.0000000000000000     
  -6.2184338149793614E-002  0.10828321410892847        0.0000000000000000     
  -6.3911923381048452E-002  0.11510052350098313        0.0000000000000000     
  -6.5563792042593022E-002  0.12205109890611614        0.0000000000000000     
  -6.7139944134427296E-002  0.12913494032432757        0.0000000000000000     
  -6.8640379656551287E-002  0.13635204775561738        0.0000000000000000     
  -6.8126260988760720E-002  0.10881838147691208        0.0000000000000000     
  -6.9999609279180933E-002  0.11561461812734745        0.0000000000000000     
  -7.1790922489230996E-002  0.12254425641934086        0.0000000000000000     
  -7.3500200618910883E-002  0.12960729635289231        0.0000000000000000     
  -7.5127443668220606E-002  0.13680373792800185        0.0000000000000000     
  -7.4262443766821701E-002  0.10941060268391808        0.0000000000000000     
  -7.6280125542771721E-002  0.11618104737716370        0.0000000000000000     
  -7.8209909900358240E-002  0.12308524971464076        0.0000000000000000     
  -8.0051796839581246E-002  0.13012320969634922        0.0000000000000000     
  -8.1805786360440738E-002  0.13729492732228910        0.0000000000000000     
  -8.0592886483976528E-002  0.11005987772994646        0.0000000000000000     
  -8.2753472171820774E-002  0.11679981125043189        0.0000000000000000     
  -8.4820754275974727E-002  0.12367407879201579        0.0000000000000000     
  -8.6794732796438345E-002  0.13068268035469827        0.0000000000000000     
  -8.8675407733211614E-002  0.13782561593847914        0.0000000000000000     
  -8.7117589140225216E-002  0.11076620661499720        0.0000000000000000     
  -8.9419649166328163E-002  0.11747090974715196        0.0000000000000000     
  -9.1623455616080499E-002  0.12431074365146602        0.0000000000000000     
  -9.3729008489482193E-002  0.13128570832793937        0.0000000000000000     
  -9.5736307786533276E-002  0.13839580377657201        0.0000000000000000     
  -6.8640379656551287E-002  0.13635204775561738        0.0000000000000000     
  -7.0067005489978282E-002  0.14369019240097791        0.0000000000000000     
  -7.1421728515721553E-002  0.15113714546140161        0.0000000000000000     
  -7.2704548733781099E-002  0.15869290693688837        0.0000000000000000     
  -7.3915466144156908E-002  0.16635747682743829        0.0000000000000000     
  -7.5127443668220606E-002  0.13680373792800185        0.0000000000000000     
  -7.6675654654248859E-002  0.14412073600908401        0.0000000000000000     
  -7.8147836594084294E-002  0.15154544546055340        0.0000000000000000     
  -7.9543989487726938E-002  0.15907786628241005        0.0000000000000000     
  -8.0864113335176804E-002  0.16671799847465399        0.0000000000000000     
  -8.1805786360440738E-002  0.13729492732228910        0.0000000000000000     
  -8.3475370821244468E-002  0.14458744323798092        0.0000000000000000     
  -8.5064042580300273E-002  0.15198779808894525        0.0000000000000000     
  -8.6571801637608151E-002  0.15949599187518199        0.0000000000000000     
  -8.7998647993168089E-002  0.16711202459669119        0.0000000000000000     
  -8.8675407733211614E-002  0.13782561593847914        0.0000000000000000     
  -9.0466153990965137E-002  0.14509031408766873        0.0000000000000000     
  -9.2170346474369488E-002  0.15246420334657707        0.0000000000000000     
  -9.3787985183424724E-002  0.15994728371520417        0.0000000000000000     
  -9.5319070118130775E-002  0.16753955519354999        0.0000000000000000     
  -9.5736307786533276E-002  0.13839580377657201        0.0000000000000000     
  -9.7648004163410823E-002  0.14562934855814738        0.0000000000000000     
  -9.9466748276291941E-002  0.15297466123344888        0.0000000000000000     
 -0.10119254012517663       0.16043174180247652        0.0000000000000000     
 -0.10282537971006489       0.16800059026523032        0.0000000000000000     
  -7.3915466144156908E-002  0.16635747682743829        0.0000000000000000     
  -7.5053163828574479E-002  0.17412144520176742        0.0000000000000000     
  -7.6116324868759272E-002  0.18197540212859187        0.0000000000000000     
  -7.7104949264711259E-002  0.18991934760791168        0.0000000000000000     
  -7.8019037016430454E-002  0.19795328163972681        0.0000000000000000     
  -8.0864113335176804E-002  0.16671799847465399        0.0000000000000000     
  -8.2107144518844835E-002  0.17445733004923095        0.0000000000000000     
  -8.3272019421142013E-002  0.18228734901808674        0.0000000000000000     
  -8.4358738042068351E-002  0.19020805538122143        0.0000000000000000     
  -8.5367300381623851E-002  0.19821944913863490        0.0000000000000000     
  -8.7998647993168089E-002  0.16711202459669119        0.0000000000000000     
  -8.9344495399326873E-002  0.17482728175730120        0.0000000000000000     
  -9.0609257608431318E-002  0.18263314886084026        0.0000000000000000     
  -9.1792934620481409E-002  0.19052962590730838        0.0000000000000000     
  -9.2895526435477174E-002  0.19851671289670555        0.0000000000000000     
  -9.5319070118130775E-002  0.16753955519354999        0.0000000000000000     
  -9.6765216470020635E-002  0.17523130032597822        0.0000000000000000     
  -9.8128039430627173E-002  0.18301280165685244        0.0000000000000000     
  -9.9407538999950446E-002  0.19088405918617263        0.0000000000000000     
 -0.10060371517799042       0.19884507291393877        0.0000000000000000     
 -0.10282537971006489       0.16800059026523032        0.0000000000000000     
 -0.10436930773092608       0.17566938575526198        0.0000000000000000     
 -0.10582836488772961       0.18342630740612323        0.0000000000000000     
 -0.10720255118047542       0.19127135521781408        0.0000000000000000     
 -0.10849186660916357       0.19920452919033454        0.0000000000000000     
  -7.8019037016430454E-002  0.19795328163972681        0.0000000000000000     
  -7.8859200993409262E-002  0.20606981248204390        0.0000000000000000     
  -7.9626054065140117E-002  0.21426154839286957        0.0000000000000000     
  -8.0319596231622950E-002  0.22252848937220390        0.0000000000000000     
  -8.0939827492857816E-002  0.23087063542004682        0.0000000000000000     
  -8.5367300381623851E-002  0.19821944913863490        0.0000000000000000     
  -8.6300666633464473E-002  0.20631327251019460        0.0000000000000000     
  -8.7161796991246168E-002  0.21448126771576773        0.0000000000000000     
  -8.7950691454968907E-002  0.22272343475535439        0.0000000000000000     
  -8.8667350024632746E-002  0.23103977362895456        0.0000000000000000     
  -9.2895526435477174E-002  0.19851671289670555        0.0000000000000000     
  -9.3921434524130223E-002  0.20658660141012253        0.0000000000000000     
  -9.4875060357152194E-002  0.21473148302865011        0.0000000000000000     
  -9.5756403934543030E-002  0.22295135775228836        0.0000000000000000     
  -9.6565465256302829E-002  0.23124622558103705        0.0000000000000000     
 -0.10060371517799042       0.19884507291393877        0.0000000000000000     
 -0.10172150466540653       0.20688979918182787        0.0000000000000000     
 -0.10276584416285815       0.21501219433151683        0.0000000000000000     
 -0.10373673367034535       0.22321225836300565        0.0000000000000000     
 -0.10463417318786808       0.23148999127629433        0.0000000000000000     
 -0.10849186660916357       0.19920452919033454        0.0000000000000000     
 -0.10970087705729337       0.20722286582531044        0.0000000000000000     
 -0.11083414840836411       0.21532340162436775        0.0000000000000000     
 -0.11189168066237581       0.22350613658750637        0.0000000000000000     
 -0.11287347381932847       0.23177107071472638        0.0000000000000000     
  -8.0939827492857816E-002  0.23087063542004682        0.0000000000000000     
  -8.1476180128193354E-002  0.23930866742450008        0.0000000000000000     
  -8.1918086416978175E-002  0.24786326627366534        0.0000000000000000     
  -8.2265546359212377E-002  0.25653443196754261        0.0000000000000000     
  -8.2518559954895848E-002  0.26532216450613194        0.0000000000000000     
  -8.8667350024632746E-002  0.23103977362895456        0.0000000000000000     
  -8.9297485905184992E-002  0.23945589262731970        0.0000000000000000     
  -8.9826812301572995E-002  0.24799740004120149        0.0000000000000000     
  -9.0255329213796753E-002  0.25666429587059986        0.0000000000000000     
  -9.0583036641856282E-002  0.26545658011551471        0.0000000000000000     
  -9.6565465256302829E-002  0.23124622558103705        0.0000000000000000     
  -9.7293213906760725E-002  0.23964259859357562        0.0000000000000000     
  -9.7930619470245964E-002  0.24816698886858318        0.0000000000000000     
  -9.8477681946758544E-002  0.25681939640605989        0.0000000000000000     
  -9.8934401336298453E-002  0.26559982120600556        0.0000000000000000     
 -0.10463417318786808       0.23148999127629433        0.0000000000000000     
 -0.10546336413292060       0.23986878532326766        0.0000000000000000     
 -0.10622950792299714       0.24837203275581052        0.0000000000000000     
 -0.10693260455809772       0.25699973357392281        0.0000000000000000     
 -0.10757265403822232       0.26575188777760456        0.0000000000000000     
 -0.11287347381932847       0.23177107071472638        0.0000000000000000     
 -0.11380793658366453       0.24013445281639600        0.0000000000000000     
 -0.11472347765982646       0.24861253170288339        0.0000000000000000     
 -0.11562009704781426       0.25720530737418867        0.0000000000000000     
 -0.11649779474762792       0.26591277983031170        0.0000000000000000     
  -8.2518559954895848E-002  0.26532216450613194        0.0000000000000000     
  -8.2716093045750436E-002  0.27425284255881294        0.0000000000000000     
  -8.2897111473497875E-002  0.28335284479496525        0.0000000000000000     
  -8.3061615238138153E-002  0.29262217121458889        0.0000000000000000     
  -8.3209604339671298E-002  0.30206082181768384        0.0000000000000000     
  -9.0583036641856282E-002  0.26545658011551471        0.0000000000000000     
  -9.0840240054847698E-002  0.27443725519076756        0.0000000000000000     
  -9.1057244921867064E-002  0.28366932351117974        0.0000000000000000     
  -9.1234051242914421E-002  0.29315278507675130        0.0000000000000000     
  -9.1370659017989755E-002  0.30288763988748213        0.0000000000000000     
  -9.8934401336298453E-002  0.26559982120600556        0.0000000000000000     
  -9.9311748442928741E-002  0.27460653143985148        0.0000000000000000     
  -9.9620694070712459E-002  0.28393779527902868        0.0000000000000000     
  -9.9861238219649665E-002  0.29359361272353734        0.0000000000000000     
 -0.10003338088974026       0.30357398377337730        0.0000000000000000     
 -0.10757265403822232       0.26575188777760456        0.0000000000000000     
 -0.10813061820999358       0.27476067130606474        0.0000000000000000     
 -0.10858745892003406       0.28415826009851231        0.0000000000000000     
 -0.10894317616834381       0.29394465415494719        0.0000000000000000     
 -0.10919776995492284       0.30411985347536941        0.0000000000000000     
 -0.11649779474762792       0.26591277983031170        0.0000000000000000     
 -0.11729684935604220       0.27489967478940736        0.0000000000000000     
 -0.11795753946983188       0.28433071796963039        0.0000000000000000     
 -0.11847986508899697       0.29420590937098062        0.0000000000000000     
 -0.11886382621353744       0.30452524899345829        0.0000000000000000     
 </DataArray>
 <DataArray  type="Float64" Name="stress" NumberOfComponents="3" format="ascii">
   5808888270.9531069       -878380822.70167923       -199820646.89492834     
   5726476467.0500631       -405560320.25205326       -160214932.15376997     
   5594891291.4207544       -96651056.889952898       -107124522.21569793     
   5414132744.0652056        48346967.384668827       -40549417.080727629     
   5184200824.9834003        29433752.571767569        39510383.251169130     
   5488923292.7622766       -519792027.02086926        135379435.52331954     
   5390281008.7152138       -206088629.90123224        133503644.18328811     
   5257842614.5822144       -5038933.0680503845        142377504.91940922     
   5091608110.3632784        83357063.478683949        162001017.73167711     
   4891577496.0584164        59099359.738986015        192374182.62010136     
   5192629399.9132767       -154101905.73751044        402283309.69491655     
   5069942226.8057337       -1859936.6228039265        376866150.85407418     
   4928836205.2525692        88985871.006507158        359463600.96862000     
   4769311335.2537966        118435517.15045238        350075660.03855407     
   4591367616.8094025        86489001.808991671        348702328.06387639     
   4920006592.4060888        218689541.14839220        600890975.61987686     
   4765460121.3216105        207125759.58323693        569872587.85859013     
   4607872063.4318190        185423355.33374643        544133765.93193471     
   4447242418.7367420        153582328.39993906        523674509.83990353     
   4283571187.2363610        111602678.78179431        508494819.58249444     
   4671054870.2407293        598582313.63684332        731202433.29819775     
   4476834692.2628403        420868458.71687996        712522955.19683790     
   4294950189.1199718        284273519.91364908        696387999.80934799     
   4125401360.8121209        188797497.22714829        682797567.13571918     
   3968188207.3392906        134440390.65737820        671751657.17595077     
   5184200824.9834003        29433752.571767569        39510383.251169130     
   5002838320.6483936       -36455570.315148592        23831279.345500804     
   4830068792.9859724       -73701637.626788378        10446404.196892476     
   4665892241.9961271       -82304449.363177061       -644242.19466866576     
   4510308667.6788645       -62264005.524278402       -9440659.8291698098     
   4891577496.0584164        59099359.738986015        192374182.62010136     
   4719133494.6863136        2452012.5847187042        183195710.36927590     
   4553673101.8873501       -30916639.325752735        176450632.62532735     
   4395196317.6615429       -41006595.992369413        172138949.38825315     
   4243703142.0088768       -27817857.415189981        170260660.65805206     
   4591367616.8094025        86489001.808991671        348702328.06387639     
   4428239734.8282633        39202915.315793276        344146891.35188329     
   4270486093.3208313        9830963.7349541187        342164014.89658731     
   4118106692.2871060       -1626852.9335315228        342753698.69798023     
   3971101531.7270861        4829465.3103406429        345915942.75606793     
   4283571187.2363610        111602678.78179431        508494819.58249444     
   4130157041.0742359        73797137.878069162        506684822.29332459     
   3980507767.2863817        48541171.555248260        507586551.01066518     
   3834623365.8728042        35834779.813347340        511200005.73452234     
   3692503836.8334908        35677962.652334690        517525186.46489656     
   3968188207.3392906        134440390.65737820        671751657.17595077     
   3824885413.4242415        106234680.27155805        670809503.19359577     
   3683738123.7840261        85213984.135182858        672718240.96756911     
   3544746338.4186468        71378302.248267412        677477870.49788427     
   3407910057.3281002        64727634.610793829        685088391.78452778     
   4510308667.6788645       -62264005.524278402       -9440659.8291698098     
   4321608424.3477039       -41852318.173196793       -10811284.679514464     
   4131110530.2008848       -27432800.207645655       -7830569.1041365890     
   3938814985.2384133       -19005451.627610445       -498513.10303554550     
   3744721789.4602852       -16570272.433079481        11184883.323776497     
   4243703142.0088768       -27817857.415189981        170260660.65805206     
   4064549510.7171993       -14270243.634434938        165111066.76766729     
   3884120190.7833247       -4974925.3276591301        164537697.15201247     
   3702415182.2072635        68097.505160093307        168540551.81108820     
   3519434484.9890151        858824.86401200294        177119630.74488616     
   3971101531.7270861        4829465.3103406429        345915942.75606793     
   3802137037.7577639        11705763.105643034        337596335.69469517     
   3632418817.3197236        16069639.338540316        334077836.75704849     
   3461946870.4129400        17921094.008971930        335360445.94313872     
   3290721197.0374441        17260127.117019773        341444163.25295401     
   3692503836.8334908        35677962.652334690        517525186.46489656     
   3534371005.4694104        36075702.047067404        506644522.10156095     
   3376006409.8100591        35700893.790894866        500789849.71096843     
   3217410049.8554440        34553537.883848548        499961169.29311389     
   3058581925.6055651        32633634.325925231        504158480.84798872     
   3407910057.3281002        64727634.610793829        685088391.78452778     
   3261251413.8521247        58839573.189786196        672255625.98827767     
   3114882968.2543492        53918838.029449105        664673736.01377070     
   2968804720.5347686        49965429.129771471        662342721.86100841     
   2823016670.6933923        46979346.490752578        665262583.52999127     
   3744721789.4602852       -16570272.433079481        11184883.323776497     
   3570866892.6093154       -11999626.553188324        7170130.0054883584     
   3396214466.5787702       -10087411.271880388        7044140.9034885168     
   3220764511.3686171       -10833626.589261532        10806916.017791063     
   3044517026.9788833       -14238272.505256176        18458455.348371658     
   3519434484.9890151        858824.86401200294        177119630.74488616     
   3355115503.2713914        4268201.0614767075        170951495.43250096     
   3190107463.5069990        5380717.1030635834        168497900.54849082     
   3024410365.6958542        4196372.9887880087        169758846.09286222     
   2858024209.8379512        715168.71866261959        174734332.06561121     
   3290721197.0374441        17260127.117019773        341444163.25295401     
   3135440348.2019806        19358898.956685543        333249195.60142887     
   2979578912.4525800        19522381.083238125        328594544.59038025     
   2823136889.7892504        17750573.496698141        327480210.21979326     
   2666114280.2119918        14043476.197046518        329906192.48967326     
   3058581925.6055651        32633634.325925231        504158480.84798872     
   2911841427.4010825        33272467.132446647        494063230.51230019     
   2764628813.4155040        32337580.668629646        487334073.02916384     
   2616944083.6488109        29828974.934457898        483971008.39858139     
   2468787238.1010165        25746649.929925799        483974036.62055898     
   2823016670.6933923        46979346.490752578        665262583.52999127     
   2684318740.8687143        46008905.588766813        653393600.16510093     
   2545257166.3957624        43826315.859217525        644716485.86484933     
   2405831947.2745271        40431577.302044988        639231240.62923598     
   2266043083.5050197        35824689.917305112        636937864.45826972     
   3044517026.9788833       -14238272.505256176        18458455.348371658     
   2880058444.3567271       -14355778.437035918        11089534.325902350     
   2716232865.2793860       -12363272.552775383        5162452.3821176719     
   2553040289.7468743       -8260754.8524168730        677209.51696766017     
   2390480717.7591710       -2048225.3360204697       -2366194.2694849139     
   2858024209.8379512        715168.71866261959        174734332.06561121     
   2697207305.7327800       -1226376.8798795938        166359467.32934242     
   2536993009.0012712       -1159231.2328871489        159764986.91211641     
   2377381319.6433988        916605.65957415104        154950890.81392291     
   2218372237.6592064        5001133.7976256609        151917179.03475681     
   2666114280.2119918        14043476.197046518        329906192.48967326     
   2509906326.7391405        10568072.566358805        320489921.83991218     
   2354270584.4687815        9000039.6106355190        313192580.74956548     
   2199207053.4009147        9339377.3298895359        308014169.21860564     
   2044715733.5355437        11586085.724135518        304954687.24705631     
   2468787238.1010165        25746649.929925799        483974036.62055898     
   2318155507.3758106        21027569.901668668        473480897.85761958     
   2168065591.6819434        18114539.977859974        465445233.89445627     
   2018517491.0194080        17007560.158498049        459867044.73105901     
   1869511205.3881917        17706630.443532109        456746330.36742312     
   2266043083.5050197        35824689.917305112        636937864.45826972     
   2121954847.6428094        30152115.126113534        625332395.38247144     
   1978378030.6407588        26184269.868803978        616522946.34679806     
   1835312632.4988735        23921154.145374060        610509517.35126042     
   1692758653.2171624        23362767.955852032        607292108.39587724     
   2390480717.7591710       -2048225.3360204697       -2366194.2694849139     
   2248766757.1474748        6344200.8666964769       -7515292.7656773319     
   2103733779.7646766        3673237.8324304819       -11061641.075518556     
   1955381785.6108284       -10061114.438686490       -13005239.199025238     
   1803710774.6858892       -34858855.946763158       -13346087.136203784     
   2218372237.6592064        5001133.7976256609        151917179.03475681     
   2079755310.6415892        12719925.789739490        142649654.48314014     
   1938898381.1058271        12972042.721360445        134317167.32770813     
   1795801449.0518906        5757484.5924104452        126919717.56844090     
   1650464514.4797966       -8923748.5970647335        120457305.20535702     
   2044715733.5355437        11586085.724135518        304954687.24705631     
   1907288089.2830124        18058918.257035136        292827586.60175240     
   1768699456.7652230        20661789.905750871        280967810.56245381     
   1628949835.9821930        19394700.670319438        269375359.12918133     
   1488039226.9339046        14257650.550700665        258050232.30191857     
   1869511205.3881917        17706630.443532109        456746330.36742312     
   1731365093.0717056        22361178.268481851        443018503.59016168     
   1593137006.7428746        26742479.385624588        428890288.62874669     
   1454826946.4017045        30850533.794971168        414361685.48317534     
   1316434912.0481932        34685341.496516824        399432694.15347570     
   1692758653.2171624        23362767.955852032        607292108.39587724     
   1551986322.0076783        25626705.824115694        593222405.44837153     
   1412211031.0387719        31214111.160967112        578084601.52655721     
   1273432780.3104362        40124983.966387808        561878696.63044202     
   1135651569.8226762        52359324.240397930        544604690.76001823     
   1803710774.6858892       -34858855.946763158       -13346087.136203784     
   1772359176.1528678       -16347027.389740229       -8190121.4121788284     
   1749082910.6640167        29082577.981194377       -41631808.619091436     
   1733881978.2193444        101429960.16605169       -113671148.75692368     
   1726756378.8188622        200695119.16487682       -224308141.82569349     
   1650464514.4797966       -8923748.5970647335        120457305.20535702     
   1527800296.8220077       -13853672.268191814        135734543.74931839     
   1409320803.2938712       -4834515.5071394444        124778594.10396278     
   1295026033.8953829        18133721.686071396        87589456.269288898     
   1184915988.6265223        55051039.311374545        24167130.245287783     
   1488039226.9339046        14257650.550700665        258050232.30191857     
   1309389432.2702444       -3515912.7128843665        278909699.93219578     
   1131033752.8216920       -20309091.926113367        285900444.11476636     
   952972188.58827174       -36121887.088908017        279022464.84962386     
   775204739.56995666       -50954298.201335579        258275762.13678500     
   1316434912.0481932        34685341.496516824        399432694.15347570     
   1117126582.4975481        14666251.276094794        421335347.13644534     
   914221759.24749565       -17341151.275677443        441733741.41333115     
   707720442.29802680       -61336866.158840448        460627876.98411524     
   497622631.64914626       -117320893.37337574        478017753.84881383     
   1135651569.8226762        52359324.240397930        544604690.76001823     
   951011747.50394869        40692819.698853076        563011485.36207068     
   758884822.57128131        4069306.4441747367        592278485.99964988     
   559270795.02466726       -57511215.523661882        632405692.67274761     
   352169664.86410332       -144048746.20465899        683393105.38135540     
   1726756378.8188622        200695119.16487682       -224308141.82569349     
   1456406274.0817955        184451182.18446141       -96605724.582152426     
   1153887378.4688013        60977942.284276783        60178143.740449935     
   819199691.97984600       -169724600.53579462        246043463.14212769     
   452343214.61493886       -507656446.27566093        460990233.62283349     
   1184915988.6265223        55051039.311374545        24167130.245287783     
   977789828.09614408        11844668.180135787        155632394.21060646     
   732840138.48346353       -157440133.22544363        312872110.52140647     
   450066919.78849483       -452803364.90532798        495886279.17772758     
   129470172.01121479       -874245026.85953903        704674900.17957878     
   775204739.56995666       -50954298.201335579        258275762.13678500     
   621853955.43606186       -123957673.82663235        386906678.24980474     
   425024904.01355755       -341888607.08061278        538005047.97478151     
   184717585.30243239       -704747097.96333420        711570871.31170559     
  -99068000.697333813       -1212533146.4748647        907604148.26057589     
   497622631.64914626       -117320893.37337574        478017753.84881383     
   388598656.10160494       -222955843.83565623        597217127.53548658     
   230441675.05911067       -492367479.28109181        735576956.10054553     
   23151688.521651089       -925555799.70977974        893097239.54401827     
  -233271303.51077154       -1522520805.1216304        1069777977.8658686     
   352169664.86410332       -144048746.20465899        683393105.38135540     
   278023930.09274912       -285149841.84701318        786563742.06761920     
   149090451.62011844       -608876749.82696104        905587834.89873219     
  -34630770.553823352       -1115229470.1445932        1040465383.8746750     
  -273139736.42904997       -1804208002.7998748        1191196388.9954696     
   4671054870.2407293        598582313.63684332        731202433.29819775     
   4476834692.2628403        420868458.71687996        712522955.19683790     
   4294950189.1199718        284273519.91364908        696387999.80934799     
   4125401360.8121209        188797497.22714829        682797567.13571918     
   3968188207.3392906        134440390.65737820        671751657.17595077     
   4234410454.1768217        332588274.97369838        791795047.03007281     
   4069242151.6664557        225501995.95704269        781903425.52747869     
   3912174156.0464616        145416739.90827155        775516206.46220028     
   3763206467.3168235        92332506.827369928        772633389.83423948     
   3622339085.4775519        66249296.714353561        773254975.64359260     
   3787442973.5335717        63497316.936752796        878670604.85647905     
   3654069059.9863124        27861367.872074842        872625577.35054898     
   3524560085.3847599        5108548.6264281273        871044832.00538969     
   3398916049.7289157       -4761140.8001911640        873928368.82099426     
   3277136953.0187836       -1747700.4077782631        881276187.79736781     
   3330152428.3109794       -208690560.47399807        991829106.77740979     
   3231315417.2223949       -172053425.53802061        984689410.66605163     
   3132107977.1348701       -136651053.93186903        982973876.43890965     
   3032530108.0483909       -102483445.65554571        986682504.09598577     
   2932581809.9629726       -69550600.709028482        995815293.63728666     
   2862538818.5090489       -483975357.25854719        1131270552.7928731     
   2800981223.3747196       -374242384.27324986        1118094925.4739857     
   2734817831.2967920       -279862067.76662207        1111303339.7627637     
   2664048642.2752604       -200834407.73866856        1110895795.6592169     
   2588673656.3101292       -137159404.18938196        1116872293.1633410     
   3968188207.3392906        134440390.65737820        671751657.17595077     
   3824885413.4242415        106234680.27155805        670809503.19359577     
   3683738123.7840261        85213984.135182858        672718240.96756911     
   3544746338.4186468        71378302.248267412        677477870.49788427     
   3407910057.3281002        64727634.610793829        685088391.78452778     
   3622339085.4775519        66249296.714353561        773254975.64359260     
   3492674058.2529907        56730369.043571949        774388000.79859269     
   3363614378.6816792        49229266.883623481        778848389.48647201     
   3235160046.7636180        43745990.234520555        786636141.70722544     
   3107311062.4988136        40280539.096260786        797751257.46085560     
   3277136953.0187836       -1747700.4077782631        881276187.79736781     
   3162471040.4176836        7828559.0163655281        882675876.03121543     
   3046860318.8482485        14255455.212739348        887879399.57448292     
   2930304788.3104877        17532988.181349874        896886758.42716479     
   2812804448.8043928        17661157.922189355        909697952.58926868     
   2932581809.9629726       -69550600.709028482        995815293.63728666     
   2834276359.9183140       -40470749.810057998        995673128.89146507     
   2733475944.2837405       -19707450.877464890        999811271.23160660     
   2630180563.0592504       -7260703.9112496376        1008229720.6577046     
   2524390216.2448516       -3130508.9114123583        1020928477.1697688     
   2588673656.3101292       -137159404.18938196        1116872293.1633410     
   2508090016.7548838       -88167557.435699582        1113379759.3793392     
   2423461254.9881449       -52659451.387002826        1114644004.4578404     
   2334787371.0099068       -30635086.043292761        1120665028.3988452     
   2242068364.8201752       -22094461.404568076        1131442831.2023511     
   3407910057.3281002        64727634.610793829        685088391.78452778     
   3261251413.8521247        58839573.189786196        672255625.98827767     
   3114882968.2543492        53918838.029449105        664673736.01377070     
   2968804720.5347686        49965429.129771471        662342721.86100841     
   2823016670.6933923        46979346.490752578        665262583.52999127     
   3107311062.4988136        40280539.096260786        797751257.46085560     
   2974421053.1377306        36566228.383202910        787146864.50843763     
   2841758738.7304811        33610900.849592924        781381217.96696758     
   2709324119.2770624        31414556.495416641        780454317.83646274     
   2577117194.7774835        29977195.320713282        784366164.11691105     
   2812804448.8043928        17661157.922189355        909697952.58926868     
   2692505560.9559484        15767344.136390328        901249012.40225446     
   2572371865.1369734        14424170.448831558        897226689.21541214     
   2452403361.3474693        13631636.859508872        897630983.02873206     
   2332600049.5874424        13389743.368435979        902461893.84222102     
   2524390216.2448516       -3130508.9114123583        1020928477.1697688     
   2415504937.3067894       -3557079.5506340265        1014562069.6697400     
   2306722347.4738374       -3641353.1728116274        1012210149.7590892     
   2198042446.7459946       -3383329.7779631615        1013872717.4378176     
   2089465235.1232615       -2783009.3660844564        1019549772.7059267     
   2242068364.8201752       -22094461.404568076        1131442831.2023511     
   2143419182.1902483       -21407042.677866220        1127086036.3108828     
   2044810185.7410674       -20585670.015344977        1126331599.5980077     
   1946241375.4726281       -19630343.417019606        1129179521.0637174     
   1847712751.3849454       -18541062.882838368        1135629800.7080216     
   2823016670.6933923        46979346.490752578        665262583.52999127     
   2684318740.8687143        46008905.588766813        653393600.16510093     
   2545257166.3957624        43826315.859217525        644716485.86484933     
   2405831947.2745271        40431577.302044988        639231240.62923598     
   2266043083.5050197        35824689.917305112        636937864.45826972     
   2577117194.7774835        29977195.320713282        784366164.11691105     
   2447227507.5279799        29680131.450698256        772925469.95375597     
   2317403615.0804701        29602383.587352872        764913083.23794985     
   2187645517.4349594        29743951.730652928        760329003.96949136     
   2057953214.5914485        30104835.880627513        759173232.14837039     
   2332600049.5874424        13389743.368435979        902461893.84222102     
   2212194143.1494017        13968718.001269698        891950501.57279837     
   2092283470.9636395        16198473.475023985        885103855.13342583     
   1972868033.0301492        20079009.789688468        881921954.52410078     
   1853947829.3489296        25610326.945268750        882404799.74482489     
   2089465235.1232615       -2783009.3660844564        1019549772.7059267     
   1979218647.7329874       -1125334.7595028877        1010468695.0222224     
   1869896734.0452576        3614585.5222294331        1005288801.5512747     
   1761499494.0600839        11436751.479143977        1004010092.2930691     
   1654026927.7774558        22341163.111215293        1006632567.2476262     
   1847712751.3849454       -18541062.882838368        1135629800.7080216     
   1748301021.2787268       -15602026.831642628        1128480050.3020296     
   1650243404.3253353       -8149280.2710237503        1125467922.4914863     
   1553539900.5247722        3817176.7990254164        1126593417.2763996     
   1458190509.8770354        20297344.378491044        1131856534.6567781     
   2266043083.5050197        35824689.917305112        636937864.45826972     
   2121954847.6428094        30152115.126113534        625332395.38247144     
   1978378030.6407588        26184269.868803978        616522946.34679806     
   1835312632.4988735        23921154.145374060        610509517.35126042     
   1692758653.2171624        23362767.955852032        607292108.39587724     
   2057953214.5914485        30104835.880627513        759173232.14837039     
   1922903735.5035055        29163295.285505056        749509019.16291010     
   1787989381.2585535        28672170.833685994        742909898.84150589     
   1653210151.8565907        28631462.525168717        739375871.18416095     
   1518566047.2976282        29041170.359970331        738906936.19086957     
   1853947829.3489296        25610326.945268750        882404799.74482489     
   1728705885.9607501        29630454.223863006        874242833.16299939     
   1603222773.3983886        32846684.255186737        869415031.86914623     
   1477498491.6618404        35259017.039223313        867921395.86327696     
   1351533040.7511075        36867452.575979412        869761925.14539218     
   1654026927.7774558        22341163.111215293        1006632567.2476262     
   1539361299.0145421        31553591.941200793        999533837.38272905     
   1424078207.0602641        38707810.133296371        996038345.42973089     
   1308177651.9146245        43803817.687528133        996146091.38863492     
   1191659633.5776322        46841614.603908718        999857075.25945306     
   1458190509.8770354        20297344.378491044        1131856534.6567781     
   1354869974.6648724        34932708.437470138        1125382031.8221018     
   1250555682.2441764        46255548.468011916        1122779839.5232508     
   1145247632.6149476        54265864.470113397        1124049957.7602334     
   1038945825.7771835        58963656.443752706        1129192386.5330400     
   1692758653.2171624        23362767.955852032        607292108.39587724     
   1551986322.0076783        25626705.824115694        593222405.44837153     
   1412211031.0387719        31214111.160967112        578084601.52655721     
   1273432780.3104362        40124983.966387808        561878696.63044202     
   1135651569.8226762        52359324.240397930        544604690.76001823     
   1518566047.2976282        29041170.359970331        738906936.19086957     
   1376222536.9525747        27690713.592951179        728938130.43747568     
   1234106313.0616817        27097878.339811265        719662917.39301860     
   1092217375.6249602        27262664.600566208        711081297.05749595     
   950555724.64240634        28185072.375210822        703193269.43090558     
   1351533040.7511075        36867452.575979412        869761925.14539218     
   1212651761.7940309        33412624.330746353        862995970.50197291     
   1073228015.5047176        28149571.644712389        858685302.25072396     
   933261801.88314807        21078294.517843664        856829920.39164960     
   792753120.92934442        12198792.950169474        857429824.92474890     
   1191659633.5776322        46841614.603908718        999857075.25945306     
   1061273996.5320777        42792438.037529349        995395925.64185214     
   929576138.36786902        34369191.075635254        995151756.09966838     
   796566059.08501017        21571873.718236804        999124566.63289118     
   662243758.68348444        4400485.9652903080        1007314357.2415404     
   1038945825.7771835        58963656.443752706        1129192386.5330400     
   922089241.16669083        55830154.713269025        1126137995.8571136     
   803150681.65114355        45756736.632603377        1129062278.9398499     
   682130147.23052549        28743402.201696277        1137965235.7812421     
   559027637.90484595        4790151.4205843210        1152846866.3812819     
   1135651569.8226762        52359324.240397930        544604690.76001823     
   951011747.50394869        40692819.698853076        563011485.36207068     
   758884822.57128131        4069306.4441747367        592278485.99964988     
   559270795.02466726       -57511215.523661882        632405692.67274761     
   352169664.86410332       -144048746.20465899        683393105.38135540     
   950555724.64240634        28185072.375210822        703193269.43090558     
   791459327.78856134        11133042.485658258        721336689.59295988     
   623732997.95123076       -34685430.682148993        749511506.08047867     
   447376735.13042635       -109270347.12822327        787717718.89347410     
   262390539.32614809       -212621706.85254371        835955328.03192055     
   792753120.92934442        12198792.950169474        857429824.92474890     
   656832121.79736221       -10949170.610278368        873976568.54902005     
   511138359.31238246       -66673012.014086306        899725898.78869522     
   355671833.47438633       -154972731.26127133        934677815.64378262     
   190432544.28336823       -275848328.35184920        978832319.11428070     
   662243758.68348444        4400485.9652903080        1007314357.2415404     
   547130129.53038073       -25553819.588927269        1020931122.2302227     
   421100906.65470266       -91893437.551699221        1042921664.1242657     
   284156090.05650210       -194618367.92289925        1073285982.9236660     
   136295679.73574549       -333728610.70260751        1112024078.6284308     
   559027637.90484595        4790151.4205843210        1152846866.3812819     
   462353350.98757827       -32680904.450362355        1162200350.6365945     
   353620639.97822636       -110346707.29491781        1179098802.0872161     
   232829504.87679857       -228207257.11306787        1203542220.7331285     
   99979945.683281362       -386262553.90483820        1235530606.5743523     
   352169664.86410332       -144048746.20465899        683393105.38135540     
   278023930.09274912       -285149841.84701318        786563742.06761920     
   149090451.62011844       -608876749.82696104        905587834.89873219     
  -34630770.553823352       -1115229470.1445932        1040465383.8746750     
  -273139736.42904997       -1804208002.7998748        1191196388.9954696     
   262390539.32614809       -212621706.85254371        835955328.03192055     
   223657327.78548381       -352270227.46594268        885201320.25888264     
   140692693.51299837       -639356823.85207582        945499049.20407760     
   13496636.508710623       -1073881496.0108709        1016848514.8674960     
  -157930843.22738600       -1655844243.9423902        1099249717.2491510     
   190432544.28336823       -275848328.35184920        978832319.11428070     
   173392657.61163157       -418160033.44488823        986469374.67966509     
   122677669.17757353       -672722077.74565542        1000356447.5366766     
   38287578.981200516       -1039534461.2541621        1020493537.6853170     
  -79777612.977507651       -1518597183.9704278        1046880645.1255782     
   136295679.73574549       -333728610.70260751        1112024078.6284308     
   127229919.57120615       -482819259.78379911        1090367905.3299725     
   95045378.613837183       -708972511.50775504        1070160029.8965359     
   39742056.863628745       -1012188365.8744982        1051400452.3281355     
  -38680045.679401338       -1392466822.8840036        1034089172.6247309     
   99979945.683281362       -386262553.90483820        1235530606.5743523     
   85169113.664208382       -546247906.48268163        1196896912.2098055     
   57795821.821798861       -748108125.13831377        1154909796.2836545     
   17860070.156031728       -991843209.87178755        1109569258.7959232     
  -34638141.333088815       -1277453160.6831179        1060875299.7466074     
   2862538818.5090489       -483975357.25854719        1131270552.7928731     
   2800981223.3747196       -374242384.27324986        1118094925.4739857     
   2734817831.2967920       -279862067.76662207        1111303339.7627637     
   2664048642.2752604       -200834407.73866856        1110895795.6592169     
   2588673656.3101292       -137159404.18938196        1116872293.1633410     
   2535888367.3384919       -290271614.11215901        1238605727.6519778     
   2473518518.1711307       -232824367.05906522        1224916853.0316391     
   2409466610.5923238       -180983981.37746465        1216285062.7625804     
   2343732644.6020598       -134750457.06738126        1212710356.8447928     
   2276316620.2003498       -94123794.128783464        1214192735.2782826     
   2220146907.4551673       -93295173.579601765        1324219215.3972158     
   2153173497.8079257       -89271044.392762542        1313428121.7629416     
   2087441768.2813909       -81107981.470252156        1306367155.2235477     
   2022951718.8755562       -68805984.812074542        1303036315.7790327     
   1959703349.5904193       -52365054.418225288        1303435603.4293950     
   1915314438.8590672        106953964.33912408        1388111016.0285845     
   1839946162.2851086        56417583.725653291        1383628731.6678874     
   1768743304.3640013        19765931.955024123        1381549617.1456687     
   1701705865.0957441       -3000990.9727656841        1381873672.4619327     
   1638833844.4803412       -11883185.057712197        1384600897.6166816     
   1621390961.5502045        310475799.64401937        1430281129.5460925     
   1533836511.6026778        204241517.29619026        1435518682.7464719     
   1453371218.8401518        121637758.89836764        1441832448.5289402     
   1379995083.2626297        62664524.450556576        1449222426.8934944     
   1313708104.8701110        27321813.952755272        1457688617.8401361     
   2588673656.3101292       -137159404.18938196        1116872293.1633410     
   2508090016.7548838       -88167557.435699582        1113379759.3793392     
   2423461254.9881449       -52659451.387002826        1114644004.4578404     
   2334787371.0099068       -30635086.043292761        1120665028.3988452     
   2242068364.8201752       -22094461.404568076        1131442831.2023511     
   2276316620.2003498       -94123794.128783464        1214192735.2782826     
   2203336356.9246225       -61606121.819297433        1205423713.4602396     
   2127792183.5107312       -37634816.637023568        1201548396.3279791     
   2049684099.9586885       -22209878.581923366        1202566783.8815081     
   1969012106.2684836       -15331307.654026985        1208478876.1208224     
   1959703349.5904193       -52365054.418225288        1303435603.4293950     
   1894717679.2321608       -36204191.561561823        1291118174.3295376     
   1828649310.8090775       -23652322.254302621        1283831375.7387469     
   1761498244.3211756       -14709446.496442080        1281575207.6570246     
   1693264479.7684536       -9375564.2879875898        1284349670.0843778     
   1638833844.4803412       -11883185.057712197        1384600897.6166816     
   1582233983.6775005       -11961766.662486017        1370463141.9872324     
   1526032636.8831782       -10711968.238862216        1361492942.6901369     
   1470229804.0973713       -8133789.7868550420        1357690299.7253959     
   1414825485.3200831       -4227231.3064517975        1359055213.0930078     
   1313708104.8701110        27321813.952755272        1457688617.8401361     
   1265885270.2606432        11121152.877935946        1443458616.4333279     
   1219942161.7330341        1186245.4093047380        1434533097.1821573     
   1175878779.2872794       -2482908.4531425834        1430912060.0866227     
   1133695122.9233778        113691.29058337212        1432595505.1467254     
   2242068364.8201752       -22094461.404568076        1131442831.2023511     
   2143419182.1902483       -21407042.677866220        1127086036.3108828     
   2044810185.7410674       -20585670.015344977        1126331599.5980077     
   1946241375.4726281       -19630343.417019606        1129179521.0637174     
   1847712751.3849454       -18541062.882838368        1135629800.7080216     
   1969012106.2684836       -15331307.654026985        1208478876.1208224     
   1880227611.1713140       -14564220.148810625        1203467205.8004963     
   1791582147.3108194       -13333695.188014269        1202423013.3778908     
   1703075714.6869886       -11639732.771670461        1205346298.8530033     
   1614708313.2998354       -9482332.8997341394        1212237062.2258396     
   1693264479.7684536       -9375564.2879875898        1284349670.0843778     
   1615387871.4015582       -8215848.2449900508        1278798443.5671008     
   1537749139.3272567       -6263211.2266812921        1277579814.6666741     
   1460348283.5455494       -3517653.2330613136        1280693783.3830986     
   1383185304.0564384        20825.735880672932        1288140349.7163711     
   1414825485.3200831       -4227231.3064517975        1359055213.0930078     
   1348899962.8809764       -2361926.9664229751        1353079749.6106961     
   1283311161.7903862        625781.86866098642        1351802003.4643662     
   1218059082.0483139        4735895.1988055706        1355221974.6540115     
   1153143723.6547599        9968413.0240092874        1363339663.1796367     
   1133695122.9233778        113691.29058337212        1432595505.1467254     
   1080763885.6095715        2997543.6869004369        1426311123.9312868     
   1028268214.7002033        7333284.0980104208        1425089579.7709560     
   976208110.19527757        13120912.523927510        1428930872.6657331     
   924583572.09479618        20360428.964659035        1437835002.6156216     
   1847712751.3849454       -18541062.882838368        1135629800.7080216     
   1748301021.2787268       -15602026.831642628        1128480050.3020296     
   1650243404.3253353       -8149280.2710237503        1125467922.4914863     
   1553539900.5247722        3817176.7990254164        1126593417.2763996     
   1458190509.8770354        20297344.378491044        1131856534.6567781     
   1614708313.2998354       -9482332.8997341394        1212237062.2258396     
   1526521699.3954935       -5767891.5148775578        1206982871.6687405     
   1439186914.8707981        785981.13546401262        1206046823.5944831     
   1352703959.7257500        10179285.051297665        1209428918.0030549     
   1267072833.9603491        22412020.232623160        1217129154.8944623     
   1383185304.0564384        20825.735880672932        1288140349.7163711     
   1306739577.4607704        4665403.7864338756        1284195721.2728014     
   1230643396.4715667        10475133.858536899        1284749755.1994410     
   1154896761.0888298        17450015.952193797        1289802451.4962940     
   1079499671.3125644        25590050.067419112        1299353810.1633620     
   1153143723.6547599        9968413.0240092874        1363339663.1796367     
   1088954655.4745586        15697859.072292149        1360118599.1142097     
   1024612849.1276476        20918177.898206830        1361576717.3063757     
   960118304.61402118        25629369.501739979        1367714017.7561331     
   895471021.93368185        29831433.882892460        1378530500.4634857     
   924583572.09479618        20360428.964659035        1437835002.6156216     
   873166933.43686116        27329474.342714608        1434751505.1929643     
   821095272.83903575        32115113.254467189        1436527709.9152794     
   768368590.30130982        34717345.699888319        1443163616.7825654     
   714986885.82370162        35136171.679029733        1454659225.7948213     
   1458190509.8770354        20297344.378491044        1131856534.6567781     
   1354869974.6648724        34932708.437470138        1125382031.8221018     
   1250555682.2441764        46255548.468011916        1122779839.5232508     
   1145247632.6149476        54265864.470113397        1124049957.7602334     
   1038945825.7771835        58963656.443752706        1129192386.5330400     
   1267072833.9603491        22412020.232623160        1217129154.8944623     
   1173004934.1164968        32323904.632069468        1211130890.8023405     
   1078223786.0633297        39858295.000472248        1209467761.7637584     
   982729389.80084801        45015191.337824166        1212139767.7787135     
   886521745.32905483        47794593.644135296        1219146908.8472025     
   1079499671.3125644        25590050.067419112        1299353810.1633620     
   996006762.60190356        31175161.536808431        1294159045.3128922     
   912081114.68115163        35317808.972552359        1293762240.0336604     
   827722727.55029595        38017992.374618948        1298163394.3256733     
   742931601.20934534        39275711.743040264        1307362508.1889279     
   895471021.93368185        29831433.882892460        1378530500.4634857     
   823875460.12109137        31486479.151679248        1374466495.3537452     
   752127668.09763062        32634090.384226650        1375663274.3329520     
   680227645.86328053        33274267.580478162        1382120837.4011121     
   608175393.41805363        33407010.740475565        1393839184.5582235     
   714986885.82370162        35136171.679029733        1454659225.7948213     
   656611026.67406428        33257857.476688951        1452053240.9249015     
   598363446.31276333        31807139.235472053        1455170864.6616397     
   540244144.73980188        30784016.955385476        1464012097.0050342     
   482253121.95517969        30188490.636429518        1478576937.9550853     
   1038945825.7771835        58963656.443752706        1129192386.5330400     
   922089241.16669083        55830154.713269025        1126137995.8571136     
   803150681.65114355        45756736.632603377        1129062278.9398499     
   682130147.23052549        28743402.201696277        1137965235.7812421     
   559027637.90484595        4790151.4205843210        1152846866.3812819     
   886521745.32905483        47794593.644135296        1219146908.8472025     
   785072475.17464626        44682365.791224509        1216669525.0826323     
   681488666.99586987        34455011.190421194        1220060338.5538805     
   575770320.79273689        17112529.841758221        1229319349.2609446     
   467917436.56522810       -7345078.2548155189        1244446557.2038145     
   742931601.20934534        39275711.743040264        1307362508.1889279     
   656573998.30289817        36090063.605262309        1305400807.6965301     
   568029294.25277877        25614078.321912974        1309196827.9171066     
   477297489.05899888        7847755.8930284679        1318750568.8506544     
   384378582.72154504       -17208903.681438267        1334062030.4971724     
   608175393.41805363        33407010.740475565        1393839184.5582235     
   536593810.55144006        30053248.155377030        1392331843.6988115     
   462772563.42186385        19233938.027061298        1396471747.0295365     
   386711652.02931631        949080.35550877452        1406258894.5503864     
   308411076.37379622       -24801324.859279066        1421693286.2613659     
   482253121.95517969        30188490.636429518        1478576937.9550853     
   425131911.92029023        26571919.441604242        1477462633.0894804     
   365718474.50312310        15314590.305850238        1481885095.8911619     
   304012809.70369518       -3583496.7707687169        1491844326.3601258     
   240014917.52198386       -30122341.788332254        1507340324.4963775     
   559027637.90484595        4790151.4205843210        1152846866.3812819     
   462353350.98757827       -32680904.450362355        1162200350.6365945     
   353620639.97822636       -110346707.29491781        1179098802.0872161     
   232829504.87679857       -228207257.11306787        1203542220.7331285     
   99979945.683281362       -386262553.90483820        1235530606.5743523     
   467917436.56522810       -7345078.2548155189        1244446557.2038145     
   390334601.25126630       -41409063.560069621        1242878396.4059131     
   302564946.67632818       -109429113.06857248        1247664753.3616364     
   204608472.84043407       -211405226.78026587        1258805628.0709794     
   96465179.743559986       -347337404.69522327        1276301020.5339320     
   384378582.72154504       -17208903.681438267        1334062030.4971724     
   322485914.89177769       -48886203.656759858        1323755763.6156964     
   252278032.63216147       -108280885.06492102        1318613565.0461624     
   173754935.94269460       -195392947.90590969        1318635434.7885592     
   86916624.823378012       -310222392.17973644        1323821372.8428860     
   308411076.37379622       -24801324.859279066        1421693286.2613659     
   258807291.90913299       -55112324.740385294        1404832452.2659521     
   202759897.84572878       -106902023.28395265        1391945237.1407888     
   140268894.18360361       -180170420.48992896        1383031640.8858743     
   71334280.922729120       -274917516.35839480        1378091663.5012085     
   240014917.52198386       -30122341.788332254        1507340324.4963775     
   199298732.30332032       -60087426.810957760        1486108462.3566697     
   154010542.31703985       -105292527.72563957        1467659769.6455159     
   104150347.56314206       -165737644.53237903        1451994246.3629293     
   49718148.041622728       -241422777.23119032        1439111892.5089033     
   99979945.683281362       -386262553.90483820        1235530606.5743523     
   85169113.664208382       -546247906.48268163        1196896912.2098055     
   57795821.821798861       -748108125.13831377        1154909796.2836545     
   17860070.156031728       -991843209.87178755        1109569258.7959232     
  -34638141.333088815       -1277453160.6831179        1060875299.7466074     
   96465179.743559986       -347337404.69522327        1276301020.5339320     
   79601908.087930202       -488572302.88118279        1221998399.4683957     
   51373767.756966233       -667690096.65158701        1165143372.3074350     
   11780758.750659645       -884690786.00647068        1105735939.0510349     
  -39177118.930988491       -1139574370.9458094        1043776099.6992170     
   86916624.823378012       -310222392.17973644        1323821372.8428860     
   70289529.148786455       -432020251.28853703        1255247014.7490463     
   43495155.946868449       -587709035.48842561        1184921266.0259247     
   6533505.2176132202       -777288744.77944243        1112844126.6735392     
  -40595423.038970053       -1000759379.1615390        1039015596.6918912     
   71334280.922729120       -274917516.35839480        1378091663.5012085     
   57231976.846779361       -376591751.70474017        1296642758.0517390     
   34159986.391503483       -508164941.64884478        1214243477.4391508     
   2118309.5568964183       -669637086.19070864        1130893821.6634483     
  -38893053.657024115       -861008185.33029032        1046593790.7246506     
   49718148.041622728       -241422777.23119032        1439111892.5089033     
   40429251.181903318       -322286804.12981737        1346185629.3764822     
   23368259.090863764       -429057815.13285315        1253110006.5470970     
  -1464828.2314925790       -561735810.24027836        1159885024.0207617     
  -34070010.785154045       -720320789.45205104        1066510681.7974800     
   1621390961.5502045        310475799.64401937        1430281129.5460925     
   1533836511.6026778        204241517.29619026        1435518682.7464719     
   1453371218.8401518        121637758.89836764        1441832448.5289402     
   1379995083.2626297        62664524.450556576        1449222426.8934944     
   1313708104.8701110        27321813.952755272        1457688617.8401361     
   1232552355.6168716        207655648.84842512        1428831666.2141049     
   1163561433.0489287        144846878.59104243        1435137049.0753448     
   1098024793.1240506        93552383.810546696        1444624583.7794623     
   1035942435.8422420        53772164.506947935        1457294270.3264537     
   977314361.20349956        25506220.680235744        1473146108.7163198     
   826183807.19999409        99576515.307765841        1444062720.9328239     
   781773381.32817209        81998347.935791612        1447195246.4893339     
   737182363.55747914        63818207.567587078        1455615863.1495090     
   692410753.88791943        45036094.203157127        1469324570.9133453     
   647458552.31949043        25652007.842495263        1488321369.7808442     
   402285316.29957271       -13761600.977956578        1475974293.7022541     
   388472356.44040716        15695925.330438673        1471693274.9884396     
   370843930.14043671        32435230.169483274        1474806286.6390815     
   349400037.39966214        36456313.539181769        1485313328.6541696     
   324140678.21808326        27759175.439532921        1503214401.0337100     
  -39143117.084392153       -132358700.00874038        1524566384.5223861     
  -16341641.614363834       -54060389.225014403        1508631134.5726640     
  -990507.12707610370       -596548.38375912746        1502195854.2481756     
   6910286.3774731448        28032822.515034195        1505260543.5489271     
   7360738.8992813490        31827723.471358761        1517825202.4749200     
   1313708104.8701110        27321813.952755272        1457688617.8401361     
   1265885270.2606432        11121152.877935946        1443458616.4333279     
   1219942161.7330341        1186245.4093047380        1434533097.1821573     
   1175878779.2872794       -2482908.4531425834        1430912060.0866227     
   1133695122.9233778        113691.29058337212        1432595505.1467254     
   977314361.20349956        25506220.680235744        1473146108.7163198     
   943457749.52829194        12269811.108370602        1462933350.5577807     
   911156588.41823411        4218236.7536651492        1457475300.6154296     
   880410877.87332213        1351497.6161170602        1456771958.8892701     
   851220617.89355540        3669593.6957198381        1460823325.3792982     
   647458552.31949043        25652007.842495263        1488321369.7808442     
   625997380.89440513        14908614.968348831        1481747533.4344170     
   605767384.51775968        8269138.9223332107        1479378631.3647292     
   586768563.18955064        5733579.7044390440        1481214663.5717807     
   569000916.90978074        7301937.3146754801        1487255630.0555725     
   324140678.21808326        27759175.439532921        1503214401.0337100     
   313504164.35898072        19037564.457865387        1499901165.0632346     
   303774550.03160846        13338951.915298238        1500243089.4300475     
   294951835.23596239        10663337.811819360        1504240174.1341505     
   287036019.97204512        11010722.147435397        1511892419.1755478     
   7360738.8992813490        31827723.471358761        1517825202.4749200     
   5978099.9220179701        24656659.576917119        1517394245.4442317     
   5178084.9597779997        19427675.732552819        1520068674.8113887     
   4960694.0125575261        16140771.938253848        1525848490.5763853     
   5325927.0803563893        14795948.194019334        1534733692.7392220     
   1133695122.9233778        113691.29058337212        1432595505.1467254     
   1080763885.6095715        2997543.6869004369        1426311123.9312868     
   1028268214.7002033        7333284.0980104208        1425089579.7709560     
   976208110.19527757        13120912.523927510        1428930872.6657331     
   924583572.09479618        20360428.964659035        1437835002.6156216     
   851220617.89355540        3669593.6957198381        1460823325.3792982     
   811172861.68239951        5520169.8816701472        1455059404.6650357     
   771409036.64835191        8317183.3246468306        1454381465.3308671     
   731929142.79141963        12060634.024679214        1458789507.3767872     
   692733180.11159933        16750521.981746107        1468283530.8027954     
   569000916.90978074        7301937.3146754801        1487255630.0555725     
   541902768.44407856        8139075.2831034958        1481835262.0772715     
   514936915.92815274        9417199.7507883906        1481524019.8040423     
   488103359.36201501        11136310.717763484        1486321903.2358830     
   461402098.74565566        13296408.184002578        1496228912.3727970     
   287036019.97204512        11010722.147435397        1511892419.1755478     
   272953605.89460075        10854259.891182244        1506638696.1679883     
   258851852.53960276        10633333.376418293        1506517243.1904821     
   244730759.90705854        10347942.603167236        1511528060.2430308     
   230590327.99696982        9998087.5714329779        1521671147.3256328     
   5325927.0803563893        14795948.194019334        1534733692.7392220     
   4325374.0339722335        13665723.705924140        1529469706.9371903     
   3153846.4827041849        11965584.201548606        1529361135.4901896     
   1811344.4265667449        9695529.6809424628        1534407978.3982222     
   297867.86554513732        6855560.1440550657        1544610235.6612923     
   924583572.09479618        20360428.964659035        1437835002.6156216     
   873166933.43686116        27329474.342714608        1434751505.1929643     
   821095272.83903575        32115113.254467189        1436527709.9152794     
   768368590.30130982        34717345.699888319        1443163616.7825654     
   714986885.82370162        35136171.679029733        1454659225.7948213     
   692733180.11159933        16750521.981746107        1468283530.8027954     
   653399001.41050398        21142699.065215230        1464820242.0603962     
   613611938.08139944        24025260.721988410        1466386113.0539618     
   573371990.12427795        25398206.952037901        1472981143.7834857     
   532679157.53914148        25261537.755370498        1484605334.2489779     
   461402098.74565566        13296408.184002578        1496228912.3727970     
   434634544.54709560        15256966.336605579        1492621659.1745143     
   407616243.03240436        16381700.102102846        1494213023.3031836     
   380347194.20157248        16670609.480465546        1501003004.7588112     
   352827398.05460656        16123694.471712098        1512991603.5413935     
   230590327.99696982        9998087.5714329779        1521671147.3256328     
   216873562.84663853        9672276.1568820849        1518155756.5353181     
   203108187.69205162        9184431.3948128968        1520008440.6629510     
   189294202.53320280        8534553.2852038667        1527229199.7085359     
   175431607.37009591        7722641.8280676603        1539818033.6720650     
   297867.86554513732        6855560.1440550657        1544610235.6612923     
   116056.30912642949        4388628.5260321088        1541422534.1428087     
   87772.060338970157        2433454.6001133136        1543772365.1332669     
   213015.11916198814        990038.36622874904        1551659728.6326632     
   491785.48560838535        58379.824423502941        1565084624.6410017     
   714986885.82370162        35136171.679029733        1454659225.7948213     
   656611026.67406428        33257857.476688951        1452053240.9249015     
   598363446.31276333        31807139.235472053        1455170864.6616397     
   540244144.73980188        30784016.955385476        1464012097.0050342     
   482253121.95517969        30188490.636429518        1478576937.9550853     
   532679157.53914148        25261537.755370498        1484605334.2489779     
   489207125.59720683        23785870.057997733        1482965801.2924190     
   445854853.86989778        22709403.076048195        1486974223.7724426     
   402622342.35719806        22032136.809462458        1496630601.6890414     
   359509591.05912387        21754071.258292422        1511934935.0422328     
   352827398.05460656        16123694.471712098        1512991603.5413935     
   324043041.40587777        14985827.704983354        1512308584.1621883     
   295369926.39804715        14218766.407914653        1517197867.0494876     
   266808053.03111365        13822510.580501705        1527659452.2032938     
   238357421.30507901        13797060.222751930        1543693339.6236019     
   175431607.37009591        7722641.8280676603        1539818033.6720650     
   161118774.10006705        6857730.4176153243        1540081589.5342064     
   146908663.89721727        6335229.2310944051        1545841794.4927769     
   132801276.76154101        6155138.2684846073        1557098648.5477850     
   118796612.69304252        6317457.5298006237        1573852151.6992152     
   491785.48560838535        58379.824423502941        1565084624.6410017     
   434323.67977807717       -598421.80409618979        1566284817.4084842     
   471066.36740485177       -941208.45442560618        1572906006.1023223     
   602013.54848809168       -969980.12656784570        1584948190.7225122     
   827165.22303074808       -684736.82050994947        1602411371.2690575     
   482253121.95517969        30188490.636429518        1478576937.9550853     
   425131911.92029023        26571919.441604242        1477462633.0894804     
   365718474.50312310        15314590.305850238        1481885095.8911619     
   304012809.70369518       -3583496.7707687169        1491844326.3601258     
   240014917.52198386       -30122341.788332254        1507340324.4963775     
   359509591.05912387        21754071.258292422        1511934935.0422328     
   316993757.18506068        19220191.172893718        1508989876.5544093     
   272752741.27565616        10935704.303025693        1511493103.3439138     
   226786543.33092502       -3099389.3512660414        1519444615.4107502     
   179095163.35084632       -22885089.790048130        1532844412.7549109     
   238357421.30507901        13797060.222751930        1543693339.6236019     
   210194156.76338628        12270029.198253065        1539579080.4183297     
   180872755.53328803        6882542.5457366109        1540824624.1004179     
   150393217.61479232       -2365399.7347723395        1547429970.6698761     
   118755543.00788859       -15473797.643306717        1559395120.1266944     
   118796612.69304252        6317457.5298006237        1573852151.6992152     
   104733110.65526791        5721433.5176842287        1569230244.6812360     
   90078517.276019230        3155105.0339877456        1569879658.1606672     
   74832832.555293947       -1381527.9212982245        1575800392.1374984     
   58996056.493108198       -7888465.3481204361        1586992446.6117377     
   827165.22303074808       -684736.82050994947        1602411371.2690575     
   610618.86070133233       -425595.86882907053        1597943369.3431337     
   370026.50384244591       -246608.23224850988        1598658205.5246599     
   105388.15244249048       -147773.91080380461        1604555879.8136244     
  -183296.19348954374       -129092.90446602870        1615636392.2100387     
   240014917.52198386       -30122341.788332254        1507340324.4963775     
   199298732.30332032       -60087426.810957760        1486108462.3566697     
   154010542.31703985       -105292527.72563957        1467659769.6455159     
   104150347.56314206       -165737644.53237903        1451994246.3629293     
   49718148.041622728       -241422777.23119032        1439111892.5089033     
   179095163.35084632       -22885089.790048130        1532844412.7549109     
   147993617.44768900       -45513024.887968235        1507215746.6080017     
   113461747.06413880       -79575374.920533955        1484506598.9849141     
   75499552.200163782       -125072139.88784772        1464716969.8856494     
   34107032.855795808       -182003319.78980464        1447846859.3101850     
   118755543.00788859       -15473797.643306717        1559395120.1266944     
   97658205.263832003       -30647712.163404763        1530701610.3076749     
   74272223.326576173       -53450440.660834312        1505063968.1077235     
   48597597.196118489       -83881983.135603428        1482482193.5268450     
   20634326.872468464       -121942339.58768241        1462956286.5650356     
   58996056.493108198       -7888465.3481204361        1586992446.6117377     
   48292495.751726225       -15491488.637343418        1556566053.4556787     
   36441971.104358397       -26917724.946520813        1529331877.0139484     
   23444482.550993994       -42167174.275686137        1505289917.2865415     
   9300030.0916429050       -61239836.624809653        1484440174.2734551     
  -183296.19348954374       -129092.90446602870        1615636392.2100387     
  -103511.08861460768       -44354.309735936338        1584809076.0520227     
  -29009.602525110255        22772.222374639423        1557310325.7035873     
   40208.264785971296        72286.691891536437        1533140141.1647232     
   104142.51332099314        104189.09882087390        1512298522.4354460     
   49718148.041622728       -241422777.23119032        1439111892.5089033     
   40429251.181903318       -322286804.12981737        1346185629.3764822     
   23368259.090863764       -429057815.13285315        1253110006.5470970     
  -1464828.2314925790       -561735810.24027836        1159885024.0207617     
  -34070010.785154045       -720320789.45205104        1066510681.7974800     
   34107032.855795808       -182003319.78980464        1447846859.3101850     
   29902827.718064204       -241818814.03396952        1347412362.3068440     
   19871271.057979912       -321058813.35263783        1246181172.6355631     
   4012362.8755553365       -419723317.74578214        1144153290.2963326     
  -17673896.829225153       -537812327.21343493        1041328715.2891983     
   20634326.872468464       -121942339.58768241        1462956286.5650356     
   19665290.682494007       -161264158.00963438        1357282423.3512282     
   14813646.679136172       -213528002.47620392        1250164534.4985135     
   6079394.8623945266       -278733872.98738194        1141602620.0068789     
  -6537464.7677225173       -356881769.54314673        1031596679.8763189     
   9300030.0916429050       -61239836.624809653        1484440174.2734551     
   9716640.0751915835       -80622836.056828886        1375795812.5096545     
   8195385.9543231204       -106465382.50357071        1265060092.1359606     
   4736267.7290368676       -138767475.96504405        1152233013.1523557     
  -660714.60065465420       -177529116.44118896        1037314575.5588726     
   104142.51332099314        104189.09882087390        1512298522.4354460     
   56875.896158521202        105151.82446408116        1402952529.7821062     
   16488.883549024638        129046.56528248521        1290867845.5478892     
  -17018.524513009543        175873.32126152585        1176044469.7327931     
  -43646.328013512932        245632.09244081189        1058482402.3368185     
  -39143117.084392153       -132358700.00874038        1524566384.5223861     
  -16341641.614363834       -54060389.225014403        1508631134.5726640     
  -990507.12707610370       -596548.38375912746        1502195854.2481756     
   6910286.3774731448        28032822.515034195        1505260543.5489271     
   7360738.8992813490        31827723.471358761        1517825202.4749200     
  -434188884.74180835       -96714188.260475129        1522189793.3929646     
  -397879759.55669898       -46832714.101893410        1504586451.3324890     
  -365884534.14312714       -11330905.848437220        1494431370.9564860     
  -338203208.50109059        9791236.4999028891        1491724552.2649550     
  -314835782.63059044        16533712.943120301        1496465995.2578952     
  -811462550.59076834       -55738045.969673038        1505495484.0417521     
  -767507798.37848163       -36032015.242605805        1489883231.2835934     
  -724730504.72652757       -20250846.383318007        1479667532.2691429     
  -683130669.63490701       -8394539.3918057978        1474848386.9983988     
  -642708293.10361850       -463094.26806837320        1475425795.4713612     
  -1170964114.6312740       -9430273.1363337636        1474483456.4687457     
  -1125225758.0797107       -21658292.647153437        1464521474.4259765     
  -1077528418.8772776       -27356369.988403141        1457904338.1861508     
  -1027872097.0239757       -26524505.160092711        1454632047.7492642     
  -976256792.51979947       -19162698.162201226        1454704603.1153193     
  -1512693576.8633246        42209130.239540339        1429153710.6739466     
  -1471033638.6603880       -3711546.3155320883        1428501180.7596405     
  -1424278276.5953779       -32647476.663695693        1429141788.7075076     
  -1372427490.6682940       -44598660.804945111        1431075534.5175490     
  -1315481280.8791344       -39565098.739277005        1434302418.1897666     
   7360738.8992813490        31827723.471358761        1517825202.4749200     
   5978099.9220179701        24656659.576917119        1517394245.4442317     
   5178084.9597779997        19427675.732552819        1520068674.8113887     
   4960694.0125575261        16140771.938253848        1525848490.5763853     
   5325927.0803563893        14795948.194019334        1534733692.7392220     
  -314835782.63059044        16533712.943120301        1496465995.2578952     
  -306555160.63823670        12535941.188174069        1494759771.3541348     
  -298057918.23789591        9260237.4598504156        1496649140.5354311     
  -289344055.42956871        6706601.7581485361        1502134102.8017850     
  -280413572.21325272        4875034.0830760151        1511214658.1531997     
  -642708293.10361850       -463094.26806837320        1475425795.4713612     
  -623363819.60674393       -867396.72304975986        1472017300.4863183     
  -604168729.30891597       -1769643.1748524904        1472694605.2735510     
  -585123022.21013653       -3169833.6234825850        1477457709.8330591     
  -566226698.31040132       -5067968.0689291358        1486306614.1648390     
  -976256792.51979947       -19162698.162201226        1454704603.1153193     
  -944447876.98350418       -15553354.156755328        1449166832.8407896     
  -913154348.25328553       -13661966.171563625        1448205069.0257535     
  -882376206.32915127       -13488534.206654489        1451819311.6702027     
  -852113451.21109200       -15033058.261995286        1460009560.7741442     
  -1315481280.8791344       -39565098.739277005        1434302418.1897666     
  -1269807332.7685101       -31521931.112917900        1426208368.4175453     
  -1225014775.0709994       -26416731.530271351        1423180531.7920301     
  -1181103607.7866046       -24249499.991343737        1425218908.3132219     
  -1138073830.9153233       -25020236.496126950        1432323497.9811187     
   5325927.0803563893        14795948.194019334        1534733692.7392220     
   4325374.0339722335        13665723.705924140        1529469706.9371903     
   3153846.4827041849        11965584.201548606        1529361135.4901896     
   1811344.4265667449        9695529.6809424628        1534407978.3982222     
   297867.86554513732        6855560.1440550657        1544610235.6612923     
  -280413572.21325272        4875034.0830760151        1511214658.1531997     
  -267830260.91665205        4233264.1018221080        1505747728.9903343     
  -255401625.45458853        3075908.0054440647        1505461791.6193073     
  -243127665.82705659        1402965.7939610630        1510356846.0401168     
  -231008382.03406066       -785562.53264074028        1520432892.2527626     
  -566226698.31040132       -5067968.0689291358        1486306614.1648390     
  -539986444.27995157       -5199360.0260799825        1480655756.7565460     
  -513884567.41369253       -5792009.1971980333        1480211468.5768948     
  -487921067.71162617       -6845915.5822944343        1484973749.6258793     
  -462095945.17375129       -8361079.1813620031        1494942599.9035048     
  -852113451.21109200       -15033058.261995286        1460009560.7741442     
  -812143176.05592620       -14632148.677775890        1454193790.2358239     
  -772294979.39461136       -14638167.406392485        1453610166.3629439     
  -732568861.22714174       -15051114.447828650        1458258689.1555076     
  -692964821.55352652       -15870989.802108616        1468139358.6135085     
  -1138073830.9153233       -25020236.496126950        1432323497.9811187     
  -1084300456.2445800       -24065101.853285611        1426361829.4281688     
  -1030632861.3973395       -23462566.622118831        1425657884.9774625     
  -977071046.37361360       -23212630.802667737        1430211664.6289980     
  -923615011.17338538       -23315294.394876957        1440023168.3827779     
   297867.86554513732        6855560.1440550657        1544610235.6612923     
   116056.30912642949        4388628.5260321088        1541422534.1428087     
   87772.060338970157        2433454.6001133136        1543772365.1332669     
   213015.11916198814        990038.36622874904        1551659728.6326632     
   491785.48560838535        58379.824423502941        1565084624.6410017     
  -231008382.03406066       -785562.53264074028        1520432892.2527626     
  -216889069.77731436       -2503955.3788306117        1517328094.9586885     
  -202700712.27418673       -3992197.4037512243        1519513889.9107616     
  -188443309.52468419       -5250288.6074219197        1526990277.1089830     
  -174116861.52880305       -6278228.9898291752        1539757256.5533547     
  -462095945.17375129       -8361079.1813620031        1494942599.9035048     
  -434381052.71181768       -9542596.3381237835        1491822144.4290524     
  -406681597.06474406       -10775569.544417754        1493745340.9379587     
  -378997578.23254037       -12059998.800278723        1500712189.4302220     
  -351328996.21519780       -13395884.105676830        1512722689.9058430     
  -692964821.55352652       -15870989.802108616        1468139358.6135085     
  -652359892.49437785       -16727294.351824850        1464904682.5538983     
  -611854882.31133616       -17916661.821898431        1466466718.2148528     
  -571449791.00440466       -19439092.212339759        1472825465.5963750     
  -531144618.57357734       -21294585.523126602        1483980924.6984651     
  -923615011.17338538       -23315294.394876957        1440023168.3827779     
  -870825589.12500143       -24058049.419958204        1436575709.3332262     
  -818220568.01396096       -25415474.236184806        1437678021.7414482     
  -765799947.84027719       -27387568.843598872        1443330105.6074474     
  -713563728.60393572       -29974333.242156714        1453531960.9312210     
   491785.48560838535        58379.824423502941        1565084624.6410017     
   434323.67977807717       -598421.80409618979        1566284817.4084842     
   471066.36740485177       -941208.45442560618        1572906006.1023223     
   602013.54848809168       -969980.12656784570        1584948190.7225122     
   827165.22303074808       -684736.82050994947        1602411371.2690575     
  -174116861.52880305       -6278228.9898291752        1539757256.5533547     
  -160061031.42912883       -7109519.0286826342        1540195091.2986872     
  -145891058.19399866       -7560331.9493508935        1546108575.0627499     
  -131606941.82343911       -7630667.7519201785        1557497707.8455403     
  -117208682.31743018       -7320526.4363228865        1574362489.6470468     
  -351328996.21519780       -13395884.105676830        1512722689.9058430     
  -323003722.51751775       -14354817.047093689        1512421428.3780124     
  -294544367.04240912       -14866810.730412394        1517650468.9612789     
  -265950929.78986922       -14931865.155626908        1528409811.6556468     
  -237223410.75989959       -14549980.322745025        1544699456.4611130     
  -531144618.57357734       -21294585.523126602        1483980924.6984651     
  -488393749.58539957       -22334315.859359294        1482963828.6464515     
  -445488860.17780739       -22860644.797546521        1487531687.7979095     
  -402429950.35079879       -22873572.337678403        1497684502.1528449     
  -359217020.10437417       -22373098.479755402        1513422271.7112446     
  -713563728.60393572       -29974333.242156714        1453531960.9312210     
  -656231112.63277256       -31048015.465482235        1451822292.1040111     
  -598724537.60020554       -31541834.150793940        1455752231.5726430     
  -541044003.50623357       -31455789.298091441        1465321779.3371246     
  -483189510.35086101       -30789880.907382771        1480530935.3974504     
   827165.22303074808       -684736.82050994947        1602411371.2690575     
   610618.86070133233       -425595.86882907053        1597943369.3431337     
   370026.50384244591       -246608.23224850988        1598658205.5246599     
   105388.15244249048       -147773.91080380461        1604555879.8136244     
  -183296.19348954374       -129092.90446602870        1615636392.2100387     
  -117208682.31743018       -7320526.4363228865        1574362489.6470468     
  -103540324.22893478       -6240065.9391671084        1569564507.2006266     
  -89333830.414227441       -3365819.6879694834        1570074847.0984337     
  -74589200.873322606        1302212.3172186054        1575893509.3404756     
  -59306435.606212676        7764030.0764240064        1587020493.9267542     
  -237223410.75989959       -14549980.322745025        1544699456.4611130     
  -209311621.82975566       -12540642.362855576        1540227372.1683805     
  -180299515.45266193       -6863579.5797990039        1541189094.4566686     
  -150187091.62863681        2481208.0263631791        1547584623.3259778     
  -118974350.35766238        15493720.455689408        1559413958.7763026     
  -359217020.10437417       -22373098.479755402        1513422271.7112446     
  -316703273.94176060       -19327325.139888421        1509931964.2464013     
  -272527028.61146462       -10739887.907746062        1512000947.5993664     
  -226688284.11348945        3389213.2166594267        1519629221.7701375     
  -179187040.44783035        23059978.233345993        1532816786.7587183     
  -483189510.35086101       -30789880.907382771        1480530935.3974504     
  -425715280.56495929       -26600114.270302728        1478678283.4346886     
  -366016369.89062780       -14994744.671787933        1482510406.5265207     
  -304092778.32788509        4026227.8880961090        1492027304.6729479     
  -239944505.87672317        30462803.409378469        1507228977.8739705     
  -183296.19348954374       -129092.90446602870        1615636392.2100387     
  -103511.08861460768       -44354.309735936338        1584809076.0520227     
  -29009.602525110255        22772.222374639423        1557310325.7035873     
   40208.264785971296        72286.691891536437        1533140141.1647232     
   104142.51332099314        104189.09882087390        1512298522.4354460     
  -59306435.606212676        7764030.0764240064        1587020493.9267542     
  -48479093.760728598        15446188.360708658        1556597445.3516710     
  -36503974.970059291        26954269.795610383        1529359931.6083627     
  -23381079.234215900        42288274.381091692        1505307952.6968050     
  -9110406.5531974807        61448202.117155358        1484441508.6170189     
  -118974350.35766238        15493720.455689408        1559413958.7763026     
  -97808111.708160296        30650700.448602907        1530740415.1087773     
  -74341035.549528524        53477138.805284753        1505109375.2952032     
  -48573121.881766170        83973035.525733784        1482520839.3355834     
  -20504370.704884753        122138390.60991588        1462974807.2299047     
  -179187040.44783035        23059978.233345993        1532816786.7587183     
  -148090564.93092409        45569181.953895025        1507237985.3233550     
  -113540191.34094328        79591379.251359224        1484558656.7641256     
  -75535919.677872166        125126570.12579259        1464778801.0810375     
  -34077749.941727556        182174754.57713479        1447898418.2740898     
  -239944505.87672317        30462803.409378469        1507228977.8739705     
  -199326453.42903227        60201632.876547188        1486090155.9953837     
  -154101442.34429461        105296991.13386774        1467707776.0151224     
  -104269472.62252381        165748878.18130144        1452081837.9331803     
  -49830544.263729393        241557294.01881257        1439212341.7495644     
   104142.51332099314        104189.09882087390        1512298522.4354460     
   56875.896158521202        105151.82446408116        1402952529.7821062     
   16488.883549024638        129046.56528248521        1290867845.5478892     
  -17018.524513009543        175873.32126152585        1176044469.7327931     
  -43646.328013512932        245632.09244081189        1058482402.3368185     
  -9110406.5531974807        61448202.117155358        1484441508.6170189     
  -9604698.7224805988        80867371.654367119        1375796751.7624724     
  -8155296.6789729744        106765521.90087993        1265065696.0306530     
  -4762200.4226627722        139142652.85673487        1152248341.4215558     
   574590.04643772542        177998764.52188909        1037344687.9352087     
  -20504370.704884753        122138390.60991588        1462974807.2299047     
  -19581709.273107357        161534960.70466387        1357290903.2170877     
  -14778539.020299360        213866560.20284858        1250173093.0306168     
  -6094859.9464539438        279133189.10449225        1141621376.6704850     
   6469327.9484254867        357334847.40958494        1031635754.1367027     
  -34077749.941727556        182174754.57713479        1447898418.2740898     
  -29874155.755715549        242107918.97537118        1347434984.1459475     
  -19853238.140432730        321432161.47117555        1246190036.5477664     
  -4014997.0958737433        420147482.06457281        1144163575.4795339     
   17640567.377962023        538253880.75555217        1041355600.9412600     
  -49830544.263729393        241557294.01881257        1439212341.7495644     
  -40482038.170311257        322586246.46647561        1346228994.5490582     
  -23379394.039380074        429462325.70584667        1253116526.5821128     
   1477388.1290717423        562185531.73695338        1159874937.8487418     
   34088308.335039556        720755864.55978167        1066504228.3489352     
  -1512693576.8633246        42209130.239540339        1429153710.6739466     
  -1471033638.6603880       -3711546.3155320883        1428501180.7596405     
  -1424278276.5953779       -32647476.663695693        1429141788.7075076     
  -1372427490.6682940       -44598660.804945111        1431075534.5175490     
  -1315481280.8791344       -39565098.739277005        1434302418.1897666     
  -1872196449.3925917        26386924.127898574        1348278911.4083014     
  -1819632946.8905454       -53365.013678789139        1348657903.5042717     
  -1764103020.9049025       -16605575.876590014        1351635640.8727279     
  -1705606671.4356639       -23269708.460849524        1357212123.5136685     
  -1644143898.4828250       -20045762.766439199        1365387351.4270947     
  -2244053681.8642883        6858410.0335263014        1274880382.1546218     
  -2176856308.1765366        1017600.3714317083        1273807062.4859858     
  -2108821511.3836617       -2031798.9402567148        1276638095.5001421     
  -2039949291.4856675       -2289787.9015374184        1283373481.1970925     
  -1970239648.4825473        243633.48759424686        1294013219.5768399     
  -2628265274.2784185       -16376412.043577075        1208958122.9129136     
  -2542703722.5183568       -498650.16021096706        1203948657.7047808     
  -2458433748.0316558        11073854.145302176        1204149152.5897479     
  -2375455350.8183002        18341100.872985721        1209559607.5678225     
  -2293768530.8783026        21303090.022811890        1220180022.6390023     
  -3024831226.6349802       -43317542.103406191        1150512133.6831770     
  -2917175189.9160156       -4602116.6086034775        1139082689.1606557     
  -2812939730.8488779        22711383.380101919        1134168812.1415486     
  -2712124849.4335718        38622957.862712383        1135770502.6258581     
  -2614730545.6700907        43132606.839229703        1143887760.6135798     
  -1315481280.8791344       -39565098.739277005        1434302418.1897666     
  -1269807332.7685101       -31521931.112917900        1426208368.4175453     
  -1225014775.0709994       -26416731.530271351        1423180531.7920301     
  -1181103607.7866046       -24249499.991343737        1425218908.3132219     
  -1138073830.9153233       -25020236.496126950        1432323497.9811187     
  -1644143898.4828250       -20045762.766439199        1365387351.4270947     
  -1586242865.6680837       -14542758.244198859        1357164285.7956822     
  -1529101060.1594110       -11570511.408854902        1353866648.2755275     
  -1472718481.9568009       -11129022.260391533        1355494438.8666337     
  -1417095131.0602601       -13218290.798814118        1362047657.5689940     
  -1970239648.4825473        243633.48759424686        1294013219.5768399     
  -1900513773.9221146        3085802.0181781054        1285803661.7111273     
  -1831424963.5607002        3804423.2187017202        1282378746.9212246     
  -1762973217.3983040        2399497.0891687870        1283738475.2071295     
  -1695158535.4349222       -1128976.3704223633        1289882846.5688469     
  -2293768530.8783026        21303090.022811890        1220180022.6390023     
  -2212620057.5306025        21363749.674216986        1212126496.1638775     
  -2131986485.2748699        19708072.352397442        1208716827.7291150     
  -2051867814.1111107        16336058.057332873        1209951017.3347142     
  -1972264044.0393176        11247706.789046049        1215829064.9806726     
  -2614730545.6700907        43132606.839229703        1143887760.6135798     
  -2522561716.4935474        40291084.723924041        1136132789.1539354     
  -2430785625.3019228        36140435.992219687        1132880890.6992042     
  -2339402272.0952177        30680660.644119024        1134132065.2493849     
  -2248411656.8734341        23911758.679611564        1139886312.8044770     
  -1138073830.9153233       -25020236.496126950        1432323497.9811187     
  -1084300456.2445800       -24065101.853285611        1426361829.4281688     
  -1030632861.3973395       -23462566.622118831        1425657884.9774625     
  -977071046.37361360       -23212630.802667737        1430211664.6289980     
  -923615011.17338538       -23315294.394876957        1440023168.3827779     
  -1417095131.0602601       -13218290.798814118        1362047657.5689940     
  -1350473739.2402887       -13412702.786027849        1356078677.4440286     
  -1284019200.8125803       -14163292.747456312        1355000343.3231616     
  -1217731515.7771480       -15470060.683136046        1358812655.2063935     
  -1151610684.1339898       -17333006.593060076        1367515613.0937235     
  -1695158535.4349222       -1128976.3704223633        1289882846.5688469     
  -1616737921.0318513       -2787573.3575213552        1283835302.3749747     
  -1538545233.5898135       -5205926.8814018369        1282311326.0870545     
  -1460580473.1088126       -8384036.9420700669        1285310917.7050853     
  -1382843639.5888464       -12321903.539520502        1292834077.2290723     
  -1972264044.0393176        11247706.789046049        1215829064.9806726     
  -1883093001.6192737        7810286.4322246313        1209631704.2210028     
  -1794210959.7290316        3409530.9760674238        1207590833.2691402     
  -1705617918.3685915       -1954559.5794283152        1209706452.1250830     
  -1617313877.5379491       -8281985.2342571020        1215978560.7888360     
  -2248411656.8734341        23911758.679611564        1139886312.8044770     
  -2149538981.0025539        18380876.583211660        1133467882.9821186     
  -2051016379.2302415        11683080.824928284        1130838864.8694191     
  -1952843851.5564868        3818371.4047849178        1131999258.4663813     
  -1855021397.9813011       -5213251.6772619486        1136949063.7730055     
  -923615011.17338538       -23315294.394876957        1440023168.3827779     
  -870825589.12500143       -24058049.419958204        1436575709.3332262     
  -818220568.01396096       -25415474.236184806        1437678021.7414482     
  -765799947.84027719       -27387568.843598872        1443330105.6074474     
  -713563728.60393572       -29974333.242156714        1453531960.9312210     
  -1151610684.1339898       -17333006.593060076        1367515613.0937235     
  -1087640957.1613371       -20205492.870167017        1362780872.7738452     
  -1023744514.5762130       -23322260.439039648        1362588071.9961009     
  -959921356.37861562       -26683309.299664199        1366937210.7604818     
  -896171482.56854665       -30288639.452054441        1375828289.0669968     
  -1382843639.5888464       -12321903.539520502        1292834077.2290723     
  -1307715984.5937674       -17330834.139207482        1286941691.6136651     
  -1232550497.4363971       -22213657.531254590        1285583413.6247392     
  -1157347178.1167362       -26970373.715667546        1288759243.2623029     
  -1082106026.6347852       -31600982.692447066        1296469180.5263479     
  -1617313877.5379491       -8281985.2342571020        1215978560.7888360     
  -1531050671.4222898       -15434073.227077305        1209058165.8526826     
  -1444638516.5945168       -22089665.512853265        1206664046.6273696     
  -1358077413.0546410       -28248762.091621220        1208796203.1128962     
  -1271367360.8026469       -33911362.963323236        1215454635.3092604     
  -1855021397.9813011       -5213251.6772619486        1136949063.7730055     
  -1757645017.6469052       -14515210.133768201        1129130295.4909015     
  -1660008572.0505800       -22950284.383850038        1125829971.0039897     
  -1562112061.1923208       -30518474.427477777        1127048090.3122709     
  -1463955485.0721312       -37219780.264679730        1132784653.4157484     
  -713563728.60393572       -29974333.242156714        1453531960.9312210     
  -656231112.63277256       -31048015.465482235        1451822292.1040111     
  -598724537.60020554       -31541834.150793940        1455752231.5726430     
  -541044003.50623357       -31455789.298091441        1465321779.3371246     
  -483189510.35086101       -30789880.907382771        1480530935.3974504     
  -896171482.56854665       -30288639.452054441        1375828289.0669968     
  -824793114.46266115       -31571019.276835412        1372898385.1589797     
  -753318779.30625319       -32533508.933200538        1375181458.6590855     
  -681748477.09931469       -33176108.421138316        1382677509.5673156     
  -610082207.84185553       -33498817.740665883        1395386537.8836639     
  -1082106026.6347852       -31600982.692447066        1296469180.5263479     
  -997900851.78767490       -33457743.736737669        1292228050.8581691     
  -913677701.90091443       -35254587.982197881        1292773267.7103894     
  -829436576.97450471       -36991515.428827882        1298104831.0830092     
  -745177477.00844824       -38668526.076631784        1308222740.9760330     
  -1271367360.8026469       -33911362.963323236        1215454635.3092604     
  -1175554324.6078041       -36708188.845172107        1209811289.2015686     
  -1079801305.3841896       -39705071.297782779        1208527658.7265472     
  -984108303.13180447       -42902010.321158707        1211603743.8842049     
  -888475317.85064077       -46299005.915269256        1219039544.6745412     
  -1463955485.0721312       -37219780.264679730        1132784653.4157484     
  -1357753532.9230473       -41322354.602134228        1125648100.1891825     
  -1251689589.7560735       -45884958.879941940        1122444631.7075651     
  -1145763655.5711949       -50907593.098081350        1123174247.9709067     
  -1039975730.3684343       -56390257.256600440        1127836948.9791977     
  -483189510.35086101       -30789880.907382771        1480530935.3974504     
  -425715280.56495929       -26600114.270302728        1478678283.4346886     
  -366016369.89062780       -14994744.671787933        1482510406.5265207     
  -304092778.32788509        4026227.8880961090        1492027304.6729479     
  -239944505.87672317        30462803.409378469        1507228977.8739705     
  -610082207.84185553       -33498817.740665883        1395386537.8836639     
  -538009938.15751755       -30139700.467082441        1393299676.3542073     
  -463686365.32698071       -19276239.372828737        1396948989.5451410     
  -387111489.35023683       -908434.45788647234        1406334477.4564691     
  -308285310.22729188        24963714.277721748        1421456140.0881829     
  -745177477.00844824       -38668526.076631784        1308222740.9760330     
  -658360311.23768747       -36096001.310160637        1305932729.1806221     
  -569265220.06294811       -25930391.863753885        1309430291.7714045     
  -477892203.48421377       -8171697.7373633087        1318715428.7483740     
  -384241261.50149471        17180081.068968102        1333788140.1115336     
  -888475317.85064077       -46299005.915269256        1219039544.6745412     
  -786766399.80547333       -44469016.799539447        1216577441.9139349     
  -682752934.09852827       -34957202.144559532        1219954313.2053108     
  -576434920.72980464       -17763561.950314254        1229170158.5486767     
  -467812359.69931966        7111903.7831378579        1244224977.9440320     
  -1039975730.3684343       -56390257.256600440        1127836948.9791977     
  -923228203.86084521       -55258746.935154080        1125233814.5541377     
  -804149507.43372273       -46356670.215249479        1128521053.8468609     
  -682739641.08702123       -29684027.096758008        1137698666.8573704     
  -558998604.82077825       -5240817.5797891617        1152766653.5856581     
  -239944505.87672317        30462803.409378469        1507228977.8739705     
  -199326453.42903227        60201632.876547188        1486090155.9953837     
  -154101442.34429461        105296991.13386774        1467707776.0151224     
  -104269472.62252381        165748878.18130144        1452081837.9331803     
  -49830544.263729393        241557294.01881257        1439212341.7495644     
  -308285310.22729188        24963714.277721748        1421456140.0881829     
  -258780577.21234646        55238468.673805282        1404702377.4812920     
  -202824483.94169852        107017757.25556605        1391904406.1211402     
  -140417030.41535747        180301580.02296662        1383062226.0077188     
  -71558216.633328304        275089936.97599930        1378175837.1410413     
  -384241261.50149471        17180081.068968102        1333788140.1115336     
  -322423135.49525511        49018774.121183410        1323571238.6647780     
  -252309247.61465812        108510006.75459020        1318509477.8131664     
  -173899597.85970724        195653778.96917677        1318602857.5567048     
  -87194186.230405524        310450090.76493245        1323851377.8954043     
  -467812359.69931966        7111903.7831378579        1244224977.9440320     
  -390254128.27775991        41542549.218663529        1242696739.5458376     
  -302555733.36316943        109773739.63095255        1247522991.0912113     
  -204717174.95557216        211805475.01993251        1258703732.5801499     
  -96738453.054961294        347637755.38562715        1276238964.0126543     
  -558998604.82077825       -5240817.5797891617        1152766653.5856581     
  -462273555.55984545        32809793.966302723        1162078880.1244738     
  -353563941.18723065        110808955.88465993        1178944945.9552698     
  -232869761.70294791        228756668.17524743        1203364851.0780408     
  -100191017.10699412        386652930.83807194        1235338595.4927845     
  -49830544.263729393        241557294.01881257        1439212341.7495644     
  -40482038.170311257        322586246.46647561        1346228994.5490582     
  -23379394.039380074        429462325.70584667        1253116526.5821128     
   1477388.1290717423        562185531.73695338        1159874937.8487418     
   34088308.335039556        720755864.55978167        1066504228.3489352     
  -71558216.633328304        275089936.97599930        1378175837.1410413     
  -57373517.248717979        376857217.60126668        1296673603.7793205     
  -34224029.993559748        508507124.46169204        1214234871.8285816     
  -2109754.8678665161        670039657.55723941        1130859641.2888250     
   38969308.128368497        861454816.88791704        1046547912.1600289     
  -87194186.230405524        310450090.76493245        1323851377.8954043     
  -70480087.333416998        432263661.43418014        1255242683.1776659     
  -43590550.732860208        587995357.78199387        1184890112.0483227     
  -6525576.4287424982        777645179.80833054        1112793664.5073719     
   40714835.578935802        1001213127.5132238        1038953340.5548123     
  -96738453.054961294        347637755.38562715        1276238964.0126543     
  -79801748.424413919        488805577.96521246        1221936232.7440979     
  -51478956.257281929        667927025.66674948        1165082247.2413387     
  -11770076.553566456        885002098.49023736        1105677007.5043902     
   39324890.686748743        1140030796.4357045        1043720513.5332538     
  -100191017.10699412        386652930.83807194        1235338595.4927845     
  -85338500.521722913        546482967.19430470        1196754252.4786003     
  -57889246.566811949        748302128.11599767        1154811277.4076409     
  -17843255.242313683        992110413.60297358        1109509670.2798929     
   34799473.451800108        1277907823.6553564        1060849431.0953556     
  -3024831226.6349802       -43317542.103406191        1150512133.6831770     
  -2917175189.9160156       -4602116.6086034775        1139082689.1606557     
  -2812939730.8488779        22711383.380101919        1134168812.1415486     
  -2712124849.4335718        38622957.862712383        1135770502.6258581     
  -2614730545.6700907        43132606.839229703        1143887760.6135798     
  -3412135850.5981979       -37295283.940964937        1040523928.7610292     
  -3291114710.4490047       -6785920.3879013062        1028817071.4075824     
  -3172999241.8338385        14037871.385061264        1022769201.9451427     
  -3057789444.7527061        25176091.377916813        1022380320.3737146     
  -2945485319.2056031        26628739.590675354        1027650426.6932968     
  -3788465648.8461027       -27980578.063929558        925537056.94806361     
  -3656526775.5878372       -6411487.5489506721        914153510.56778431     
  -3526978667.7457972        7188384.9119212627        907572372.46611118     
  -3399821325.3199921        12819039.318684101        905793642.64304399     
  -3275054748.3104248        10480475.671329737        908817321.09857953     
  -4153820621.3786969       -15373424.472301960        805551518.24427807     
  -4013411385.3325086       -3478818.0917458534        795092006.64126647     
  -3874878008.5847535        2162923.9606854916        788578323.70445442     
  -3738220491.1354361        1551801.6849982738        786010469.43384409     
  -3603438832.9845576       -5312184.9188098907        787388443.82943439     
  -4508200768.1959715        526176.83392286301        680567312.64967227     
  -4361768539.6830254        2012087.9836952686        671632559.62802577     
  -4216697264.3507123       -1038511.4686560631        665787055.66017067     
  -4072986942.1990356       -8625621.5231306553        663030800.74611402     
  -3930637573.2280011       -20749242.179739237        663363794.88585389     
  -2614730545.6700907        43132606.839229703        1143887760.6135798     
  -2522561716.4935474        40291084.723924041        1136132789.1539354     
  -2430785625.3019228        36140435.992219687        1132880890.6992042     
  -2339402272.0952177        30680660.644119024        1134132065.2493849     
  -2248411656.8734341        23911758.679611564        1139886312.8044770     
  -2945485319.2056031        26628739.590675354        1027650426.6932968     
  -2842833983.6804338        20986216.897273660        1020012927.8456191     
  -2740045768.2033687        15799960.710182071        1016582207.1638398     
  -2637120672.7744126        11069971.029399037        1017358264.6479590     
  -2534058697.3935614        6796247.8549329042        1022341100.2979763     
  -3275054748.3104248        10480475.671329737        908817321.09857953     
  -3162767463.1195297        1782985.3949499130        901915182.45581925     
  -3049813680.0399256       -4692845.2523922920        898923527.13994431     
  -2936193399.0716128       -8947016.2707157135        899842355.15095258     
  -2821906620.2145958       -10979527.660013199        904671666.48884439     
  -3603438832.9845576       -5312184.9188098907        787388443.82943439     
  -3482362154.8108330       -17318609.783020735        781839552.98453903     
  -3360089360.8115873       -25337981.895496368        779904850.62751567     
  -3236620450.9868231       -29370301.256238699        781584336.75836217     
  -3111955425.3365316       -29415567.865230322        786878011.37707663     
  -3930637573.2280011       -20749242.179739237        663363794.88585389     
  -3801618058.7543521       -36318568.636672735        659786039.43177736     
  -3670872810.5183592       -46135449.219133615        659526177.62655449     
  -3538401828.5200367       -50199883.927155733        662584209.47019029     
  -3404205112.7593770       -48511872.760720372        668960134.96267653     
  -2248411656.8734341        23911758.679611564        1139886312.8044770     
  -2149538981.0025539        18380876.583211660        1133467882.9821186     
  -2051016379.2302415        11683080.824928284        1130838864.8694191     
  -1952843851.5564868        3818371.4047849178        1131999258.4663813     
  -1855021397.9813011       -5213251.6772619486        1136949063.7730055     
  -2534058697.3935614        6796247.8549329042        1022341100.2979763     
  -2424046620.4127326        4423053.0655841827        1014927967.5938854     
  -2314293073.1166754        1188092.6603208780        1011565496.1938499     
  -2204798055.5053926       -2908633.3608508110        1012253686.0978738     
  -2095561567.5788825       -7867124.9979369640        1016992537.3059590     
  -2821906620.2145958       -10979527.660013199        904671666.48884439     
  -2700008714.7112479       -9971106.9185334444        896370632.71910584     
  -2578277794.4788885       -9519303.7470133305        892381509.84782302     
  -2456713859.5175114       -9624118.1454368830        892704297.87499893     
  -2335316909.8271203       -10285550.113809109        897338996.80062521     
  -3111955425.3365316       -29415567.865230322        786878011.37707663     
  -2977425263.8981090       -24801603.369167089        777795878.35778391     
  -2842970543.3168793       -20439108.397086024        773286905.83133948     
  -2708591263.5928483       -16328082.948995352        773351093.79774809     
  -2574287424.7260032       -12468527.024874687        777988442.25701535     
  -3404205112.7593770       -48511872.760720372        668960134.96267653     
  -3256296267.9733071       -40068436.286288381        659203704.50991285     
  -3108371319.6306496       -31571321.289888382        654281684.14439642     
  -2960430267.7313995       -23020527.771512866        654194073.86613071     
  -2812473112.2755446       -14416055.731131196        658940873.67511535     
  -1855021397.9813011       -5213251.6772619486        1136949063.7730055     
  -1757645017.6469052       -14515210.133768201        1129130295.4909015     
  -1660008572.0505800       -22950284.383850038        1125829971.0039897     
  -1562112061.1923208       -30518474.427477777        1127048090.3122709     
  -1463955485.0721312       -37219780.264679730        1132784653.4157484     
  -2095561567.5788825       -7867124.9979369640        1016992537.3059590     
  -1985808769.3363006       -13177246.529545546        1009337276.1511425     
  -1876131412.6107016       -18738839.784432054        1005762699.5324531     
  -1766529497.4020889       -24551904.762600780        1006268807.4498894     
  -1657003023.7104623       -30616441.464052379        1010855599.9034536     
  -2335316909.8271203       -10285550.113809109        897338996.80062521     
  -2214438434.4165435       -11979056.942566991        889455818.19769788     
  -2093970907.3018684       -15042391.424327016        885215564.87182951     
  -1973914328.4830961       -19475553.559101701        884618236.82301891     
  -1854268697.9602227       -25278543.346863866        887663834.05126429     
  -2574287424.7260032       -12468527.024874687        777988442.25701535     
  -2443534012.8876314       -10920641.372857213        769485921.63057446     
  -2313527056.1240778       -11860939.303554893        764188567.02212358     
  -2184266554.4353380       -15289420.816966772        762096378.43166482     
  -2055752507.8214107       -21206085.913098574        763209355.85919309     
  -2812473112.2755446       -14416055.731131196        658940873.67511535     
  -2673095504.7495704       -10001999.820389032        649427586.44976377     
  -2534799859.0773230       -9194483.4220670462        642681705.98333132     
  -2397586175.2588153       -11993506.536208868        638703232.27582216     
  -2261454453.2940292       -18399069.162762642        637492165.32723582     
  -1463955485.0721312       -37219780.264679730        1132784653.4157484     
  -1357753532.9230473       -41322354.602134228        1125648100.1891825     
  -1251689589.7560735       -45884958.879941940        1122444631.7075651     
  -1145763655.5711949       -50907593.098081350        1123174247.9709067     
  -1039975730.3684343       -56390257.256600440        1127836948.9791977     
  -1657003023.7104623       -30616441.464052379        1010855599.9034536     
  -1540901716.2424080       -34719055.679772735        1002076516.6396567     
  -1424731908.5632153       -38593335.858358026        996979246.54048324     
  -1308493600.6728780       -42239281.999799728        995563789.60593140     
  -1192186792.5714009       -45656894.104092717        997830145.83600819     
  -1854268697.9602227       -25278543.346863866        887663834.05126429     
  -1728985953.9741430       -29596573.081123590        877483148.14236188     
  -1603428200.5836751       -32997904.800763726        870733003.81775129     
  -1477595437.7888184       -35482538.505769014        867413401.07743573     
  -1351487665.5895736       -37050474.196153581        867524339.92140329     
  -2055752507.8214107       -21206085.913098574        763209355.85919309     
  -1922006246.1182551       -25954906.806197524        751867994.69730520     
  -1787778465.8174610       -29098665.707163453        743705903.53937411     
  -1653069166.9190352       -30637362.616027653        738723082.38540423     
  -1517878349.4229808       -30570997.532791436        736919531.23539555     
  -2261454453.2940292       -18399069.162762642        637492165.32723582     
  -2119962592.6747336       -23794056.854958057        625231056.30447686     
  -1977782704.2645700       -26895618.577571869        615897945.70535064     
  -1834914788.0635228       -27703754.330580473        609492833.52984679     
  -1691358844.0715897       -26218464.113976479        606015719.77797818     
  -1039975730.3684343       -56390257.256600440        1127836948.9791977     
  -923228203.86084521       -55258746.935154080        1125233814.5541377     
  -804149507.43372273       -46356670.215249479        1128521053.8468609     
  -682739641.08702123       -29684027.096758008        1137698666.8573704     
  -558998604.82077825       -5240817.5797891617        1152766653.5856581     
  -1192186792.5714009       -45656894.104092717        997830145.83600819     
  -1061847524.3426927       -42579687.349726498        994057061.34482265     
  -930070109.63029897       -34708658.983056486        994399782.20604146     
  -796854548.43419826       -22043809.004048467        998858308.41965234     
  -662200840.75440979       -4585137.4127285779        1007432639.9856802     
  -1351487665.5895736       -37050474.196153581        867524339.92140329     
  -1212626850.9694099       -33548629.607729793        861539444.68892574     
  -1073220913.3014172       -28229708.193212688        857895786.44346929     
  -933269852.58559227       -21093709.952583969        856593365.18502700     
  -792773668.82192910       -12140634.885844201        857632180.91360211     
  -1517878349.4229808       -30570997.532791436        736919531.23539555     
  -1375566183.7410216       -28165573.709213078        727680964.58645284     
  -1233601918.4470971       -26919817.845750809        719009066.55913758     
  -1091985553.5412002       -26833729.942387104        710903837.15345645     
  -950717089.02333558       -27907309.999117732        703365276.36941576     
  -1691358844.0715897       -26218464.113976479        606015719.77797818     
  -1550665522.6575079       -26430519.654158890        592481621.03739703     
  -1411213125.0673199       -30778987.940636873        577739622.55305421     
  -1273001651.3010292       -39263868.973452687        561789724.32497156     
  -1136031101.3586304       -51885162.752564430        544631926.35313487     
  -558998604.82077825       -5240817.5797891617        1152766653.5856581     
  -462273555.55984545        32809793.966302723        1162078880.1244738     
  -353563941.18723065        110808955.88465993        1178944945.9552698     
  -232869761.70294791        228756668.17524743        1203364851.0780408     
  -100191017.10699412        386652930.83807194        1235338595.4927845     
  -662200840.75440979       -4585137.4127285779        1007432639.9856802     
  -547077218.96597636        25688443.914639324        1020919404.0942564     
  -421079258.71388900        92209820.120843321        1042799776.2901828     
  -284206959.99815249        194978991.20587787        1073073756.5734441     
  -136460322.81876594        333995957.16975582        1111741344.9440582     
  -792773668.82192910       -12140634.885844201        857632180.91360211     
  -656852135.09065795        11075718.047414005        873998218.16923964     
  -511166489.54376316        66839110.366083622        899597632.30759883     
  -355716732.18124181        155149542.07016999        934430423.32866323     
  -190502863.00309461        276007013.15967596        978496591.23243761     
  -950717089.02333558       -27907309.999117732        703365276.36941576     
  -791598303.93389618       -11028383.635376632        721315322.34943056     
  -623825633.67685294        34696826.620355070        749338514.00752437     
  -447399078.25220579        109268320.76809955        787434851.34369540     
  -262318637.65997154        212686098.80782324        835604334.35794759     
  -1136031101.3586304       -51885162.752564430        544631926.35313487     
  -951315725.49568129       -40623861.133737922        562870716.63482404     
  -759056691.11316550       -4217031.1163503528        592022421.38995433     
  -559253998.21106613        57335327.299640954        632087040.61853266     
  -351907646.78939372        144033214.11422029        683064574.32055855     
  -100191017.10699412        386652930.83807194        1235338595.4927845     
  -85338500.521722913        546482967.19430470        1196754252.4786003     
  -57889246.566811949        748302128.11599767        1154811277.4076409     
  -17843255.242313683        992110413.60297358        1109509670.2798929     
   34799473.451800108        1277907823.6553564        1060849431.0953556     
  -136460322.81876594        333995957.16975582        1111741344.9440582     
  -127352078.41974941        483008559.71437126        1090179777.8364410     
  -95104664.078981787        709151728.73147249        1070054502.7527122     
  -39718079.796475530        1012425464.2210371        1051365519.6928636     
   38807674.427785814        1392829766.1831229        1034112828.6568840     
  -190502863.00309461        276007013.15967596        978496591.23243761     
  -173439107.70271981        418312116.81891811        986257304.69887686     
  -122693749.88845775        672889228.85778296        1000249234.2698656     
  -38266789.560327947        1039738349.2762238        1020472379.9454072     
   79841773.281687975        1518859478.0742643        1046926741.7254922     
  -262318637.65997154        212686098.80782324        835604334.35794759     
  -223599588.37061554        352393638.50801897        884986833.06592393     
  -140656503.99525875        639514628.49488890        945395471.95911717     
  -13489384.533883810        1074049068.7684779        1016830251.0375429     
   157901770.01350135        1655996959.3287790        1099291170.3011549     
  -351907646.78939372        144033214.11422029        683064574.32055855     
  -277833520.42345691        285253124.78160274        786368362.93756771     
  -148992926.39937055        609027927.64281154        905493215.82045722     
   34614135.282865584        1115357622.6978393        1040439132.9692308     
   272987664.62323254        1804242209.9466691        1191206114.3838923     
  -4508200768.1959715        526176.83392286301        680567312.64967227     
  -4361768539.6830254        2012087.9836952686        671632559.62802577     
  -4216697264.3507123       -1038511.4686560631        665787055.66017067     
  -4072986942.1990356       -8625621.5231306553        663030800.74611402     
  -3930637573.2280011       -20749242.179739237        663363794.88585389     
  -4861141314.9813509        21757204.821749687        520372004.33727980     
  -4712815489.7825108       -1688518.1731162071        508678835.87664014     
  -4561945967.7885361       -16655251.850877523        501106485.23088568     
  -4408532748.9994364       -23142996.211550713        497654952.40001458     
  -4252575833.4152045       -21151751.255129337        498324237.38402927     
  -5225407957.7514772        39590404.014145374        348091401.55810255     
  -5072241196.5493336       -7902751.3301274776        338195242.63019502     
  -4912626088.5762978       -33901417.438084364        333451470.27826494     
  -4746562633.8323660       -38405594.309727907        333860084.50231075     
  -4574050832.3175402       -21415281.945050001        339421085.30233115     
  -5601000696.5063343        54025774.411126852        163725504.31213444     
  -5440045659.9835014       -16630611.487351656        160181779.88868648     
  -5268737626.7140007       -52777008.230289936        162822010.80230853     
  -5087076596.6978359       -54413415.817668200        171646197.05299640     
  -4895062569.9350071       -21539834.249516726        186654338.64075699     
  -5987919531.2459316        65063316.012686014       -32725687.400627133     
  -5816228880.0849943       -27872098.644756556       -25361552.347878359     
  -5630280582.2016296       -73282024.227441788       -10781893.196975661     
  -5430074637.5958300       -71166460.735364676        11013290.052092168     
  -5215611046.2676048       -21525408.168519020        40023997.399308160     
  -3930637573.2280011       -20749242.179739237        663363794.88585389     
  -3801618058.7543521       -36318568.636672735        659786039.43177736     
  -3670872810.5183592       -46135449.219133615        659526177.62655449     
  -3538401828.5200367       -50199883.927155733        662584209.47019029     
  -3404205112.7593770       -48511872.760720372        668960134.96267653     
  -4252575833.4152045       -21151751.255129337        498324237.38402927     
  -4109477147.9354186       -19696060.719574451        495841884.82789576     
  -3966731885.8812265       -19418448.269340038        496942920.09089929     
  -3824340047.2526383       -20318913.904441357        501627343.17303932     
  -3682301632.0496392       -22397457.624847889        509895154.07432032     
  -4574050832.3175402       -21415281.945050001        339421085.30233115     
  -4416114421.0593863       -2707007.9853596687        335608452.25822300     
  -4260610590.4147635        7892663.9292399883        335644701.20352548     
  -4107539340.3836718        10383733.798743248        339529832.13825899     
  -3956900670.9660969        4766201.6231706142        347263845.06240946     
  -4895062569.9350071       -21539834.249516726        186654338.64075699     
  -4721529878.1262569        14648589.565975904        179085741.72274953     
  -4552508924.1189642        35797887.376611710        175631520.96444425     
  -4387999707.9131279        41908059.182398081        176291676.36584422     
  -4228002229.5087423        32979104.983340263        181066207.92694372     
  -5215611046.2676048       -21525408.168519020        40023997.399308160     
  -5025723519.1360159        32370731.934471130        26273753.221487481     
  -4842426886.9938154        64297222.072822094        16903379.373653702     
  -4665721149.8410120        74254062.246526957        11912875.855792653     
  -4495606307.6775875        62241252.455623627        11302242.667929554     
  -3404205112.7593770       -48511872.760720372        668960134.96267653     
  -3256296267.9733071       -40068436.286288381        659203704.50991285     
  -3108371319.6306496       -31571321.289888382        654281684.14439642     
  -2960430267.7313995       -23020527.771512866        654194073.86613071     
  -2812473112.2755446       -14416055.731131196        658940873.67511535     
  -3682301632.0496392       -22397457.624847889        509895154.07432032     
  -3524048531.9906139       -19911638.463816404        501294565.18357664     
  -3365639838.7754564       -16907175.449012756        497191520.41094857     
  -3207075552.4041696       -13384068.580460072        497586019.75643992     
  -3048355672.8767633       -9342317.8581539392        502478063.22005075     
  -3956900670.9660969        4766201.6231706142        347263845.06240946     
  -3789265789.8316250        1005661.2115645409        339981835.59980804     
  -3621335825.9414887       -1771270.0145051479        336860504.28619045     
  -3453110779.2956986       -3564592.0550484657        337899851.12156212     
  -3284590649.8942399       -4374304.9100441933        343099876.10592300     
  -4228002229.5087423        32979104.983340263        181066207.92694372     
  -4051948041.4963489        22683462.739811420        175265515.75860906     
  -3875459281.1287508        13836395.013647079        173288635.77013019     
  -3698535948.4059696        6437901.8047540188        175135567.96150142     
  -3521178043.3279862        487983.11319327354        180806312.33272886     
  -4495606307.6775875        62241252.455623627        11302242.667929554     
  -4312095286.9847841        45121766.120958328        7145605.6599827046     
  -4128010204.3372488        29915819.635400057        6475914.8627528790     
  -3943351059.7349896        16623412.998916388        9293170.2762580123     
  -3758117853.1780024        5244546.2115361691        15597371.900477607     
  -2812473112.2755446       -14416055.731131196        658940873.67511535     
  -2673095504.7495704       -10001999.820389032        649427586.44976377     
  -2534799859.0773230       -9194483.4220670462        642681705.98333132     
  -2397586175.2588153       -11993506.536208868        638703232.27582216     
  -2261454453.2940292       -18399069.162762642        637492165.32723582     
  -3048355672.8767633       -9342317.8581539392        502478063.22005075     
  -2902383481.0684295       -9354240.7976218462        492310966.62844616     
  -2756718113.6334009       -10388911.648110271        485470600.15286225     
  -2611359570.5716863       -12446330.409641623        481956963.79329199     
  -2466307851.8832674       -15526497.082164168        481770057.54974759     
  -3284590649.8942399       -4374304.9100441933        343099876.10592300     
  -3130425807.0689821       -8332786.6793460846        333183297.20856452     
  -2975792651.1366205       -10730224.758289456        327152771.78431606     
  -2820691182.0971370       -11566619.146828532        325008299.83318746     
  -2665121399.9505353       -10841969.844987869        326749881.35516757     
  -3521178043.3279862        487983.11319327354        180806312.33272886     
  -3357222482.7512546       -6937637.4655976295        172044578.19010490     
  -3192023471.5869799       -10218422.752593756        167728220.87769631     
  -3025581009.8351698       -9354372.7478065491        167857240.39549038     
  -2857895097.4958191       -4345487.4511998892        172431636.74350283     
  -3758117853.1780024        5244546.2115361691        15597371.900477607     
  -3582773508.1152291       -5168793.1563668251        8894809.5730785504     
  -3405410574.9844899       -8853505.6310598850        7196947.4329977790     
  -3226029053.7857962       -5809591.2125667334        10503785.480214801     
  -3044628944.5191321        3962950.0991595984        18815323.714744985     
  -2261454453.2940292       -18399069.162762642        637492165.32723582     
  -2119962592.6747336       -23794056.854958057        625231056.30447686     
  -1977782704.2645700       -26895618.577571869        615897945.70535064     
  -1834914788.0635228       -27703754.330580473        609492833.52984679     
  -1691358844.0715897       -26218464.113976479        606015719.77797818     
  -2466307851.8832674       -15526497.082164168        481770057.54974759     
  -2316822983.0031676       -17443801.588531494        471883928.37429398     
  -2167141454.2934752       -18705573.329615474        464415726.39448929     
  -2017263265.7542107       -19311812.305443406        459365451.61033934     
  -1867188417.3853648       -19262518.516005754        456733104.02183706     
  -2665121399.9505353       -10841969.844987869        326749881.35516757     
  -2509100869.1752615       -9718795.0751979351        318665469.40549976     
  -2353375046.5317087       -9577980.7444716692        312488913.42351097     
  -2197943932.0198722       -10419526.852812052        308220213.40919012     
  -2042807525.6397600       -12243433.400217772        305859369.36254227     
  -2857895097.4958191       -4345487.4511998892        172431636.74350283     
  -2696796251.1910219       -619037.31493008137        165575679.39810404     
  -2536483480.9792624        487159.17788648605        160117506.79240969     
  -2376956786.8605065       -1026897.9726487398        156057118.92640090     
  -2218216168.8347855       -5161208.7666268349        153394515.80009422     
  -3044628944.5191321        3962950.0991595984        18815323.714744985     
  -2879909129.0504742        9855471.6921768188        12614558.352109527     
  -2716466757.6361403        11489846.437447190        7301506.5011840984     
  -2554301830.2761302        8866074.3349757195        2876168.1619855119     
  -2393414346.9704270        1984155.3848056793       -661456.66550977167     
  -1691358844.0715897       -26218464.113976479        606015719.77797818     
  -1550665522.6575079       -26430519.654158890        592481621.03739703     
  -1411213125.0673199       -30778987.940636873        577739622.55305421     
  -1273001651.3010292       -39263868.973452687        561789724.32497156     
  -1136031101.3586304       -51885162.752564430        544631926.35313487     
  -1867188417.3853648       -19262518.516005754        456733104.02183706     
  -1729540147.1986332       -22744673.204066634        442923709.44438934     
  -1591958959.9334810       -26450437.630723238        428734505.77762777     
  -1454444855.5898964       -30379811.795944095        414165493.02155197     
  -1316997834.1679010       -34532795.699776053        399216671.17615789     
  -2042807525.6397600       -12243433.400217772        305859369.36254227     
  -1905838333.3820021       -18285895.246664166        293144160.00094229     
  -1767762383.1434932       -20639163.823932528        280877232.20445865     
  -1628579674.9242477       -19303239.132094204        269058585.97309470     
  -1488290208.7242627       -14278121.171101630        257688221.30684543     
  -2218216168.8347855       -5161208.7666268349        153394515.80009422     
  -2079560081.2076206       -13054185.781938195        143142972.70704114     
  -1938623394.6973686       -13345166.520316958        134167801.83354160     
  -1795406109.3040714       -6034150.9818660021        126469003.17960329     
  -1649908225.0277121        8878860.8334598541        120046576.74520773     
  -2393414346.9704270        1984155.3848056793       -661456.66550977167     
  -2250705390.6754680       -7049544.8098742962       -7079852.4373057913     
  -2104541994.5951040       -4568445.7198593616       -11393785.335109476     
  -1954924158.7293849        9427452.6546618938       -13603255.358933637     
  -1801851883.0782652        34938150.313863516       -13708262.508768024     
  -1136031101.3586304       -51885162.752564430        544631926.35313487     
  -951315725.49568129       -40623861.133737922        562870716.63482404     
  -759056691.11316550       -4217031.1163503528        592022421.38995433     
  -559253998.21106613        57335327.299640954        632087040.61853266     
  -351907646.78939372        144033214.11422029        683064574.32055855     
  -1316997834.1679010       -34532795.699776053        399216671.17615789     
  -1117485284.8009658       -14671663.127773821        421141895.51243991     
  -914348866.95709741        17269031.034010470        441552070.15838230     
  -707588580.63627315        61289286.785656184        460447195.11397856     
  -497204425.83849978        117389104.12711051        477827270.37923771     
  -1488290208.7242627       -14278121.171101630        257688221.30684543     
  -1309488954.8927464        3530301.6422281861        278726791.31466430     
  -1130983622.6269155        20352319.236597240        285822347.46834993     
  -952774211.92675292        36187931.612075865        278974889.76790488     
  -774860722.79228079        51037138.768598258        258184418.21333423     
  -1649908225.0277121        8878860.8334598541        120046576.74520773     
  -1527326735.7710214        13982033.176255226        135625404.04149285     
  -1408960958.1226256        5032833.4913771152        124833253.31985995     
  -1294810892.0825098       -17968738.221093953        87670124.580315858     
  -1184876537.6507127       -55022681.961282730        24136017.822852302     
  -1801851883.0782652        34938150.313863516       -13708262.508768024     
  -1770998627.4357543        16683531.474398136       -8162266.3070742758     
  -1748280873.4441946       -28689426.201537371       -41415212.287082344     
  -1733698621.1035361       -101180722.71382725       -113467100.44880040     
  -1727251870.4138339       -200790358.06263697       -224317930.79222316     
  -351907646.78939372        144033214.11422029        683064574.32055855     
  -277833520.42345691        285253124.78160274        786368362.93756771     
  -148992926.39937055        609027927.64281154        905493215.82045722     
   34614135.282865584        1115357622.6978393        1040439132.9692308     
   272987664.62323254        1804242209.9466691        1191206114.3838923     
  -497204425.83849978        117389104.12711051        477827270.37923771     
  -388326979.19918108        223043232.03721604        597078645.59510171     
  -230321979.26788554        492455870.92058611        735488229.69936764     
  -23189426.044634402        925627020.77712595        893056022.69202042     
   233070680.47057688        1522556681.6068888        1069782024.5730917     
  -774860722.79228079        51037138.768598258        258184418.21333423     
  -621645256.95810258        123985893.59788680        386804646.60084420     
  -424941152.19813013        341896778.17981011        537920228.49927616     
  -184748408.51238739        704769792.51431739        711531163.90861821     
   98932974.099157691        1212604936.6014793        907637452.82887650     
  -1184876537.6507127       -55022681.961282730        24136017.822852302     
  -977788353.70021415       -11918890.536421180        155546365.95479575     
  -732850445.19008720        157350649.42052290        312789212.22017640     
  -450062812.12035060        452785937.90950215        495864556.61899686     
  -129425454.49102837        874386974.93043995        704772399.15123141     
  -1727251870.4138339       -200790358.06263697       -224317930.79222316     
  -1456756269.4255033       -184671120.36564231       -96696196.343045622     
  -1154049858.2437396       -61182515.357216239        60095180.862082116     
  -819132636.86859143        169675456.96249777        246056200.82315862     
  -452004605.29997516        507902796.59377211        461186863.54017162     
 </DataArray>
 <DataArray  type="Float64" Name="VM" NumberOfComponents="1" format="ascii">
   6303724037.8450184     
   5946128993.2517357     
   5646886676.3814001     
   5390579436.9527197     
   5169999735.6226311     
   5771182201.6271105     
   5501085999.4359179     
   5266141123.1851406     
   5058234181.8388624     
   4873700597.5492849     
   5317220810.9395075     
   5112712753.5892286     
   4924468527.8655710     
   4750069539.8188677     
   4588661469.1863575     
   4925601069.3448305     
   4768618877.6180353     
   4615268609.7767143     
   4465561531.7390709     
   4319615746.7315788     
   4580940356.6329861     
   4456241408.3592043     
   4331435869.5317469     
   4204087651.7777677     
   4072451099.9477863     
   5169999735.6226311     
   5021335020.1868114     
   4867371758.7976456     
   4707584239.6301365     
   4541790213.7920914     
   4873700597.5492849     
   4728566123.3836145     
   4579419537.8453398     
   4425896486.0348282     
   4267880855.5660415     
   4588661469.1863575     
   4448882484.2695198     
   4306552422.3502684     
   4161483536.3817911     
   4013659915.8732338     
   4319615746.7315788     
   4186769394.2111387     
   4052963377.6602316     
   3918186307.8658857     
   3782540607.0446224     
   4072451099.9477863     
   3947740483.2222667     
   3823732663.3624964     
   3700571886.2454500     
   3578476349.2605162     
   4541790213.7920914     
   4342726214.2984037     
   4144917207.1963091     
   3948352111.7484250     
   3753084360.8250394     
   4267880855.5660415     
   4081734125.3215451     
   3897044466.7206159     
   3713871808.9957681     
   3532352098.0577068     
   4013659915.8732338     
   3841066260.9415555     
   3670310210.3831553     
   3501536135.7500277     
   3334980958.3130512     
   3782540607.0446224     
   3624312481.0907917     
   3468506711.4455276     
   3315363025.1072593     
   3165233486.9717150     
   3578476349.2605162     
   3435566200.5684981     
   3295880125.6734123     
   3159755378.9052062     
   3027660750.2860723     
   3753084360.8250394     
   3576903361.4631062     
   3401291274.0193515     
   3226249267.1066446     
   3051828544.1300330     
   3532352098.0577068     
   3366031965.3342166     
   3200753683.5123453     
   3036583328.8730140     
   2873648410.3629189     
   3334980958.3130512     
   3178651813.3201084     
   3023909103.8095798     
   2870894380.9816027     
   2719822668.7544065     
   3165233486.9717150     
   3019161942.4010539     
   2875291338.9817839     
   2733845122.9221334     
   2595130617.2504296     
   3027660750.2860723     
   2892222492.2477565     
   2759652801.7073345     
   2630254783.7818089     
   2504420871.8673406     
   3051828544.1300330     
   2887326989.7108331     
   2722450239.9320588     
   2557180943.3322601     
   2391508999.9836450     
   2873648410.3629189     
   2713164750.5982447     
   2552616380.5399966     
   2392026963.4088278     
   2231444040.8938198     
   2719822668.7544065     
   2565415746.2232218     
   2411586870.7146578     
   2258468031.3250527     
   2106252240.4502792     
   2595130617.2504296     
   2449100737.0066795     
   2304665015.3165069     
   2162129773.5065236     
   2021913588.3420300     
   2504420871.8673406     
   2369122603.9965081     
   2236775467.9382033     
   2107891718.4163043     
   1983139244.7600589     
   2391508999.9836450     
   2245639104.5318427     
   2101986887.2092907     
   1960561114.1146724     
   1821537083.5494483     
   2231444040.8938198     
   2088093960.3414137     
   1946398478.6861861     
   1806356149.2670031     
   1668044053.4870949     
   2106252240.4502792     
   1964910788.5035138     
   1824557182.7318492     
   1685215113.9847369     
   1546938216.4013994     
   2021913588.3420300     
   1883668210.6667686     
   1745862791.8413832     
   1608626069.2670362     
   1472135315.6445394     
   1983139244.7600589     
   1850752398.8397343     
   1718656109.9835904     
   1587220085.4313226     
   1456971806.7624381     
   1821537083.5494483     
   1780645476.4666154     
   1736222510.8092194     
   1696917959.5398378     
   1681177258.0249703     
   1668044053.4870949     
   1552676049.5701134     
   1428191505.0352364     
   1294972338.3928964     
   1159128039.0510595     
   1546938216.4013994     
   1397314784.8938818     
   1244121083.1464269     
   1085101167.8258016     
   918236271.41714597     
   1472135315.6445394     
   1328297129.9083638     
   1198891943.9819577     
   1088381326.9293494     
   1002634991.5314308     
   1456971806.7624381     
   1348453075.8768373     
   1274839602.9380395     
   1244213239.6345809     
   1263559069.5558856     
   1681177258.0249703     
   1383655886.7236238     
   1129458693.6316619     
   1010220309.1960435     
   1153039629.2273054     
   1159128039.0510595     
   1008610913.2921627     
   985336179.07019639     
   1161504429.9960682     
   1544006376.6921434     
   918236271.41714597     
   963453034.44984996     
   1145073559.2223158     
   1476471318.8173642     
   1957335876.9718874     
   1002634991.5314308     
   1165059422.2502949     
   1425556544.6401148     
   1808724897.9558883     
   2334651891.8282447     
   1263559069.5558856     
   1447043115.7057745     
   1715810172.7774394     
   2110454797.0940118     
   2663422130.6625881     
   4580940356.6329861     
   4456241408.3592043     
   4331435869.5317469     
   4204087651.7777677     
   4072451099.9477863     
   4302714233.6100760     
   4186416070.1489234     
   4069598653.8250046     
   3951413542.7586040     
   3831386403.7306924     
   4052708947.8117232     
   3941524550.6526847     
   3831540395.7499170     
   3722913923.3855104     
   3615978467.0850954     
   3844426258.0646739     
   3733068483.1354232     
   3627050133.6982484     
   3526776564.9453578     
   3432751153.4950700     
   3695007181.6043844     
   3575501063.3947039     
   3468127514.8830481     
   3372653356.8451309     
   3288968849.8189988     
   4072451099.9477863     
   3947740483.2222667     
   3823732663.3624964     
   3700571886.2454500     
   3578476349.2605162     
   3831386403.7306924     
   3715222745.8167505     
   3601465171.3805780     
   3490420922.8034992     
   3382463836.1054640     
   3615978467.0850954     
   3509113404.1267095     
   3406628263.3018227     
   3308902254.7024117     
   3216388424.1449580     
   3432751153.4950700     
   3335200233.0034657     
   3244228213.1101632     
   3160155215.0598550     
   3083398004.8827882     
   3288968849.8189988     
   3199728845.8121910     
   3119430938.8758483     
   3048174421.8394833     
   2986199030.7986288     
   3578476349.2605162     
   3435566200.5684981     
   3295880125.6734123     
   3159755378.9052062     
   3027660750.2860723     
   3382463836.1054640     
   3255542180.6185665     
   3132551384.0918341     
   3013907541.5041428     
   2900149610.0338130     
   3216388424.1449580     
   3105500038.6764126     
   2999207884.5125494     
   2897975490.1131053     
   2802370741.0029635     
   3083398004.8827882     
   2988524297.6798759     
   2898808203.4437642     
   2814720662.6191244     
   2736810722.7799687     
   2986199030.7986288     
   2907156190.8002052     
   2833661036.5403800     
   2766149923.7977424     
   2705108107.5854664     
   3027660750.2860723     
   2892222492.2477565     
   2759652801.7073345     
   2630254783.7818089     
   2504420871.8673406     
   2900149610.0338130     
   2776582557.0296030     
   2656672960.7325616     
   2540848081.4041557     
   2429640998.1820774     
   2802370741.0029635     
   2692549651.8514380     
   2587324335.7221565     
   2487238872.2139735     
   2392950673.2448263     
   2736810722.7799687     
   2642475346.3964438     
   2553739353.0139031     
   2471229295.5517373     
   2395679172.2450886     
   2705108107.5854664     
   2627637455.1064472     
   2556726839.9219675     
   2493032057.6454964     
   2437300103.6949873     
   2504420871.8673406     
   2369122603.9965081     
   2236775467.9382033     
   2107891718.4163043     
   1983139244.7600589     
   2429640998.1820774     
   2308164286.5664477     
   2191394062.5262928     
   2080052830.8211124     
   1975028018.8775842     
   2392950673.2448263     
   2287133852.0871434     
   2187781777.6234732     
   2095712884.6395996     
   2011872413.5278740     
   2395679172.2450886     
   2306352127.4965968     
   2225005897.1235614     
   2152409225.5451932     
   2089394666.0937858     
   2437300103.6949873     
   2364110364.8551702     
   2300019055.4221177     
   2245629977.0583258     
   2201556593.4944305     
   1983139244.7600589     
   1850752398.8397343     
   1718656109.9835904     
   1587220085.4313226     
   1456971806.7624381     
   1975028018.8775842     
   1857605732.3182430     
   1744722089.1108620     
   1637319494.0482867     
   1536555050.9429550     
   2011872413.5278740     
   1914525778.4615800     
   1826039760.6948936     
   1747633501.5290525     
   1680622921.4554036     
   2089394666.0937858     
   2013742370.0871279     
   1950467972.4117384     
   1900670699.7097661     
   1865400388.3191097     
   2201556593.4944305     
   2146263158.8405285     
   2105882245.3646114     
   2081205327.0388992     
   2072926605.1729066     
   1456971806.7624381     
   1348453075.8768373     
   1274839602.9380395     
   1244213239.6345809     
   1263559069.5558856     
   1536555050.9429550     
   1476042113.5981719     
   1448165347.1687977     
   1456869444.0540957     
   1505427062.6905539     
   1680622921.4554036     
   1652345367.8465371     
   1651758737.1393728     
   1681221666.8832631     
   1743337454.4272907     
   1865400388.3191097     
   1854962724.6853199     
   1867491252.9429157     
   1905190644.1489210     
   1971098607.4033260     
   2072926605.1729066     
   2069318185.6424441     
   2084962057.5284059     
   2122489845.5551832     
   2185731204.5612497     
   1263559069.5558856     
   1447043115.7057745     
   1715810172.7774394     
   2110454797.0940118     
   2663422130.6625881     
   1505427062.6905539     
   1613582617.4474843     
   1788974502.8969154     
   2066359146.2863808     
   2475944921.9151945     
   1743337454.4272907     
   1787958105.8662703     
   1884747157.3895540     
   2060611626.1927311     
   2340775314.2280478     
   1971098607.4033260     
   1969120984.7449722     
   2003693508.4031646     
   2093480331.9248431     
   2257126617.9081159     
   2185731204.5612497     
   2156351237.3143711     
   2146553880.1711478     
   2166845205.4961486     
   2228274440.0736456     
   3695007181.6043844     
   3575501063.3947039     
   3468127514.8830481     
   3372653356.8451309     
   3288968849.8189988     
   3442893590.6987319     
   3354051329.2966809     
   3272981434.5568304     
   3199852913.6435285     
   3134888227.0602374     
   3225764229.2146664     
   3164114689.9331427     
   3106941464.1454883     
   3054499963.3997416     
   3007097006.5375457     
   3042297594.9860106     
   3004673843.9455266     
   2969835137.3274250     
   2937625435.8099866     
   2908049360.4471183     
   2891195867.7414684     
   2874584771.9003510     
   2861283148.3669171     
   2850012888.5059619     
   2839938537.6503587     
   3288968849.8189988     
   3199728845.8121910     
   3119430938.8758483     
   3048174421.8394833     
   2986199030.7986288     
   3134888227.0602374     
   3058327060.8164015     
   2990008473.3083620     
   2930140275.2098413     
   2879009349.7751408     
   3007097006.5375457     
   2942927279.0110946     
   2886596359.2185230     
   2838363636.9191093     
   2798529977.4659257     
   2908049360.4471183     
   2856053474.1703310     
   2811801249.5941248     
   2775530440.3776035     
   2747512153.6921873     
   2839938537.6503587     
   2799862394.1105661     
   2767755183.3744555     
   2743746460.3854198     
   2728025915.8417306     
   2986199030.7986288     
   2907156190.8002052     
   2833661036.5403800     
   2766149923.7977424     
   2705108107.5854664     
   2879009349.7751408     
   2812090322.4274755     
   2751598825.6919007     
   2697963087.2234654     
   2651648569.9544163     
   2798529977.4659257     
   2743864726.0116148     
   2696474260.8675208     
   2656745411.6621819     
   2625088467.3934021     
   2747512153.6921873     
   2704662107.9492097     
   2669867192.6582160     
   2643445016.9543033     
   2625724645.7588511     
   2728025915.8417306     
   2695906191.1524496     
   2672543665.9830904     
   2658171553.5512819     
   2653027119.1515675     
   2705108107.5854664     
   2627637455.1064472     
   2556726839.9219675     
   2493032057.6454964     
   2437300103.6949873     
   2651648569.9544163     
   2590275957.5690408     
   2536488762.4515910     
   2490842625.3804016     
   2453933239.1698465     
   2625088467.3934021     
   2578559592.7044978     
   2540363663.7011905     
   2510917990.8120484     
   2490644678.0598545     
   2625724645.7588511     
   2592053668.1771488     
   2567198764.8488836     
   2551431304.1392069     
   2545011611.5864630     
   2653027119.1515675     
   2629608306.4729509     
   2615281025.8099103     
   2610188411.0336642     
   2614463479.3895178     
   2437300103.6949873     
   2364110364.8551702     
   2300019055.4221177     
   2245629977.0583258     
   2201556593.4944305     
   2453933239.1698465     
   2395742768.8748212     
   2347257091.8008008     
   2308981186.4556713     
   2281401266.2403908     
   2490644678.0598545     
   2446731205.8796391     
   2412962660.7188921     
   2389725197.6335382     
   2377372701.4603000     
   2545011611.5864630     
   2514218700.7518749     
   2493905440.0111856     
   2484342323.0124063     
   2485767292.5790153     
   2614463479.3895178     
   2595338608.5312047     
   2587003095.2087507     
   2589628306.7739787     
   2603361328.9560480     
   2201556593.4944305     
   2146263158.8405285     
   2105882245.3646114     
   2081205327.0388992     
   2072926605.1729066     
   2281401266.2403908     
   2241452789.9055924     
   2215349846.0805416     
   2203549319.0734010     
   2206440406.8576131     
   2377372701.4603000     
   2349661660.0656428     
   2334684735.8883600     
   2332688996.5625219     
   2343890415.2862859     
   2485767292.5790153     
   2467483255.7147894     
   2460899728.1030707     
   2466145173.6754675     
   2483347921.9879947     
   2603361328.9560480     
   2592071398.5242214     
   2591589092.2246733     
   2601984731.1453576     
   2623350698.8289475     
   2072926605.1729066     
   2069318185.6424441     
   2084962057.5284059     
   2122489845.5551832     
   2185731204.5612497     
   2206440406.8576131     
   2191912253.3873057     
   2192403179.5834255     
   2209883916.7385297     
   2247284506.6494865     
   2343890415.2862859     
   2319297329.6756759     
   2306276446.1890283     
   2306234571.9034944     
   2321263663.8564291     
   2483347921.9879947     
   2450498869.8261442     
   2426262494.3880143     
   2411584252.6887069     
   2407839106.5045242     
   2623350698.8289475     
   2584736140.7334366     
   2552077099.3730555     
   2525953239.7509189     
   2507167537.7747254     
   2185731204.5612497     
   2156351237.3143711     
   2146553880.1711478     
   2166845205.4961486     
   2228274440.0736456     
   2247284506.6494865     
   2182606449.0356660     
   2134344939.1405747     
   2112154066.9580863     
   2126952042.6687925     
   2321263663.8564291     
   2224608689.0926137     
   2141254645.1034195     
   2079558859.5507977     
   2049683220.2809396     
   2407839106.5045242     
   2282651366.9555740     
   2167929677.7324605     
   2070410423.2509964     
   1998858728.2815964     
   2507167537.7747254     
   2356943013.4908614     
   2214840193.7778482     
   2085839453.6966403     
   1976819812.5905914     
   2891195867.7414684     
   2874584771.9003510     
   2861283148.3669171     
   2850012888.5059619     
   2839938537.6503587     
   2725993307.0018001     
   2717567411.1190791     
   2715236310.5504956     
   2718728210.0190921     
   2727882824.6490498     
   2620339307.6316223     
   2614748834.4910617     
   2618571665.3974023     
   2631923538.0250688     
   2654911201.8776064     
   2589026707.9316764     
   2577344173.2972550     
   2579090848.6863275     
   2594058338.6753073     
   2622174761.4467697     
   2643251418.1285305     
   2613467015.2947359     
   2601879685.8521600     
   2607310451.0702333     
   2629108773.8434062     
   2839938537.6503587     
   2799862394.1105661     
   2767755183.3744555     
   2743746460.3854198     
   2728025915.8417306     
   2727882824.6490498     
   2701704830.2057033     
   2683110769.9164729     
   2672169322.4492855     
   2668984963.6797471     
   2654911201.8776064     
   2639979070.4247861     
   2632051810.4631882     
   2631151188.1871862     
   2637318425.9966493     
   2622174761.4467697     
   2615681450.2282696     
   2615452705.1577477     
   2621484431.6269422     
   2633781786.7816715     
   2629108773.8434062     
   2628298342.4427457     
   2632893840.8947024     
   2642885906.0042372     
   2658268422.5502820     
   2728025915.8417306     
   2695906191.1524496     
   2672543665.9830904     
   2658171553.5512819     
   2653027119.1515675     
   2668984963.6797471     
   2646723953.3276138     
   2633325173.0614243     
   2628923483.0886736     
   2633652554.3308511     
   2637318425.9966493     
   2622369443.7230196     
   2616321790.4167252     
   2619234933.3881564     
   2631166390.6367579     
   2633781786.7816715     
   2623268811.7927151     
   2621668839.3825545     
   2628995815.0613770     
   2645262867.9657373     
   2658268422.5502820     
   2649146863.5796828     
   2648952969.1145515     
   2657687576.6043553     
   2675351824.6593261     
   2653027119.1515675     
   2629608306.4729509     
   2615281025.8099103     
   2610188411.0336642     
   2614463479.3895178     
   2633652554.3308511     
   2617376104.9878378     
   2610214423.1052666     
   2612251564.7109666     
   2623563975.0077109     
   2631166390.6367579     
   2620356275.4005833     
   2618732439.8759232     
   2626334201.6394019     
   2643196746.8075833     
   2645262867.9657373     
   2638071404.9283886     
   2640217573.5215197     
   2651712027.6495872     
   2672564278.5641909     
   2675351824.6593261     
   2669825659.1940780     
   2673893240.5508237     
   2687553637.6116176     
   2710806127.9652247     
   2614463479.3895178     
   2595338608.5312047     
   2587003095.2087507     
   2589628306.7739787     
   2603361328.9560480     
   2623563975.0077109     
   2612626239.1771989     
   2611982809.4014034     
   2621722527.0467763     
   2641920008.5962768     
   2643196746.8075833     
   2638485204.7566981     
   2643655400.0265841     
   2658744035.7325144     
   2683781542.4994111     
   2672564278.5641909     
   2672163035.0677738     
   2681337754.0693374     
   2700097268.3486638     
   2728448980.4880643     
   2710806127.9652247     
   2712885031.5462065     
   2724353402.7814384     
   2745211137.4257956     
   2775458219.4251184     
   2603361328.9560480     
   2592071398.5242214     
   2591589092.2246733     
   2601984731.1453576     
   2623350698.8289475     
   2641920008.5962768     
   2631712963.0452456     
   2631608844.1377840     
   2641643514.9637280     
   2661866524.6226106     
   2683781542.4994111     
   2674446537.7528968     
   2674684845.9871597     
   2684510755.7019796     
   2703945143.4293137     
   2728448980.4880643     
   2719899486.7837133     
   2720552574.4045215     
   2730411301.0089397     
   2749480537.7966824     
   2775458219.4251184     
   2767719250.3480477     
   2768957288.0889282     
   2779172316.1493306     
   2798364322.6178832     
   2623350698.8289475     
   2584736140.7334366     
   2552077099.3730555     
   2525953239.7509189     
   2507167537.7747254     
   2661866524.6226106     
   2616449331.4228754     
   2576725460.0930281     
   2543024482.5258360     
   2515805571.8508477     
   2703945143.4293137     
   2653791941.2186499     
   2609213644.0159273     
   2570356928.2784309     
   2537426885.0401816     
   2749480537.7966824     
   2696667185.6807060     
   2649453054.1758962     
   2607874519.0640554     
   2571982549.2145109     
   2798364322.6178832     
   2744969841.4921222     
   2697340607.6448307     
   2655476620.3616462     
   2619377879.1407351     
   2507167537.7747254     
   2356943013.4908614     
   2214840193.7778482     
   2085839453.6966403     
   1976819812.5905914     
   2515805571.8508477     
   2348012309.7107701     
   2183748158.7501316     
   2026111571.4247503     
   1879666381.6232820     
   2537426885.0401816     
   2357161617.0883698     
   2176628326.1751080     
   1997296595.4728818     
   1821441561.9719288     
   2571982549.2145109     
   2384495793.8787193     
   2193947510.0986576     
   2000714580.9261332     
   1805398657.8175886     
   2619377879.1407351     
   2429985063.9000239     
   2235848697.6549673     
   2036968781.9358988     
   1833345319.6632740     
   2643251418.1285305     
   2613467015.2947359     
   2601879685.8521600     
   2607310451.0702333     
   2629108773.8434062     
   2665908231.2851362     
   2633098742.1190023     
   2613394238.5413938     
   2606437247.5934138     
   2612055084.2262397     
   2723214795.2819705     
   2687371913.7075834     
   2660679614.9281583     
   2643205763.2100406     
   2635037070.6653805     
   2807580411.4168963     
   2770686028.1685386     
   2740217833.7265959     
   2716215010.1732888     
   2698746610.3124137     
   2912269550.4634891     
   2877558131.8993263     
   2847889417.0607347     
   2822812318.5993137     
   2802084854.3698745     
   2629108773.8434062     
   2628298342.4427457     
   2632893840.8947024     
   2642885906.0042372     
   2658268422.5502820     
   2612055084.2262397     
   2607852851.6724439     
   2609896609.3158031     
   2618191372.8126893     
   2632742257.0794659     
   2635037070.6653805     
   2624604217.5974789     
   2621152804.2540550     
   2624722482.3533807     
   2635354016.6898785     
   2698746610.3124137     
   2679139394.4825397     
   2667106258.6807380     
   2662744015.0386753     
   2666157761.2874727     
   2802084854.3698745     
   2770485236.4985213     
   2746875795.2679377     
   2731428089.5696602     
   2724337532.1453195     
   2658268422.5502820     
   2649146863.5796828     
   2648952969.1145515     
   2657687576.6043553     
   2675351824.6593261     
   2632742257.0794659     
   2621967474.1489844     
   2620166151.5018635     
   2627353713.7475419     
   2643545452.1685715     
   2635354016.6898785     
   2620272737.6108527     
   2614232668.8677583     
   2617291477.7820349     
   2629505482.1054983     
   2666157761.2874727     
   2644228805.7523952     
   2631405779.2763095     
   2627815234.7924170     
   2633581899.9116330     
   2724337532.1453195     
   2693272547.1012659     
   2671343203.3054681     
   2658767098.3644867     
   2655762435.2268448     
   2675351824.6593261     
   2669825659.1940780     
   2673893240.5508237     
   2687553637.6116176     
   2710806127.9652247     
   2643545452.1685715     
   2636922012.7037163     
   2639519213.8028655     
   2651348144.5917358     
   2672418413.9887905     
   2629505482.1054983     
   2619395496.8434281     
   2618195798.4803405     
   2625952231.8678517     
   2642705992.0551500     
   2633581899.9116330     
   2617781160.1949358     
   2610612746.7826653     
   2612177029.4316764     
   2622566627.4307780     
   2655762435.2268448     
   2632340201.6639590     
   2617267594.8555727     
   2610714772.1468635     
   2612843000.0264950     
   2710806127.9652247     
   2712885031.5462065     
   2724353402.7814384     
   2745211137.4257956     
   2775458219.4251184     
   2672418413.9887905     
   2672290193.7993178     
   2681714666.4586558     
   2700698371.7571821     
   2729246266.3679447     
   2642705992.0551500     
   2638589876.6654363     
   2644312256.2731404     
   2659904391.3883886     
   2685390899.8421583     
   2622566627.4307780     
   2612597268.4769535     
   2612862479.6643977     
   2623441377.0155187     
   2644398143.7818179     
   2612843000.0264950     
   2595109339.1739917     
   2588092882.4803352     
   2591949626.2918153     
   2606809990.0465598     
   2775458219.4251184     
   2767719250.3480477     
   2768957288.0889282     
   2779172316.1493306     
   2798364322.6178832     
   2729246266.3679447     
   2720424905.3237333     
   2720863145.5674043     
   2730564673.0968060     
   2749534530.5792527     
   2685390899.8421583     
   2675489636.3997121     
   2675277368.5248232     
   2684769908.8315501     
   2703988533.8554168     
   2644398143.7818179     
   2633293962.3280082     
   2632470325.2650528     
   2641966365.1951113     
   2661832773.2261777     
   2606809990.0465598     
   2594240811.6403003     
   2592723629.6531434     
   2602335375.9336472     
   2623171421.3586402     
   2798364322.6178832     
   2744969841.4921222     
   2697340607.6448307     
   2655476620.3616462     
   2619377879.1407351     
   2749534530.5792527     
   2696724762.5789633     
   2649503427.4494138     
   2607907171.6353345     
   2571987262.1515369     
   2703988533.8554168     
   2653865564.5359077     
   2609295812.0195832     
   2570426767.7852578     
   2537464964.5434079     
   2661832773.2261777     
   2616496658.6772699     
   2576820948.2325454     
   2543136782.1162944     
   2515906701.1517615     
   2623171421.3586402     
   2584714085.7063222     
   2552167603.5104852     
   2526114081.7115302     
   2507362445.8382430     
   2619377879.1407351     
   2429985063.9000239     
   2235848697.6549673     
   2036968781.9358988     
   1833345319.6632740     
   2571987262.1515369     
   2384503846.7692947     
   2193971224.9383392     
   2000768527.9720137     
   1805500932.9183006     
   2537464964.5434079     
   2357192377.6759181     
   2176675500.3231158     
   1997386258.4098375     
   1821602403.5726490     
   2515906701.1517615     
   2348081043.9154420     
   2183818462.3070536     
   2026217604.3479490     
   1879839830.6108711     
   2507362445.8382430     
   2357065367.7529035     
   2214932988.1022868     
   2085941946.1931312     
   1976961175.1816308     
   2912269550.4634891     
   2877558131.8993263     
   2847889417.0607347     
   2822812318.5993137     
   2802084854.3698745     
   3001463874.4104290     
   2961013573.3518524     
   2926396757.7860198     
   2897588803.0605640     
   2874630538.2242785     
   3150741908.1182246     
   3099785942.4585719     
   3054875132.3771114     
   3016267524.6857581     
   2984247808.9940386     
   3354063835.5030107     
   3288244464.8641195     
   3228183545.8204699     
   3174239486.6644878     
   3126853069.0358429     
   3604370487.9383793     
   3519806131.8748102     
   3440355820.5917220     
   3366271991.3091116     
   3298013647.5603795     
   2802084854.3698745     
   2770485236.4985213     
   2746875795.2679377     
   2731428089.5696602     
   2724337532.1453195     
   2874630538.2242785     
   2831782878.3482251     
   2796329049.2342749     
   2768524731.1266227     
   2748658440.5163822     
   2984247808.9940386     
   2928771057.2337584     
   2880032141.8535886     
   2838355860.3767104     
   2804111840.5891986     
   3126853069.0358429     
   3057967579.6070275     
   2995122908.0495639     
   2938688860.3870912     
   2889092654.0614095     
   3298013647.5603795     
   3215427013.1103544     
   3138173334.4613814     
   3066640723.1892304     
   3001285165.7708292     
   2724337532.1453195     
   2693272547.1012659     
   2671343203.3054681     
   2658767098.3644867     
   2655762435.2268448     
   2748658440.5163822     
   2706047644.8769236     
   2671852869.8826251     
   2646391218.7537122     
   2629989274.0301595     
   2804111840.5891986     
   2748461706.3342142     
   2700389970.8227792     
   2660299328.1535940     
   2628617307.3795190     
   2889092654.0614095     
   2819651455.1647382     
   2756836751.1597443     
   2701105638.9673343     
   2652958684.3744092     
   3001285165.7708292     
   2917981223.9714589     
   2840274016.2311029     
   2768634561.5028834     
   2703593976.9850998     
   2655762435.2268448     
   2632340201.6639590     
   2617267594.8555727     
   2610714772.1468635     
   2612843000.0264950     
   2629989274.0301595     
   2594785138.2390919     
   2568006908.9866257     
   2549921399.8584890     
   2540788727.1312604     
   2628617307.3795190     
   2580002790.3442559     
   2539777325.0489321     
   2508319550.4406180     
   2486011558.5675287     
   2652958684.3744092     
   2589631048.2667379     
   2534496237.8353877     
   2488046026.2314224     
   2450796004.9960742     
   2703593976.9850998     
   2624656127.0380950     
   2553534193.3992286     
   2490816007.9863706     
   2437143017.1179500     
   2612843000.0264950     
   2595109339.1739917     
   2588092882.4803352     
   2591949626.2918153     
   2606809990.0465598     
   2540788727.1312604     
   2511929692.3925829     
   2493473810.1576390     
   2485690078.2669659     
   2488814217.4032941     
   2486011558.5675287     
   2443992231.1486273     
   2411975676.3109131     
   2390372303.4175372     
   2379560890.6831384     
   2450796004.9960742     
   2393961791.1582518     
   2346548757.1537170     
   2309121132.9826598     
   2282228888.3507586     
   2437143017.1179500     
   2364391582.7509794     
   2300227029.4356003     
   2245350538.6494899     
   2200484817.5665388     
   2606809990.0465598     
   2594240811.6403003     
   2592723629.6531434     
   2602335375.9336472     
   2623171421.3586402     
   2488814217.4032941     
   2469412804.9198933     
   2461876911.5445466     
   2466340295.3510761     
   2482936092.7168860     
   2379560890.6831384     
   2351033373.9660139     
   2335336608.0268865     
   2332718090.6003227     
   2343397150.7951841     
   2282228888.3507586     
   2241913055.7604775     
   2215484601.9764113     
   2203390809.7623010     
   2206017544.5297556     
   2200484817.5665388     
   2145423227.2641659     
   2105280737.7132328     
   2080822641.8119760     
   2072725300.0584733     
   2623171421.3586402     
   2584714085.7063222     
   2552167603.5104852     
   2526114081.7115302     
   2507362445.8382430     
   2482936092.7168860     
   2450281540.2064104     
   2426208981.1845388     
   2411664648.6739707     
   2408025313.6823974     
   2343397150.7951841     
   2318983996.6742039     
   2306125362.0326271     
   2306227671.4828658     
   2321378672.3118706     
   2206017544.5297556     
   2191602559.4981294     
   2192200665.9758677     
   2209781925.5958304     
   2247264549.5670528     
   2072725300.0584733     
   2069111498.6288426     
   2084753628.8861427     
   2122283992.3974323     
   2185511888.7310877     
   2507362445.8382430     
   2357065367.7529035     
   2214932988.1022868     
   2085941946.1931312     
   1976961175.1816308     
   2408025313.6823974     
   2282766306.7489319     
   2168006668.5392208     
   2070483469.6470990     
   1998959806.4135687     
   2321378672.3118706     
   2224677027.6444964     
   2141299477.2450936     
   2079610158.4636905     
   2049778848.6138864     
   2247264549.5670528     
   2182588193.5310755     
   2134340813.7412143     
   2112190504.2526557     
   2127073719.5758748     
   2185511888.7310877     
   2156206055.2189002     
   2146483902.9202116     
   2166873106.3930283     
   2228450905.0223584     
   3604370487.9383793     
   3519806131.8748102     
   3440355820.5917220     
   3366271991.3091116     
   3298013647.5603795     
   3842509019.4717021     
   3739591226.7112579     
   3640169491.5368176     
   3544499664.1213036     
   3453002116.3344150     
   4100866732.5039845     
   3981684984.3401098     
   3864718141.0347056     
   3750189086.4692521     
   3638442571.4581909     
   4374624943.3309860     
   4241466140.2667727     
   4109578158.8860049     
   3979137243.1054959     
   3850402471.6091309     
   4660017398.5912647     
   4515204977.6051674     
   4371038208.4436064     
   4227646451.2838049     
   4085209796.9738517     
   3298013647.5603795     
   3215427013.1103544     
   3138173334.4613814     
   3066640723.1892304     
   3001285165.7708292     
   3453002116.3344150     
   3356051985.5283914     
   3263695944.4555583     
   3176283103.3180785     
   3094231041.4516115     
   3638442571.4581909     
   3528327275.3575130     
   3422172369.2770553     
   3320269619.7910252     
   3222977938.7844229     
   3850402471.6091309     
   3728358311.6506419     
   3609772758.8687973     
   3494872854.2026343     
   3383950786.1777449     
   4085209796.9738517     
   3952404638.9716921     
   3822695729.6470928     
   3696245888.9065552     
   3573282030.9572692     
   3001285165.7708292     
   2917981223.9714589     
   2840274016.2311029     
   2768634561.5028834     
   2703593976.9850998     
   3094231041.4516115     
   2996160811.1683712     
   2903187505.7811418     
   2815795189.9217396     
   2734552174.1565690     
   3222977938.7844229     
   3110251652.2812519     
   3002015634.6248045     
   2898733309.0671620     
   2800971736.4328113     
   3383950786.1777449     
   3256797612.1249747     
   3133481992.9920745     
   3014419161.2169571     
   2900139942.4510722     
   3573282030.9572692     
   3431944745.6186600     
   3293795255.6330099     
   3159182854.2282643     
   3028576775.6168957     
   2703593976.9850998     
   2624656127.0380950     
   2553534193.3992286     
   2490816007.9863706     
   2437143017.1179500     
   2734552174.1565690     
   2640781669.8033934     
   2553378060.3071814     
   2472971559.8402009     
   2400281646.5075216     
   2800971736.4328113     
   2692721513.8409600     
   2589258946.6914353     
   2491168856.9648294     
   2399149733.5886502     
   2900139942.4510722     
   2778600101.6109829     
   2660274424.7937021     
   2545629715.1672573     
   2435249303.4204645     
   3028576775.6168957     
   2895526184.8030791     
   2764255417.7279286     
   2635077475.7653499     
   2508404850.8435955     
   2437143017.1179500     
   2364391582.7509794     
   2300227029.4356003     
   2245350538.6494899     
   2200484817.5665388     
   2400281646.5075216     
   2309665970.4521823     
   2226716900.2576075     
   2152234096.7644634     
   2087093039.1426048     
   2399149733.5886502     
   2291075370.4006515     
   2189449468.8946295     
   2095074336.7246008     
   2008883727.3637238     
   2435249303.4204645     
   2311019822.2119207     
   2191864963.9357882     
   2078476850.1133621     
   1971709258.6916766     
   2508404850.8435955     
   2370043599.2454114     
   2235429477.5089059     
   2105063013.6233156     
   1979596543.2321293     
   2200484817.5665388     
   2145423227.2641659     
   2105280737.7132328     
   2080822641.8119760     
   2072725300.0584733     
   2087093039.1426048     
   2012105460.1477592     
   1949473363.2765784     
   1900276598.8936701     
   1865544496.2414615     
   2008883727.3637238     
   1912500474.6220827     
   1824899688.5185843     
   1747285900.6481431     
   1680955556.3870211     
   1971709258.6916766     
   1855475888.6384268     
   1743620412.8861215     
   1637071546.9395692     
   1536970390.3440146     
   1979596543.2321293     
   1848615875.1226687     
   1717667992.6883547     
   1587108997.0930233     
   1457459220.8330822     
   2072725300.0584733     
   2069111498.6288426     
   2084753628.8861427     
   2122283992.3974323     
   2185511888.7310877     
   1865544496.2414615     
   1854949118.1935966     
   1867332899.0945745     
   1904905942.7218742     
   1970699969.4065967     
   1680955556.3870211     
   1652413738.7590146     
   1651590827.1352792     
   1680855648.2308218     
   1742819002.5077341     
   1536970390.3440146     
   1476112066.5531876     
   1447940498.2898583     
   1456417859.8431909     
   1504839454.1517453     
   1457459220.8330822     
   1348508850.7966535     
   1274541297.9871933     
   1243671767.8135047     
   1262934117.8979001     
   2185511888.7310877     
   2156206055.2189002     
   2146483902.9202116     
   2166873106.3930283     
   2228450905.0223584     
   1970699969.4065967     
   1968883899.2230783     
   2003605406.5155921     
   2093538346.8756793     
   2257342760.0253992     
   1742819002.5077341     
   1787659991.3451743     
   1884645474.6967626     
   2060679321.3507984     
   2340984236.6879597     
   1504839454.1517453     
   1613250820.2370162     
   1788863577.6032357     
   2066417892.0996675     
   2476105264.0327744     
   1262934117.8979001     
   1446699449.3763227     
   1715694802.0131702     
   2110486766.9502246     
   2663492513.7342510     
   4660017398.5912647     
   4515204977.6051674     
   4371038208.4436064     
   4227646451.2838049     
   4085209796.9738517     
   4954724429.8882847     
   4793635102.0319624     
   4635619826.9523821     
   4480697634.9124889     
   4328958341.9108257     
   5279851760.1088610     
   5102032596.4267550     
   4929712877.4007645     
   4762711930.7972975     
   4601093898.4293652     
   5635347736.2943602     
   5438830451.6618328     
   5250128227.4118242     
   5068815557.6256275     
   4895016059.0176878     
   6020981677.4621210     
   5802509315.7481346     
   5594030754.2077503     
   5394877192.2242899     
   5205343363.6629381     
   4085209796.9738517     
   3952404638.9716921     
   3822695729.6470928     
   3696245888.9065552     
   3573282030.9572692     
   4328958341.9108257     
   4188654602.2594047     
   4049588614.9288182     
   3911927043.4630632     
   3775890883.6436439     
   4601093898.4293652     
   4452866329.7319317     
   4304005641.3949852     
   4154573428.2283473     
   4004712418.7927818     
   4895016059.0176878     
   4739033428.1569014     
   4580625338.1103897     
   4419663622.8325491     
   4256158023.2003012     
   5205343363.6629381     
   5042192185.3716192     
   4874981441.8389425     
   4703333074.7835140     
   4527090173.2065144     
   3573282030.9572692     
   3431944745.6186600     
   3293795255.6330099     
   3159182854.2282643     
   3028576775.6168957     
   3775890883.6436439     
   3619811275.7602916     
   3465907116.1223340     
   3314417679.4959550     
   3165680573.2218637     
   4004712418.7927818     
   3835245741.8764377     
   3667163336.4397187     
   3500600913.7460256     
   3335766725.3362446     
   4256158023.2003012     
   4074661174.3718390     
   3893980652.8600225     
   3714167177.3068695     
   3535319800.8248696     
   4527090173.2065144     
   4334849971.0930738     
   4143064303.6915178     
   3951721771.6433225     
   3760839900.9290733     
   3028576775.6168957     
   2895526184.8030791     
   2764255417.7279286     
   2635077475.7653499     
   2508404850.8435955     
   3165680573.2218637     
   3020575779.9828076     
   2877152845.6856070     
   2735635103.3662801     
   2596330012.8760934     
   3335766725.3362446     
   3179085297.2274618     
   3024006105.2451267     
   2870661571.0818777     
   2719262935.7658248     
   3535319800.8248696     
   3366971598.8824816     
   3200140478.5248504     
   3034872929.5111513     
   2871299763.5772796     
   3760839900.9290733     
   3580225057.8137493     
   3401015309.4676766     
   3223179530.4801159     
   3046786647.6952782     
   2508404850.8435955     
   2370043599.2454114     
   2235429477.5089059     
   2105063013.6233156     
   1979596543.2321293     
   2596330012.8760934     
   2448587786.0367117     
   2302902572.5743275     
   2159587199.9751401     
   2019062223.9304941     
   2719262935.7658248     
   2564359419.7533102     
   2410160415.7215104     
   2256803859.1964912     
   2104483635.4941766     
   2871299763.5772796     
   2711694470.7985315     
   2551841924.1317258     
   2391766126.1333632     
   2231513066.3860741     
   3046786647.6952782     
   2884932229.0229263     
   2722259242.5782285     
   2558751237.2947049     
   2394407315.3279166     
   1979596543.2321293     
   1848615875.1226687     
   1717667992.6883547     
   1587108997.0930233     
   1457459220.8330822     
   2019062223.9304941     
   1881763229.7007017     
   1744810813.2161825     
   1608336462.5493097     
   1472520982.4217565     
   2104483635.4941766     
   1963543903.8788853     
   1823622970.7989371     
   1684750746.4797730     
   1546987808.7404613     
   2231513066.3860741     
   2087836993.4887433     
   1945911227.4360101     
   1805732256.7487345     
   1667380830.0644836     
   2394407315.3279166     
   2247222369.0867462     
   2102354120.2366335     
   1959796531.2415230     
   1819727453.2790284     
   1457459220.8330822     
   1348508850.7966535     
   1274541297.9871933     
   1243671767.8135047     
   1262934117.8979001     
   1472520982.4217565     
   1328410606.8020606     
   1198760476.8599250     
   1088044316.2074845     
   1002155439.9955095     
   1546987808.7404613     
   1397305460.3820257     
   1244041620.7766645     
   1084918504.1711679     
   917898787.94985914     
   1667380830.0644836     
   1552243646.7280166     
   1427948668.6250744     
   1294855264.5276210     
   1159099849.9611011     
   1819727453.2790284     
   1779455213.7431068     
   1735597182.5151956     
   1696807566.1862037     
   1681622987.6042280     
   1262934117.8979001     
   1446699449.3763227     
   1715694802.0131702     
   2110486766.9502246     
   2663492513.7342510     
   1002155439.9955095     
   1164761159.0950506     
   1425416857.5927107     
   1808710886.0776274     
   2334724439.6850705     
   917898787.94985914     
   963194722.72776818     
   1144914371.1648946     
   1476437375.5979691     
   1957459856.5953147     
   1159099849.9611011     
   1008534574.5749540     
   985218132.80669200     
   1161464045.2718413     
   1544209786.7989862     
   1681622987.6042280     
   1383933489.0068843     
   1129513609.7504003     
   1010141427.6441085     
   1153224950.4807575     
 </DataArray>
 <DataArray  type="Float64" Name="strain" NumberOfComponents="3" format="ascii">
  0.10120670862939352       -4.3684121733126857E-002  -8.6588946987802284E-003
   9.7469076052094650E-002  -3.5391721006117871E-002  -6.9426470599966983E-003
   9.3731443474795673E-002  -2.9585307405269656E-002  -4.6420626293469103E-003
   8.9993810897496751E-002  -2.6264880930581547E-002  -1.7571414068315305E-003
   8.6256178320197829E-002  -2.5430441582054208E-002   1.7121166075506622E-003
   9.4081015014475633E-002  -3.6107816914159208E-002   5.8664422060105137E-003
   9.0868459961426395E-002  -3.0386215541929940E-002   5.7851579146091514E-003
   8.7655904908377158E-002  -2.6373195290711915E-002   6.1696918798410660E-003
   8.4443349855327893E-002  -2.4068756160504995E-002   7.0200441017060078E-003
   8.1230794802278683E-002  -2.3472898151308985E-002   8.3362145802043930E-003
   8.7314332860575494E-002  -2.8531512095191558E-002   1.7432276753446385E-002
   8.4508336796542904E-002  -2.5380710077742064E-002   1.6330866537009880E-002
   8.1702340732510287E-002  -2.3161083176154396E-002   1.5576756041973533E-002
   7.8896344668477683E-002  -2.1872631390428110E-002   1.5169945268337343E-002
   7.6090348604445079E-002  -2.1515354720563817E-002   1.5110434216101309E-002
   8.0906662167692864E-002  -2.0955207276223908E-002   2.6038608943527997E-002
   7.8388706557443996E-002  -2.0375204613554104E-002   2.4694478807205572E-002
   7.5870750947194920E-002  -1.9948971061596654E-002   2.3579129857050504E-002
   7.3352795336946011E-002  -1.9676506620351392E-002   2.2692562093062488E-002
   7.0834839726697046E-002  -1.9557811289818566E-002   2.2034775515241425E-002
   7.4858002935827950E-002  -1.3378902457256259E-002   3.1685438776255237E-002
   7.2509569244129601E-002  -1.5369699149366201E-002   3.0875994725196310E-002
   7.0161135552431281E-002  -1.6736858947039038E-002   3.0176813325071744E-002
   6.7812701860732946E-002  -1.7480381850274802E-002   2.9587894575881166E-002
   6.5464268169034612E-002  -1.7600267859073482E-002   2.9109238477624533E-002
   8.6256178320197829E-002  -2.5430441582054208E-002   1.7121166075506622E-003
   8.3562916529048958E-002  -2.5621784441827777E-002   1.0326887716383681E-003
   8.0869654737900143E-002  -2.5378704592043000E-002   4.5267751519867394E-004
   7.8176392946751327E-002  -2.4701202032700251E-002  -2.7917161768975518E-005
   7.5483131155602456E-002  -2.3589276763798961E-002  -4.0909525926402512E-004
   8.1230794802278683E-002  -2.3472898151308985E-002   8.3362145802043930E-003
   7.8639964848514959E-002  -2.3554800597019587E-002   7.9384807826686221E-003
   7.6049134894751264E-002  -2.3283642831532628E-002   7.6461940804308515E-003
   7.3458304940987568E-002  -2.2659424854847208E-002   7.4593544734909700E-003
   7.0867474987223900E-002  -2.1682146666964219E-002   7.3779619618489223E-003
   7.6090348604445079E-002  -2.1515354720563817E-002   1.5110434216101309E-002
   7.3607981003892084E-002  -2.1487816752211425E-002   1.4913031958581610E-002
   7.1125613403339089E-002  -2.1188581071021589E-002   1.4827107312185450E-002
   6.8643245802786093E-002  -2.0617647676994387E-002   1.4852660276912476E-002
   6.6160878202233070E-002  -1.9775016570129755E-002   1.4989690852762944E-002
   7.0834839726697046E-002  -1.9557811289818566E-002   2.2034775515241425E-002
   6.8466964995180249E-002  -1.9420832907403360E-002   2.1956342299377398E-002
   6.6099090263663451E-002  -1.9093519310511106E-002   2.1995417210462158E-002
   6.3731215532146668E-002  -1.8575870499141566E-002   2.2152000248495968E-002
   6.1363340800629843E-002  -1.7867886473295208E-002   2.2426091413478851E-002
   6.5464268169034612E-002  -1.7600267859073482E-002   2.9109238477624533E-002
   6.3216916822379565E-002  -1.7353849062595239E-002   2.9068411805055816E-002
   6.0969565475724519E-002  -1.6998457550000415E-002   2.9151123775261328E-002
   5.8722214129069444E-002  -1.6534093321288777E-002   2.9357374388241653E-002
   5.6474862782414370E-002  -1.5960756376460605E-002   2.9687163643996206E-002
   7.5483131155602456E-002  -2.3589276763798961E-002  -4.0909525926402512E-004
   7.2236068663327713E-002  -2.2305580757958465E-002  -4.6848900277896011E-004
   6.8989006171052969E-002  -2.1112765987798515E-002  -3.3932466117925220E-004
   6.5741943678778281E-002  -2.0010832453318909E-002  -2.1602234464873638E-005
   6.2494881186503481E-002  -1.8999780154519419E-002   4.8467827736364821E-004
   7.0867474987223900E-002  -2.1682146666964219E-002   7.3779619618489223E-003
   6.7813843063458834E-002  -2.0560584947493243E-002   7.1548128932655830E-003
   6.4760211139693713E-002  -1.9503516376044278E-002   7.1299668765872071E-003
   6.1706579215928592E-002  -1.8510940952616982E-002   7.3034239118138222E-003
   5.8652947292163526E-002  -1.7582858677211544E-002   7.6751839989450676E-003
   6.6160878202233070E-002  -1.9775016570129755E-002   1.4989690852762944E-002
   6.3310421813767850E-002  -1.8815589137028105E-002   1.4629174546770124E-002
   6.0459965425302686E-002  -1.7894266764289610E-002   1.4476706259472102E-002
   5.7609509036837481E-002  -1.7011049451915169E-002   1.4532285990869344E-002
   5.4759052648372303E-002  -1.6165937199903557E-002   1.4795913740961342E-002
   6.1363340800629843E-002  -1.7867886473295208E-002   2.2426091413478851E-002
   5.8725804914254831E-002  -1.7070593326562591E-002   2.1954595957734309E-002
   5.6088269027879840E-002  -1.6285017152535379E-002   2.1700893487475299E-002
   5.3450733141504822E-002  -1.5511157951213076E-002   2.1664984002701601E-002
   5.0813197255129790E-002  -1.4749015722595737E-002   2.1846867503412845E-002
   5.6474862782414370E-002  -1.5960756376460605E-002   2.9687163643996206E-002
   5.4059992364919818E-002  -1.5325597516097522E-002   2.9131077126158700E-002
   5.1645121947425238E-002  -1.4675767540780926E-002   2.8802528560596730E-002
   4.9230251529930616E-002  -1.4011266450510984E-002   2.8701517947310365E-002
   4.6815381112436105E-002  -1.3332094245287751E-002   2.8828045286299619E-002
   6.2494881186503481E-002  -1.8999780154519419E-002   4.8467827736364821E-004
   5.9574446342921195E-002  -1.8054328238933048E-002   3.1070563357116221E-004
   5.6654011499338908E-002  -1.7149195854091859E-002   3.0524610581783573E-004
   5.3733576655756593E-002  -1.6284382999997446E-002   4.6829969410427941E-004
   5.0813141812174334E-002  -1.5459889676648686E-002   7.9986639842943852E-004
   5.8652947292163526E-002  -1.7582858677211544E-002   7.6751839989450676E-003
   5.5897250715882474E-002  -1.6704440831999012E-002   7.4078981354083751E-003
   5.3141554139601338E-002  -1.5860858699150604E-002   7.3015756904346030E-003
   5.0385857563320299E-002  -1.5052112278666138E-002   7.3562166640240290E-003
   4.7630160987039205E-002  -1.4278201570545379E-002   7.5718210561764865E-003
   5.4759052648372303E-002  -1.6165937199903557E-002   1.4795913740961342E-002
   5.2160544641916246E-002  -1.5354553425065143E-002   1.4440798476061917E-002
   4.9562036635460147E-002  -1.4572521544208933E-002   1.4239096932249812E-002
   4.6963528629004013E-002  -1.3819841557334615E-002   1.4190809109524374E-002
   4.4365020622547963E-002  -1.3096513464442516E-002   1.4295935007885840E-002
   5.0813197255129790E-002  -1.4749015722595737E-002   2.1846867503412845E-002
   4.8364328121022475E-002  -1.4004666018131301E-002   2.1409406655533009E-002
   4.5915458986915250E-002  -1.3284184389267026E-002   2.1117809831263767E-002
   4.3466589852807887E-002  -1.2587570836003089E-002   2.0972077030605194E-002
   4.1017720718700648E-002  -1.1914825358339654E-002   2.0972208253557556E-002
   4.6815381112436105E-002  -1.3332094245287751E-002   2.8828045286299619E-002
   4.4508601153201405E-002  -1.2654778611197459E-002   2.8313722673821040E-002
   4.2201821193966621E-002  -1.1995847234325188E-002   2.7937714387476803E-002
   3.9895041234731893E-002  -1.1355300114671885E-002   2.7700020427266894E-002
   3.7588261275497137E-002  -1.0733137252236680E-002   2.7600640793191689E-002
   5.0813141812174334E-002  -1.5459889676648686E-002   7.9986639842943852E-004
   4.8072752964797294E-002  -1.4639555195734233E-002   4.8054648745576856E-004
   4.5332364117420310E-002  -1.3787218868943185E-002   2.2370626989176579E-004
   4.2591975270043325E-002  -1.2902880696274655E-002   2.9345745735265272E-005
   3.9851586422666285E-002  -1.1986540677729529E-002  -1.0253508501101294E-004
   4.7630160987039205E-002  -1.4278201570545379E-002   7.5718210561764865E-003
   4.4959586979945731E-002  -1.3506476143328561E-002   7.2089102509381719E-003
   4.2289012972852286E-002  -1.2704285565554474E-002   6.9231494328583776E-003
   3.9618438965758770E-002  -1.1871629837224090E-002   6.7145386019366593E-003
   3.6947864958665311E-002  -1.1008508958335605E-002   6.5830777581727951E-003
   4.4365020622547963E-002  -1.3096513464442516E-002   1.4295935007885840E-002
   4.1778931749487214E-002  -1.2373397090923055E-002   1.3887896613062861E-002
   3.9192842876426520E-002  -1.1621352262166651E-002   1.3571678499147838E-002
   3.6606754003365799E-002  -1.0840378978173082E-002   1.3347280666139577E-002
   3.4020665130305050E-002  -1.0030477238942126E-002   1.3214703114039106E-002
   4.1017720718700648E-002  -1.1914825358339654E-002   2.0972208253557556E-002
   3.8530787273421838E-002  -1.1240318038517910E-002   2.0517505573830183E-002
   3.6043853828143090E-002  -1.0538418958778717E-002   2.0169293468759772E-002
   3.3556920382864314E-002  -9.8091281191220736E-003   1.9927571938345892E-002
   3.1069986937585538E-002  -9.0524455195487574E-003   1.9792340982588336E-002
   3.7588261275497137E-002  -1.0733137252236680E-002   2.7600640793191689E-002
   3.5215153551749590E-002  -1.0107238986112155E-002   2.7097737133240429E-002
   3.2842045828001959E-002  -9.4554856553903943E-003   2.6715994341694582E-002
   3.0468938104254356E-002  -8.7778772600714677E-003   2.6455412418554619E-002
   2.8095830380506781E-002  -8.0744138001549448E-003   2.6315991363821345E-002
   3.9851586422666285E-002  -1.1986540677729529E-002  -1.0253508501101294E-004
   3.7447724948124428E-002  -1.1138097104625766E-002  -3.2566268651268437E-004
   3.5043863473582459E-002  -1.0457448268282876E-002  -4.7933777993913740E-004
   3.2640001999040574E-002  -9.9445941686989170E-003  -5.6356036529109366E-004
   3.0236140524498634E-002  -9.5995348058754981E-003  -5.7833044256883070E-004
   3.6947864958665311E-002  -1.1008508958335605E-002   6.5830777581727951E-003
   3.4598988881744452E-002  -1.0186777790045620E-002   6.1814850276027400E-003
   3.2250112804823650E-002  -9.4782911935064607E-003   5.8204105842006859E-003
   2.9901236727902791E-002  -8.8830491687192786E-003   5.4998544279657724E-003
   2.7552360650981933E-002  -8.4010517156833941E-003   5.2198165588988044E-003
   3.4020665130305050E-002  -1.0030477238942126E-002   1.3214703114039106E-002
   3.1697840230098362E-002  -9.2354584754644753E-003   1.2689195419409272E-002
   2.9375015329891632E-002  -8.4991341187302671E-003   1.2175271791039666E-002
   2.7052190429684951E-002  -7.8215041687389741E-003   1.1672932228931190E-002
   2.4729365529478242E-002  -7.2025686254911792E-003   1.1182176733083138E-002
   3.1069986937585538E-002  -9.0524455195487574E-003   1.9792340982588336E-002
   2.8744278993186018E-002  -8.2841391608838300E-003   1.9197468488907007E-002
   2.6418571048786452E-002  -7.5199770439539626E-003   1.8585245840579023E-002
   2.4092863104386887E-002  -6.7599591687590027E-003   1.7955673037604265E-002
   2.1767155159987304E-002  -6.0040855352990197E-003   1.7308750079983948E-002
   2.8095830380506781E-002  -8.0744138001549448E-003   2.6315991363821345E-002
   2.5738305171007392E-002  -7.3328198463031291E-003   2.5706304236096100E-002
   2.3380779961508030E-002  -6.5408199691777413E-003   2.5050332732817482E-002
   2.1023254752008669E-002  -5.6984141687790521E-003   2.4348076853985823E-002
   1.8665729542509280E-002  -4.8056024451067492E-003   2.3599536599600790E-002
   3.0236140524498634E-002  -9.5995348058754981E-003  -5.7833044256883070E-004
   2.9621054739496500E-002  -9.1342463372600102E-003  -3.5490526119441590E-004
   2.9005968954494310E-002  -8.2607049203001770E-003  -1.8040450401606289E-003
   2.8390883169492148E-002  -6.9789105549958597E-003  -4.9257497794666927E-003
   2.7775797384489986E-002  -5.2888632413463643E-003  -9.7200194791133843E-003
   2.7552360650981933E-002  -8.4010517156833941E-003   5.2198165588988044E-003
   2.5532606641707756E-002  -7.8698960219132363E-003   5.8818302291371305E-003
   2.3512852632433551E-002  -7.1271792749216800E-003   5.4070724111717205E-003
   2.1493098623159360E-002  -6.1729014747090583E-003   3.7955431050025190E-003
   1.9473344613885168E-002  -5.0070626212763703E-003   1.0472423106291373E-003
   2.4729365529478242E-002  -7.2025686254911792E-003   1.1182176733083138E-002
   2.1840736768068497E-002  -6.6055457065659628E-003   1.2086086997061818E-002
   1.8952108006658766E-002  -5.9936536295436826E-003   1.2389019244973209E-002
   1.6063479245249070E-002  -5.3668923944231589E-003   1.2090973476817035E-002
   1.3174850483839290E-002  -4.7252620012053770E-003   1.1191949692594017E-002
   2.1767155159987304E-002  -6.0040855352990197E-003   1.7308750079983948E-002
   1.8545445118578661E-002  -5.3411953912194943E-003   1.8257865042579299E-002
   1.5323735077169980E-002  -4.8601279841654355E-003   1.9141795461244351E-002
   1.2102025035761315E-002  -4.5608833141374747E-003   1.9960541335978327E-002
   8.8803149943526491E-003  -4.4434613811353274E-003   2.0714102666781933E-002
   1.8665729542509280E-002  -4.8056024451067492E-003   2.3599536599600790E-002
   1.5646731693238214E-002  -4.0768450758721930E-003   2.4397164365689727E-002
   1.2627733843967148E-002  -3.7266023387868275E-003   2.5665401059984827E-002
   9.6087359946960965E-003  -3.7548742338510341E-003   2.7404246682485728E-002
   6.5897381454250170E-003  -4.1616607610648337E-003   2.9613701233192069E-002
   2.7775797384489986E-002  -5.2888632413463643E-003  -9.7200194791133843E-003
   2.3351181990440950E-002  -4.2078450006679535E-003  -4.1862480652266054E-003
   1.8926566596391969E-002  -4.7531378542727265E-003   2.6077195620861637E-003
   1.4501951202343072E-002  -6.9247418021624735E-003   1.0661883402825534E-002
   1.0077335808293952E-002  -1.0722656844335710E-002   1.9976243456989451E-002
   1.9473344613885168E-002  -5.0070626212763703E-003   1.0472423106291373E-003
   1.6237273794035056E-002  -4.6915380041451238E-003   6.7440704157929465E-003
   1.3001202974184944E-002  -6.2882029128413786E-003   1.3557791455927615E-002
   9.7651321543348879E-003  -9.7970573473646072E-003   2.1488405431034863E-002
   6.5290613344846093E-003  -1.5218101307715060E-002   3.0535912341115079E-002
   1.3174850483839290E-002  -4.7252620012053770E-003   1.1191949692594017E-002
   1.0984020959734192E-002  -5.1752310076241814E-003   1.6765956057491538E-002
   8.7931914356290247E-003  -7.8232679714113351E-003   2.3313552078907201E-002
   6.6023619115238782E-003  -1.2669372892567733E-002   3.0834737756840577E-002
   4.4115323874187595E-003  -1.9713545771094410E-002   3.9329513091291624E-002
   8.8803149943526491E-003  -4.4434613811353274E-003   2.0714102666781933E-002
   7.5914234875383638E-003  -5.6589240111022954E-003   2.5879408859871084E-002
   6.3025319807239709E-003  -9.3583330299804174E-003   3.1875001431023640E-002
   5.0136404739097497E-003  -1.5541688437771251E-002   3.8700880380240790E-002
   3.7247489670952927E-003  -2.4208990234473315E-002   4.6357045707520972E-002
   6.5897381454250170E-003  -4.1616607610648337E-003   2.9613701233192069E-002
   6.0594813774475509E-003  -6.1426170145806314E-003   3.4084428822930168E-002
   5.5292246094701125E-003  -1.0893398088549944E-002   3.9242139512278396E-002
   4.9989678414925770E-003  -1.8414003982974103E-002   4.5086833301235918E-002
   4.4687110735152080E-003  -2.8704434697852665E-002   5.1618510189803679E-002
   7.4858002935827950E-002  -1.3378902457256259E-002   3.1685438776255237E-002
   7.2509569244129601E-002  -1.5369699149366201E-002   3.0875994725196310E-002
   7.0161135552431281E-002  -1.6736858947039038E-002   3.0176813325071744E-002
   6.7812701860732946E-002  -1.7480381850274802E-002   2.9587894575881166E-002
   6.5464268169034612E-002  -1.7600267859073482E-002   2.9109238477624533E-002
   6.8910566194745199E-002  -1.5628914354655798E-002   3.4311118704636490E-002
   6.6693192547989055E-002  -1.6587844159048237E-002   3.3882481772857409E-002
   6.4475818901233009E-002  -1.7137258448427783E-002   3.3605702280028682E-002
   6.2258445254476873E-002  -1.7277157222794617E-002   3.3480780226150378E-002
   6.0041071607720764E-002  -1.7007540482148531E-002   3.3507715611222344E-002
   6.2806562974209099E-002  -1.7878926252055310E-002   3.8075726210447428E-002
   6.0761844160411499E-002  -1.7805989168730316E-002   3.7813775018523788E-002
   5.8717125346613851E-002  -1.7537657949816661E-002   3.7745276053566888E-002
   5.6672406532816216E-002  -1.7073932595314430E-002   3.7870229315576417E-002
   5.4627687719018617E-002  -1.6414813105223552E-002   3.8188634804552604E-002
   5.6545993274219650E-002  -2.0128938149454864E-002   4.2979261293687759E-002
   5.4715524081396689E-002  -1.9024134178412318E-002   4.2669874462195570E-002
   5.2885054888573847E-002  -1.7938057451205500E-002   4.2595534645686085E-002
   5.1054585695750915E-002  -1.6870707967834384E-002   4.2756241844159382E-002
   4.9224116502928017E-002  -1.5822085728298671E-002   4.3151996057615757E-002
   5.0128857094776880E-002  -2.2378950046854362E-002   4.9021723954357832E-002
   4.8554232310944911E-002  -2.0242279188094431E-002   4.8450780103872715E-002
   4.6979607527112971E-002  -1.8338456952594326E-002   4.8156478056386426E-002
   4.5404982743281017E-002  -1.6667483340354113E-002   4.8138817811899395E-002
   4.3830357959449062E-002  -1.5229358351373679E-002   4.8397799370411443E-002
   6.5464268169034612E-002  -1.7600267859073482E-002   2.9109238477624533E-002
   6.3216916822379565E-002  -1.7353849062595239E-002   2.9068411805055816E-002
   6.0969565475724519E-002  -1.6998457550000415E-002   2.9151123775261328E-002
   5.8722214129069444E-002  -1.6534093321288777E-002   2.9357374388241653E-002
   5.6474862782414370E-002  -1.5960756376460605E-002   2.9687163643996206E-002
   6.0041071607720764E-002  -1.7007540482148531E-002   3.3507715611222344E-002
   5.7927582458998650E-002  -1.6517864140538754E-002   3.3556813367939017E-002
   5.5814093310276536E-002  -1.5997584112014671E-002   3.3750096877747118E-002
   5.3700604161554366E-002  -1.5446700396576082E-002   3.4087566140646439E-002
   5.1587115012832252E-002  -1.4865212994223054E-002   3.4569221156637076E-002
   5.4627687719018617E-002  -1.6414813105223552E-002   3.8188634804552604E-002
   5.2668707878546231E-002  -1.5681879218482325E-002   3.8249287961352671E-002
   5.0709728038073776E-002  -1.4996710674028919E-002   3.8474773981560927E-002
   4.8750748197601376E-002  -1.4359307471863274E-002   3.8865092865177142E-002
   4.6791768357128935E-002  -1.3769669611985474E-002   3.9420244612201644E-002
   4.9224116502928017E-002  -1.5822085728298671E-002   4.3151996057615757E-002
   4.7440293081022183E-002  -1.4845894296425868E-002   4.3145835585296818E-002
   4.5656469659116329E-002  -1.3995837236043116E-002   4.3325155086702954E-002
   4.3872646237210419E-002  -1.3271914547150411E-002   4.3689954561833867E-002
   4.2088822815304586E-002  -1.2674126229747798E-002   4.4240234010689980E-002
   4.3830357959449062E-002  -1.5229358351373679E-002   4.8397799370411443E-002
   4.2242338066426563E-002  -1.4009909374369411E-002   4.8246456239771363E-002
   4.0654318173404091E-002  -1.2994963798057438E-002   4.8301240193173084E-002
   3.9066298280381578E-002  -1.2184521622437747E-002   4.8562151230616621E-002
   3.7478278387359093E-002  -1.1578582847510344E-002   4.9029189352101876E-002
   5.6474862782414370E-002  -1.5960756376460605E-002   2.9687163643996206E-002
   5.4059992364919818E-002  -1.5325597516097522E-002   2.9131077126158700E-002
   5.1645121947425238E-002  -1.4675767540780926E-002   2.8802528560596730E-002
   4.9230251529930616E-002  -1.4011266450510984E-002   2.8701517947310365E-002
   4.6815381112436105E-002  -1.3332094245287751E-002   2.8828045286299619E-002
   5.1587115012832252E-002  -1.4865212994223054E-002   3.4569221156637076E-002
   4.9390853077046160E-002  -1.4262668125968603E-002   3.4109697462032296E-002
   4.7194591141260053E-002  -1.3648612012825856E-002   3.3859852778568594E-002
   4.4998329205473954E-002  -1.3023044654795035E-002   3.3819687106246721E-002
   4.2802067269687827E-002  -1.2385966051875530E-002   3.3989200445066148E-002
   4.6791768357128935E-002  -1.3769669611985474E-002   3.9420244612201644E-002
   4.4796255961917192E-002  -1.3199738735839905E-002   3.9054123870764360E-002
   4.2800743566705400E-002  -1.2621456484871008E-002   3.8879823199334529E-002
   4.0805231171493608E-002  -1.2034822859078864E-002   3.8897342597911722E-002
   3.8809718776281865E-002  -1.1439837858463281E-002   3.9106682066496243E-002
   4.2088822815304586E-002  -1.2674126229747798E-002   4.4240234010689980E-002
   4.0276201019532991E-002  -1.2136809345711180E-002   4.3964356352355398E-002
   3.8463579223761347E-002  -1.1594300956916048E-002   4.3862439822893867E-002
   3.6650957427989725E-002  -1.1046601063362693E-002   4.3934484422305430E-002
   3.4838335632218109E-002  -1.0493709665051046E-002   4.4180490150590154E-002
   3.7478278387359093E-002  -1.1578582847510344E-002   4.9029189352101876E-002
   3.5830688249893466E-002  -1.1073879955582344E-002   4.8840394906804918E-002
   3.4183098112427854E-002  -1.0567145428961089E-002   4.8807702649246998E-002
   3.2535507974962234E-002  -1.0058379267646800E-002   4.8931112579427755E-002
   3.0887917837496615E-002  -9.5475814716386997E-003   4.9210624697347605E-002
   4.6815381112436105E-002  -1.3332094245287751E-002   2.8828045286299619E-002
   4.4508601153201405E-002  -1.2654778611197459E-002   2.8313722673821040E-002
   4.2201821193966621E-002  -1.1995847234325188E-002   2.7937714387476803E-002
   3.9895041234731893E-002  -1.1355300114671885E-002   2.7700020427266894E-002
   3.7588261275497137E-002  -1.0733137252236680E-002   2.7600640793191689E-002
   4.2802067269687827E-002  -1.2385966051875530E-002   3.3989200445066148E-002
   4.0638724468212845E-002  -1.1741468680128264E-002   3.3493437031329426E-002
   3.8475381666737737E-002  -1.1093645015613135E-002   3.3146233606977826E-002
   3.6312038865262720E-002  -1.0442495058330580E-002   3.2947590172011293E-002
   3.4148696063787676E-002  -9.7880188082801189E-003   3.2897506726429382E-002
   3.8809718776281865E-002  -1.1439837858463281E-002   3.9106682066496243E-002
   3.6800058795817013E-002  -1.0828158749059180E-002   3.8651188401487929E-002
   3.4790398815352203E-002  -1.0191442796901130E-002   3.8354500389115122E-002
   3.2780738834887378E-002  -9.5296900019892720E-003   3.8216618029377702E-002
   3.0771078854422484E-002  -8.8429003643235027E-003   3.8237541322275748E-002
   3.4838335632218109E-002  -1.0493709665051046E-002   4.4180490150590154E-002
   3.2992604136013973E-002  -9.9148488179899852E-003   4.3786976784296307E-002
   3.1146872639809812E-002  -9.2892405781891292E-003   4.3562514733888572E-002
   2.9301141143605679E-002  -8.6168849456480200E-003   4.3507103999366331E-002
   2.7455409647401521E-002  -7.8977819203670252E-003   4.3620744580730467E-002
   3.0887917837496615E-002  -9.5475814716386997E-003   4.9210624697347605E-002
   2.9216360488803661E-002  -9.0015388869210122E-003   4.8900802179754621E-002
   2.7544803140110707E-002  -8.3870383594770725E-003   4.8770276641297738E-002
   2.5873245791417740E-002  -7.7040798893067697E-003   4.8819048081977318E-002
   2.4201688442724800E-002  -6.9526634764103257E-003   4.9047116501793719E-002
   3.7588261275497137E-002  -1.0733137252236680E-002   2.7600640793191689E-002
   3.5215153551749590E-002  -1.0107238986112155E-002   2.7097737133240429E-002
   3.2842045828001959E-002  -9.4554856553903943E-003   2.6715994341694582E-002
   3.0468938104254356E-002  -8.7778772600714677E-003   2.6455412418554619E-002
   2.8095830380506781E-002  -8.0744138001549448E-003   2.6315991363821345E-002
   3.4148696063787676E-002  -9.7880188082801189E-003   3.2897506726429382E-002
   3.1902579115297564E-002  -9.1284637560924420E-003   3.2478724163726103E-002
   2.9656462166807465E-002  -8.4620773923980014E-003   3.2192762283131920E-002
   2.7410345218317332E-002  -7.7888597171968076E-003   3.2039621084646974E-002
   2.5164228269827282E-002  -7.1088107304886350E-003   3.2019300568271014E-002
   3.0771078854422484E-002  -8.8429003643235027E-003   3.8237541322275748E-002
   2.8663612494893187E-002  -8.1496885260727014E-003   3.7883856103729976E-002
   2.6556146135363876E-002  -7.4686691294054974E-003   3.7674651380996335E-002
   2.4448679775834557E-002  -6.7998421743221474E-003   3.7609927154075337E-002
   2.2341213416305225E-002  -6.1432076608225472E-003   3.7689683422966996E-002
   2.7455409647401521E-002  -7.8977819203670252E-003   4.3620744580730467E-002
   2.5498253690536363E-002  -7.1709132960526972E-003   4.3313132953251593E-002
   2.3541097733671256E-002  -6.4752608664130490E-003   4.3161661635288340E-002
   2.1583941776806101E-002  -5.8108246314476537E-003   4.3166330626840846E-002
   1.9626785819940991E-002  -5.1776045911563484E-003   4.3327139927909632E-002
   2.4201688442724800E-002  -6.9526634764103257E-003   4.9047116501793719E-002
   2.2406502702227188E-002  -6.1921380660331926E-003   4.8766554712291077E-002
   2.0611316961729548E-002  -5.4818526034206838E-003   4.8653793046007532E-002
   1.8816131221231894E-002  -4.8218070885728478E-003   4.8708831502943445E-002
   1.7020945480734295E-002  -4.2120015214900386E-003   4.8931670083098400E-002
   2.8095830380506781E-002  -8.0744138001549448E-003   2.6315991363821345E-002
   2.5738305171007392E-002  -7.3328198463031291E-003   2.5706304236096100E-002
   2.3380779961508030E-002  -6.5408199691777413E-003   2.5050332732817482E-002
   2.1023254752008669E-002  -5.6984141687790521E-003   2.4348076853985823E-002
   1.8665729542509280E-002  -4.8056024451067492E-003   2.3599536599600790E-002
   2.5164228269827282E-002  -7.1088107304886350E-003   3.2019300568271014E-002
   2.2798588714578155E-002  -6.4196007915470199E-003   3.1587318985623947E-002
   2.0432949159328972E-002  -5.7189002596448879E-003   3.1185393087030805E-002
   1.8067309604079838E-002  -5.0067091347820308E-003   3.0813522872491492E-002
   1.5701670048830718E-002  -4.2830274169585181E-003   3.0471708342005910E-002
   2.2341213416305225E-002  -6.1432076608225472E-003   3.7689683422966996E-002
   2.0043799574913451E-002  -5.5063817367910495E-003   3.7396492055085495E-002
   1.7746385733521733E-002  -4.8969805501117153E-003   3.7209696430864705E-002
   1.5448971892129917E-002  -4.3150041007850130E-003   3.7129296550304815E-002
   1.3151558050738227E-002  -3.7604523888105645E-003   3.7155292413405788E-002
   1.9626785819940991E-002  -5.1776045911563484E-003   4.3327139927909632E-002
   1.7473937752013648E-002  -4.5931626820348986E-003   4.3133823444480260E-002
   1.5321089684086308E-002  -4.0750608405787578E-003   4.3123242764318961E-002
   1.3168241616158987E-002  -3.6232990667877715E-003   4.3295397887425285E-002
   1.1015393548231622E-002  -3.2378773606625832E-003   4.3650288813800085E-002
   1.7020945480734295E-002  -4.2120015214900386E-003   4.8931670083098400E-002
   1.5089003245878502E-002  -3.6799436272789698E-003   4.8799313153808255E-002
   1.3157061011022708E-002  -3.2531411310456615E-003   4.8926032087393490E-002
   1.1225118776166942E-002  -2.9315940327910225E-003   4.9311826883853827E-002
   9.2931765413111767E-003  -2.7153023325144909E-003   4.9956697543188877E-002
   1.8665729542509280E-002  -4.8056024451067492E-003   2.3599536599600790E-002
   1.5646731693238214E-002  -4.0768450758721930E-003   2.4397164365689727E-002
   1.2627733843967148E-002  -3.7266023387868275E-003   2.5665401059984827E-002
   9.6087359946960965E-003  -3.7548742338510341E-003   2.7404246682485728E-002
   6.5897381454250170E-003  -4.1616607610648337E-003   2.9613701233192069E-002
   1.5701670048830718E-002  -4.2830274169585181E-003   3.0471708342005910E-002
   1.3135323584047731E-002  -3.7717459308485024E-003   3.1257923215694927E-002
   1.0568977119264591E-002  -3.6967555011253039E-003   3.2478831930154078E-002
   8.0026306544815559E-003  -4.0580561277891863E-003   3.4134434485383877E-002
   5.4362841896985203E-003  -4.8556478108398027E-003   3.6224730881383227E-002
   1.3151558050738227E-002  -3.7604523888105645E-003   3.7155292413405788E-002
   1.1001947883007429E-002  -3.4666467858247840E-003   3.7872317970457536E-002
   8.8523377152768049E-003  -3.6669086634633502E-003   3.8988122280843460E-002
   6.7027275475461286E-003  -4.3612380217264539E-003   4.0502705344563912E-002
   4.5531173798153829E-003  -5.5496348606143275E-003   4.2416067161618831E-002
   1.1015393548231622E-002  -3.2378773606625832E-003   4.3650288813800085E-002
   9.2466045901176477E-003  -3.1615476408006910E-003   4.4240348629976320E-002
   7.4778156320035403E-003  -3.6370618258018336E-003   4.5193272112051514E-002
   5.7090266738895308E-003  -4.6644199156641638E-003   4.6509059260025527E-002
   3.9402377157754624E-003  -6.2436219103888524E-003   4.8187710073898674E-002
   9.2931765413111767E-003  -2.7153023325144909E-003   4.9956697543188877E-002
   7.8692937053781165E-003  -2.8564484957772640E-003   5.0362015194252430E-002
   6.4454108694450285E-003  -3.6072149881397619E-003   5.1094281423779364E-002
   5.0215280335119822E-003  -4.9676018096017904E-003   5.2153496231768903E-002
   3.5976451975788803E-003  -6.9376089601637103E-003   5.3539659618221935E-002
   6.5897381454250170E-003  -4.1616607610648337E-003   2.9613701233192069E-002
   6.0594813774475509E-003  -6.1426170145806314E-003   3.4084428822930168E-002
   5.5292246094701125E-003  -1.0893398088549944E-002   3.9242139512278396E-002
   4.9989678414925770E-003  -1.8414003982974103E-002   4.5086833301235918E-002
   4.4687110735152080E-003  -2.8704434697852665E-002   5.1618510189803679E-002
   5.4362841896985203E-003  -4.8556478108398027E-003   3.6224730881383227E-002
   5.4889732670877767E-003  -6.9894570966931302E-003   3.8358723877884915E-002
   5.5416623444770191E-003  -1.1359410531766256E-002   4.0971625465510031E-002
   5.5943514218661991E-003  -1.7965508116058071E-002   4.4063435644258159E-002
   5.6470404992555179E-003  -2.6807749849569573E-002   4.7634154414129881E-002
   4.5531173798153829E-003  -5.5496348606143275E-003   4.2416067161618831E-002
   4.9806777940849672E-003  -7.8362971788062952E-003   4.2747006236118823E-002
   5.4082382083545030E-003  -1.1825422974982125E-002   4.3348779393255987E-002
   5.8357986226241533E-003  -1.7517012249142039E-002   4.4221386633030407E-002
   6.2633590368936787E-003  -2.4911065001286259E-002   4.5364827955441722E-002
   3.9402377157754624E-003  -6.2436219103888524E-003   4.8187710073898674E-002
   4.5345949584390984E-003  -8.6831372609193491E-003   4.7249275897632143E-002
   5.1289522011027291E-003  -1.2291435418198438E-002   4.6373601295516556E-002
   5.7233094437663052E-003  -1.7068516382226451E-002   4.5560686267552539E-002
   6.3176666864299957E-003  -2.3014380153003056E-002   4.4810530813738342E-002
   3.5976451975788803E-003  -6.9376089601637103E-003   5.3539659618221935E-002
   4.1507247601502151E-003  -9.5299773430324031E-003   5.1865532862424901E-002
   4.7038043227215498E-003  -1.2757447861414223E-002   5.0046091172291696E-002
   5.2568838852928013E-003  -1.6620020515309954E-002   4.8081334547823346E-002
   5.8099634478641082E-003  -2.1117695304719852E-002   4.5971262989019657E-002
   5.0128857094776880E-002  -2.2378950046854362E-002   4.9021723954357832E-002
   4.8554232310944911E-002  -2.0242279188094431E-002   4.8450780103872715E-002
   4.6979607527112971E-002  -1.8338456952594326E-002   4.8156478056386426E-002
   4.5404982743281017E-002  -1.6667483340354113E-002   4.8138817811899395E-002
   4.3830357959449062E-002  -1.5229358351373679E-002   4.8397799370411443E-002
   4.3716164192869000E-002  -1.7517302071895113E-002   5.3672914864919041E-002
   4.2389430471480832E-002  -1.6247998708506739E-002   5.3079730298037697E-002
   4.1062696750092720E-002  -1.5063732742586031E-002   5.2705686053045153E-002
   3.9735963028704566E-002  -1.3964504174133318E-002   5.2550782129941020E-002
   3.8409229307316411E-002  -1.2950313003148139E-002   5.2615018528725577E-002
   3.7468924325484126E-002  -1.2655654096935864E-002   5.7382832667212683E-002
   3.6332580185429245E-002  -1.2253718228919006E-002   5.6915218609727466E-002
   3.5196236045374446E-002  -1.1789008532577826E-002   5.6609243393020404E-002
   3.4059891905319647E-002  -1.1261525007912358E-002   5.6464907017091420E-002
   3.2923547765264780E-002  -1.0671267654922517E-002   5.6482209481940451E-002
   3.1387137492622168E-002  -7.7940061219766016E-003   6.0151477361238659E-002
   3.0383681452790207E-002  -8.2594377493313206E-003   5.9957245038941787E-002
   2.9380225412958233E-002  -8.5142843225696034E-003   5.9867150076312312E-002
   2.8376769373126231E-002  -8.5585458416914811E-003   5.9881192473350414E-002
   2.7373313333294246E-002  -8.3922223066969087E-003   5.9999372230056205E-002
   2.5470803694283312E-002  -2.9323581470173665E-003   6.1978848946997345E-002
   2.4542734273563682E-002  -4.2651572697435525E-003   6.2205809585680449E-002
   2.3614664852844025E-002  -5.2395601125612978E-003   6.2479406102920743E-002
   2.2686595432124382E-002  -5.8555666754705402E-003   6.2799638498718086E-002
   2.1758526011404739E-002  -6.1131769584713003E-003   6.3166506773072562E-002
   4.3830357959449062E-002  -1.5229358351373679E-002   4.8397799370411443E-002
   4.2242338066426563E-002  -1.4009909374369411E-002   4.8246456239771363E-002
   4.0654318173404091E-002  -1.2994963798057438E-002   4.8301240193173084E-002
   3.9066298280381578E-002  -1.2184521622437747E-002   4.8562151230616621E-002
   3.7478278387359093E-002  -1.1578582847510344E-002   4.9029189352101876E-002
   3.8409229307316411E-002  -1.2950313003148139E-002   5.2615018528725577E-002
   3.7030303224506858E-002  -1.2043450481611401E-002   5.2235027583277055E-002
   3.5651377141697305E-002  -1.1266207861504049E-002   5.2067097174212429E-002
   3.4272451058887758E-002  -1.0618585142825498E-002   5.2111227301532018E-002
   3.2893524976078198E-002  -1.0100582325576202E-002   5.2367417965235641E-002
   3.2923547765264780E-002  -1.0671267654922517E-002   5.6482209481940451E-002
   3.1759648945010488E-002  -1.0076991588853501E-002   5.5948454220946631E-002
   3.0595750124756141E-002  -9.5374519249504311E-003   5.5632692948679029E-002
   2.9431851304501804E-002  -9.0526486632132464E-003   5.5534925665137735E-002
   2.8267952484247495E-002  -8.6225818036420598E-003   5.5655152370323036E-002
   2.7373313333294246E-002  -8.3922223066969087E-003   5.9999372230056205E-002
   2.6430375227937435E-002  -8.1105326960956015E-003   5.9386736152780076E-002
   2.5487437122580614E-002  -7.8086959883969277E-003   5.8998027516572599E-002
   2.4544499017223796E-002  -7.4867121836011069E-003   5.8833246321433823E-002
   2.3601560911866978E-002  -7.1445812817079457E-003   5.8892392567363672E-002
   2.1758526011404739E-002  -6.1131769584713003E-003   6.3166506773072562E-002
   2.1042482073287710E-002  -6.1440738033376185E-003   6.2549873378777543E-002
   2.0326438135170710E-002  -6.0799400518434243E-003   6.2163100877893479E-002
   1.9610394197053703E-002  -5.9207757039887732E-003   6.2006189270420314E-002
   1.8894350258936710E-002  -5.6665807597738316E-003   6.2079138556358104E-002
   3.7478278387359093E-002  -1.1578582847510344E-002   4.9029189352101876E-002
   3.5830688249893466E-002  -1.1073879955582344E-002   4.8840394906804918E-002
   3.4183098112427854E-002  -1.0567145428961089E-002   4.8807702649246998E-002
   3.2535507974962234E-002  -1.0058379267646800E-002   4.8931112579427755E-002
   3.0887917837496615E-002  -9.5475814716386997E-003   4.9210624697347605E-002
   3.2893524976078198E-002  -1.0100582325576202E-002   5.2367417965235641E-002
   3.1409947953599290E-002  -9.6438750583367483E-003   5.2150245584688171E-002
   2.9926370931120397E-002  -9.1801389896876695E-003   5.2104997246375268E-002
   2.8442793908641496E-002  -8.7093741196294511E-003   5.2231672950296806E-002
   2.6959216886162596E-002  -8.2315804481614130E-003   5.2530272696453051E-002
   2.8267952484247495E-002  -8.6225818036420598E-003   5.5655152370323036E-002
   2.6964210431250919E-002  -8.2138701610909581E-003   5.5414599221241034E-002
   2.5660468378254354E-002  -7.7931325504143056E-003   5.5361791968889212E-002
   2.4356726325257795E-002  -7.3603689716121024E-003   5.5496730613267611E-002
   2.3052984272261240E-002  -6.9155794246841817E-003   5.5819415154376079E-002
   2.3601560911866978E-002  -7.1445812817079457E-003   5.8892392567363672E-002
   2.2493475682848388E-002  -6.7838652638452651E-003   5.8633455816463495E-002
   2.1385390453829797E-002  -6.4061261111409140E-003   5.8578086816789207E-002
   2.0277305224811203E-002  -6.0113638235948091E-003   5.8726285568340503E-002
   1.9169219995792620E-002  -5.5995784012069783E-003   5.9078052071117590E-002
   1.8894350258936710E-002  -5.6665807597738316E-003   6.2079138556358104E-002
   1.7997743708391689E-002  -5.3538603665995166E-003   6.1806815370355761E-002
   1.7101137157846669E-002  -5.0191196718675085E-003   6.1753881790074766E-002
   1.6204530607301655E-002  -4.6623586755775957E-003   6.1920337815515106E-002
   1.5307924056756642E-002  -4.2835773777296637E-003   6.2306183446676933E-002
   3.0887917837496615E-002  -9.5475814716386997E-003   4.9210624697347605E-002
   2.9216360488803661E-002  -9.0015388869210122E-003   4.8900802179754621E-002
   2.7544803140110707E-002  -8.3870383594770725E-003   4.8770276641297738E-002
   2.5873245791417740E-002  -7.7040798893067697E-003   4.8819048081977318E-002
   2.4201688442724800E-002  -6.9526634764103257E-003   4.9047116501793719E-002
   2.6959216886162596E-002  -8.2315804481614130E-003   5.2530272696453051E-002
   2.5470867780832615E-002  -7.7287400222254277E-003   5.2302591105645418E-002
   2.3982518675502648E-002  -7.1828348887629234E-003   5.2262029022427603E-002
   2.2494169570172681E-002  -6.5938650477737892E-003   5.2408586446799049E-002
   2.1005820464842700E-002  -5.9618304992580251E-003   5.2742263378760035E-002
   2.3052984272261240E-002  -6.9155794246841817E-003   5.5819415154376079E-002
   2.1755665938747337E-002  -6.4559411575299541E-003   5.5648481255154730E-002
   2.0458347605233428E-002  -5.9786314180488853E-003   5.5672489391975777E-002
   1.9161029271719528E-002  -5.4836502062409198E-003   5.5891439564839412E-002
   1.7863710938205643E-002  -4.9709975221058356E-003   5.6305331773745693E-002
   1.9169219995792620E-002  -5.5995784012069783E-003   5.9078052071117590E-002
   1.8070754962547852E-002  -5.1831422928345916E-003   5.8938472628282418E-002
   1.6972289929303094E-002  -4.7744279473347917E-003   5.9001657749942954E-002
   1.5873824896058319E-002  -4.3734353647077728E-003   5.9267607436099101E-002
   1.4775359862813569E-002  -3.9801645449535350E-003   5.9736321686751047E-002
   1.5307924056756642E-002  -4.2835773777296637E-003   6.2306183446676933E-002
   1.4416134852234114E-002  -3.9103434281390625E-003   6.2172565225028453E-002
   1.3524345647711593E-002  -3.5702244766207258E-003   6.2249534096328774E-002
   1.2632556443189055E-002  -3.2632205231750769E-003   6.2537090060577838E-002
   1.1740767238666544E-002  -2.9893315678013455E-003   6.3035233117775591E-002
   2.4201688442724800E-002  -6.9526634764103257E-003   4.9047116501793719E-002
   2.2406502702227188E-002  -6.1921380660331926E-003   4.8766554712291077E-002
   2.0611316961729548E-002  -5.4818526034206838E-003   4.8653793046007532E-002
   1.8816131221231894E-002  -4.8218070885728478E-003   4.8708831502943445E-002
   1.7020945480734295E-002  -4.2120015214900386E-003   4.8931670083098400E-002
   2.1005820464842700E-002  -5.9618304992580251E-003   5.2742263378760035E-002
   1.9388462712114599E-002  -5.3262929267146597E-003   5.2482338601434753E-002
   1.7771104959386469E-002  -4.7268140136421111E-003   5.2410269676429533E-002
   1.6153747206658346E-002  -4.1633937600405041E-003   5.2526056603744251E-002
   1.4536389453930237E-002  -3.6360321659096861E-003   5.2829699383378781E-002
   1.7863710938205643E-002  -4.9709975221058356E-003   5.6305331773745693E-002
   1.6444236902347684E-002  -4.4604477873960435E-003   5.6080225296891995E-002
   1.5024762866489766E-002  -3.9717754238632191E-003   5.6063030401458616E-002
   1.3605288830631838E-002  -3.5049804315078308E-003   5.6253747087445842E-002
   1.2185814794773889E-002  -3.0600628103293892E-003   5.6652375354853540E-002
   1.4775359862813569E-002  -3.9801645449535350E-003   5.9736321686751047E-002
   1.3573825272926460E-002  -3.5946026480774690E-003   5.9560214798662289E-002
   1.2372290683039378E-002  -3.2167368340843758E-003   5.9612075221094588E-002
   1.1170756093152285E-002  -2.8465671029751002E-003   5.9891902954048191E-002
   9.9692215032651833E-003  -2.4840934547490090E-003   6.0399697997523018E-002
   1.1740767238666544E-002  -2.9893315678013455E-003   6.3035233117775591E-002
   1.0777227823850960E-002  -2.7287575087588389E-003   6.2922307106745734E-002
   9.8136884090353621E-003  -2.4616982443059487E-003   6.3057404135337725E-002
   8.8501489942197711E-003  -2.1881537744425847E-003   6.3440524203551479E-002
   7.8866095794041802E-003  -1.9081240991687398E-003   6.4071667311387026E-002
   1.7020945480734295E-002  -4.2120015214900386E-003   4.8931670083098400E-002
   1.5089003245878502E-002  -3.6799436272789698E-003   4.8799313153808255E-002
   1.3157061011022708E-002  -3.2531411310456615E-003   4.8926032087393490E-002
   1.1225118776166942E-002  -2.9315940327910225E-003   4.9311826883853827E-002
   9.2931765413111767E-003  -2.7153023325144909E-003   4.9956697543188877E-002
   1.4536389453930237E-002  -3.6360321659096861E-003   5.2829699383378781E-002
   1.2861129423954648E-002  -3.1806562793528226E-003   5.2722346086914063E-002
   1.1185869393979059E-002  -2.8331931484723294E-003   5.2869281337334817E-002
   9.5106093640034903E-003  -2.5936427732677139E-003   5.3270505134640933E-002
   7.8353493340278801E-003  -2.4620051537397325E-003   5.3926017478831967E-002
   1.2185814794773889E-002  -3.0600628103293892E-003   5.6652375354853540E-002
   1.0762449653688659E-002  -2.6813689314267863E-003   5.6567368333516305E-002
   9.3390845126034155E-003  -2.4132451658986781E-003   5.6731862543074621E-002
   7.9157193715181720E-003  -2.2556915137445198E-003   5.7145857983528357E-002
   6.4923542304329424E-003  -2.2087079749650296E-003   5.7809354654877465E-002
   9.9692215032651833E-003  -2.4840934547490090E-003   6.0399697997523018E-002
   8.7929639350804497E-003  -2.1820815835009166E-003   6.0334379893615168E-002
   7.6167063668957577E-003  -1.9932971833249644E-003   6.0513775704613249E-002
   6.4404487987110605E-003  -1.9177402542214349E-003   6.0937885430516744E-002
   5.2641912305263321E-003  -1.9554107961902989E-003   6.1606709071325857E-002
   7.8866095794041802E-003  -1.9081240991687398E-003   6.4071667311387026E-002
   6.9526722681301500E-003  -1.6827942355747139E-003   6.4023380767210814E-002
   6.0187349568561338E-003  -1.5733492007514449E-003   6.4215020821950353E-002
   5.0847976455820967E-003  -1.5797889946979546E-003   6.4646587475605449E-002
   4.1508603343080597E-003  -1.7021136174154572E-003   6.5318080728176353E-002
   9.2931765413111767E-003  -2.7153023325144909E-003   4.9956697543188877E-002
   7.8692937053781165E-003  -2.8564484957772640E-003   5.0362015194252430E-002
   6.4454108694450285E-003  -3.6072149881397619E-003   5.1094281423779364E-002
   5.0215280335119822E-003  -4.9676018096017904E-003   5.2153496231768903E-002
   3.5976451975788803E-003  -6.9376089601637103E-003   5.3539659618221935E-002
   7.8353493340278801E-003  -2.4620051537397325E-003   5.3926017478831967E-002
   6.7126220053214530E-003  -2.6418240655908254E-003   5.3858063844256232E-002
   5.5898946766149982E-003  -3.3366432845245153E-003   5.4065472645670909E-002
   4.4671673479085641E-003  -4.5464628105399349E-003   5.4548243883075775E-002
   3.3444400192021162E-003  -6.2712826436381874E-003   5.5306377556470387E-002
   6.4923542304329424E-003  -2.2087079749650296E-003   5.7809354654877465E-002
   5.6191962664800948E-003  -2.4271996354048864E-003   5.7362749756680181E-002
   4.7460383025272959E-003  -3.0660715809094907E-003   5.7139921152000367E-002
   3.8728803385744588E-003  -4.1253238114786345E-003   5.7140868840837564E-002
   2.9997223746216495E-003  -5.6049563271124980E-003   5.7365592823191730E-002
   5.2641912305263321E-003  -1.9554107961902989E-003   6.1606709071325857E-002
   4.5890164888541425E-003  -2.2125752052187531E-003   6.0876072931524590E-002
   3.9138417471819096E-003  -2.7954998772945217E-003   6.0317626942767516E-002
   3.2386670055097053E-003  -3.7041848124168344E-003   5.9931371105054553E-002
   2.5634922638374594E-003  -4.9386300105868919E-003   5.9717305418385706E-002
   4.1508603343080597E-003  -1.7021136174154572E-003   6.5318080728176353E-002
   3.6220826724434607E-003  -1.9979507750325642E-003   6.4398033368789021E-002
   3.0933050105788618E-003  -2.5249281736791918E-003   6.3598590017972356E-002
   2.5645273487142628E-003  -3.2830458133553606E-003   6.2919750675726943E-002
   2.0357496868496638E-003  -4.2723036940612857E-003   6.2361515342052476E-002
   3.5976451975788803E-003  -6.9376089601637103E-003   5.3539659618221935E-002
   4.1507247601502151E-003  -9.5299773430324031E-003   5.1865532862424901E-002
   4.7038043227215498E-003  -1.2757447861414223E-002   5.0046091172291696E-002
   5.2568838852928013E-003  -1.6620020515309954E-002   4.8081334547823346E-002
   5.8099634478641082E-003  -2.1117695304719852E-002   4.5971262989019657E-002
   3.3444400192021162E-003  -6.2712826436381874E-003   5.5306377556470387E-002
   3.7695599825380843E-003  -8.5408812551260316E-003   5.2953263976963816E-002
   4.1946799458740386E-003  -1.1385037116311281E-002   5.0489546133322183E-002
   4.6197999092100137E-003  -1.4803750227194476E-002   4.7915224025544850E-002
   5.0449198725459055E-003  -1.8797020587775215E-002   4.5230297653632734E-002
   2.9997223746216495E-003  -5.6049563271124980E-003   5.7365592823191730E-002
   3.3315934089224591E-003  -7.5517851672195491E-003   5.4394037305792009E-002
   3.6634644432232688E-003  -1.0012626371208103E-002   5.1346588194456741E-002
   3.9953354775240993E-003  -1.2987479939078773E-002   4.8223245489186696E-002
   4.3272065118248604E-003  -1.6476345870830800E-002   4.5024009189981951E-002
   2.5634922638374594E-003  -4.9386300105868919E-003   5.9717305418385706E-002
   2.8368250393033569E-003  -6.5626890793129000E-003   5.6187852848908690E-002
   3.1101578147692821E-003  -8.6402156261049315E-003   5.2617217355696536E-002
   3.3834905902351501E-003  -1.1171209650962960E-002   4.9005398938749424E-002
   3.6568233657010493E-003  -1.4155671153886384E-002   4.5352397598068195E-002
   2.0357496868496638E-003  -4.2723036940612857E-003   6.2361515342052476E-002
   2.2852548736808087E-003  -5.5735929914064730E-003   5.8334710606314233E-002
   2.5347600605119952E-003  -7.2678048810018714E-003   5.4301433617040873E-002
   2.7842652473431817E-003  -9.3549393628471755E-003   5.0261684374233007E-002
   3.0337704341743543E-003  -1.1834996436941747E-002   4.6215462877890801E-002
   2.5470803694283312E-002  -2.9323581470173665E-003   6.1978848946997345E-002
   2.4542734273563682E-002  -4.2651572697435525E-003   6.2205809585680449E-002
   2.3614664852844025E-002  -5.2395601125612978E-003   6.2479406102920743E-002
   2.2686595432124382E-002  -5.8555666754705402E-003   6.2799638498718086E-002
   2.1758526011404739E-002  -6.1131769584713003E-003   6.3166506773072562E-002
   1.9504261016039068E-002  -2.7018342972772724E-003   6.1916038869277878E-002
   1.8668456157860266E-002  -3.4036925220606029E-003   6.2189272126598277E-002
   1.7832651299681444E-002  -3.9309175687778086E-003   6.2600398630443366E-002
   1.6996846441502626E-002  -4.2835094374287438E-003   6.3149418380812991E-002
   1.6161041583323814E-002  -4.4614681280135682E-003   6.3836331377707195E-002
   1.3271847543461071E-002  -2.4713104475372061E-003   6.2576051240422370E-002
   1.2619564615790578E-002  -2.5422277743776672E-003   6.2711794014537803E-002
   1.1967281688120050E-002  -2.6222750249942778E-003   6.3076687403145384E-002
   1.1314998760449540E-002  -2.7114521993869788E-003   6.3670731406244963E-002
   1.0662715832779029E-002  -2.8097592975558638E-003   6.4493926023836579E-002
   6.7735632765493284E-003  -2.2407865977971397E-003   6.3958886060431014E-002
   6.3960596473545926E-003  -1.6807630266947246E-003   6.3773375249499054E-002
   6.0185560181598621E-003  -1.3136324812107955E-003   6.3908272421026868E-002
   5.6410523889651272E-003  -1.1393949613452813E-003   6.4363577575014014E-002
   5.2635487597703905E-003  -1.1580504670982011E-003   6.5139290711460768E-002
   9.4082153038327343E-006  -2.0102627480570456E-003   6.6064543329303393E-002
  -2.0587474476585488E-006  -8.1929827901175423E-004   6.5374015831482113E-002
  -1.3525710199139424E-005  -4.9899374272716068E-006   6.5095153684087609E-002
  -2.4992672950618564E-005   4.3266227669653753E-004   6.5227956887120173E-002
  -3.6459635702104642E-005   4.9365836335957258E-004   6.5772425440579874E-002
   2.1758526011404739E-002  -6.1131769584713003E-003   6.3166506773072562E-002
   2.1042482073287710E-002  -6.1440738033376185E-003   6.2549873378777543E-002
   2.0326438135170710E-002  -6.0799400518434243E-003   6.2163100877893479E-002
   1.9610394197053703E-002  -5.9207757039887732E-003   6.2006189270420314E-002
   1.8894350258936710E-002  -5.6665807597738316E-003   6.2079138556358104E-002
   1.6161041583323814E-002  -4.4614681280135682E-003   6.3836331377707195E-002
   1.5662946769929680E-002  -4.5127918958352831E-003   6.3393778524170497E-002
   1.5164851956535576E-002  -4.4854789961967512E-003   6.3157263026668617E-002
   1.4666757143141451E-002  -4.3795294290979933E-003   6.3126784885201709E-002
   1.4168662329747325E-002  -4.1949431945391136E-003   6.3302344099769592E-002
   1.0662715832779029E-002  -2.8097592975558638E-003   6.4493926023836579E-002
   1.0358746606731674E-002  -2.8815099883328782E-003   6.4209059782158073E-002
   1.0054777380684329E-002  -2.8910179405499115E-003   6.4106407359138265E-002
   9.7508081546369817E-003  -2.8382831542071024E-003   6.4185968754777167E-002
   9.4468389285896348E-003  -2.7233056293043123E-003   6.4447743969074808E-002
   5.2635487597703905E-003  -1.1580504670982011E-003   6.5139290711460768E-002
   5.1298815836936847E-003  -1.2502280808304803E-003   6.4995717152740162E-002
   4.9962144076169833E-003  -1.2965568849030717E-003   6.5010533875302062E-002
   4.8625472315402766E-003  -1.2970368793161560E-003   6.5183740879146523E-002
   4.7288800554635760E-003  -1.2516680640696359E-003   6.5515338164273740E-002
  -3.6459635702104642E-005   4.9365836335957258E-004   6.5772425440579874E-002
  -2.3648299184286098E-005   3.8105382667186216E-004   6.5753750635916708E-002
  -1.0836962666464084E-005   2.9790417074365694E-004   6.5869642575160176E-002
   1.9743738513561954E-006   2.4420939557477650E-004   6.6120101258310027E-002
   1.4785710369176475E-005   2.1996950116520697E-004   6.6505126685366289E-002
   1.8894350258936710E-002  -5.6665807597738316E-003   6.2079138556358104E-002
   1.7997743708391689E-002  -5.3538603665995166E-003   6.1806815370355761E-002
   1.7101137157846669E-002  -5.0191196718675085E-003   6.1753881790074766E-002
   1.6204530607301655E-002  -4.6623586755775957E-003   6.1920337815515106E-002
   1.5307924056756642E-002  -4.2835773777296637E-003   6.2306183446676933E-002
   1.4168662329747325E-002  -4.1949431945391136E-003   6.3302344099769592E-002
   1.3491946845298308E-002  -3.9638614770508285E-003   6.3052574202151546E-002
   1.2815231360849298E-002  -3.7184254611643125E-003   6.3023196831004241E-002
   1.2138515876400264E-002  -3.4586351468791111E-003   6.3214211986327443E-002
   1.1461800391951257E-002  -3.1844905341955609E-003   6.3625619668121136E-002
   9.4468389285896348E-003  -2.7233056293043123E-003   6.4447743969074808E-002
   8.9910174309857926E-003  -2.5738625875020016E-003   6.4212861356681764E-002
   8.5351959333819366E-003  -2.4177312504609569E-003   6.4199374191508507E-002
   8.0793744357780996E-003  -2.2549116181806838E-003   6.4407282473554928E-002
   7.6235529381742488E-003  -2.0854036906615692E-003   6.4836586202821206E-002
   4.7288800554635760E-003  -1.2516680640696359E-003   6.5515338164273740E-002
   4.4949554654541007E-003  -1.1838636979532996E-003   6.5287676833946165E-002
   4.2610308754446212E-003  -1.1170370397577088E-003   6.5282413871587563E-002
   4.0271062854351398E-003  -1.0511880894825054E-003   6.5499549277198005E-002
   3.7931816954256655E-003  -9.8631684712763290E-004   6.5939083050777419E-002
   1.4785710369176475E-005   2.1996950116520697E-004   6.6505126685366289E-002
   3.7609487032498612E-006   2.0613519159554117E-004   6.6277020633944916E-002
  -7.2638129626732828E-006   1.8365717094562251E-004   6.6272315871241549E-002
  -1.8288574628599896E-005   1.5253543921620732E-004   6.6491012397256299E-002
  -2.9313336294523040E-005   1.1276999640652541E-004   6.6933110211989333E-002
   1.5307924056756642E-002  -4.2835773777296637E-003   6.2306183446676933E-002
   1.4416134852234114E-002  -3.9103434281390625E-003   6.2172565225028453E-002
   1.3524345647711593E-002  -3.5702244766207258E-003   6.2249534096328774E-002
   1.2632556443189055E-002  -3.2632205231750769E-003   6.2537090060577838E-002
   1.1740767238666544E-002  -2.9893315678013455E-003   6.3035233117775591E-002
   1.1461800391951257E-002  -3.1844905341955609E-003   6.3625619668121136E-002
   1.0784269861515657E-002  -2.9146166892989323E-003   6.3475543822617164E-002
   1.0106739331080049E-002  -2.6676386783738570E-003   6.3543398232338344E-002
   9.4292088006444445E-003  -2.4435565014207586E-003   6.3829182897284384E-002
   8.7516782702088403E-003  -2.2423701584395328E-003   6.4332897817455714E-002
   7.6235529381742488E-003  -2.0854036906615692E-003   6.4836586202821206E-002
   7.1676242441018993E-003  -1.9188899504587187E-003   6.4680271897562286E-002
   6.7116955500295585E-003  -1.7650528801269744E-003   6.4749231009804620E-002
   6.2557668559572134E-003  -1.6238924796667699E-003   6.5043463539548485E-002
   5.7998381618848821E-003  -1.4954087490778312E-003   6.5562969486793715E-002
   3.7931816954256655E-003  -9.8631684712763290E-004   6.5939083050777419E-002
   3.5661979999928985E-003  -9.2316321161849124E-004   6.5786749449863791E-002
   3.3392143045601294E-003  -8.6246708188004312E-004   6.5867032428727879E-002
   3.1122306091273611E-003  -8.0422845791261639E-004   6.6179931987369892E-002
   2.8852469136945932E-003  -7.4844733971601851E-004   6.6725448125789483E-002
  -2.9313336294523040E-005   1.1276999640652541E-004   6.6933110211989333E-002
  -2.0008870811386720E-005   7.2563527221569668E-005   6.6794976479521706E-002
  -1.0704405328250399E-005   4.0118716366860374E-005   6.6896802489108231E-002
  -1.3999398451106093E-006   1.5435563841335875E-005   6.7238588240748742E-002
   7.9045256380222417E-006  -1.4859303543168778E-006   6.7820333734443405E-002
   1.1740767238666544E-002  -2.9893315678013455E-003   6.3035233117775591E-002
   1.0777227823850960E-002  -2.7287575087588389E-003   6.2922307106745734E-002
   9.8136884090353621E-003  -2.4616982443059487E-003   6.3057404135337725E-002
   8.8501489942197711E-003  -2.1881537744425847E-003   6.3440524203551479E-002
   7.8866095794041802E-003  -1.9081240991687398E-003   6.4071667311387026E-002
   8.7516782702088403E-003  -2.2423701584395328E-003   6.4332897817455714E-002
   8.0345227429967914E-003  -2.0496044603527386E-003   6.4261851389338154E-002
   7.3173672157847217E-003  -1.8507842180820189E-003   6.4435549696805844E-002
   6.6002116885726554E-003  -1.6459094316282827E-003   6.4853992739858465E-002
   5.8830561613606031E-003  -1.4349801009907459E-003   6.5517180518496754E-002
   5.7998381618848821E-003  -1.4954087490778312E-003   6.5562969486793715E-002
   5.3257882182397125E-003  -1.3704514119463329E-003   6.5533371980361493E-002
   4.8517382745945463E-003  -1.2398701918583249E-003   6.5745240905477800E-002
   4.3776883309493853E-003  -1.1036650888138731E-003   6.6198576262142733E-002
   3.9036383873042244E-003  -9.6183610281286303E-004   6.6893378050356084E-002
   2.8852469136945932E-003  -7.4844733971601851E-004   6.6725448125789483E-002
   2.6510242495797077E-003  -6.9129836354007990E-004   6.6736868879815614E-002
   2.4168015854648161E-003  -6.2895616563451301E-004   6.6986477761353663E-002
   2.1825789213499275E-003  -5.6142074599962837E-004   6.7474274770404019E-002
   1.9483562572350389E-003  -4.8869210463520218E-004   6.8200259906965988E-002
   7.9045256380222417E-006  -1.4859303543168778E-006   6.7820333734443405E-002
   1.0230837016782235E-005  -1.2145315133826884E-005   6.7872342087700988E-002
   1.2557148395542228E-005  -1.8042139410784364E-005   6.8159260264433974E-002
   1.4883459774307425E-005  -1.9176403185237889E-005   6.8681088264642198E-002
   1.7209771153062214E-005  -1.5548106456986233E-005   6.9437826088325827E-002
   7.8866095794041802E-003  -1.9081240991687398E-003   6.4071667311387026E-002
   6.9526722681301500E-003  -1.6827942355747139E-003   6.4023380767210814E-002
   6.0187349568561338E-003  -1.5733492007514449E-003   6.4215020821950353E-002
   5.0847976455820967E-003  -1.5797889946979546E-003   6.4646587475605449E-002
   4.1508603343080597E-003  -1.7021136174154572E-003   6.5318080728176353E-002
   5.8830561613606031E-003  -1.4349801009907459E-003   6.5517180518496754E-002
   5.1871283305532090E-003  -1.2646322663770748E-003   6.5389561317357736E-002
   4.4912004997458080E-003  -1.1815019679945193E-003   6.5498034478236267E-002
   3.7952726689384139E-003  -1.1855892058423925E-003   6.5842600001132512E-002
   3.0993448381310129E-003  -1.2768939799217005E-003   6.6423257886046139E-002
   3.9036383873042244E-003  -9.6183610281286303E-004   6.6893378050356084E-002
   3.4418858000651725E-003  -8.4647029717938027E-004   6.6715093484794291E-002
   2.9801332128261172E-003  -7.8965473523749663E-004   6.6769067044351441E-002
   2.5183806255870671E-003  -7.9138941698683393E-004   6.7055298729027962E-002
   2.0566280383480101E-003  -8.5167434242788831E-004   6.7573788538823426E-002
   1.9483562572350389E-003  -4.8869210463520218E-004   6.8200259906965988E-002
   1.7169446766660441E-003  -4.2830832798160245E-004   6.7999977269520229E-002
   1.4855330960970485E-003  -3.9780750248030045E-004   6.8028118520295583E-002
   1.2541215155280568E-003  -3.9718962813144014E-004   6.8284683659291592E-002
   1.0227099349590721E-003  -4.2645470493421489E-004   6.8769672686508632E-002
   1.7209771153062214E-005  -1.5548106456986233E-005   6.9437826088325827E-002
   1.2304960355834227E-005  -1.0146358783991172E-005   6.9244212671535799E-002
   7.4001495586166477E-006  -5.9602697233540614E-006   6.9275188906068597E-002
   2.4953387613938643E-006  -2.9898392756091963E-006   6.9530754791923721E-002
  -2.4094720358289190E-006  -1.2350674403194262E-006   7.0010910329101672E-002
   4.1508603343080597E-003  -1.7021136174154572E-003   6.5318080728176353E-002
   3.6220826724434607E-003  -1.9979507750325642E-003   6.4398033368789021E-002
   3.0933050105788618E-003  -2.5249281736791918E-003   6.3598590017972356E-002
   2.5645273487142628E-003  -3.2830458133553606E-003   6.2919750675726943E-002
   2.0357496868496638E-003  -4.2723036940612857E-003   6.2361515342052476E-002
   3.0993448381310129E-003  -1.2768939799217005E-003   6.6423257886046139E-002
   2.6941254152346578E-003  -1.4985185020379155E-003   6.5312682353013407E-002
   2.2889059923383165E-003  -1.8935649839962598E-003   6.4328619289346273E-002
   1.8836865694419683E-003  -2.4620334257982809E-003   6.3471068695044805E-002
   1.4784671465456201E-003  -3.2039238274423898E-003   6.2740030570108019E-002
   2.0566280383480101E-003  -8.5167434242788831E-004   6.7573788538823426E-002
   1.7808753152142240E-003  -9.9908622904257283E-004   6.6330403113332576E-002
   1.5051225920804413E-003  -1.2622017943134528E-003   6.5219438618001349E-002
   1.2293698689466587E-003  -1.6410210382406497E-003   6.4240895052829955E-002
   9.5361714581288642E-004  -2.1355439608237159E-003   6.3394772417818213E-002
   1.0227099349590721E-003  -4.2645470493421489E-004   6.8769672686508632E-002
   8.8233237238215419E-004  -4.9965395604768814E-004   6.7451195649746082E-002
   7.4195480980524409E-004  -6.3083860463047231E-004   6.6271048003937766E-002
   6.0157724722833053E-004  -8.2000865068307220E-004   6.5229229749083462E-002
   4.6119968465142998E-004  -1.0671640942050420E-003   6.4325740885183058E-002
  -2.4094720358289190E-006  -1.2350674403194262E-006   7.0010910329101672E-002
  -1.5034132615637796E-006  -2.2168305252590059E-007   6.8675059962254315E-002
  -5.9735448729170137E-007   5.2458505220287499E-007   6.7483447447155454E-002
   3.0870428697517271E-007   1.0037368742624175E-006   6.6436072783804673E-002
   1.2147630612455163E-006   1.2157724137429327E-006   6.5532935972202666E-002
   2.0357496868496638E-003  -4.2723036940612857E-003   6.2361515342052476E-002
   2.2852548736808087E-003  -5.5735929914064730E-003   5.8334710606314233E-002
   2.5347600605119952E-003  -7.2678048810018714E-003   5.4301433617040873E-002
   2.7842652473431817E-003  -9.3549393628471755E-003   5.0261684374233007E-002
   3.0337704341743543E-003  -1.1834996436941747E-002   4.6215462877890801E-002
   1.4784671465456201E-003  -3.2039238274423898E-003   6.2740030570108019E-002
   1.7074745321375845E-003  -4.1798277058231470E-003   5.8387869033296569E-002
   1.9364819177295212E-003  -5.4503365778338642E-003   5.4001184147541070E-002
   2.1654893033214995E-003  -7.0154504434741458E-003   4.9579975912841079E-002
   2.3944966889134223E-003  -8.8751693027444567E-003   4.5124244329198593E-002
   9.5361714581288642E-004  -2.1355439608237159E-003   6.3394772417818213E-002
   1.1340756347564054E-003  -2.7860624202397100E-003   5.8815571678553225E-002
   1.3145341236999557E-003  -3.6328682746657459E-003   5.4173796494935589E-002
   1.4949926126434851E-003  -4.6759615241016711E-003   4.9469446866964750E-002
   1.6754511015870249E-003  -5.9153421685471663E-003   4.4702522794640487E-002
   4.6119968465142998E-004  -1.0671640942050420E-003   6.4325740885183058E-002
   5.6505818153733747E-004  -1.3922971346564395E-003   5.9617818542085026E-002
   6.6891667842323890E-004  -1.8153999714977942E-003   5.4819270659224956E-002
   7.7277517530916807E-004  -2.3364726047292519E-003   4.9930097236602085E-002
   8.7663367219503394E-004  -2.9555150343498759E-003   4.4950298274217815E-002
   1.2147630612455163E-006   1.2157724137429327E-006   6.5532935972202666E-002
   4.2217248032161425E-007   1.4681509269420800E-006   6.0794609623891271E-002
  -3.7041810059534885E-007   2.0683316702962973E-006   5.5937606640408533E-002
  -1.1630086815244550E-006   3.0163146435904786E-006   5.0961927021754366E-002
  -1.9555992624292751E-006   4.3120998474144301E-006   4.5867570767928800E-002
   9.4082153038327343E-006  -2.0102627480570456E-003   6.6064543329303393E-002
  -2.0587474476585488E-006  -8.1929827901175423E-004   6.5374015831482113E-002
  -1.3525710199139424E-005  -4.9899374272716068E-006   6.5095153684087609E-002
  -2.4992672950618564E-005   4.3266227669653753E-004   6.5227956887120173E-002
  -3.6459635702104642E-005   4.9365836335957258E-004   6.5772425440579874E-002
  -6.7529104710610972E-003   5.5904128603445624E-004   6.5961557713695135E-002
  -6.3971657554355160E-003   1.2088535627519381E-003   6.5198746224407855E-002
  -6.0414210398099331E-003   1.6405742399083489E-003   6.4758692741447729E-002
  -5.6856763241843579E-003   1.8542033175038344E-003   6.4641397264814715E-002
  -5.3299316085587758E-003   1.8497407955382905E-003   6.4846859794508799E-002
  -1.3245685613331108E-002   3.1283453201259581E-003   6.5238137641809260E-002
  -1.2611636563428331E-002   3.2370054045156443E-003   6.4561606688955719E-002
  -1.1977587513525536E-002   3.2861384172440042E-003   6.4118926398329529E-002
  -1.1343538463622755E-002   3.2757443583111053E-003   6.3910096769930619E-002
  -1.0709489413719965E-002   3.2058232277169529E-003   6.3935117803758990E-002
  -1.9468917211506231E-002   5.6976493542174739E-003   6.3894283113645645E-002
  -1.8645471171426078E-002   5.2651572462793297E-003   6.3462597225125650E-002
  -1.7822025131345946E-002   4.9317025945796698E-003   6.3175854654733202E-002
  -1.6998579091265800E-002   4.6972853991183337E-003   6.3034055402468120E-002
  -1.6175133051185651E-002   4.5619056598956431E-003   6.3037199468330501E-002
  -2.5422605265586443E-002   8.2669533883089619E-003   6.1929994129204358E-002
  -2.4498669579428804E-002   7.2933090880430707E-003   6.1901717832917758E-002
  -2.3574733893271152E-002   6.5772667719152939E-003   6.1929477510658665E-002
  -2.2650798207113507E-002   6.1188264399257182E-003   6.2013273162427121E-002
  -2.1726862520955854E-002   5.9179880920743888E-003   6.2153104788223223E-002
  -3.6459635702104642E-005   4.9365836335957258E-004   6.5772425440579874E-002
  -2.3648299184286098E-005   3.8105382667186216E-004   6.5753750635916708E-002
  -1.0836962666464084E-005   2.9790417074365694E-004   6.5869642575160176E-002
   1.9743738513561954E-006   2.4420939557477650E-004   6.6120101258310027E-002
   1.4785710369176475E-005   2.1996950116520697E-004   6.6505126685366289E-002
  -5.3299316085587758E-003   1.8497407955382905E-003   6.4846859794508799E-002
  -5.1719323832448150E-003   1.7417081563274178E-003   6.4772923425345838E-002
  -5.0139331579308506E-003   1.6446268821869864E-003   6.4854796089868688E-002
  -4.8559339326168880E-003   1.5584969731169858E-003   6.5092477788077349E-002
  -4.6979347073029254E-003   1.4833184291175305E-003   6.5485968519971988E-002
  -1.0709489413719965E-002   3.2058232277169529E-003   6.3935117803758990E-002
  -1.0385060009830483E-002   3.1023624859828902E-003   6.3787416354407128E-002
  -1.0060630605941003E-002   2.9913495936303713E-003   6.3816766228520547E-002
  -9.7362012020515299E-003   2.8727845506593061E-003   6.4023167426099231E-002
  -9.4117717981620427E-003   2.7466673570698541E-003   6.4406619947143029E-002
  -1.6175133051185651E-002   4.5619056598956431E-003   6.3037199468330501E-002
  -1.5663031178941293E-002   4.4630168156382655E-003   6.2797229423100884E-002
  -1.5150929306696941E-002   4.3380723050737008E-003   6.2755552991115987E-002
  -1.4638827434452583E-002   4.1870721282015154E-003   6.2912170172375451E-002
  -1.4126725562208224E-002   4.0100162850222054E-003   6.3267080966879580E-002
  -2.1726862520955854E-002   5.9179880920743888E-003   6.2153104788223223E-002
  -2.1005845890577246E-002   5.8236711452939183E-003   6.1802362631426966E-002
  -2.0284829260198634E-002   5.6847950165171413E-003   6.1671156377654635E-002
  -1.9563812629820022E-002   5.5013597057439606E-003   6.1759486026906285E-002
  -1.8842795999441421E-002   5.2733652129745012E-003   6.2067351579181806E-002
   1.4785710369176475E-005   2.1996950116520697E-004   6.6505126685366289E-002
   3.7609487032498612E-006   2.0613519159554117E-004   6.6277020633944916E-002
  -7.2638129626732828E-006   1.8365717094562251E-004   6.6272315871241549E-002
  -1.8288574628599896E-005   1.5253543921620732E-004   6.6491012397256299E-002
  -2.9313336294523040E-005   1.1276999640652541E-004   6.6933110211989333E-002
  -4.6979347073029254E-003   1.4833184291175305E-003   6.5485968519971988E-002
  -4.4850040024533109E-003   1.4097057062802953E-003   6.5249068256247822E-002
  -4.2720732976036964E-003   1.3282732606970105E-003   6.5236677636836646E-002
  -4.0591425927540819E-003   1.2390210923679673E-003   6.5448796661738390E-002
  -3.8462118879044743E-003   1.1419492012929577E-003   6.5885425330953040E-002
  -9.4117717981620427E-003   2.7466673570698541E-003   6.4406619947143029E-002
  -8.9737772712021255E-003   2.6132762209650912E-003   6.4161749459450329E-002
  -8.5357827442422186E-003   2.4728893504484956E-003   6.4142496971665436E-002
  -8.0977882172822979E-003   2.3255067455198904E-003   6.4348862483788100E-002
  -7.6597936903223789E-003   2.1711284061793901E-003   6.4780845995818542E-002
  -1.4126725562208224E-002   4.0100162850222054E-003   6.3267080966879580E-002
  -1.3462558857543223E-002   3.8168467356500327E-003   6.3015064243552368E-002
  -1.2798392152878228E-002   3.6175054401998488E-003   6.2989773875727573E-002
  -1.2134225448213220E-002   3.4119923986718984E-003   6.3191209863405332E-002
  -1.1470058743548232E-002   3.2003076110658224E-003   6.3619372206585367E-002
  -1.8842795999441421E-002   5.2733652129745012E-003   6.2067351579181806E-002
  -1.7951348761476575E-002   5.0204172503348077E-003   6.1809012608553981E-002
  -1.7059901523511729E-002   4.7621215299513825E-003   6.1778508349023376E-002
  -1.6168454285546887E-002   4.4984780518236046E-003   6.1975838800589919E-002
  -1.5277007047582038E-002   4.2294868159523102E-003   6.2401003963253709E-002
  -2.9313336294523040E-005   1.1276999640652541E-004   6.6933110211989333E-002
  -2.0008870811386720E-005   7.2563527221569668E-005   6.6794976479521706E-002
  -1.0704405328250399E-005   4.0118716366860374E-005   6.6896802489108231E-002
  -1.3999398451106093E-006   1.5435563841335875E-005   6.7238588240748742E-002
   7.9045256380222417E-006  -1.4859303543168778E-006   6.7820333734443405E-002
  -3.8462118879044743E-003   1.1419492012929577E-003   6.5885425330953040E-002
  -3.6022980527277530E-003   1.0427127592393948E-003   6.5750884114876507E-002
  -3.3583842175510231E-003   9.4696693797508003E-004   6.5845601896133005E-002
  -3.1144703823742931E-003   8.5471173749972207E-004   6.6169578674722604E-002
  -2.8705565471975718E-003   7.6594715781352907E-004   6.6722814450645374E-002
  -7.6597936903223789E-003   2.1711284061793901E-003   6.4780845995818542E-002
  -7.1919712301730093E-003   2.0128619912570256E-003   6.4645626258592270E-002
  -6.7241487700236456E-003   1.8538151595834246E-003   6.4728964773978215E-002
  -6.2563263098742786E-003   1.6939879111580562E-003   6.5030861541976293E-002
  -5.7885038497249124E-003   1.5333802459813750E-003   6.5551316562586531E-002
  -1.1470058743548232E-002   3.2003076110658224E-003   6.3619372206585367E-002
  -1.0789028403147174E-002   2.9830112232748091E-003   6.3479202910668928E-002
  -1.0107998062746110E-002   2.7606633811917067E-003   6.3546891122643626E-002
  -9.4269677223450463E-003   2.5332640848163609E-003   6.3822436842509586E-002
  -8.7459373819439891E-003   2.3008133341491099E-003   6.4305840070266823E-002
  -1.5277007047582038E-002   4.2294868159523102E-003   6.2401003963253709E-002
  -1.4393469571650233E-002   3.9531604552923705E-003   6.2251614071106465E-002
  -1.3509932095718425E-002   3.6675116028000582E-003   6.2299380942129418E-002
  -1.2626394619786626E-002   3.3725402584747384E-003   6.2544304576322721E-002
  -1.1742857143854812E-002   3.0682464223170669E-003   6.2986384973686249E-002
   7.9045256380222417E-006  -1.4859303543168778E-006   6.7820333734443405E-002
   1.0230837016782235E-005  -1.2145315133826884E-005   6.7872342087700988E-002
   1.2557148395542228E-005  -1.8042139410784364E-005   6.8159260264433974E-002
   1.4883459774307425E-005  -1.9176403185237889E-005   6.8681088264642198E-002
   1.7209771153062214E-005  -1.5548106456986233E-005   6.9437826088325827E-002
  -2.8705565471975718E-003   7.6594715781352907E-004   6.6722814450645374E-002
  -2.6321362620087344E-003   6.8181317333426694E-004   6.6741787289609777E-002
  -2.3937159768198900E-003   6.0344975848081184E-004   6.6998038252719161E-002
  -2.1552956916310508E-003   5.3085691325185924E-004   6.7491567339973413E-002
  -1.9168754064422221E-003   4.6403463764843611E-004   6.8222374551372034E-002
  -5.7885038497249124E-003   1.5333802459813750E-003   6.5551316562586531E-002
  -5.3116212900564935E-003   1.3757716618026938E-003   6.5538261896380540E-002
  -4.8347387303880902E-003   1.2249416563718390E-003   6.5764853654988756E-002
  -4.3578561707196851E-003   1.0808902296888974E-003   6.6231091838411360E-002
  -3.8809736110512680E-003   9.4361738175374743E-004   6.6936976446648228E-002
  -8.7459373819439891E-003   2.3008133341491099E-003   6.4305840070266823E-002
  -8.0282242471265298E-003   2.0697301502710097E-003   6.4261765908012899E-002
  -7.3105111123090575E-003   1.8464335542632618E-003   6.4459706471242745E-002
  -6.5927979774915877E-003   1.6309235461260205E-003   6.4899661759956609E-002
  -5.8750848426741258E-003   1.4232001258592808E-003   6.5581631774153937E-002
  -1.1742857143854812E-002   3.0682464223170669E-003   6.2986384973686249E-002
  -1.0781945133218798E-002   2.7636886387391590E-003   6.2912299324507148E-002
  -9.8210331225827910E-003   2.4679254521544625E-003   6.3082596701481197E-002
  -8.8601211119467699E-003   2.1809568625629772E-003   6.3497277104608729E-002
  -7.8992091013107696E-003   1.9027828699645921E-003   6.4156340533889522E-002
   1.7209771153062214E-005  -1.5548106456986233E-005   6.9437826088325827E-002
   1.2304960355834227E-005  -1.0146358783991172E-005   6.9244212671535799E-002
   7.4001495586166477E-006  -5.9602697233540614E-006   6.9275188906068597E-002
   2.4953387613938643E-006  -2.9898392756091963E-006   6.9530754791923721E-002
  -2.4094720358289190E-006  -1.2350674403194262E-006   7.0010910329101672E-002
  -1.9168754064422221E-003   4.6403463764843611E-004   6.8222374551372034E-002
  -1.6944717407864109E-003   4.1370052215855546E-004   6.8014461978693819E-002
  -1.4720680751306101E-003   3.9057215727164585E-004   6.8036576707598800E-002
  -1.2496644094748032E-003   3.9464954298692317E-004   6.8288718738087270E-002
  -1.0272607438189980E-003   4.2593267930479684E-004   6.8770888070159353E-002
  -3.8809736110512680E-003   9.4361738175374743E-004   6.6936976446648228E-002
  -3.4258238186816500E-003   8.3754740310118536E-004   6.6743186127296489E-002
  -2.9706740263120372E-003   7.8710458426665963E-004   6.6784860759788969E-002
  -2.5155242339424291E-003   7.9228892524923697E-004   6.7062000344125711E-002
  -2.0603744415728202E-003   8.5310042604980207E-004   6.7574604880306449E-002
  -5.8750848426741258E-003   1.4232001258592808E-003   6.5581631774153937E-002
  -5.1817512733299004E-003   1.2613942840439957E-003   6.5430385117344059E-002
  -4.4884177039856803E-003   1.1836370112615555E-003   6.5520041062639214E-002
  -3.7950841346414549E-003   1.1899283075117711E-003   6.5850599610039293E-002
  -3.1017505652972356E-003   1.2802681727949183E-003   6.6422060759544460E-002
  -7.8992091013107696E-003   1.9027828699645921E-003   6.4156340533889522E-002
  -6.9622541047311415E-003   1.6852411649864174E-003   6.4076058948836501E-002
  -6.0252991081515238E-003   1.5801694382566733E-003   6.4242117616149230E-002
  -5.0883441115718991E-003   1.5875676897743607E-003   6.4654516535827738E-002
  -4.1513891149922780E-003   1.7074359195399236E-003   6.5313255707872053E-002
  -2.4094720358289190E-006  -1.2350674403194262E-006   7.0010910329101672E-002
  -1.5034132615637796E-006  -2.2168305252590059E-007   6.8675059962254315E-002
  -5.9735448729170137E-007   5.2458505220287499E-007   6.7483447447155454E-002
   3.0870428697517271E-007   1.0037368742624175E-006   6.6436072783804673E-002
   1.2147630612455163E-006   1.2157724137429327E-006   6.5532935972202666E-002
  -1.0272607438189980E-003   4.2593267930479684E-004   6.8770888070159353E-002
  -8.8521583781568658E-004   4.9983194148212062E-004   6.7452555965239080E-002
  -7.4317093181237338E-004   6.3175770477713611E-004   6.6272263703029050E-002
  -6.0112602580905672E-004   8.2170996918927430E-004   6.5230011283528219E-002
  -4.5908111980573485E-004   1.0696887347185768E-003   6.4325798706737491E-002
  -2.0603744415728202E-003   8.5310042604980207E-004   6.7574604880306449E-002
  -1.7833886973790194E-003   9.9988556601751655E-004   6.6332084654713686E-002
  -1.5064029531852326E-003   1.2629908245023885E-003   6.5221406262792145E-002
  -1.2294172089914383E-003   1.6424162015043937E-003   6.4242569704541952E-002
  -9.5243146479765881E-004   2.1381616970230222E-003   6.3395574979962538E-002
  -3.1017505652972356E-003   1.2802681727949183E-003   6.6422060759544460E-002
  -2.6960219919515433E-003   1.4999391905528708E-003   6.5313646030678713E-002
  -2.2902934186058510E-003   1.8942239442273703E-003   6.4330875126445447E-002
  -1.8845648452601657E-003   2.4631224338192374E-003   6.3473748046844955E-002
  -1.4788362719144665E-003   3.2066346593275508E-003   6.2742264791877222E-002
  -4.1513891149922780E-003   1.7074359195399236E-003   6.5313255707872053E-002
  -3.6231157215332738E-003   1.9999928150876145E-003   6.4397240093133301E-002
  -3.0948423280742487E-003   2.5254570639526019E-003   6.3600670293988637E-002
  -2.5665689346152376E-003   3.2838286661343100E-003   6.2923546310437811E-002
  -2.0382955411562195E-003   4.2751076216321904E-003   6.2365868142481129E-002
   1.2147630612455163E-006   1.2157724137429327E-006   6.5532935972202666E-002
   4.2217248032161425E-007   1.4681509269420800E-006   6.0794609623891271E-002
  -3.7041810059534885E-007   2.0683316702962973E-006   5.5937606640408533E-002
  -1.1630086815244550E-006   3.0163146435904786E-006   5.0961927021754366E-002
  -1.9555992624292751E-006   4.3120998474144301E-006   4.5867570767928800E-002
  -4.5908111980573485E-004   1.0696887347185768E-003   6.4325798706737491E-002
  -5.6441517031317889E-004   1.3958130211851882E-003   5.9617859243040472E-002
  -6.6974922082061600E-004   1.8202018484095306E-003   5.4819513494661631E-002
  -7.7508327132805397E-004   2.3428552163922284E-003   4.9930761461600748E-002
  -8.8041732183548327E-004   2.9637731251326294E-003   4.4951603143859042E-002
  -9.5243146479765881E-004   2.1381616970230222E-003   6.3395574979962538E-002
  -1.1340366247417754E-003   2.7901578914432679E-003   5.8815939139407136E-002
  -1.3156417846858989E-003   3.6383353651489730E-003   5.4174167364660061E-002
  -1.4972469446300272E-003   4.6826941181404742E-003   4.9470259655721015E-002
  -1.6788521045741668E-003   5.9232341504176222E-003   4.4704216012590448E-002
  -1.4788362719144665E-003   3.2066346593275508E-003   6.2742264791877222E-002
  -1.7084421908054484E-003   4.1845027617014308E-003   5.8388849312991056E-002
  -1.9380481096964233E-003   5.4564688818884224E-003   5.4001568250403212E-002
  -2.1676540285874265E-003   7.0225330198889161E-003   4.9580421604113141E-002
  -2.3972599474783940E-003   8.8826951757027262E-003   4.5125409374121267E-002
  -2.0382955411562195E-003   4.2751076216321904E-003   6.2365868142481129E-002
  -2.2876318685042321E-003   5.5788476319594826E-003   5.8336589763792523E-002
  -2.5369681958522343E-003   7.2746023986276775E-003   5.4301716151891555E-002
  -2.7863045232002382E-003   9.3623719216371984E-003   5.0261247306778806E-002
  -3.0356408505482491E-003   1.1842156200987830E-002   4.6215183228453860E-002
  -2.5422605265586443E-002   8.2669533883089619E-003   6.1929994129204358E-002
  -2.4498669579428804E-002   7.2933090880430707E-003   6.1901717832917758E-002
  -2.3574733893271152E-002   6.5772667719152939E-003   6.1929477510658665E-002
  -2.2650798207113507E-002   6.1188264399257182E-003   6.2013273162427121E-002
  -2.1726862520955854E-002   5.9179880920743888E-003   6.2153104788223223E-002
  -3.1335208777182690E-002   9.8007643157612678E-003   5.8425419494359726E-002
  -3.0326948956440693E-002   9.0972753175580789E-003   5.8441842485185108E-002
  -2.9318689135698760E-002   8.5437555065813464E-003   5.8570877771151539E-002
  -2.8310429314956819E-002   8.1402048828308274E-003   5.8812525352258969E-002
  -2.7302169494214889E-002   7.8866234463068063E-003   5.9166785228507435E-002
  -3.7435186747905767E-002   1.1334575243213546E-002   5.5244816560033619E-002
  -3.6286026471466108E-002   1.0901241547073212E-002   5.5198306041059381E-002
  -3.5136866195026414E-002   1.0510244241247364E-002   5.5320984138339489E-002
  -3.3987705918586769E-002   1.0161583325736046E-002   5.5612850851874007E-002
  -3.2838545642147096E-002   9.8552588005393071E-003   5.6073906181663066E-002
  -4.3722539177755759E-002   1.2868386170665810E-002   5.2388185326226258E-002
  -4.2375902124504893E-002   1.2705207776588269E-002   5.2171108500540499E-002
  -4.1029265071254109E-002   1.2476732975913316E-002   5.2179796612222405E-002
  -3.9682628018003270E-002   1.2182961768641264E-002   5.2414249661272311E-002
  -3.8335990964752438E-002   1.1823894154771711E-002   5.2874467647690104E-002
  -5.0197266066732638E-002   1.4402197098118130E-002   4.9855525792937672E-002
  -4.8596575915557244E-002   1.4509174006103354E-002   4.9360249863628414E-002
  -4.6995885764381809E-002   1.4443221710579421E-002   4.9147315192800439E-002
  -4.5395195613206422E-002   1.4204340211546398E-002   4.9216721780453845E-002
  -4.3794505462030994E-002   1.3792529509004281E-002   4.9568469626588452E-002
  -2.1726862520955854E-002   5.9179880920743888E-003   6.2153104788223223E-002
  -2.1005845890577246E-002   5.8236711452939183E-003   6.1802362631426966E-002
  -2.0284829260198634E-002   5.6847950165171413E-003   6.1671156377654635E-002
  -1.9563812629820022E-002   5.5013597057439606E-003   6.1759486026906285E-002
  -1.8842795999441421E-002   5.2733652129745012E-003   6.2067351579181806E-002
  -2.7302169494214889E-002   7.8866234463068063E-003   5.9166785228507435E-002
  -2.6364667303247068E-002   7.6888350242704379E-003   5.8810452384479558E-002
  -2.5427165112279243E-002   7.4526634439828071E-003   5.8667554758606189E-002
  -2.4489662921311394E-002   7.1781087054441466E-003   5.8738092350887464E-002
  -2.3552160730343594E-002   6.8651708086543972E-003   5.9022065161323078E-002
  -3.2838545642147096E-002   9.8552588005393071E-003   5.6073906181663066E-002
  -3.1690658575459468E-002   9.5539989032468742E-003   5.5718158674148852E-002
  -3.0542771508771844E-002   9.2205318714485285E-003   5.5569745699919737E-002
  -2.9394884442084240E-002   8.8548577051443325E-003   5.5628667258975611E-002
  -2.8246997375396592E-002   8.4569764043342377E-003   5.5894923351316697E-002
  -3.8335990964752438E-002   1.1823894154771711E-002   5.2874467647690104E-002
  -3.6983819707214462E-002   1.1419162782223297E-002   5.2525481500434693E-002
  -3.5631648449676485E-002   1.0988400298914305E-002   5.2377729201594982E-002
  -3.4279477192138509E-002   1.0531606704844435E-002   5.2431210751170951E-002
  -3.2927305934600526E-002   1.0048782000014023E-002   5.2685926149162482E-002
  -4.3794505462030994E-002   1.3792529509004281E-002   4.9568469626588452E-002
  -4.2244150698512076E-002   1.3284326661199802E-002   4.9232420863337206E-002
  -4.0693795934993150E-002   1.2756268726379943E-002   4.9091505263632179E-002
  -3.9143441171474225E-002   1.2208355704544739E-002   4.9145722827473343E-002
  -3.7593086407955292E-002   1.1640587595694030E-002   4.9395073554860669E-002
  -1.8842795999441421E-002   5.2733652129745012E-003   6.2067351579181806E-002
  -1.7951348761476575E-002   5.0204172503348077E-003   6.1809012608553981E-002
  -1.7059901523511729E-002   4.7621215299513825E-003   6.1778508349023376E-002
  -1.6168454285546887E-002   4.4984780518236046E-003   6.1975838800589919E-002
  -1.5277007047582038E-002   4.2294868159523102E-003   6.2401003963253709E-002
  -2.3552160730343594E-002   6.8651708086543972E-003   5.9022065161323078E-002
  -2.2440832140074671E-002   6.5288236497676455E-003   5.8763409355907903E-002
  -2.1329503549805725E-002   6.1840411249386301E-003   5.8716681544003668E-002
  -2.0218174959536789E-002   5.8308232341668063E-003   5.8881881725610388E-002
  -1.9106846369267863E-002   5.4691699774522817E-003   5.9259009900728021E-002
  -2.8246997375396592E-002   8.4569764043342377E-003   5.5894923351316697E-002
  -2.6931694150409913E-002   8.0372300492005666E-003   5.5632863102915570E-002
  -2.5616390925423217E-002   7.6059607199257043E-003   5.5566824130439028E-002
  -2.4301087700436527E-002   7.1631684165095622E-003   5.5696806433887025E-002
  -2.2985784475449841E-002   6.7088531389522255E-003   5.6022810013259802E-002
  -3.2927305934600526E-002   1.0048782000014023E-002   5.2685926149162482E-002
  -3.1423934792482351E-002   9.5456364486334461E-003   5.2417373849576787E-002
  -2.9920563650364197E-002   9.0278803149129484E-003   5.2328936108329407E-002
  -2.8417192508246050E-002   8.4955135988524846E-003   5.2420612925420260E-002
  -2.6913821366127865E-002   7.9485363004521276E-003   5.2692404300849566E-002
  -3.7593086407955292E-002   1.1640587595694030E-002   4.9395073554860669E-002
  -3.5917554066291962E-002   1.1054042848066298E-002   4.9116941595891805E-002
  -3.4242021724628667E-002   1.0449799909900012E-002   4.9003017477674826E-002
  -3.2566489382965372E-002   9.8278587811955163E-003   4.9053301200209856E-002
  -3.0890957041302042E-002   9.1882194619521407E-003   4.9267792763496909E-002
  -1.5277007047582038E-002   4.2294868159523102E-003   6.2401003963253709E-002
  -1.4393469571650233E-002   3.9531604552923705E-003   6.2251614071106465E-002
  -1.3509932095718425E-002   3.6675116028000582E-003   6.2299380942129418E-002
  -1.2626394619786626E-002   3.3725402584747384E-003   6.2544304576322721E-002
  -1.1742857143854812E-002   3.0682464223170669E-003   6.2986384973686249E-002
  -1.9106846369267863E-002   5.4691699774522817E-003   5.9259009900728021E-002
  -1.8026321821671451E-002   5.1014465713039026E-003   5.9053837820199961E-002
  -1.6945797274075018E-002   4.7300182322304041E-003   5.9045483119831044E-002
  -1.5865272726478606E-002   4.3548849602320083E-003   5.9233945799620880E-002
  -1.4784748178882173E-002   3.9760467553084933E-003   5.9619225859569858E-002
  -2.2985784475449841E-002   6.7088531389522255E-003   5.6022810013259802E-002
  -2.1708612239200085E-002   6.2497326873153791E-003   5.5767473303258819E-002
  -2.0431440002950347E-002   5.7925248616610761E-003   5.5708614590405360E-002
  -1.9154267766700598E-002   5.3372296619892210E-003   5.5846233874699794E-002
  -1.7877095530450852E-002   4.8838470882998086E-003   5.6180331156141738E-002
  -2.6913821366127865E-002   7.9485363004521276E-003   5.2692404300849566E-002
  -2.5440340824236112E-002   7.3980188033268279E-003   5.2392520520282912E-002
  -2.3966860282344349E-002   6.8550314910916961E-003   5.2288775353852686E-002
  -2.2493379740452579E-002   6.3195743637461848E-003   5.2381168801558832E-002
  -2.1019899198560829E-002   5.7916474212911795E-003   5.2669700863401281E-002
  -3.0890957041302042E-002   9.1882194619521407E-003   4.9267792763496909E-002
  -2.9221507576779576E-002   8.5463049193383878E-003   4.8928979471272394E-002
  -2.7552058112257083E-002   7.9175381205220663E-003   4.8785965410172882E-002
  -2.5882608647734624E-002   7.3019190655036412E-003   4.8838750580198403E-002
  -2.4213159183212124E-002   6.6994477542826614E-003   4.9087334981349096E-002
  -1.1742857143854812E-002   3.0682464223170669E-003   6.2986384973686249E-002
  -1.0781945133218798E-002   2.7636886387391590E-003   6.2912299324507148E-002
  -9.8210331225827910E-003   2.4679254521544625E-003   6.3082596701481197E-002
  -8.8601211119467699E-003   2.1809568625629772E-003   6.3497277104608729E-002
  -7.8992091013107696E-003   1.9027828699645921E-003   6.4156340533889522E-002
  -1.4784748178882173E-002   3.9760467553084933E-003   5.9619225859569858E-002
  -1.3588696811326843E-002   3.5977819176993830E-003   5.9492263356889119E-002
  -1.2392645443771552E-002   3.2243687476445904E-003   5.9591196541893710E-002
  -1.1196594076216220E-002   2.8558072451442679E-003   5.9916025414583671E-002
  -1.0000542708660930E-002   2.4920974101981797E-003   6.0466749974958767E-002
  -1.7877095530450852E-002   4.8838470882998086E-003   5.6180331156141738E-002
  -1.6464392144444225E-002   4.4318751966594128E-003   5.5996548870520663E-002
  -1.5051688758437584E-002   3.9808120431346072E-003   5.6020174934116873E-002
  -1.3638985372430940E-002   3.5306576277253920E-003   5.6251209346930398E-002
  -1.2226281986424312E-002   3.0814119504317117E-003   5.6689652108961430E-002
  -2.1019899198560829E-002   5.7916474212911795E-003   5.2669700863401281E-002
  -1.9409031132570871E-002   5.2659684756194841E-003   5.2425155865401307E-002
  -1.7798163066580913E-002   4.7372553386245686E-003   5.2369531878150383E-002
  -1.6187295000590948E-002   4.2055080103063774E-003   5.2502828901648882E-002
  -1.4576426934600999E-002   3.6707264906653825E-003   5.2825046935896791E-002
  -2.4213159183212124E-002   6.6994477542826614E-003   4.9087334981349096E-002
  -2.2422613775706784E-002   6.1000617545796665E-003   4.8778084341531247E-002
  -2.0632068368201514E-002   5.4936986341146687E-003   4.8639267373994488E-002
  -1.8841522960696175E-002   4.8803583928879526E-003   4.8670884078739290E-002
  -1.7050977553190905E-002   4.2600410308988312E-003   4.8872934455765238E-002
  -7.8992091013107696E-003   1.9027828699645921E-003   6.4156340533889522E-002
  -6.9622541047311415E-003   1.6852411649864174E-003   6.4076058948836501E-002
  -6.0252991081515238E-003   1.5801694382566733E-003   6.4242117616149230E-002
  -5.0883441115718991E-003   1.5875676897743607E-003   6.4654516535827738E-002
  -4.1513891149922780E-003   1.7074359195399236E-003   6.5313255707872053E-002
  -1.0000542708660930E-002   2.4920974101981797E-003   6.0466749974958767E-002
  -8.8161338002898798E-003   2.1877213496695469E-003   6.0376319308682314E-002
  -7.6317248919188681E-003   1.9971611704210912E-003   6.0534456213622773E-002
  -6.4473159835478477E-003   1.9204168724530762E-003   6.0941160689780324E-002
  -5.2629070751768064E-003   1.9574884557651551E-003   6.1596432737154594E-002
  -1.2226281986424312E-002   3.0814119504317117E-003   5.6689652108961430E-002
  -1.0792191847410653E-002   2.6902015343524266E-003   5.6590418264493625E-002
  -9.3581017083970326E-003   2.4141529025855091E-003   5.6741979310094198E-002
  -7.9240115693834136E-003   2.2532660551316808E-003   5.7144335245762873E-002
  -6.4899214303697529E-003   2.2075409919902755E-003   5.7797486071499787E-002
  -1.4576426934600999E-002   3.6707264906653825E-003   5.2825046935896791E-002
  -1.2890428246093525E-002   3.1926817190350426E-003   5.2718355816270518E-002
  -1.1204429557586007E-002   2.8311446347499825E-003   5.2864686905563466E-002
  -9.5184308690785049E-003   2.5861152378104518E-003   5.3264040203775995E-002
  -7.8324321805710168E-003   2.4575935282155625E-003   5.3916415710908057E-002
  -1.7050977553190905E-002   4.2600410308988312E-003   4.8872934455765238E-002
  -1.5110842996338317E-002   3.6951619037183248E-003   4.8760131964012632E-002
  -1.3170708439485798E-002   3.2481363669144558E-003   4.8902579000030644E-002
  -1.1230573882633231E-002   2.9189644204891396E-003   4.9300275563819385E-002
  -9.2904393257806916E-003   2.7076460644407385E-003   4.9953221655378521E-002
  -4.1513891149922780E-003   1.7074359195399236E-003   6.5313255707872053E-002
  -3.6231157215332738E-003   1.9999928150876145E-003   6.4397240093133301E-002
  -3.0948423280742487E-003   2.5254570639526019E-003   6.3600670293988637E-002
  -2.5665689346152376E-003   3.2838286661343100E-003   6.2923546310437811E-002
  -2.0382955411562195E-003   4.2751076216321904E-003   6.2365868142481129E-002
  -5.2629070751768064E-003   1.9574884557651551E-003   6.1596432737154594E-002
  -4.5892019635748009E-003   2.2145440306251540E-003   6.0870436357522650E-002
  -3.9154968519728058E-003   2.7977517073012603E-003   6.0315857598582739E-002
  -3.2417917403707915E-003   3.7071114857928980E-003   5.9932696460334486E-002
  -2.5680866287688016E-003   4.9426233660999630E-003   5.9720952942778460E-002
  -6.4899214303697529E-003   2.2075409919902755E-003   5.7797486071499787E-002
  -5.6188127955268362E-003   2.4290952461626658E-003   5.7354753675473713E-002
  -4.7477041606839195E-003   3.0700463506497938E-003   5.7135410705237213E-002
  -3.8765955258410045E-003   4.1303943054514826E-003   5.7139457160790545E-002
  -3.0054868909980877E-003   5.6101391105675691E-003   5.7366893042134187E-002
  -7.8324321805710168E-003   2.4575935282155625E-003   5.3916415710908057E-002
  -6.7119482173893163E-003   2.6436464616998584E-003   5.3850192046986302E-002
  -5.5914642542075864E-003   3.3423409939983897E-003   5.4059329613952489E-002
  -4.4709802910258651E-003   4.5536771251100689E-003   5.4543828411806494E-002
  -3.3504963278441573E-003   6.2776548550352584E-003   5.5303688440548358E-002
  -9.2904393257806916E-003   2.7076460644407385E-003   4.9953221655378521E-002
  -7.8686082291622717E-003   2.8581976772376061E-003   5.0356751472060535E-002
  -6.4467771325438100E-003   3.6146356373471522E-003   5.1087614324728359E-002
  -5.0249460359253692E-003   4.9769599447688634E-003   5.2145810213381771E-002
  -3.6031149393069284E-003   6.9451705995028368E-003   5.3531339138020662E-002
  -2.0382955411562195E-003   4.2751076216321904E-003   6.2365868142481129E-002
  -2.2876318685042321E-003   5.5788476319594826E-003   5.8336589763792523E-002
  -2.5369681958522343E-003   7.2746023986276775E-003   5.4301716151891555E-002
  -2.7863045232002382E-003   9.3623719216371984E-003   5.0261247306778806E-002
  -3.0356408505482491E-003   1.1842156200987830E-002   4.6215183228453860E-002
  -2.5680866287688016E-003   4.9426233660999630E-003   5.9720952942778460E-002
  -2.8405113754849665E-003   6.5678212129313684E-003   5.6189189497103886E-002
  -3.1129361222011227E-003   8.6462388909959997E-003   5.2616844445905198E-002
  -3.3853608689173057E-003   1.1177876400293323E-002   4.9003917789182422E-002
  -3.6577856156334437E-003   1.4162733740823441E-002   4.5350409526934587E-002
  -3.0054868909980877E-003   5.6101391105675691E-003   5.7366893042134187E-002
  -3.3359864293945173E-003   7.5567947939034208E-003   5.4393849604365524E-002
  -3.6664859677909721E-003   1.0017875383364197E-002   5.1345238188760647E-002
  -3.9969855061873609E-003   1.2993380878949221E-002   4.8221058795319453E-002
  -4.3274850445838564E-003   1.6483311280659052E-002   4.5021311424041865E-002
  -3.3504963278441573E-003   6.2776548550352584E-003   5.5303688440548358E-002
  -3.7740570302329615E-003   8.5457683748756119E-003   5.2950570085577582E-002
  -4.1976177326217799E-003   1.1389511875732235E-002   5.0486897380458015E-002
  -4.6211784350106274E-003   1.4808885357605122E-002   4.7912670325190240E-002
  -5.0447391373993761E-003   1.8803888820494663E-002   4.5227888919774334E-002
  -3.6031149393069284E-003   6.9451705995028368E-003   5.3531339138020662E-002
  -4.1547231780002386E-003   9.5347419558470259E-003   5.1859350940739346E-002
  -4.7063314166935211E-003   1.2761148368100689E-002   5.0041822020997773E-002
  -5.2579396553867619E-003   1.6624389836261126E-002   4.8078752378795359E-002
  -5.8095478940801137E-003   2.1124466360330274E-002   4.5970142014132076E-002
  -5.0197266066732638E-002   1.4402197098118130E-002   4.9855525792937672E-002
  -4.8596575915557244E-002   1.4509174006103354E-002   4.9360249863628414E-002
  -4.6995885764381809E-002   1.4443221710579421E-002   4.9147315192800439E-002
  -4.5395195613206422E-002   1.4204340211546398E-002   4.9216721780453845E-002
  -4.3794505462030994E-002   1.3792529509004281E-002   4.9568469626588452E-002
  -5.6682454423598469E-002   1.6439091187308241E-002   4.5089370246311267E-002
  -5.4817982238877239E-002   1.6342474879113333E-002   4.4582073094328573E-002
  -5.2953510054155946E-002   1.6098960732253545E-002   4.4319998750956185E-002
  -5.1089037869434681E-002   1.5708548746728810E-002   4.4303147216194300E-002
  -4.9224565684713430E-002   1.5171238922539271E-002   4.4531518490042860E-002
  -6.3001191257115396E-002   1.8475985276498352E-002   4.0106605801082759E-002
  -6.0910055488719202E-002   1.8175775752123341E-002   3.9613318791270655E-002
  -5.8818919720322896E-002   1.7754699753927676E-002   3.9328136140198151E-002
  -5.6727783951926625E-002   1.7212757281911364E-002   3.9251057847865242E-002
  -5.4636648183530395E-002   1.6549948336074288E-002   3.9382083914271782E-002
  -6.9153476567283434E-002   2.0512879365688449E-002   3.4907232457252052E-002
  -6.6872795665083085E-002   2.0009076625133446E-002   3.4453986954454882E-002
  -6.4592114762882652E-002   1.9410438775601859E-002   3.4171727360526358E-002
  -6.2311433860682261E-002   1.8716965817093818E-002   3.4060453675466576E-002
  -6.0030752958481912E-002   1.7928657749609292E-002   3.4120165899275488E-002
  -7.5139310354102484E-002   2.2549773454878574E-002   2.9491250214819131E-002
  -7.2706202767968908E-002   2.1842377498143384E-002   2.9104077583881116E-002
  -7.0273095181835249E-002   2.1066177797275959E-002   2.8850772411940728E-002
  -6.7839987595701604E-002   2.0221174352276335E-002   2.8731334698998273E-002
  -6.5406880009567986E-002   1.9307367163144351E-002   2.8745764445053668E-002
  -4.3794505462030994E-002   1.3792529509004281E-002   4.9568469626588452E-002
  -4.2244150698512076E-002   1.3284326661199802E-002   4.9232420863337206E-002
  -4.0693795934993150E-002   1.2756268726379943E-002   4.9091505263632179E-002
  -3.9143441171474225E-002   1.2208355704544739E-002   4.9145722827473343E-002
  -3.7593086407955292E-002   1.1640587595694030E-002   4.9395073554860669E-002
  -4.9224565684713430E-002   1.5171238922539271E-002   4.4531518490042860E-002
  -4.7485497479160269E-002   1.4563940200023398E-002   4.4200560206643494E-002
  -4.5746429273607059E-002   1.3963561519519878E-002   4.4051895643766395E-002
  -4.4007361068053877E-002   1.3370102881028715E-002   4.4085524801411556E-002
  -4.2268292862500681E-002   1.2783564284550020E-002   4.4301447679578970E-002
  -5.4636648183530395E-002   1.6549948336074288E-002   3.9382083914271782E-002
  -5.2721705978966915E-002   1.5843553738846813E-002   3.9082991239752167E-002
  -5.0806763774403463E-002   1.5170854312659757E-002   3.8953352842730923E-002
  -4.8891821569839969E-002   1.4531850057512802E-002   3.8993168723207947E-002
  -4.6976879365276530E-002   1.3926540973406093E-002   3.9202438881183257E-002
  -6.0030752958481912E-002   1.7928657749609292E-002   3.4120165899275488E-002
  -5.7952776197932113E-002   1.7123167277670485E-002   3.3879713962663358E-002
  -5.5874799437382307E-002   1.6378147105799663E-002   3.3795876860525681E-002
  -5.3796822676832529E-002   1.5693597233996805E-002   3.3868654592862361E-002
  -5.1718845916282709E-002   1.5069517662262152E-002   3.4098047159673323E-002
  -6.5406880009567986E-002   1.9307367163144351E-002   2.8745764445053668E-002
  -6.3178708136055833E-002   1.8402780816493880E-002   2.8590728375377017E-002
  -6.0950536262543653E-002   1.7585439898939570E-002   2.8579467697150696E-002
  -5.8722364389031501E-002   1.6855344410480921E-002   2.8711982410374912E-002
  -5.6494192515519348E-002   1.6212494351118212E-002   2.8988272515049318E-002
  -3.7593086407955292E-002   1.1640587595694030E-002   4.9395073554860669E-002
  -3.5917554066291962E-002   1.1054042848066298E-002   4.9116941595891805E-002
  -3.4242021724628667E-002   1.0449799909900012E-002   4.9003017477674826E-002
  -3.2566489382965372E-002   9.8278587811955163E-003   4.9053301200209856E-002
  -3.0890957041302042E-002   9.1882194619521407E-003   4.9267792763496909E-002
  -4.2268292862500681E-002   1.2783564284550020E-002   4.4301447679578970E-002
  -4.0422892272206794E-002   1.2193950653156732E-002   4.3980211929068369E-002
  -3.8577491681912858E-002   1.1591266909922057E-002   4.3834504835066831E-002
  -3.6732091091618957E-002   1.0975513054846116E-002   4.3864326397574531E-002
  -3.4886690501325021E-002   1.0346689087928795E-002   4.4069676616591558E-002
  -4.6976879365276530E-002   1.3926540973406093E-002   3.9202438881183257E-002
  -4.4950289710594796E-002   1.3333858458247347E-002   3.8842727417827919E-002
  -4.2923700055913075E-002   1.2732733909944220E-002   3.8669865426738996E-002
  -4.0897110401231333E-002   1.2123167328496940E-002   3.8683852907916622E-002
  -3.8870520746549626E-002   1.1505158713905450E-002   3.8884689861360427E-002
  -5.1718845916282709E-002   1.5069517662262152E-002   3.4098047159673323E-002
  -4.9499746381455982E-002   1.4473766263337760E-002   3.3704488062170634E-002
  -4.7280646846629221E-002   1.3874200909966296E-002   3.3509099252691375E-002
  -4.5061547311802494E-002   1.3270821602147653E-002   3.3511880731235753E-002
  -4.2842447776975684E-002   1.2663628339882105E-002   3.3712832497803998E-002
  -5.6494192515519348E-002   1.6212494351118212E-002   2.8988272515049318E-002
  -5.4071262284790339E-002   1.5613674068428396E-002   2.8565493862096225E-002
  -5.1648332054061385E-002   1.5015667909988442E-002   2.8352206312923844E-002
  -4.9225401823332432E-002   1.4418475875798451E-002   2.8348409867532329E-002
  -4.6802471592603423E-002   1.3822097965858871E-002   2.8554104525921664E-002
  -3.0890957041302042E-002   9.1882194619521407E-003   4.9267792763496909E-002
  -2.9221507576779576E-002   8.5463049193383878E-003   4.8928979471272394E-002
  -2.7552058112257083E-002   7.9175381205220663E-003   4.8785965410172882E-002
  -2.5882608647734624E-002   7.3019190655036412E-003   4.8838750580198403E-002
  -2.4213159183212124E-002   6.6994477542826614E-003   4.9087334981349096E-002
  -3.4886690501325021E-002   1.0346689087928795E-002   4.4069676616591558E-002
  -3.3030926589623949E-002   9.7094230711890772E-003   4.3737948633216173E-002
  -3.1175162677922863E-002   9.0683430666463061E-003   4.3583050313072969E-002
  -2.9319398766221812E-002   8.4234490743004334E-003   4.3604981656161876E-002
  -2.7463634854520774E-002   7.7747410941514383E-003   4.3803742662482992E-002
  -3.8870520746549626E-002   1.1505158713905450E-002   3.8884689861360427E-002
  -3.6847411955562889E-002   1.0872541223039933E-002   3.8543085455233578E-002
  -3.4824303164576173E-002   1.0219148012770560E-002   3.8359341144445946E-002
  -3.2801194373589429E-002   9.5449790830971180E-003   3.8333456928997485E-002
  -3.0778085582602727E-002   8.8500344340200487E-003   3.8465432808888117E-002
  -4.2842447776975684E-002   1.2663628339882105E-002   3.3712832497803998E-002
  -4.0670963674596244E-002   1.2035659374890539E-002   3.3344389937324893E-002
  -3.8499479572216853E-002   1.1369952958894473E-002   3.3114837904292024E-002
  -3.6327995469837469E-002   1.0666509091893912E-002   3.3024176398705474E-002
  -3.4156511367458016E-002   9.9253277738887424E-003   3.3072405420565033E-002
  -4.6802471592603423E-002   1.3822097965858871E-002   2.8554104525921664E-002
  -4.4501581746724223E-002   1.3198777526741368E-002   2.8141862079489766E-002
  -4.2200691900845050E-002   1.2520757905018831E-002   2.7849540592611022E-002
  -3.9899802054965877E-002   1.1788039100690595E-002   2.7677140065285627E-002
  -3.7598912209086677E-002   1.1000621113757436E-002   2.7624660497513553E-002
  -2.4213159183212124E-002   6.6994477542826614E-003   4.9087334981349096E-002
  -2.2422613775706784E-002   6.1000617545796665E-003   4.8778084341531247E-002
  -2.0632068368201514E-002   5.4936986341146687E-003   4.8639267373994488E-002
  -1.8841522960696175E-002   4.8803583928879526E-003   4.8670884078739290E-002
  -1.7050977553190905E-002   4.2600410308988312E-003   4.8872934455765238E-002
  -2.7463634854520774E-002   7.7747410941514383E-003   4.3803742662482992E-002
  -2.5508099992307937E-002   7.1258576532158280E-003   4.3423315721051792E-002
  -2.3552565130095134E-002   6.4804372785101094E-003   4.3202434016754276E-002
  -2.1597030267882299E-002   5.8384799700343937E-003   4.3141097549590363E-002
  -1.9641495405669548E-002   5.1999857277887918E-003   4.3239306319560356E-002
  -3.0778085582602727E-002   8.8500344340200487E-003   3.8465432808888117E-002
  -2.8668449700830101E-002   8.1516535518519895E-003   3.8024269752835682E-002
  -2.6558813819057434E-002   7.4671759229056472E-003   3.7731763498769222E-002
  -2.4449177937284794E-002   6.7966015471812753E-003   3.7587914046688882E-002
  -2.2339542055512127E-002   6.1399304246786413E-003   3.7592721396594142E-002
  -3.4156511367458016E-002   9.9253277738887424E-003   3.3072405420565033E-002
  -3.1903662901273264E-002   9.1774494504879844E-003   3.2580946436883224E-002
  -2.9650814435088532E-002   8.4539145673012475E-003   3.2227255820039546E-002
  -2.7397965968903780E-002   7.7547231243280477E-003   3.2011333570034183E-002
  -2.5145117502719055E-002   7.0798751215683797E-003   3.1933179686867139E-002
  -3.7598912209086677E-002   1.1000621113757436E-002   2.7624660497513553E-002
  -3.5213739593637439E-002   1.0203245349124368E-002   2.7093345773194000E-002
  -3.2828566978188312E-002   9.4406532116966535E-003   2.6688910980565195E-002
  -3.0443394362739143E-002   8.7128447014746049E-003   2.6411356119626694E-002
  -2.8058221747289946E-002   8.0198198184583402E-003   2.6260681190379054E-002
  -1.7050977553190905E-002   4.2600410308988312E-003   4.8872934455765238E-002
  -1.5110842996338317E-002   3.6951619037183248E-003   4.8760131964012632E-002
  -1.3170708439485798E-002   3.2481363669144558E-003   4.8902579000030644E-002
  -1.1230573882633231E-002   2.9189644204891396E-003   4.9300275563819385E-002
  -9.2904393257806916E-003   2.7076460644407385E-003   4.9953221655378521E-002
  -1.9641495405669548E-002   5.1999857277887918E-003   4.3239306319560356E-002
  -1.7484560302296247E-002   4.5995761658846890E-003   4.3075805991608984E-002
  -1.5327625198923035E-002   4.0718728984338870E-003   4.3090657228928464E-002
  -1.3170690095549730E-002   3.6168759254368507E-003   4.3283860031518268E-002
  -1.1013754992176522E-002   3.2345852468932401E-003   4.3655414399379477E-002
  -2.2339542055512127E-002   6.1399304246786413E-003   3.7592721396594142E-002
  -2.0042704368118183E-002   5.5039904280515528E-003   3.7333375936520113E-002
  -1.7745866680724223E-002   4.8956094299535402E-003   3.7175484079217003E-002
  -1.5449028993330284E-002   4.3147874303848949E-003   3.7119045824684505E-002
  -1.3152191305936263E-002   3.7615244293455752E-003   3.7164061172922758E-002
  -2.5145117502719055E-002   7.0798751215683797E-003   3.1933179686867139E-002
  -2.2785275193804293E-002   6.4084046902182223E-003   3.1532841798746290E-002
  -2.0425432884889530E-002   5.7193459614729714E-003   3.1157059550895962E-002
  -1.8065590575974736E-002   5.0126989353328835E-003   3.0805832943316444E-002
  -1.5705748267060005E-002   4.2884636117980490E-003   3.0479161976008015E-002
  -2.8058221747289946E-002   8.0198198184583402E-003   2.6260681190379054E-002
  -2.5712272779354339E-002   7.3128189523848919E-003   2.5674203578287202E-002
  -2.3366323811418815E-002   6.5430824929926523E-003   2.5035383643965681E-002
  -2.1020374843483222E-002   5.7106104402809346E-003   2.4344221387415432E-002
  -1.8674425875547684E-002   4.8154027942504118E-003   2.3600716808635847E-002
  -9.2904393257806916E-003   2.7076460644407385E-003   4.9953221655378521E-002
  -7.8686082291622717E-003   2.8581976772376061E-003   5.0356751472060535E-002
  -6.4467771325438100E-003   3.6146356373471522E-003   5.1087614324728359E-002
  -5.0249460359253692E-003   4.9769599447688634E-003   5.2145810213381771E-002
  -3.6031149393069284E-003   6.9451705995028368E-003   5.3531339138020662E-002
  -1.1013754992176522E-002   3.2345852468932401E-003   4.3655414399379477E-002
  -9.2463958690061354E-003   3.1635268267405370E-003   4.4239840844084444E-002
  -7.4790367458357002E-003   3.6422266289168337E-003   4.5187990305907921E-002
  -5.7116776226652649E-003   4.6706846534220609E-003   4.6499862784849244E-002
  -3.9443184994948782E-003   6.2489009002564266E-003   4.8175458280909189E-002
  -1.3152191305936263E-002   3.7615244293455752E-003   3.7164061172922758E-002
  -1.1002914175081369E-002   3.4688559762435234E-003   3.7873256120667054E-002
  -8.8536370442264707E-003   3.6698176204868760E-003   3.8982564066662617E-002
  -6.7043599133715468E-003   4.3644093620757093E-003   4.0491985010908740E-002
  -4.5550827825166229E-003   5.5526312010100720E-003   4.2401518953405631E-002
  -1.5705748267060005E-002   4.2884636117980490E-003   3.0479161976008015E-002
  -1.3138163147388054E-002   3.7741851257465375E-003   3.1256997301808656E-002
  -1.0570578027715990E-002   3.6974086120568489E-003   3.2471335606992724E-002
  -8.0029929080439269E-003   4.0581340707293544E-003   3.4122176891560135E-002
  -5.4354077883719751E-003   4.8563615017635786E-003   3.6209521155511064E-002
  -1.8674425875547684E-002   4.8154027942504118E-003   2.3600716808635847E-002
  -1.5652142785925999E-002   4.0795142752494407E-003   2.4391064387509043E-002
  -1.2629859696304341E-002   3.7249996036266553E-003   2.5654304926898019E-002
  -9.6075766066826412E-003   3.7518587793826802E-003   2.7390438426803082E-002
  -6.5852935170609972E-003   4.1600918025173073E-003   2.9599464887224203E-002
  -3.6031149393069284E-003   6.9451705995028368E-003   5.3531339138020662E-002
  -4.1547231780002386E-003   9.5347419558470259E-003   5.1859350940739346E-002
  -4.7063314166935211E-003   1.2761148368100689E-002   5.0041822020997773E-002
  -5.2579396553867619E-003   1.6624389836261126E-002   4.8078752378795359E-002
  -5.8095478940801137E-003   2.1124466360330274E-002   4.5970142014132076E-002
  -3.9443184994948782E-003   6.2489009002564266E-003   4.8175458280909189E-002
  -4.5375774389010137E-003   8.6869030540049352E-003   4.7241123706245780E-002
  -5.1308363783070590E-003   1.2294718799252785E-002   4.6369028452617533E-002
  -5.7240953177131113E-003   1.7072348135999664E-002   4.5559172520024088E-002
  -6.3173542571191843E-003   2.3019791064246453E-002   4.4811555908464973E-002
  -4.5550827825166229E-003   5.5526312010100720E-003   4.2401518953405631E-002
  -4.9822123791399206E-003   7.8390641521622340E-003   4.2737816536951329E-002
  -5.4093419757632114E-003   1.1828289230405339E-002   4.3344133485027511E-002
  -5.8364715723865854E-003   1.7520306435738705E-002   4.4220469797634311E-002
  -6.2636011690098553E-003   2.4915115768162632E-002   4.5366825474771333E-002
  -5.4354077883719751E-003   4.8563615017635786E-003   3.6209521155511064E-002
  -5.4886279987170199E-003   6.9912252503200600E-003   3.8349429432856706E-002
  -5.5418482090620908E-003   1.1361859661557776E-002   4.0967137118228414E-002
  -5.5950684194071201E-003   1.7968264735477385E-002   4.4062644211626860E-002
  -5.6482886297522066E-003   2.6810440472078811E-002   4.7635950713050046E-002
  -6.5852935170609972E-003   4.1600918025173073E-003   2.9599464887224203E-002
  -6.0568242976322961E-003   6.1433863484773310E-003   3.4075962393961268E-002
  -5.5283550782035673E-003   1.0895430092710379E-002   3.9238039352219811E-002
  -4.9998858587747691E-003   1.8416223035216325E-002   4.5085695762000000E-002
  -4.4714166393461374E-003   2.8705765175994991E-002   5.1618931623302000E-002
  -7.5139310354102484E-002   2.2549773454878574E-002   2.9491250214819131E-002
  -7.2706202767968908E-002   2.1842377498143384E-002   2.9104077583881116E-002
  -7.0273095181835249E-002   2.1066177797275959E-002   2.8850772411940728E-002
  -6.7839987595701604E-002   2.0221174352276335E-002   2.8731334698998273E-002
  -6.5406880009567986E-002   1.9307367163144351E-002   2.8745764445053668E-002
  -8.1127807940464591E-002   2.4668326655269246E-002   2.2549453521282126E-002
  -7.8538482238842924E-002   2.3535935479360615E-002   2.2042749554654406E-002
  -7.5949156537221216E-002   2.2532142308094721E-002   2.1714614360005047E-002
  -7.3359830835599521E-002   2.1656947141471337E-002   2.1565047937333964E-002
  -7.0770505133977771E-002   2.0910349979490539E-002   2.1594050286641270E-002
  -8.7288084649262007E-002   2.6786879855659806E-002   1.5083960734184443E-002
  -8.4497839519171586E-002   2.5229493460577873E-002   1.4655127180641783E-002
  -8.1707594389081206E-002   2.3998106818913414E-002   1.4449563712058147E-002
  -7.8917349258990799E-002   2.3092719930666365E-002   1.4467270328433465E-002
  -7.6127104128900419E-002   2.2513332795836866E-002   1.4708247029767682E-002
  -9.3620140480494538E-002   2.8905433056050450E-002   7.0947718535258261E-003
  -9.0584274608954934E-002   2.6923051441794979E-002   6.9412104618430809E-003
  -8.7548408737415234E-002   2.5464071329731837E-002   7.0556204681000365E-003
  -8.4512542865875590E-002   2.4528492719861378E-002   7.4380018722965107E-003
  -8.1476676994335875E-002   2.4116315612183095E-002   8.0883546744328037E-003
 -0.10012397543416229        3.1023986256441094E-002  -1.4181131206938424E-003
  -9.6797787508192790E-002   2.8616609423012362E-002  -1.0990006017413956E-003
  -9.3471599582223286E-002   2.6930035840550787E-002  -4.6721537186894535E-004
  -9.0145411656253671E-002   2.5964265509056401E-002   4.7724256892399397E-004
  -8.6819223730284167E-002   2.5719298428529380E-002   1.7343732206366869E-003
  -6.5406880009567986E-002   1.9307367163144351E-002   2.8745764445053668E-002
  -6.3178708136055833E-002   1.8402780816493880E-002   2.8590728375377017E-002
  -6.0950536262543653E-002   1.7585439898939570E-002   2.8579467697150696E-002
  -5.8722364389031501E-002   1.6855344410480921E-002   2.8711982410374912E-002
  -5.6494192515519348E-002   1.6212494351118212E-002   2.8988272515049318E-002
  -7.0770505133977771E-002   2.0910349979490539E-002   2.1594050286641270E-002
  -6.8392805495325767E-002   2.0219118061017519E-002   2.1486481675875482E-002
  -6.6015105856673750E-002   1.9510018624917136E-002   2.1534193203938970E-002
  -6.3637406218021761E-002   1.8783051671189169E-002   2.1737184870831705E-002
  -6.1259706579369744E-002   1.8038217199834061E-002   2.2095456676553882E-002
  -7.6127104128900419E-002   2.2513332795836866E-002   1.4708247029767682E-002
  -7.3588371977729633E-002   2.2035455305540935E-002   1.4543032931189664E-002
  -7.1049639826558916E-002   2.1434597350894480E-002   1.4544603718819438E-002
  -6.8510907675388255E-002   2.0710758931897416E-002   1.4712959392657890E-002
  -6.5972175524217469E-002   1.9863940048549994E-002   1.5048099952704411E-002
  -8.1476676994335875E-002   2.4116315612183095E-002   8.0883546744328037E-003
  -7.8765407583267485E-002   2.3851792550064213E-002   7.7603821413191471E-003
  -7.6054138172199137E-002   2.3359176076871685E-002   7.6106992417925845E-003
  -7.3342868761130789E-002   2.2638466192605608E-002   7.6393059758532497E-003
  -7.0631599350062413E-002   2.1689662897266052E-002   7.8462023435008944E-003
  -8.6819223730284167E-002   2.5719298428529380E-002   1.7343732206366869E-003
  -8.3923912311939297E-002   2.5668129794587935E-002   1.1385293062644575E-003
  -8.1028600893594371E-002   2.5283754802849445E-002   7.3247977285832711E-004
  -7.8133289475249501E-002   2.4566173453313842E-002   5.1622462041768166E-004
  -7.5237978056904575E-002   2.3515385745981665E-002   4.8976384894361402E-004
  -5.6494192515519348E-002   1.6212494351118212E-002   2.8988272515049318E-002
  -5.4071262284790339E-002   1.5613674068428396E-002   2.8565493862096225E-002
  -5.1648332054061385E-002   1.5015667909988442E-002   2.8352206312923844E-002
  -4.9225401823332432E-002   1.4418475875798451E-002   2.8348409867532329E-002
  -4.6802471592603423E-002   1.3822097965858871E-002   2.8554104525921664E-002
  -6.1259706579369744E-002   1.8038217199834061E-002   2.2095456676553882E-002
  -5.8634584007524485E-002   1.7288382018889464E-002   2.1722764491288321E-002
  -5.6009461435679211E-002   1.6546412936393737E-002   2.1544965884474437E-002
  -5.3384338863833862E-002   1.5812309952346514E-002   2.1562060856112397E-002
  -5.0759216291988624E-002   1.5086073066747918E-002   2.1774049406202201E-002
  -6.5972175524217469E-002   1.9863940048549994E-002   1.5048099952704411E-002
  -6.3159458136584912E-002   1.8963089969350866E-002   1.4732546209325015E-002
  -6.0346740748952285E-002   1.8077157962799024E-002   1.4597288519068254E-002
  -5.7534023361319735E-002   1.7206144028894352E-002   1.4642326881934360E-002
  -5.4721305973687115E-002   1.6350048167637132E-002   1.4867661297923329E-002
  -7.0631599350062413E-002   2.1689662897266052E-002   7.8462023435008944E-003
  -6.7645884671971537E-002   2.0637797919811934E-002   7.5948390162063929E-003
  -6.4660169993880745E-002   1.9607902989204538E-002   7.5091742167056417E-003
  -6.1674455315789932E-002   1.8599978105442415E-002   7.5892079449983952E-003
  -5.8688740637699070E-002   1.7614023268526485E-002   7.8349402010849181E-003
  -7.5237978056904575E-002   2.3515385745981665E-002   4.8976384894361402E-004
  -7.2093863613684528E-002   2.2312505870273225E-002   3.0964291193258386E-004
  -6.8949749170464480E-002   2.1138648015609579E-002   2.8062297738595809E-004
  -6.5805634727244405E-002   1.9993812181990221E-002   4.0270404530451387E-004
  -6.2661520284024386E-002   1.8877998369415616E-002   6.7588611568736301E-004
  -4.6802471592603423E-002   1.3822097965858871E-002   2.8554104525921664E-002
  -4.4501581746724223E-002   1.3198777526741368E-002   2.8141862079489766E-002
  -4.2200691900845050E-002   1.2520757905018831E-002   2.7849540592611022E-002
  -3.9899802054965877E-002   1.1788039100690595E-002   2.7677140065285627E-002
  -3.7598912209086677E-002   1.1000621113757436E-002   2.7624660497513553E-002
  -5.0759216291988624E-002   1.5086073066747918E-002   2.1774049406202201E-002
  -4.8326286813819050E-002   1.4356013392048450E-002   2.1333475220566001E-002
  -4.5893357335649462E-002   1.3610442040698500E-002   2.1037059339957365E-002
  -4.3460427857479896E-002   1.2849359012697736E-002   2.0884801764375988E-002
  -4.1027498379310301E-002   1.2072764308046935E-002   2.0876702493822397E-002
  -5.4721305973687115E-002   1.6350048167637132E-002   1.4867661297923329E-002
  -5.2132099517752974E-002   1.5513249257355810E-002   1.4437942879037796E-002
  -4.9542893061818902E-002   1.4700126176378281E-002   1.4176620110653695E-002
  -4.6953686605884809E-002   1.3910678924705211E-002   1.4083692992771457E-002
  -4.4364480149950647E-002   1.3144907502336212E-002   1.4159161525390596E-002
  -5.8688740637699070E-002   1.7614023268526485E-002   7.8349402010849181E-003
  -5.5919019858526250E-002   1.6670485122662976E-002   7.4552650549045453E-003
  -5.3149299079353368E-002   1.5789810312058339E-002   7.2682229047001737E-003
  -5.0379578300180465E-002   1.4971998836712408E-002   7.2738137504712499E-003
  -4.7609857521007659E-002   1.4217050696625766E-002   7.4720375922184556E-003
  -6.2661520284024386E-002   1.8877998369415616E-002   6.7588611568736301E-004
  -5.9687047836138651E-002   1.7827720987970030E-002   3.8544174816673715E-004
  -5.6712575388252862E-002   1.6879494447738119E-002   3.1186772209657043E-004
  -5.3738102940367100E-002   1.6033318748719536E-002   4.5516403747597467E-004
  -5.0763630492481338E-002   1.5289193890914987E-002   8.1533069430561600E-004
  -3.7598912209086677E-002   1.1000621113757436E-002   2.7624660497513553E-002
  -3.5213739593637439E-002   1.0203245349124368E-002   2.7093345773194000E-002
  -3.2828566978188312E-002   9.4406532116966535E-003   2.6688910980565195E-002
  -3.0443394362739143E-002   8.7128447014746049E-003   2.6411356119626694E-002
  -2.8058221747289946E-002   8.0198198184583402E-003   2.6260681190379054E-002
  -4.1027498379310301E-002   1.2072764308046935E-002   2.0876702493822397E-002
  -3.8526497375443475E-002   1.1293384888540314E-002   2.0448303562886072E-002
  -3.6025496371576510E-002   1.0523947715973786E-002   2.0124681477094536E-002
  -3.3524495367709628E-002   9.7644527903469960E-003   1.9905836236448038E-002
  -3.1023494363842719E-002   9.0149001116600624E-003   1.9791767840946273E-002
  -4.4364480149950647E-002   1.3144907502336212E-002   1.4159161525390596E-002
  -4.1769753844211707E-002   1.2383524427956344E-002   1.3808837007571656E-002
  -3.9175027538472788E-002   1.1607242220250683E-002   1.3541186248352141E-002
  -3.6580301232733814E-002   1.0816060879219162E-002   1.3356209247731572E-002
  -3.3985574926994916E-002   1.0009980404861840E-002   1.3253906005710164E-002
  -4.7609857521007659E-002   1.4217050696625766E-002   7.4720375922184556E-003
  -4.4943508999942386E-002   1.3473663967372942E-002   7.1749461072511747E-003
  -4.2277160478877140E-002   1.2690536724527753E-002   6.9384252943377536E-003
  -3.9610811957811860E-002   1.1867668968091718E-002   6.7624751534773719E-003
  -3.6944463436746622E-002   1.1005060698063479E-002   6.6470956846707493E-003
  -5.0763630492481338E-002   1.5289193890914987E-002   8.1533069430561600E-004
  -4.8047762842635455E-002   1.4563803506788653E-002   5.4663086192474619E-004
  -4.5331895192789573E-002   1.3773831228804823E-002   3.1639861505131095E-004
  -4.2616027542943719E-002   1.2919277056963580E-002   1.2463395368603886E-004
  -3.9900159893097809E-002   1.2000140991265562E-002  -2.8663122172090105E-005
  -2.8058221747289946E-002   8.0198198184583402E-003   2.6260681190379054E-002
  -2.5712272779354339E-002   7.3128189523848919E-003   2.5674203578287202E-002
  -2.3366323811418815E-002   6.5430824929926523E-003   2.5035383643965681E-002
  -2.1020374843483222E-002   5.7106104402809346E-003   2.4344221387415432E-002
  -1.8674425875547684E-002   4.8154027942504118E-003   2.3600716808635847E-002
  -3.1023494363842719E-002   9.0149001116600624E-003   1.9791767840946273E-002
  -2.8711945753956886E-002   8.2686228492587222E-003   1.9193360742590204E-002
  -2.6400397144071067E-002   7.5189541724886844E-003   1.8578495250363869E-002
  -2.4088848534185220E-002   6.7658940813504140E-003   1.7947171364267253E-002
  -2.1777299924299470E-002   6.0094425758432379E-003   1.7299389084300176E-002
  -3.3985574926994916E-002   1.0009980404861840E-002   1.3253906005710164E-002
  -3.1672542746800050E-002   9.2244267461322749E-003   1.2702913600040833E-002
  -2.9359510566605226E-002   8.4948258519852576E-003   1.2171346728859875E-002
  -2.7046478386410323E-002   7.8211777224196678E-003   1.1659205392167436E-002
  -2.4733446206215537E-002   7.2034823574362861E-003   1.1166489589963302E-002
  -3.6944463436746622E-002   1.1005060698063479E-002   6.6470956846707493E-003
  -3.4594063757883986E-002   1.0180230643005800E-002   6.2028621506384496E-003
  -3.2243664079021225E-002   9.4706975314815603E-003   5.8139380794534692E-003
  -2.9893264400158527E-002   8.8764613634892565E-003   5.4803234711161431E-003
  -2.7542864721295832E-002   8.3975221390295562E-003   5.2020183256256680E-003
  -3.9900159893097809E-002   1.2000140991265562E-002  -2.8663122172090105E-005
  -3.7476508787208429E-002   1.1136034539879436E-002  -3.0679360561658431E-004
  -3.5052857681319105E-002   1.0446569210977863E-002  -4.9373069785474399E-004
  -3.2629206575429726E-002   9.9317450045579569E-003  -5.8947439888712427E-004
  -3.0205555469540402E-002   9.5915619206223823E-003  -5.9402470871328106E-004
  -1.8674425875547684E-002   4.8154027942504118E-003   2.3600716808635847E-002
  -1.5652142785925999E-002   4.0795142752494407E-003   2.4391064387509043E-002
  -1.2629859696304341E-002   3.7249996036266553E-003   2.5654304926898019E-002
  -9.6075766066826412E-003   3.7518587793826802E-003   2.7390438426803082E-002
  -6.5852935170609972E-003   4.1600918025173073E-003   2.9599464887224203E-002
  -2.1777299924299470E-002   6.0094425758432379E-003   1.7299389084300176E-002
  -1.8551396431043893E-002   5.3428987052085986E-003   1.8249482138872397E-002
  -1.5325492937788343E-002   4.8595615186856622E-003   1.9133923040196565E-002
  -1.2099589444532835E-002   4.5594310162756363E-003   1.9952711788272404E-002
  -8.8736859512772159E-003   4.4425071979776742E-003   2.0705848383100300E-002
  -2.4733446206215537E-002   7.2034823574362861E-003   1.1166489589963302E-002
  -2.1842467423090248E-002   6.6062831351675344E-003   1.2078160956968786E-002
  -1.8951488639964910E-002   5.9941234337445304E-003   1.2385635056961830E-002
  -1.6060509856839596E-002   5.3670032531683634E-003   1.2088911889942544E-002
  -1.3169531073714338E-002   4.7249225934380412E-003   1.1187991455911150E-002
  -2.7542864721295832E-002   8.3975221390295562E-003   5.2020183256256680E-003
  -2.5525355762064963E-002   7.8696675651260262E-003   5.8771008417980233E-003
  -2.3507846802833979E-002   7.1286853488027463E-003   5.4094409771939314E-003
  -2.1490337843603026E-002   6.1745754900609830E-003   3.7990387318136871E-003
  -1.9472828884372132E-002   5.0073379888988523E-003   1.0458941056569332E-003
  -3.0205555469540402E-002   9.5915619206223823E-003  -5.9402470871328106E-004
  -2.9600061447967896E-002   9.1330519950854061E-003  -3.5369820663988527E-004
  -2.8994567426395557E-002   8.2632472638620169E-003  -1.7946591991069016E-003
  -2.8389073404823134E-002   6.9821477269538940E-003  -4.9169076861146840E-003
  -2.7783579383250712E-002   5.2897533843585531E-003  -9.7204436676630035E-003
  -6.5852935170609972E-003   4.1600918025173073E-003   2.9599464887224203E-002
  -6.0568242976322961E-003   6.1433863484773310E-003   3.4075962393961268E-002
  -5.5283550782035673E-003   1.0895430092710379E-002   3.9238039352219811E-002
  -4.9998858587747691E-003   1.8416223035216325E-002   4.5085695762000000E-002
  -4.4714166393461374E-003   2.8705765175994991E-002   5.1618931623302000E-002
  -8.8736859512772159E-003   4.4425071979776742E-003   2.0705848383100300E-002
  -7.5873324801724318E-003   5.6590220966161731E-003   2.5873407975787743E-002
  -6.3009790090676893E-003   9.3592077450158628E-003   3.1871156620305929E-002
  -5.0146255379628704E-003   1.5543064143175273E-002   3.8699094316654220E-002
  -3.7282720668581626E-003   2.4210591291095263E-002   4.6357221064833976E-002
  -1.3169531073714338E-002   4.7249225934380412E-003   1.1187991455911150E-002
  -1.0980683750624477E-002   5.1746578447552927E-003   1.6761534686036583E-002
  -8.7918364275345537E-003   7.8229853973208197E-003   2.3309876568301968E-002
  -6.6029891044447099E-003   1.2669905251133894E-002   3.0833017102706792E-002
  -4.4141417813547690E-003   1.9715417406195535E-002   3.9330956289251318E-002
  -1.9472828884372132E-002   5.0073379888988523E-003   1.0458941056569332E-003
  -1.6236878108988131E-002   4.6902935928940515E-003   6.7403425247078153E-003
  -1.3000927333604069E-002   6.2867630496258181E-003   1.3554199196207643E-002
  -9.7649765582200204E-003   9.7967463590934549E-003   2.1487464120156532E-002
  -6.5290257828360052E-003   1.5220243521295806E-002   3.0540137296553360E-002
  -2.7783579383250712E-002   5.2897533843585531E-003  -9.7204436676630035E-003
  -2.3355915555263507E-002   4.2059293410334764E-003  -4.1901685081986439E-003
  -1.8928251727276246E-002   4.7505407019317603E-003   2.6041245040235583E-003
  -1.4500587899289014E-002   6.9235874670512537E-003   1.0662435369003541E-002
  -1.0072924071301781E-002   1.0725069636396078E-002   1.9984764086740769E-002
 </DataArray>
 </PointData>
 </Piece>
 </UnstructuredGrid>
 </VTKFile>
