 <VTKFile type="UnstructuredGrid"  version="0.1"   >
 <UnstructuredGrid>
 <Piece  NumberOfPoints="          1600 "  NumberOfCells="         1024 ">
 <Points>
 <DataArray  type="Float64" NumberOfComponents="3"  format="ascii" >
   0.0000000000000000        0.0000000000000000        0.0000000000000000     
   3.1250000000000000E-002   0.0000000000000000        0.0000000000000000     
   6.2500000000000000E-002   0.0000000000000000        0.0000000000000000     
   9.3750000000000000E-002   0.0000000000000000        0.0000000000000000     
  0.12500000000000000        0.0000000000000000        0.0000000000000000     
   0.0000000000000000        3.1250000000000000E-002   0.0000000000000000     
   3.1250000000000000E-002   3.1250000000000000E-002   0.0000000000000000     
   6.2500000000000000E-002   3.1250000000000000E-002   0.0000000000000000     
   9.3750000000000000E-002   3.1250000000000000E-002   0.0000000000000000     
  0.12500000000000000        3.1250000000000000E-002   0.0000000000000000     
   0.0000000000000000        6.2500000000000000E-002   0.0000000000000000     
   3.1250000000000000E-002   6.2500000000000000E-002   0.0000000000000000     
   6.2500000000000000E-002   6.2500000000000000E-002   0.0000000000000000     
   9.3750000000000000E-002   6.2500000000000000E-002   0.0000000000000000     
  0.12500000000000000        6.2500000000000000E-002   0.0000000000000000     
   0.0000000000000000        9.3750000000000000E-002   0.0000000000000000     
   3.1250000000000000E-002   9.3750000000000000E-002   0.0000000000000000     
   6.2500000000000000E-002   9.3750000000000000E-002   0.0000000000000000     
   9.3750000000000000E-002   9.3750000000000000E-002   0.0000000000000000     
  0.12500000000000000        9.3750000000000000E-002   0.0000000000000000     
   0.0000000000000000       0.12500000000000000        0.0000000000000000     
   3.1250000000000000E-002  0.12500000000000000        0.0000000000000000     
   6.2500000000000000E-002  0.12500000000000000        0.0000000000000000     
   9.3750000000000000E-002  0.12500000000000000        0.0000000000000000     
  0.12500000000000000       0.12500000000000000        0.0000000000000000     
  0.12500000000000000        0.0000000000000000        0.0000000000000000     
  0.15625000000000000        0.0000000000000000        0.0000000000000000     
  0.18750000000000000        0.0000000000000000        0.0000000000000000     
  0.21875000000000000        0.0000000000000000        0.0000000000000000     
  0.25000000000000000        0.0000000000000000        0.0000000000000000     
  0.12500000000000000        3.1250000000000000E-002   0.0000000000000000     
  0.15625000000000000        3.1250000000000000E-002   0.0000000000000000     
  0.18750000000000000        3.1250000000000000E-002   0.0000000000000000     
  0.21875000000000000        3.1250000000000000E-002   0.0000000000000000     
  0.25000000000000000        3.1250000000000000E-002   0.0000000000000000     
  0.12500000000000000        6.2500000000000000E-002   0.0000000000000000     
  0.15625000000000000        6.2500000000000000E-002   0.0000000000000000     
  0.18750000000000000        6.2500000000000000E-002   0.0000000000000000     
  0.21875000000000000        6.2500000000000000E-002   0.0000000000000000     
  0.25000000000000000        6.2500000000000000E-002   0.0000000000000000     
  0.12500000000000000        9.3750000000000000E-002   0.0000000000000000     
  0.15625000000000000        9.3750000000000000E-002   0.0000000000000000     
  0.18750000000000000        9.3750000000000000E-002   0.0000000000000000     
  0.21875000000000000        9.3750000000000000E-002   0.0000000000000000     
  0.25000000000000000        9.3750000000000000E-002   0.0000000000000000     
  0.12500000000000000       0.12500000000000000        0.0000000000000000     
  0.15625000000000000       0.12500000000000000        0.0000000000000000     
  0.18750000000000000       0.12500000000000000        0.0000000000000000     
  0.21875000000000000       0.12500000000000000        0.0000000000000000     
  0.25000000000000000       0.12500000000000000        0.0000000000000000     
  0.25000000000000000        0.0000000000000000        0.0000000000000000     
  0.28125000000000000        0.0000000000000000        0.0000000000000000     
  0.31250000000000000        0.0000000000000000        0.0000000000000000     
  0.34375000000000000        0.0000000000000000        0.0000000000000000     
  0.37500000000000000        0.0000000000000000        0.0000000000000000     
  0.25000000000000000        3.1250000000000000E-002   0.0000000000000000     
  0.28125000000000000        3.1250000000000000E-002   0.0000000000000000     
  0.31250000000000000        3.1250000000000000E-002   0.0000000000000000     
  0.34375000000000000        3.1250000000000000E-002   0.0000000000000000     
  0.37500000000000000        3.1250000000000000E-002   0.0000000000000000     
  0.25000000000000000        6.2500000000000000E-002   0.0000000000000000     
  0.28125000000000000        6.2500000000000000E-002   0.0000000000000000     
  0.31250000000000000        6.2500000000000000E-002   0.0000000000000000     
  0.34375000000000000        6.2500000000000000E-002   0.0000000000000000     
  0.37500000000000000        6.2500000000000000E-002   0.0000000000000000     
  0.25000000000000000        9.3750000000000000E-002   0.0000000000000000     
  0.28125000000000000        9.3750000000000000E-002   0.0000000000000000     
  0.31250000000000000        9.3750000000000000E-002   0.0000000000000000     
  0.34375000000000000        9.3750000000000000E-002   0.0000000000000000     
  0.37500000000000000        9.3750000000000000E-002   0.0000000000000000     
  0.25000000000000000       0.12500000000000000        0.0000000000000000     
  0.28125000000000000       0.12500000000000000        0.0000000000000000     
  0.31250000000000000       0.12500000000000000        0.0000000000000000     
  0.34375000000000000       0.12500000000000000        0.0000000000000000     
  0.37500000000000000       0.12500000000000000        0.0000000000000000     
  0.37500000000000000        0.0000000000000000        0.0000000000000000     
  0.40625000000000000        0.0000000000000000        0.0000000000000000     
  0.43750000000000000        0.0000000000000000        0.0000000000000000     
  0.46875000000000000        0.0000000000000000        0.0000000000000000     
  0.50000000000000000        0.0000000000000000        0.0000000000000000     
  0.37500000000000000        3.1250000000000000E-002   0.0000000000000000     
  0.40625000000000000        3.1250000000000000E-002   0.0000000000000000     
  0.43750000000000000        3.1250000000000000E-002   0.0000000000000000     
  0.46875000000000000        3.1250000000000000E-002   0.0000000000000000     
  0.50000000000000000        3.1250000000000000E-002   0.0000000000000000     
  0.37500000000000000        6.2500000000000000E-002   0.0000000000000000     
  0.40625000000000000        6.2500000000000000E-002   0.0000000000000000     
  0.43750000000000000        6.2500000000000000E-002   0.0000000000000000     
  0.46875000000000000        6.2500000000000000E-002   0.0000000000000000     
  0.50000000000000000        6.2500000000000000E-002   0.0000000000000000     
  0.37500000000000000        9.3750000000000000E-002   0.0000000000000000     
  0.40625000000000000        9.3750000000000000E-002   0.0000000000000000     
  0.43750000000000000        9.3750000000000000E-002   0.0000000000000000     
  0.46875000000000000        9.3750000000000000E-002   0.0000000000000000     
  0.50000000000000000        9.3750000000000000E-002   0.0000000000000000     
  0.37500000000000000       0.12500000000000000        0.0000000000000000     
  0.40625000000000000       0.12500000000000000        0.0000000000000000     
  0.43750000000000000       0.12500000000000000        0.0000000000000000     
  0.46875000000000000       0.12500000000000000        0.0000000000000000     
  0.50000000000000000       0.12500000000000000        0.0000000000000000     
  0.50000000000000000        0.0000000000000000        0.0000000000000000     
  0.53125000000000000        0.0000000000000000        0.0000000000000000     
  0.56250000000000000        0.0000000000000000        0.0000000000000000     
  0.59375000000000000        0.0000000000000000        0.0000000000000000     
  0.62500000000000000        0.0000000000000000        0.0000000000000000     
  0.50000000000000000        3.1250000000000000E-002   0.0000000000000000     
  0.53125000000000000        3.1250000000000000E-002   0.0000000000000000     
  0.56250000000000000        3.1250000000000000E-002   0.0000000000000000     
  0.59375000000000000        3.1250000000000000E-002   0.0000000000000000     
  0.62500000000000000        3.1250000000000000E-002   0.0000000000000000     
  0.50000000000000000        6.2500000000000000E-002   0.0000000000000000     
  0.53125000000000000        6.2500000000000000E-002   0.0000000000000000     
  0.56250000000000000        6.2500000000000000E-002   0.0000000000000000     
  0.59375000000000000        6.2500000000000000E-002   0.0000000000000000     
  0.62500000000000000        6.2500000000000000E-002   0.0000000000000000     
  0.50000000000000000        9.3750000000000000E-002   0.0000000000000000     
  0.53125000000000000        9.3750000000000000E-002   0.0000000000000000     
  0.56250000000000000        9.3750000000000000E-002   0.0000000000000000     
  0.59375000000000000        9.3750000000000000E-002   0.0000000000000000     
  0.62500000000000000        9.3750000000000000E-002   0.0000000000000000     
  0.50000000000000000       0.12500000000000000        0.0000000000000000     
  0.53125000000000000       0.12500000000000000        0.0000000000000000     
  0.56250000000000000       0.12500000000000000        0.0000000000000000     
  0.59375000000000000       0.12500000000000000        0.0000000000000000     
  0.62500000000000000       0.12500000000000000        0.0000000000000000     
  0.62500000000000000        0.0000000000000000        0.0000000000000000     
  0.65625000000000000        0.0000000000000000        0.0000000000000000     
  0.68750000000000000        0.0000000000000000        0.0000000000000000     
  0.71875000000000000        0.0000000000000000        0.0000000000000000     
  0.75000000000000000        0.0000000000000000        0.0000000000000000     
  0.62500000000000000        3.1250000000000000E-002   0.0000000000000000     
  0.65625000000000000        3.1250000000000000E-002   0.0000000000000000     
  0.68750000000000000        3.1250000000000000E-002   0.0000000000000000     
  0.71875000000000000        3.1250000000000000E-002   0.0000000000000000     
  0.75000000000000000        3.1250000000000000E-002   0.0000000000000000     
  0.62500000000000000        6.2500000000000000E-002   0.0000000000000000     
  0.65625000000000000        6.2500000000000000E-002   0.0000000000000000     
  0.68750000000000000        6.2500000000000000E-002   0.0000000000000000     
  0.71875000000000000        6.2500000000000000E-002   0.0000000000000000     
  0.75000000000000000        6.2500000000000000E-002   0.0000000000000000     
  0.62500000000000000        9.3750000000000000E-002   0.0000000000000000     
  0.65625000000000000        9.3750000000000000E-002   0.0000000000000000     
  0.68750000000000000        9.3750000000000000E-002   0.0000000000000000     
  0.71875000000000000        9.3750000000000000E-002   0.0000000000000000     
  0.75000000000000000        9.3750000000000000E-002   0.0000000000000000     
  0.62500000000000000       0.12500000000000000        0.0000000000000000     
  0.65625000000000000       0.12500000000000000        0.0000000000000000     
  0.68750000000000000       0.12500000000000000        0.0000000000000000     
  0.71875000000000000       0.12500000000000000        0.0000000000000000     
  0.75000000000000000       0.12500000000000000        0.0000000000000000     
  0.75000000000000000        0.0000000000000000        0.0000000000000000     
  0.78125000000000000        0.0000000000000000        0.0000000000000000     
  0.81250000000000000        0.0000000000000000        0.0000000000000000     
  0.84375000000000000        0.0000000000000000        0.0000000000000000     
  0.87500000000000000        0.0000000000000000        0.0000000000000000     
  0.75000000000000000        3.1250000000000000E-002   0.0000000000000000     
  0.78125000000000000        3.1250000000000000E-002   0.0000000000000000     
  0.81250000000000000        3.1250000000000000E-002   0.0000000000000000     
  0.84375000000000000        3.1250000000000000E-002   0.0000000000000000     
  0.87500000000000000        3.1250000000000000E-002   0.0000000000000000     
  0.75000000000000000        6.2500000000000000E-002   0.0000000000000000     
  0.78125000000000000        6.2500000000000000E-002   0.0000000000000000     
  0.81250000000000000        6.2500000000000000E-002   0.0000000000000000     
  0.84375000000000000        6.2500000000000000E-002   0.0000000000000000     
  0.87500000000000000        6.2500000000000000E-002   0.0000000000000000     
  0.75000000000000000        9.3750000000000000E-002   0.0000000000000000     
  0.78125000000000000        9.3750000000000000E-002   0.0000000000000000     
  0.81250000000000000        9.3750000000000000E-002   0.0000000000000000     
  0.84375000000000000        9.3750000000000000E-002   0.0000000000000000     
  0.87500000000000000        9.3750000000000000E-002   0.0000000000000000     
  0.75000000000000000       0.12500000000000000        0.0000000000000000     
  0.78125000000000000       0.12500000000000000        0.0000000000000000     
  0.81250000000000000       0.12500000000000000        0.0000000000000000     
  0.84375000000000000       0.12500000000000000        0.0000000000000000     
  0.87500000000000000       0.12500000000000000        0.0000000000000000     
  0.87500000000000000        0.0000000000000000        0.0000000000000000     
  0.90625000000000000        0.0000000000000000        0.0000000000000000     
  0.93750000000000000        0.0000000000000000        0.0000000000000000     
  0.96875000000000000        0.0000000000000000        0.0000000000000000     
   1.0000000000000000        0.0000000000000000        0.0000000000000000     
  0.87500000000000000        3.1250000000000000E-002   0.0000000000000000     
  0.90625000000000000        3.1250000000000000E-002   0.0000000000000000     
  0.93750000000000000        3.1250000000000000E-002   0.0000000000000000     
  0.96875000000000000        3.1250000000000000E-002   0.0000000000000000     
   1.0000000000000000        3.1250000000000000E-002   0.0000000000000000     
  0.87500000000000000        6.2500000000000000E-002   0.0000000000000000     
  0.90625000000000000        6.2500000000000000E-002   0.0000000000000000     
  0.93750000000000000        6.2500000000000000E-002   0.0000000000000000     
  0.96875000000000000        6.2500000000000000E-002   0.0000000000000000     
   1.0000000000000000        6.2500000000000000E-002   0.0000000000000000     
  0.87500000000000000        9.3750000000000000E-002   0.0000000000000000     
  0.90625000000000000        9.3750000000000000E-002   0.0000000000000000     
  0.93750000000000000        9.3750000000000000E-002   0.0000000000000000     
  0.96875000000000000        9.3750000000000000E-002   0.0000000000000000     
   1.0000000000000000        9.3750000000000000E-002   0.0000000000000000     
  0.87500000000000000       0.12500000000000000        0.0000000000000000     
  0.90625000000000000       0.12500000000000000        0.0000000000000000     
  0.93750000000000000       0.12500000000000000        0.0000000000000000     
  0.96875000000000000       0.12500000000000000        0.0000000000000000     
   1.0000000000000000       0.12500000000000000        0.0000000000000000     
   0.0000000000000000       0.12500000000000000        0.0000000000000000     
   3.1250000000000000E-002  0.12500000000000000        0.0000000000000000     
   6.2500000000000000E-002  0.12500000000000000        0.0000000000000000     
   9.3750000000000000E-002  0.12500000000000000        0.0000000000000000     
  0.12500000000000000       0.12500000000000000        0.0000000000000000     
   0.0000000000000000       0.15625000000000000        0.0000000000000000     
   3.1250000000000000E-002  0.15625000000000000        0.0000000000000000     
   6.2500000000000000E-002  0.15625000000000000        0.0000000000000000     
   9.3750000000000000E-002  0.15625000000000000        0.0000000000000000     
  0.12500000000000000       0.15625000000000000        0.0000000000000000     
   0.0000000000000000       0.18750000000000000        0.0000000000000000     
   3.1250000000000000E-002  0.18750000000000000        0.0000000000000000     
   6.2500000000000000E-002  0.18750000000000000        0.0000000000000000     
   9.3750000000000000E-002  0.18750000000000000        0.0000000000000000     
  0.12500000000000000       0.18750000000000000        0.0000000000000000     
   0.0000000000000000       0.21875000000000000        0.0000000000000000     
   3.1250000000000000E-002  0.21875000000000000        0.0000000000000000     
   6.2500000000000000E-002  0.21875000000000000        0.0000000000000000     
   9.3750000000000000E-002  0.21875000000000000        0.0000000000000000     
  0.12500000000000000       0.21875000000000000        0.0000000000000000     
   0.0000000000000000       0.25000000000000000        0.0000000000000000     
   3.1250000000000000E-002  0.25000000000000000        0.0000000000000000     
   6.2500000000000000E-002  0.25000000000000000        0.0000000000000000     
   9.3750000000000000E-002  0.25000000000000000        0.0000000000000000     
  0.12500000000000000       0.25000000000000000        0.0000000000000000     
  0.12500000000000000       0.12500000000000000        0.0000000000000000     
  0.15625000000000000       0.12500000000000000        0.0000000000000000     
  0.18750000000000000       0.12500000000000000        0.0000000000000000     
  0.21875000000000000       0.12500000000000000        0.0000000000000000     
  0.25000000000000000       0.12500000000000000        0.0000000000000000     
  0.12500000000000000       0.15625000000000000        0.0000000000000000     
  0.15625000000000000       0.15625000000000000        0.0000000000000000     
  0.18750000000000000       0.15625000000000000        0.0000000000000000     
  0.21875000000000000       0.15625000000000000        0.0000000000000000     
  0.25000000000000000       0.15625000000000000        0.0000000000000000     
  0.12500000000000000       0.18750000000000000        0.0000000000000000     
  0.15625000000000000       0.18750000000000000        0.0000000000000000     
  0.18750000000000000       0.18750000000000000        0.0000000000000000     
  0.21875000000000000       0.18750000000000000        0.0000000000000000     
  0.25000000000000000       0.18750000000000000        0.0000000000000000     
  0.12500000000000000       0.21875000000000000        0.0000000000000000     
  0.15625000000000000       0.21875000000000000        0.0000000000000000     
  0.18750000000000000       0.21875000000000000        0.0000000000000000     
  0.21875000000000000       0.21875000000000000        0.0000000000000000     
  0.25000000000000000       0.21875000000000000        0.0000000000000000     
  0.12500000000000000       0.25000000000000000        0.0000000000000000     
  0.15625000000000000       0.25000000000000000        0.0000000000000000     
  0.18750000000000000       0.25000000000000000        0.0000000000000000     
  0.21875000000000000       0.25000000000000000        0.0000000000000000     
  0.25000000000000000       0.25000000000000000        0.0000000000000000     
  0.25000000000000000       0.12500000000000000        0.0000000000000000     
  0.28125000000000000       0.12500000000000000        0.0000000000000000     
  0.31250000000000000       0.12500000000000000        0.0000000000000000     
  0.34375000000000000       0.12500000000000000        0.0000000000000000     
  0.37500000000000000       0.12500000000000000        0.0000000000000000     
  0.25000000000000000       0.15625000000000000        0.0000000000000000     
  0.28125000000000000       0.15625000000000000        0.0000000000000000     
  0.31250000000000000       0.15625000000000000        0.0000000000000000     
  0.34375000000000000       0.15625000000000000        0.0000000000000000     
  0.37500000000000000       0.15625000000000000        0.0000000000000000     
  0.25000000000000000       0.18750000000000000        0.0000000000000000     
  0.28125000000000000       0.18750000000000000        0.0000000000000000     
  0.31250000000000000       0.18750000000000000        0.0000000000000000     
  0.34375000000000000       0.18750000000000000        0.0000000000000000     
  0.37500000000000000       0.18750000000000000        0.0000000000000000     
  0.25000000000000000       0.21875000000000000        0.0000000000000000     
  0.28125000000000000       0.21875000000000000        0.0000000000000000     
  0.31250000000000000       0.21875000000000000        0.0000000000000000     
  0.34375000000000000       0.21875000000000000        0.0000000000000000     
  0.37500000000000000       0.21875000000000000        0.0000000000000000     
  0.25000000000000000       0.25000000000000000        0.0000000000000000     
  0.28125000000000000       0.25000000000000000        0.0000000000000000     
  0.31250000000000000       0.25000000000000000        0.0000000000000000     
  0.34375000000000000       0.25000000000000000        0.0000000000000000     
  0.37500000000000000       0.25000000000000000        0.0000000000000000     
  0.37500000000000000       0.12500000000000000        0.0000000000000000     
  0.40625000000000000       0.12500000000000000        0.0000000000000000     
  0.43750000000000000       0.12500000000000000        0.0000000000000000     
  0.46875000000000000       0.12500000000000000        0.0000000000000000     
  0.50000000000000000       0.12500000000000000        0.0000000000000000     
  0.37500000000000000       0.15625000000000000        0.0000000000000000     
  0.40625000000000000       0.15625000000000000        0.0000000000000000     
  0.43750000000000000       0.15625000000000000        0.0000000000000000     
  0.46875000000000000       0.15625000000000000        0.0000000000000000     
  0.50000000000000000       0.15625000000000000        0.0000000000000000     
  0.37500000000000000       0.18750000000000000        0.0000000000000000     
  0.40625000000000000       0.18750000000000000        0.0000000000000000     
  0.43750000000000000       0.18750000000000000        0.0000000000000000     
  0.46875000000000000       0.18750000000000000        0.0000000000000000     
  0.50000000000000000       0.18750000000000000        0.0000000000000000     
  0.37500000000000000       0.21875000000000000        0.0000000000000000     
  0.40625000000000000       0.21875000000000000        0.0000000000000000     
  0.43750000000000000       0.21875000000000000        0.0000000000000000     
  0.46875000000000000       0.21875000000000000        0.0000000000000000     
  0.50000000000000000       0.21875000000000000        0.0000000000000000     
  0.37500000000000000       0.25000000000000000        0.0000000000000000     
  0.40625000000000000       0.25000000000000000        0.0000000000000000     
  0.43750000000000000       0.25000000000000000        0.0000000000000000     
  0.46875000000000000       0.25000000000000000        0.0000000000000000     
  0.50000000000000000       0.25000000000000000        0.0000000000000000     
  0.50000000000000000       0.12500000000000000        0.0000000000000000     
  0.53125000000000000       0.12500000000000000        0.0000000000000000     
  0.56250000000000000       0.12500000000000000        0.0000000000000000     
  0.59375000000000000       0.12500000000000000        0.0000000000000000     
  0.62500000000000000       0.12500000000000000        0.0000000000000000     
  0.50000000000000000       0.15625000000000000        0.0000000000000000     
  0.53125000000000000       0.15625000000000000        0.0000000000000000     
  0.56250000000000000       0.15625000000000000        0.0000000000000000     
  0.59375000000000000       0.15625000000000000        0.0000000000000000     
  0.62500000000000000       0.15625000000000000        0.0000000000000000     
  0.50000000000000000       0.18750000000000000        0.0000000000000000     
  0.53125000000000000       0.18750000000000000        0.0000000000000000     
  0.56250000000000000       0.18750000000000000        0.0000000000000000     
  0.59375000000000000       0.18750000000000000        0.0000000000000000     
  0.62500000000000000       0.18750000000000000        0.0000000000000000     
  0.50000000000000000       0.21875000000000000        0.0000000000000000     
  0.53125000000000000       0.21875000000000000        0.0000000000000000     
  0.56250000000000000       0.21875000000000000        0.0000000000000000     
  0.59375000000000000       0.21875000000000000        0.0000000000000000     
  0.62500000000000000       0.21875000000000000        0.0000000000000000     
  0.50000000000000000       0.25000000000000000        0.0000000000000000     
  0.53125000000000000       0.25000000000000000        0.0000000000000000     
  0.56250000000000000       0.25000000000000000        0.0000000000000000     
  0.59375000000000000       0.25000000000000000        0.0000000000000000     
  0.62500000000000000       0.25000000000000000        0.0000000000000000     
  0.62500000000000000       0.12500000000000000        0.0000000000000000     
  0.65625000000000000       0.12500000000000000        0.0000000000000000     
  0.68750000000000000       0.12500000000000000        0.0000000000000000     
  0.71875000000000000       0.12500000000000000        0.0000000000000000     
  0.75000000000000000       0.12500000000000000        0.0000000000000000     
  0.62500000000000000       0.15625000000000000        0.0000000000000000     
  0.65625000000000000       0.15625000000000000        0.0000000000000000     
  0.68750000000000000       0.15625000000000000        0.0000000000000000     
  0.71875000000000000       0.15625000000000000        0.0000000000000000     
  0.75000000000000000       0.15625000000000000        0.0000000000000000     
  0.62500000000000000       0.18750000000000000        0.0000000000000000     
  0.65625000000000000       0.18750000000000000        0.0000000000000000     
  0.68750000000000000       0.18750000000000000        0.0000000000000000     
  0.71875000000000000       0.18750000000000000        0.0000000000000000     
  0.75000000000000000       0.18750000000000000        0.0000000000000000     
  0.62500000000000000       0.21875000000000000        0.0000000000000000     
  0.65625000000000000       0.21875000000000000        0.0000000000000000     
  0.68750000000000000       0.21875000000000000        0.0000000000000000     
  0.71875000000000000       0.21875000000000000        0.0000000000000000     
  0.75000000000000000       0.21875000000000000        0.0000000000000000     
  0.62500000000000000       0.25000000000000000        0.0000000000000000     
  0.65625000000000000       0.25000000000000000        0.0000000000000000     
  0.68750000000000000       0.25000000000000000        0.0000000000000000     
  0.71875000000000000       0.25000000000000000        0.0000000000000000     
  0.75000000000000000       0.25000000000000000        0.0000000000000000     
  0.75000000000000000       0.12500000000000000        0.0000000000000000     
  0.78125000000000000       0.12500000000000000        0.0000000000000000     
  0.81250000000000000       0.12500000000000000        0.0000000000000000     
  0.84375000000000000       0.12500000000000000        0.0000000000000000     
  0.87500000000000000       0.12500000000000000        0.0000000000000000     
  0.75000000000000000       0.15625000000000000        0.0000000000000000     
  0.78125000000000000       0.15625000000000000        0.0000000000000000     
  0.81250000000000000       0.15625000000000000        0.0000000000000000     
  0.84375000000000000       0.15625000000000000        0.0000000000000000     
  0.87500000000000000       0.15625000000000000        0.0000000000000000     
  0.75000000000000000       0.18750000000000000        0.0000000000000000     
  0.78125000000000000       0.18750000000000000        0.0000000000000000     
  0.81250000000000000       0.18750000000000000        0.0000000000000000     
  0.84375000000000000       0.18750000000000000        0.0000000000000000     
  0.87500000000000000       0.18750000000000000        0.0000000000000000     
  0.75000000000000000       0.21875000000000000        0.0000000000000000     
  0.78125000000000000       0.21875000000000000        0.0000000000000000     
  0.81250000000000000       0.21875000000000000        0.0000000000000000     
  0.84375000000000000       0.21875000000000000        0.0000000000000000     
  0.87500000000000000       0.21875000000000000        0.0000000000000000     
  0.75000000000000000       0.25000000000000000        0.0000000000000000     
  0.78125000000000000       0.25000000000000000        0.0000000000000000     
  0.81250000000000000       0.25000000000000000        0.0000000000000000     
  0.84375000000000000       0.25000000000000000        0.0000000000000000     
  0.87500000000000000       0.25000000000000000        0.0000000000000000     
  0.87500000000000000       0.12500000000000000        0.0000000000000000     
  0.90625000000000000       0.12500000000000000        0.0000000000000000     
  0.93750000000000000       0.12500000000000000        0.0000000000000000     
  0.96875000000000000       0.12500000000000000        0.0000000000000000     
   1.0000000000000000       0.12500000000000000        0.0000000000000000     
  0.87500000000000000       0.15625000000000000        0.0000000000000000     
  0.90625000000000000       0.15625000000000000        0.0000000000000000     
  0.93750000000000000       0.15625000000000000        0.0000000000000000     
  0.96875000000000000       0.15625000000000000        0.0000000000000000     
   1.0000000000000000       0.15625000000000000        0.0000000000000000     
  0.87500000000000000       0.18750000000000000        0.0000000000000000     
  0.90625000000000000       0.18750000000000000        0.0000000000000000     
  0.93750000000000000       0.18750000000000000        0.0000000000000000     
  0.96875000000000000       0.18750000000000000        0.0000000000000000     
   1.0000000000000000       0.18750000000000000        0.0000000000000000     
  0.87500000000000000       0.21875000000000000        0.0000000000000000     
  0.90625000000000000       0.21875000000000000        0.0000000000000000     
  0.93750000000000000       0.21875000000000000        0.0000000000000000     
  0.96875000000000000       0.21875000000000000        0.0000000000000000     
   1.0000000000000000       0.21875000000000000        0.0000000000000000     
  0.87500000000000000       0.25000000000000000        0.0000000000000000     
  0.90625000000000000       0.25000000000000000        0.0000000000000000     
  0.93750000000000000       0.25000000000000000        0.0000000000000000     
  0.96875000000000000       0.25000000000000000        0.0000000000000000     
   1.0000000000000000       0.25000000000000000        0.0000000000000000     
   0.0000000000000000       0.25000000000000000        0.0000000000000000     
   3.1250000000000000E-002  0.25000000000000000        0.0000000000000000     
   6.2500000000000000E-002  0.25000000000000000        0.0000000000000000     
   9.3750000000000000E-002  0.25000000000000000        0.0000000000000000     
  0.12500000000000000       0.25000000000000000        0.0000000000000000     
   0.0000000000000000       0.28125000000000000        0.0000000000000000     
   3.1250000000000000E-002  0.28125000000000000        0.0000000000000000     
   6.2500000000000000E-002  0.28125000000000000        0.0000000000000000     
   9.3750000000000000E-002  0.28125000000000000        0.0000000000000000     
  0.12500000000000000       0.28125000000000000        0.0000000000000000     
   0.0000000000000000       0.31250000000000000        0.0000000000000000     
   3.1250000000000000E-002  0.31250000000000000        0.0000000000000000     
   6.2500000000000000E-002  0.31250000000000000        0.0000000000000000     
   9.3750000000000000E-002  0.31250000000000000        0.0000000000000000     
  0.12500000000000000       0.31250000000000000        0.0000000000000000     
   0.0000000000000000       0.34375000000000000        0.0000000000000000     
   3.1250000000000000E-002  0.34375000000000000        0.0000000000000000     
   6.2500000000000000E-002  0.34375000000000000        0.0000000000000000     
   9.3750000000000000E-002  0.34375000000000000        0.0000000000000000     
  0.12500000000000000       0.34375000000000000        0.0000000000000000     
   0.0000000000000000       0.37500000000000000        0.0000000000000000     
   3.1250000000000000E-002  0.37500000000000000        0.0000000000000000     
   6.2500000000000000E-002  0.37500000000000000        0.0000000000000000     
   9.3750000000000000E-002  0.37500000000000000        0.0000000000000000     
  0.12500000000000000       0.37500000000000000        0.0000000000000000     
  0.12500000000000000       0.25000000000000000        0.0000000000000000     
  0.15625000000000000       0.25000000000000000        0.0000000000000000     
  0.18750000000000000       0.25000000000000000        0.0000000000000000     
  0.21875000000000000       0.25000000000000000        0.0000000000000000     
  0.25000000000000000       0.25000000000000000        0.0000000000000000     
  0.12500000000000000       0.28125000000000000        0.0000000000000000     
  0.15625000000000000       0.28125000000000000        0.0000000000000000     
  0.18750000000000000       0.28125000000000000        0.0000000000000000     
  0.21875000000000000       0.28125000000000000        0.0000000000000000     
  0.25000000000000000       0.28125000000000000        0.0000000000000000     
  0.12500000000000000       0.31250000000000000        0.0000000000000000     
  0.15625000000000000       0.31250000000000000        0.0000000000000000     
  0.18750000000000000       0.31250000000000000        0.0000000000000000     
  0.21875000000000000       0.31250000000000000        0.0000000000000000     
  0.25000000000000000       0.31250000000000000        0.0000000000000000     
  0.12500000000000000       0.34375000000000000        0.0000000000000000     
  0.15625000000000000       0.34375000000000000        0.0000000000000000     
  0.18750000000000000       0.34375000000000000        0.0000000000000000     
  0.21875000000000000       0.34375000000000000        0.0000000000000000     
  0.25000000000000000       0.34375000000000000        0.0000000000000000     
  0.12500000000000000       0.37500000000000000        0.0000000000000000     
  0.15625000000000000       0.37500000000000000        0.0000000000000000     
  0.18750000000000000       0.37500000000000000        0.0000000000000000     
  0.21875000000000000       0.37500000000000000        0.0000000000000000     
  0.25000000000000000       0.37500000000000000        0.0000000000000000     
  0.25000000000000000       0.25000000000000000        0.0000000000000000     
  0.28125000000000000       0.25000000000000000        0.0000000000000000     
  0.31250000000000000       0.25000000000000000        0.0000000000000000     
  0.34375000000000000       0.25000000000000000        0.0000000000000000     
  0.37500000000000000       0.25000000000000000        0.0000000000000000     
  0.25000000000000000       0.28125000000000000        0.0000000000000000     
  0.28125000000000000       0.28125000000000000        0.0000000000000000     
  0.31250000000000000       0.28125000000000000        0.0000000000000000     
  0.34375000000000000       0.28125000000000000        0.0000000000000000     
  0.37500000000000000       0.28125000000000000        0.0000000000000000     
  0.25000000000000000       0.31250000000000000        0.0000000000000000     
  0.28125000000000000       0.31250000000000000        0.0000000000000000     
  0.31250000000000000       0.31250000000000000        0.0000000000000000     
  0.34375000000000000       0.31250000000000000        0.0000000000000000     
  0.37500000000000000       0.31250000000000000        0.0000000000000000     
  0.25000000000000000       0.34375000000000000        0.0000000000000000     
  0.28125000000000000       0.34375000000000000        0.0000000000000000     
  0.31250000000000000       0.34375000000000000        0.0000000000000000     
  0.34375000000000000       0.34375000000000000        0.0000000000000000     
  0.37500000000000000       0.34375000000000000        0.0000000000000000     
  0.25000000000000000       0.37500000000000000        0.0000000000000000     
  0.28125000000000000       0.37500000000000000        0.0000000000000000     
  0.31250000000000000       0.37500000000000000        0.0000000000000000     
  0.34375000000000000       0.37500000000000000        0.0000000000000000     
  0.37500000000000000       0.37500000000000000        0.0000000000000000     
  0.37500000000000000       0.25000000000000000        0.0000000000000000     
  0.40625000000000000       0.25000000000000000        0.0000000000000000     
  0.43750000000000000       0.25000000000000000        0.0000000000000000     
  0.46875000000000000       0.25000000000000000        0.0000000000000000     
  0.50000000000000000       0.25000000000000000        0.0000000000000000     
  0.37500000000000000       0.28125000000000000        0.0000000000000000     
  0.40625000000000000       0.28125000000000000        0.0000000000000000     
  0.43750000000000000       0.28125000000000000        0.0000000000000000     
  0.46875000000000000       0.28125000000000000        0.0000000000000000     
  0.50000000000000000       0.28125000000000000        0.0000000000000000     
  0.37500000000000000       0.31250000000000000        0.0000000000000000     
  0.40625000000000000       0.31250000000000000        0.0000000000000000     
  0.43750000000000000       0.31250000000000000        0.0000000000000000     
  0.46875000000000000       0.31250000000000000        0.0000000000000000     
  0.50000000000000000       0.31250000000000000        0.0000000000000000     
  0.37500000000000000       0.34375000000000000        0.0000000000000000     
  0.40625000000000000       0.34375000000000000        0.0000000000000000     
  0.43750000000000000       0.34375000000000000        0.0000000000000000     
  0.46875000000000000       0.34375000000000000        0.0000000000000000     
  0.50000000000000000       0.34375000000000000        0.0000000000000000     
  0.37500000000000000       0.37500000000000000        0.0000000000000000     
  0.40625000000000000       0.37500000000000000        0.0000000000000000     
  0.43750000000000000       0.37500000000000000        0.0000000000000000     
  0.46875000000000000       0.37500000000000000        0.0000000000000000     
  0.50000000000000000       0.37500000000000000        0.0000000000000000     
  0.50000000000000000       0.25000000000000000        0.0000000000000000     
  0.53125000000000000       0.25000000000000000        0.0000000000000000     
  0.56250000000000000       0.25000000000000000        0.0000000000000000     
  0.59375000000000000       0.25000000000000000        0.0000000000000000     
  0.62500000000000000       0.25000000000000000        0.0000000000000000     
  0.50000000000000000       0.28125000000000000        0.0000000000000000     
  0.53125000000000000       0.28125000000000000        0.0000000000000000     
  0.56250000000000000       0.28125000000000000        0.0000000000000000     
  0.59375000000000000       0.28125000000000000        0.0000000000000000     
  0.62500000000000000       0.28125000000000000        0.0000000000000000     
  0.50000000000000000       0.31250000000000000        0.0000000000000000     
  0.53125000000000000       0.31250000000000000        0.0000000000000000     
  0.56250000000000000       0.31250000000000000        0.0000000000000000     
  0.59375000000000000       0.31250000000000000        0.0000000000000000     
  0.62500000000000000       0.31250000000000000        0.0000000000000000     
  0.50000000000000000       0.34375000000000000        0.0000000000000000     
  0.53125000000000000       0.34375000000000000        0.0000000000000000     
  0.56250000000000000       0.34375000000000000        0.0000000000000000     
  0.59375000000000000       0.34375000000000000        0.0000000000000000     
  0.62500000000000000       0.34375000000000000        0.0000000000000000     
  0.50000000000000000       0.37500000000000000        0.0000000000000000     
  0.53125000000000000       0.37500000000000000        0.0000000000000000     
  0.56250000000000000       0.37500000000000000        0.0000000000000000     
  0.59375000000000000       0.37500000000000000        0.0000000000000000     
  0.62500000000000000       0.37500000000000000        0.0000000000000000     
  0.62500000000000000       0.25000000000000000        0.0000000000000000     
  0.65625000000000000       0.25000000000000000        0.0000000000000000     
  0.68750000000000000       0.25000000000000000        0.0000000000000000     
  0.71875000000000000       0.25000000000000000        0.0000000000000000     
  0.75000000000000000       0.25000000000000000        0.0000000000000000     
  0.62500000000000000       0.28125000000000000        0.0000000000000000     
  0.65625000000000000       0.28125000000000000        0.0000000000000000     
  0.68750000000000000       0.28125000000000000        0.0000000000000000     
  0.71875000000000000       0.28125000000000000        0.0000000000000000     
  0.75000000000000000       0.28125000000000000        0.0000000000000000     
  0.62500000000000000       0.31250000000000000        0.0000000000000000     
  0.65625000000000000       0.31250000000000000        0.0000000000000000     
  0.68750000000000000       0.31250000000000000        0.0000000000000000     
  0.71875000000000000       0.31250000000000000        0.0000000000000000     
  0.75000000000000000       0.31250000000000000        0.0000000000000000     
  0.62500000000000000       0.34375000000000000        0.0000000000000000     
  0.65625000000000000       0.34375000000000000        0.0000000000000000     
  0.68750000000000000       0.34375000000000000        0.0000000000000000     
  0.71875000000000000       0.34375000000000000        0.0000000000000000     
  0.75000000000000000       0.34375000000000000        0.0000000000000000     
  0.62500000000000000       0.37500000000000000        0.0000000000000000     
  0.65625000000000000       0.37500000000000000        0.0000000000000000     
  0.68750000000000000       0.37500000000000000        0.0000000000000000     
  0.71875000000000000       0.37500000000000000        0.0000000000000000     
  0.75000000000000000       0.37500000000000000        0.0000000000000000     
  0.75000000000000000       0.25000000000000000        0.0000000000000000     
  0.78125000000000000       0.25000000000000000        0.0000000000000000     
  0.81250000000000000       0.25000000000000000        0.0000000000000000     
  0.84375000000000000       0.25000000000000000        0.0000000000000000     
  0.87500000000000000       0.25000000000000000        0.0000000000000000     
  0.75000000000000000       0.28125000000000000        0.0000000000000000     
  0.78125000000000000       0.28125000000000000        0.0000000000000000     
  0.81250000000000000       0.28125000000000000        0.0000000000000000     
  0.84375000000000000       0.28125000000000000        0.0000000000000000     
  0.87500000000000000       0.28125000000000000        0.0000000000000000     
  0.75000000000000000       0.31250000000000000        0.0000000000000000     
  0.78125000000000000       0.31250000000000000        0.0000000000000000     
  0.81250000000000000       0.31250000000000000        0.0000000000000000     
  0.84375000000000000       0.31250000000000000        0.0000000000000000     
  0.87500000000000000       0.31250000000000000        0.0000000000000000     
  0.75000000000000000       0.34375000000000000        0.0000000000000000     
  0.78125000000000000       0.34375000000000000        0.0000000000000000     
  0.81250000000000000       0.34375000000000000        0.0000000000000000     
  0.84375000000000000       0.34375000000000000        0.0000000000000000     
  0.87500000000000000       0.34375000000000000        0.0000000000000000     
  0.75000000000000000       0.37500000000000000        0.0000000000000000     
  0.78125000000000000       0.37500000000000000        0.0000000000000000     
  0.81250000000000000       0.37500000000000000        0.0000000000000000     
  0.84375000000000000       0.37500000000000000        0.0000000000000000     
  0.87500000000000000       0.37500000000000000        0.0000000000000000     
  0.87500000000000000       0.25000000000000000        0.0000000000000000     
  0.90625000000000000       0.25000000000000000        0.0000000000000000     
  0.93750000000000000       0.25000000000000000        0.0000000000000000     
  0.96875000000000000       0.25000000000000000        0.0000000000000000     
   1.0000000000000000       0.25000000000000000        0.0000000000000000     
  0.87500000000000000       0.28125000000000000        0.0000000000000000     
  0.90625000000000000       0.28125000000000000        0.0000000000000000     
  0.93750000000000000       0.28125000000000000        0.0000000000000000     
  0.96875000000000000       0.28125000000000000        0.0000000000000000     
   1.0000000000000000       0.28125000000000000        0.0000000000000000     
  0.87500000000000000       0.31250000000000000        0.0000000000000000     
  0.90625000000000000       0.31250000000000000        0.0000000000000000     
  0.93750000000000000       0.31250000000000000        0.0000000000000000     
  0.96875000000000000       0.31250000000000000        0.0000000000000000     
   1.0000000000000000       0.31250000000000000        0.0000000000000000     
  0.87500000000000000       0.34375000000000000        0.0000000000000000     
  0.90625000000000000       0.34375000000000000        0.0000000000000000     
  0.93750000000000000       0.34375000000000000        0.0000000000000000     
  0.96875000000000000       0.34375000000000000        0.0000000000000000     
   1.0000000000000000       0.34375000000000000        0.0000000000000000     
  0.87500000000000000       0.37500000000000000        0.0000000000000000     
  0.90625000000000000       0.37500000000000000        0.0000000000000000     
  0.93750000000000000       0.37500000000000000        0.0000000000000000     
  0.96875000000000000       0.37500000000000000        0.0000000000000000     
   1.0000000000000000       0.37500000000000000        0.0000000000000000     
   0.0000000000000000       0.37500000000000000        0.0000000000000000     
   3.1250000000000000E-002  0.37500000000000000        0.0000000000000000     
   6.2500000000000000E-002  0.37500000000000000        0.0000000000000000     
   9.3750000000000000E-002  0.37500000000000000        0.0000000000000000     
  0.12500000000000000       0.37500000000000000        0.0000000000000000     
   0.0000000000000000       0.40625000000000000        0.0000000000000000     
   3.1250000000000000E-002  0.40625000000000000        0.0000000000000000     
   6.2500000000000000E-002  0.40625000000000000        0.0000000000000000     
   9.3750000000000000E-002  0.40625000000000000        0.0000000000000000     
  0.12500000000000000       0.40625000000000000        0.0000000000000000     
   0.0000000000000000       0.43750000000000000        0.0000000000000000     
   3.1250000000000000E-002  0.43750000000000000        0.0000000000000000     
   6.2500000000000000E-002  0.43750000000000000        0.0000000000000000     
   9.3750000000000000E-002  0.43750000000000000        0.0000000000000000     
  0.12500000000000000       0.43750000000000000        0.0000000000000000     
   0.0000000000000000       0.46875000000000000        0.0000000000000000     
   3.1250000000000000E-002  0.46875000000000000        0.0000000000000000     
   6.2500000000000000E-002  0.46875000000000000        0.0000000000000000     
   9.3750000000000000E-002  0.46875000000000000        0.0000000000000000     
  0.12500000000000000       0.46875000000000000        0.0000000000000000     
   0.0000000000000000       0.50000000000000000        0.0000000000000000     
   3.1250000000000000E-002  0.50000000000000000        0.0000000000000000     
   6.2500000000000000E-002  0.50000000000000000        0.0000000000000000     
   9.3750000000000000E-002  0.50000000000000000        0.0000000000000000     
  0.12500000000000000       0.50000000000000000        0.0000000000000000     
  0.12500000000000000       0.37500000000000000        0.0000000000000000     
  0.15625000000000000       0.37500000000000000        0.0000000000000000     
  0.18750000000000000       0.37500000000000000        0.0000000000000000     
  0.21875000000000000       0.37500000000000000        0.0000000000000000     
  0.25000000000000000       0.37500000000000000        0.0000000000000000     
  0.12500000000000000       0.40625000000000000        0.0000000000000000     
  0.15625000000000000       0.40625000000000000        0.0000000000000000     
  0.18750000000000000       0.40625000000000000        0.0000000000000000     
  0.21875000000000000       0.40625000000000000        0.0000000000000000     
  0.25000000000000000       0.40625000000000000        0.0000000000000000     
  0.12500000000000000       0.43750000000000000        0.0000000000000000     
  0.15625000000000000       0.43750000000000000        0.0000000000000000     
  0.18750000000000000       0.43750000000000000        0.0000000000000000     
  0.21875000000000000       0.43750000000000000        0.0000000000000000     
  0.25000000000000000       0.43750000000000000        0.0000000000000000     
  0.12500000000000000       0.46875000000000000        0.0000000000000000     
  0.15625000000000000       0.46875000000000000        0.0000000000000000     
  0.18750000000000000       0.46875000000000000        0.0000000000000000     
  0.21875000000000000       0.46875000000000000        0.0000000000000000     
  0.25000000000000000       0.46875000000000000        0.0000000000000000     
  0.12500000000000000       0.50000000000000000        0.0000000000000000     
  0.15625000000000000       0.50000000000000000        0.0000000000000000     
  0.18750000000000000       0.50000000000000000        0.0000000000000000     
  0.21875000000000000       0.50000000000000000        0.0000000000000000     
  0.25000000000000000       0.50000000000000000        0.0000000000000000     
  0.25000000000000000       0.37500000000000000        0.0000000000000000     
  0.28125000000000000       0.37500000000000000        0.0000000000000000     
  0.31250000000000000       0.37500000000000000        0.0000000000000000     
  0.34375000000000000       0.37500000000000000        0.0000000000000000     
  0.37500000000000000       0.37500000000000000        0.0000000000000000     
  0.25000000000000000       0.40625000000000000        0.0000000000000000     
  0.28125000000000000       0.40625000000000000        0.0000000000000000     
  0.31250000000000000       0.40625000000000000        0.0000000000000000     
  0.34375000000000000       0.40625000000000000        0.0000000000000000     
  0.37500000000000000       0.40625000000000000        0.0000000000000000     
  0.25000000000000000       0.43750000000000000        0.0000000000000000     
  0.28125000000000000       0.43750000000000000        0.0000000000000000     
  0.31250000000000000       0.43750000000000000        0.0000000000000000     
  0.34375000000000000       0.43750000000000000        0.0000000000000000     
  0.37500000000000000       0.43750000000000000        0.0000000000000000     
  0.25000000000000000       0.46875000000000000        0.0000000000000000     
  0.28125000000000000       0.46875000000000000        0.0000000000000000     
  0.31250000000000000       0.46875000000000000        0.0000000000000000     
  0.34375000000000000       0.46875000000000000        0.0000000000000000     
  0.37500000000000000       0.46875000000000000        0.0000000000000000     
  0.25000000000000000       0.50000000000000000        0.0000000000000000     
  0.28125000000000000       0.50000000000000000        0.0000000000000000     
  0.31250000000000000       0.50000000000000000        0.0000000000000000     
  0.34375000000000000       0.50000000000000000        0.0000000000000000     
  0.37500000000000000       0.50000000000000000        0.0000000000000000     
  0.37500000000000000       0.37500000000000000        0.0000000000000000     
  0.40625000000000000       0.37500000000000000        0.0000000000000000     
  0.43750000000000000       0.37500000000000000        0.0000000000000000     
  0.46875000000000000       0.37500000000000000        0.0000000000000000     
  0.50000000000000000       0.37500000000000000        0.0000000000000000     
  0.37500000000000000       0.40625000000000000        0.0000000000000000     
  0.40625000000000000       0.40625000000000000        0.0000000000000000     
  0.43750000000000000       0.40625000000000000        0.0000000000000000     
  0.46875000000000000       0.40625000000000000        0.0000000000000000     
  0.50000000000000000       0.40625000000000000        0.0000000000000000     
  0.37500000000000000       0.43750000000000000        0.0000000000000000     
  0.40625000000000000       0.43750000000000000        0.0000000000000000     
  0.43750000000000000       0.43750000000000000        0.0000000000000000     
  0.46875000000000000       0.43750000000000000        0.0000000000000000     
  0.50000000000000000       0.43750000000000000        0.0000000000000000     
  0.37500000000000000       0.46875000000000000        0.0000000000000000     
  0.40625000000000000       0.46875000000000000        0.0000000000000000     
  0.43750000000000000       0.46875000000000000        0.0000000000000000     
  0.46875000000000000       0.46875000000000000        0.0000000000000000     
  0.50000000000000000       0.46875000000000000        0.0000000000000000     
  0.37500000000000000       0.50000000000000000        0.0000000000000000     
  0.40625000000000000       0.50000000000000000        0.0000000000000000     
  0.43750000000000000       0.50000000000000000        0.0000000000000000     
  0.46875000000000000       0.50000000000000000        0.0000000000000000     
  0.50000000000000000       0.50000000000000000        0.0000000000000000     
  0.50000000000000000       0.37500000000000000        0.0000000000000000     
  0.53125000000000000       0.37500000000000000        0.0000000000000000     
  0.56250000000000000       0.37500000000000000        0.0000000000000000     
  0.59375000000000000       0.37500000000000000        0.0000000000000000     
  0.62500000000000000       0.37500000000000000        0.0000000000000000     
  0.50000000000000000       0.40625000000000000        0.0000000000000000     
  0.53125000000000000       0.40625000000000000        0.0000000000000000     
  0.56250000000000000       0.40625000000000000        0.0000000000000000     
  0.59375000000000000       0.40625000000000000        0.0000000000000000     
  0.62500000000000000       0.40625000000000000        0.0000000000000000     
  0.50000000000000000       0.43750000000000000        0.0000000000000000     
  0.53125000000000000       0.43750000000000000        0.0000000000000000     
  0.56250000000000000       0.43750000000000000        0.0000000000000000     
  0.59375000000000000       0.43750000000000000        0.0000000000000000     
  0.62500000000000000       0.43750000000000000        0.0000000000000000     
  0.50000000000000000       0.46875000000000000        0.0000000000000000     
  0.53125000000000000       0.46875000000000000        0.0000000000000000     
  0.56250000000000000       0.46875000000000000        0.0000000000000000     
  0.59375000000000000       0.46875000000000000        0.0000000000000000     
  0.62500000000000000       0.46875000000000000        0.0000000000000000     
  0.50000000000000000       0.50000000000000000        0.0000000000000000     
  0.53125000000000000       0.50000000000000000        0.0000000000000000     
  0.56250000000000000       0.50000000000000000        0.0000000000000000     
  0.59375000000000000       0.50000000000000000        0.0000000000000000     
  0.62500000000000000       0.50000000000000000        0.0000000000000000     
  0.62500000000000000       0.37500000000000000        0.0000000000000000     
  0.65625000000000000       0.37500000000000000        0.0000000000000000     
  0.68750000000000000       0.37500000000000000        0.0000000000000000     
  0.71875000000000000       0.37500000000000000        0.0000000000000000     
  0.75000000000000000       0.37500000000000000        0.0000000000000000     
  0.62500000000000000       0.40625000000000000        0.0000000000000000     
  0.65625000000000000       0.40625000000000000        0.0000000000000000     
  0.68750000000000000       0.40625000000000000        0.0000000000000000     
  0.71875000000000000       0.40625000000000000        0.0000000000000000     
  0.75000000000000000       0.40625000000000000        0.0000000000000000     
  0.62500000000000000       0.43750000000000000        0.0000000000000000     
  0.65625000000000000       0.43750000000000000        0.0000000000000000     
  0.68750000000000000       0.43750000000000000        0.0000000000000000     
  0.71875000000000000       0.43750000000000000        0.0000000000000000     
  0.75000000000000000       0.43750000000000000        0.0000000000000000     
  0.62500000000000000       0.46875000000000000        0.0000000000000000     
  0.65625000000000000       0.46875000000000000        0.0000000000000000     
  0.68750000000000000       0.46875000000000000        0.0000000000000000     
  0.71875000000000000       0.46875000000000000        0.0000000000000000     
  0.75000000000000000       0.46875000000000000        0.0000000000000000     
  0.62500000000000000       0.50000000000000000        0.0000000000000000     
  0.65625000000000000       0.50000000000000000        0.0000000000000000     
  0.68750000000000000       0.50000000000000000        0.0000000000000000     
  0.71875000000000000       0.50000000000000000        0.0000000000000000     
  0.75000000000000000       0.50000000000000000        0.0000000000000000     
  0.75000000000000000       0.37500000000000000        0.0000000000000000     
  0.78125000000000000       0.37500000000000000        0.0000000000000000     
  0.81250000000000000       0.37500000000000000        0.0000000000000000     
  0.84375000000000000       0.37500000000000000        0.0000000000000000     
  0.87500000000000000       0.37500000000000000        0.0000000000000000     
  0.75000000000000000       0.40625000000000000        0.0000000000000000     
  0.78125000000000000       0.40625000000000000        0.0000000000000000     
  0.81250000000000000       0.40625000000000000        0.0000000000000000     
  0.84375000000000000       0.40625000000000000        0.0000000000000000     
  0.87500000000000000       0.40625000000000000        0.0000000000000000     
  0.75000000000000000       0.43750000000000000        0.0000000000000000     
  0.78125000000000000       0.43750000000000000        0.0000000000000000     
  0.81250000000000000       0.43750000000000000        0.0000000000000000     
  0.84375000000000000       0.43750000000000000        0.0000000000000000     
  0.87500000000000000       0.43750000000000000        0.0000000000000000     
  0.75000000000000000       0.46875000000000000        0.0000000000000000     
  0.78125000000000000       0.46875000000000000        0.0000000000000000     
  0.81250000000000000       0.46875000000000000        0.0000000000000000     
  0.84375000000000000       0.46875000000000000        0.0000000000000000     
  0.87500000000000000       0.46875000000000000        0.0000000000000000     
  0.75000000000000000       0.50000000000000000        0.0000000000000000     
  0.78125000000000000       0.50000000000000000        0.0000000000000000     
  0.81250000000000000       0.50000000000000000        0.0000000000000000     
  0.84375000000000000       0.50000000000000000        0.0000000000000000     
  0.87500000000000000       0.50000000000000000        0.0000000000000000     
  0.87500000000000000       0.37500000000000000        0.0000000000000000     
  0.90625000000000000       0.37500000000000000        0.0000000000000000     
  0.93750000000000000       0.37500000000000000        0.0000000000000000     
  0.96875000000000000       0.37500000000000000        0.0000000000000000     
   1.0000000000000000       0.37500000000000000        0.0000000000000000     
  0.87500000000000000       0.40625000000000000        0.0000000000000000     
  0.90625000000000000       0.40625000000000000        0.0000000000000000     
  0.93750000000000000       0.40625000000000000        0.0000000000000000     
  0.96875000000000000       0.40625000000000000        0.0000000000000000     
   1.0000000000000000       0.40625000000000000        0.0000000000000000     
  0.87500000000000000       0.43750000000000000        0.0000000000000000     
  0.90625000000000000       0.43750000000000000        0.0000000000000000     
  0.93750000000000000       0.43750000000000000        0.0000000000000000     
  0.96875000000000000       0.43750000000000000        0.0000000000000000     
   1.0000000000000000       0.43750000000000000        0.0000000000000000     
  0.87500000000000000       0.46875000000000000        0.0000000000000000     
  0.90625000000000000       0.46875000000000000        0.0000000000000000     
  0.93750000000000000       0.46875000000000000        0.0000000000000000     
  0.96875000000000000       0.46875000000000000        0.0000000000000000     
   1.0000000000000000       0.46875000000000000        0.0000000000000000     
  0.87500000000000000       0.50000000000000000        0.0000000000000000     
  0.90625000000000000       0.50000000000000000        0.0000000000000000     
  0.93750000000000000       0.50000000000000000        0.0000000000000000     
  0.96875000000000000       0.50000000000000000        0.0000000000000000     
   1.0000000000000000       0.50000000000000000        0.0000000000000000     
   0.0000000000000000       0.50000000000000000        0.0000000000000000     
   3.1250000000000000E-002  0.50000000000000000        0.0000000000000000     
   6.2500000000000000E-002  0.50000000000000000        0.0000000000000000     
   9.3750000000000000E-002  0.50000000000000000        0.0000000000000000     
  0.12500000000000000       0.50000000000000000        0.0000000000000000     
   0.0000000000000000       0.53125000000000000        0.0000000000000000     
   3.1250000000000000E-002  0.53125000000000000        0.0000000000000000     
   6.2500000000000000E-002  0.53125000000000000        0.0000000000000000     
   9.3750000000000000E-002  0.53125000000000000        0.0000000000000000     
  0.12500000000000000       0.53125000000000000        0.0000000000000000     
   0.0000000000000000       0.56250000000000000        0.0000000000000000     
   3.1250000000000000E-002  0.56250000000000000        0.0000000000000000     
   6.2500000000000000E-002  0.56250000000000000        0.0000000000000000     
   9.3750000000000000E-002  0.56250000000000000        0.0000000000000000     
  0.12500000000000000       0.56250000000000000        0.0000000000000000     
   0.0000000000000000       0.59375000000000000        0.0000000000000000     
   3.1250000000000000E-002  0.59375000000000000        0.0000000000000000     
   6.2500000000000000E-002  0.59375000000000000        0.0000000000000000     
   9.3750000000000000E-002  0.59375000000000000        0.0000000000000000     
  0.12500000000000000       0.59375000000000000        0.0000000000000000     
   0.0000000000000000       0.62500000000000000        0.0000000000000000     
   3.1250000000000000E-002  0.62500000000000000        0.0000000000000000     
   6.2500000000000000E-002  0.62500000000000000        0.0000000000000000     
   9.3750000000000000E-002  0.62500000000000000        0.0000000000000000     
  0.12500000000000000       0.62500000000000000        0.0000000000000000     
  0.12500000000000000       0.50000000000000000        0.0000000000000000     
  0.15625000000000000       0.50000000000000000        0.0000000000000000     
  0.18750000000000000       0.50000000000000000        0.0000000000000000     
  0.21875000000000000       0.50000000000000000        0.0000000000000000     
  0.25000000000000000       0.50000000000000000        0.0000000000000000     
  0.12500000000000000       0.53125000000000000        0.0000000000000000     
  0.15625000000000000       0.53125000000000000        0.0000000000000000     
  0.18750000000000000       0.53125000000000000        0.0000000000000000     
  0.21875000000000000       0.53125000000000000        0.0000000000000000     
  0.25000000000000000       0.53125000000000000        0.0000000000000000     
  0.12500000000000000       0.56250000000000000        0.0000000000000000     
  0.15625000000000000       0.56250000000000000        0.0000000000000000     
  0.18750000000000000       0.56250000000000000        0.0000000000000000     
  0.21875000000000000       0.56250000000000000        0.0000000000000000     
  0.25000000000000000       0.56250000000000000        0.0000000000000000     
  0.12500000000000000       0.59375000000000000        0.0000000000000000     
  0.15625000000000000       0.59375000000000000        0.0000000000000000     
  0.18750000000000000       0.59375000000000000        0.0000000000000000     
  0.21875000000000000       0.59375000000000000        0.0000000000000000     
  0.25000000000000000       0.59375000000000000        0.0000000000000000     
  0.12500000000000000       0.62500000000000000        0.0000000000000000     
  0.15625000000000000       0.62500000000000000        0.0000000000000000     
  0.18750000000000000       0.62500000000000000        0.0000000000000000     
  0.21875000000000000       0.62500000000000000        0.0000000000000000     
  0.25000000000000000       0.62500000000000000        0.0000000000000000     
  0.25000000000000000       0.50000000000000000        0.0000000000000000     
  0.28125000000000000       0.50000000000000000        0.0000000000000000     
  0.31250000000000000       0.50000000000000000        0.0000000000000000     
  0.34375000000000000       0.50000000000000000        0.0000000000000000     
  0.37500000000000000       0.50000000000000000        0.0000000000000000     
  0.25000000000000000       0.53125000000000000        0.0000000000000000     
  0.28125000000000000       0.53125000000000000        0.0000000000000000     
  0.31250000000000000       0.53125000000000000        0.0000000000000000     
  0.34375000000000000       0.53125000000000000        0.0000000000000000     
  0.37500000000000000       0.53125000000000000        0.0000000000000000     
  0.25000000000000000       0.56250000000000000        0.0000000000000000     
  0.28125000000000000       0.56250000000000000        0.0000000000000000     
  0.31250000000000000       0.56250000000000000        0.0000000000000000     
  0.34375000000000000       0.56250000000000000        0.0000000000000000     
  0.37500000000000000       0.56250000000000000        0.0000000000000000     
  0.25000000000000000       0.59375000000000000        0.0000000000000000     
  0.28125000000000000       0.59375000000000000        0.0000000000000000     
  0.31250000000000000       0.59375000000000000        0.0000000000000000     
  0.34375000000000000       0.59375000000000000        0.0000000000000000     
  0.37500000000000000       0.59375000000000000        0.0000000000000000     
  0.25000000000000000       0.62500000000000000        0.0000000000000000     
  0.28125000000000000       0.62500000000000000        0.0000000000000000     
  0.31250000000000000       0.62500000000000000        0.0000000000000000     
  0.34375000000000000       0.62500000000000000        0.0000000000000000     
  0.37500000000000000       0.62500000000000000        0.0000000000000000     
  0.37500000000000000       0.50000000000000000        0.0000000000000000     
  0.40625000000000000       0.50000000000000000        0.0000000000000000     
  0.43750000000000000       0.50000000000000000        0.0000000000000000     
  0.46875000000000000       0.50000000000000000        0.0000000000000000     
  0.50000000000000000       0.50000000000000000        0.0000000000000000     
  0.37500000000000000       0.53125000000000000        0.0000000000000000     
  0.40625000000000000       0.53125000000000000        0.0000000000000000     
  0.43750000000000000       0.53125000000000000        0.0000000000000000     
  0.46875000000000000       0.53125000000000000        0.0000000000000000     
  0.50000000000000000       0.53125000000000000        0.0000000000000000     
  0.37500000000000000       0.56250000000000000        0.0000000000000000     
  0.40625000000000000       0.56250000000000000        0.0000000000000000     
  0.43750000000000000       0.56250000000000000        0.0000000000000000     
  0.46875000000000000       0.56250000000000000        0.0000000000000000     
  0.50000000000000000       0.56250000000000000        0.0000000000000000     
  0.37500000000000000       0.59375000000000000        0.0000000000000000     
  0.40625000000000000       0.59375000000000000        0.0000000000000000     
  0.43750000000000000       0.59375000000000000        0.0000000000000000     
  0.46875000000000000       0.59375000000000000        0.0000000000000000     
  0.50000000000000000       0.59375000000000000        0.0000000000000000     
  0.37500000000000000       0.62500000000000000        0.0000000000000000     
  0.40625000000000000       0.62500000000000000        0.0000000000000000     
  0.43750000000000000       0.62500000000000000        0.0000000000000000     
  0.46875000000000000       0.62500000000000000        0.0000000000000000     
  0.50000000000000000       0.62500000000000000        0.0000000000000000     
  0.50000000000000000       0.50000000000000000        0.0000000000000000     
  0.53125000000000000       0.50000000000000000        0.0000000000000000     
  0.56250000000000000       0.50000000000000000        0.0000000000000000     
  0.59375000000000000       0.50000000000000000        0.0000000000000000     
  0.62500000000000000       0.50000000000000000        0.0000000000000000     
  0.50000000000000000       0.53125000000000000        0.0000000000000000     
  0.53125000000000000       0.53125000000000000        0.0000000000000000     
  0.56250000000000000       0.53125000000000000        0.0000000000000000     
  0.59375000000000000       0.53125000000000000        0.0000000000000000     
  0.62500000000000000       0.53125000000000000        0.0000000000000000     
  0.50000000000000000       0.56250000000000000        0.0000000000000000     
  0.53125000000000000       0.56250000000000000        0.0000000000000000     
  0.56250000000000000       0.56250000000000000        0.0000000000000000     
  0.59375000000000000       0.56250000000000000        0.0000000000000000     
  0.62500000000000000       0.56250000000000000        0.0000000000000000     
  0.50000000000000000       0.59375000000000000        0.0000000000000000     
  0.53125000000000000       0.59375000000000000        0.0000000000000000     
  0.56250000000000000       0.59375000000000000        0.0000000000000000     
  0.59375000000000000       0.59375000000000000        0.0000000000000000     
  0.62500000000000000       0.59375000000000000        0.0000000000000000     
  0.50000000000000000       0.62500000000000000        0.0000000000000000     
  0.53125000000000000       0.62500000000000000        0.0000000000000000     
  0.56250000000000000       0.62500000000000000        0.0000000000000000     
  0.59375000000000000       0.62500000000000000        0.0000000000000000     
  0.62500000000000000       0.62500000000000000        0.0000000000000000     
  0.62500000000000000       0.50000000000000000        0.0000000000000000     
  0.65625000000000000       0.50000000000000000        0.0000000000000000     
  0.68750000000000000       0.50000000000000000        0.0000000000000000     
  0.71875000000000000       0.50000000000000000        0.0000000000000000     
  0.75000000000000000       0.50000000000000000        0.0000000000000000     
  0.62500000000000000       0.53125000000000000        0.0000000000000000     
  0.65625000000000000       0.53125000000000000        0.0000000000000000     
  0.68750000000000000       0.53125000000000000        0.0000000000000000     
  0.71875000000000000       0.53125000000000000        0.0000000000000000     
  0.75000000000000000       0.53125000000000000        0.0000000000000000     
  0.62500000000000000       0.56250000000000000        0.0000000000000000     
  0.65625000000000000       0.56250000000000000        0.0000000000000000     
  0.68750000000000000       0.56250000000000000        0.0000000000000000     
  0.71875000000000000       0.56250000000000000        0.0000000000000000     
  0.75000000000000000       0.56250000000000000        0.0000000000000000     
  0.62500000000000000       0.59375000000000000        0.0000000000000000     
  0.65625000000000000       0.59375000000000000        0.0000000000000000     
  0.68750000000000000       0.59375000000000000        0.0000000000000000     
  0.71875000000000000       0.59375000000000000        0.0000000000000000     
  0.75000000000000000       0.59375000000000000        0.0000000000000000     
  0.62500000000000000       0.62500000000000000        0.0000000000000000     
  0.65625000000000000       0.62500000000000000        0.0000000000000000     
  0.68750000000000000       0.62500000000000000        0.0000000000000000     
  0.71875000000000000       0.62500000000000000        0.0000000000000000     
  0.75000000000000000       0.62500000000000000        0.0000000000000000     
  0.75000000000000000       0.50000000000000000        0.0000000000000000     
  0.78125000000000000       0.50000000000000000        0.0000000000000000     
  0.81250000000000000       0.50000000000000000        0.0000000000000000     
  0.84375000000000000       0.50000000000000000        0.0000000000000000     
  0.87500000000000000       0.50000000000000000        0.0000000000000000     
  0.75000000000000000       0.53125000000000000        0.0000000000000000     
  0.78125000000000000       0.53125000000000000        0.0000000000000000     
  0.81250000000000000       0.53125000000000000        0.0000000000000000     
  0.84375000000000000       0.53125000000000000        0.0000000000000000     
  0.87500000000000000       0.53125000000000000        0.0000000000000000     
  0.75000000000000000       0.56250000000000000        0.0000000000000000     
  0.78125000000000000       0.56250000000000000        0.0000000000000000     
  0.81250000000000000       0.56250000000000000        0.0000000000000000     
  0.84375000000000000       0.56250000000000000        0.0000000000000000     
  0.87500000000000000       0.56250000000000000        0.0000000000000000     
  0.75000000000000000       0.59375000000000000        0.0000000000000000     
  0.78125000000000000       0.59375000000000000        0.0000000000000000     
  0.81250000000000000       0.59375000000000000        0.0000000000000000     
  0.84375000000000000       0.59375000000000000        0.0000000000000000     
  0.87500000000000000       0.59375000000000000        0.0000000000000000     
  0.75000000000000000       0.62500000000000000        0.0000000000000000     
  0.78125000000000000       0.62500000000000000        0.0000000000000000     
  0.81250000000000000       0.62500000000000000        0.0000000000000000     
  0.84375000000000000       0.62500000000000000        0.0000000000000000     
  0.87500000000000000       0.62500000000000000        0.0000000000000000     
  0.87500000000000000       0.50000000000000000        0.0000000000000000     
  0.90625000000000000       0.50000000000000000        0.0000000000000000     
  0.93750000000000000       0.50000000000000000        0.0000000000000000     
  0.96875000000000000       0.50000000000000000        0.0000000000000000     
   1.0000000000000000       0.50000000000000000        0.0000000000000000     
  0.87500000000000000       0.53125000000000000        0.0000000000000000     
  0.90625000000000000       0.53125000000000000        0.0000000000000000     
  0.93750000000000000       0.53125000000000000        0.0000000000000000     
  0.96875000000000000       0.53125000000000000        0.0000000000000000     
   1.0000000000000000       0.53125000000000000        0.0000000000000000     
  0.87500000000000000       0.56250000000000000        0.0000000000000000     
  0.90625000000000000       0.56250000000000000        0.0000000000000000     
  0.93750000000000000       0.56250000000000000        0.0000000000000000     
  0.96875000000000000       0.56250000000000000        0.0000000000000000     
   1.0000000000000000       0.56250000000000000        0.0000000000000000     
  0.87500000000000000       0.59375000000000000        0.0000000000000000     
  0.90625000000000000       0.59375000000000000        0.0000000000000000     
  0.93750000000000000       0.59375000000000000        0.0000000000000000     
  0.96875000000000000       0.59375000000000000        0.0000000000000000     
   1.0000000000000000       0.59375000000000000        0.0000000000000000     
  0.87500000000000000       0.62500000000000000        0.0000000000000000     
  0.90625000000000000       0.62500000000000000        0.0000000000000000     
  0.93750000000000000       0.62500000000000000        0.0000000000000000     
  0.96875000000000000       0.62500000000000000        0.0000000000000000     
   1.0000000000000000       0.62500000000000000        0.0000000000000000     
   0.0000000000000000       0.62500000000000000        0.0000000000000000     
   3.1250000000000000E-002  0.62500000000000000        0.0000000000000000     
   6.2500000000000000E-002  0.62500000000000000        0.0000000000000000     
   9.3750000000000000E-002  0.62500000000000000        0.0000000000000000     
  0.12500000000000000       0.62500000000000000        0.0000000000000000     
   0.0000000000000000       0.65625000000000000        0.0000000000000000     
   3.1250000000000000E-002  0.65625000000000000        0.0000000000000000     
   6.2500000000000000E-002  0.65625000000000000        0.0000000000000000     
   9.3750000000000000E-002  0.65625000000000000        0.0000000000000000     
  0.12500000000000000       0.65625000000000000        0.0000000000000000     
   0.0000000000000000       0.68750000000000000        0.0000000000000000     
   3.1250000000000000E-002  0.68750000000000000        0.0000000000000000     
   6.2500000000000000E-002  0.68750000000000000        0.0000000000000000     
   9.3750000000000000E-002  0.68750000000000000        0.0000000000000000     
  0.12500000000000000       0.68750000000000000        0.0000000000000000     
   0.0000000000000000       0.71875000000000000        0.0000000000000000     
   3.1250000000000000E-002  0.71875000000000000        0.0000000000000000     
   6.2500000000000000E-002  0.71875000000000000        0.0000000000000000     
   9.3750000000000000E-002  0.71875000000000000        0.0000000000000000     
  0.12500000000000000       0.71875000000000000        0.0000000000000000     
   0.0000000000000000       0.75000000000000000        0.0000000000000000     
   3.1250000000000000E-002  0.75000000000000000        0.0000000000000000     
   6.2500000000000000E-002  0.75000000000000000        0.0000000000000000     
   9.3750000000000000E-002  0.75000000000000000        0.0000000000000000     
  0.12500000000000000       0.75000000000000000        0.0000000000000000     
  0.12500000000000000       0.62500000000000000        0.0000000000000000     
  0.15625000000000000       0.62500000000000000        0.0000000000000000     
  0.18750000000000000       0.62500000000000000        0.0000000000000000     
  0.21875000000000000       0.62500000000000000        0.0000000000000000     
  0.25000000000000000       0.62500000000000000        0.0000000000000000     
  0.12500000000000000       0.65625000000000000        0.0000000000000000     
  0.15625000000000000       0.65625000000000000        0.0000000000000000     
  0.18750000000000000       0.65625000000000000        0.0000000000000000     
  0.21875000000000000       0.65625000000000000        0.0000000000000000     
  0.25000000000000000       0.65625000000000000        0.0000000000000000     
  0.12500000000000000       0.68750000000000000        0.0000000000000000     
  0.15625000000000000       0.68750000000000000        0.0000000000000000     
  0.18750000000000000       0.68750000000000000        0.0000000000000000     
  0.21875000000000000       0.68750000000000000        0.0000000000000000     
  0.25000000000000000       0.68750000000000000        0.0000000000000000     
  0.12500000000000000       0.71875000000000000        0.0000000000000000     
  0.15625000000000000       0.71875000000000000        0.0000000000000000     
  0.18750000000000000       0.71875000000000000        0.0000000000000000     
  0.21875000000000000       0.71875000000000000        0.0000000000000000     
  0.25000000000000000       0.71875000000000000        0.0000000000000000     
  0.12500000000000000       0.75000000000000000        0.0000000000000000     
  0.15625000000000000       0.75000000000000000        0.0000000000000000     
  0.18750000000000000       0.75000000000000000        0.0000000000000000     
  0.21875000000000000       0.75000000000000000        0.0000000000000000     
  0.25000000000000000       0.75000000000000000        0.0000000000000000     
  0.25000000000000000       0.62500000000000000        0.0000000000000000     
  0.28125000000000000       0.62500000000000000        0.0000000000000000     
  0.31250000000000000       0.62500000000000000        0.0000000000000000     
  0.34375000000000000       0.62500000000000000        0.0000000000000000     
  0.37500000000000000       0.62500000000000000        0.0000000000000000     
  0.25000000000000000       0.65625000000000000        0.0000000000000000     
  0.28125000000000000       0.65625000000000000        0.0000000000000000     
  0.31250000000000000       0.65625000000000000        0.0000000000000000     
  0.34375000000000000       0.65625000000000000        0.0000000000000000     
  0.37500000000000000       0.65625000000000000        0.0000000000000000     
  0.25000000000000000       0.68750000000000000        0.0000000000000000     
  0.28125000000000000       0.68750000000000000        0.0000000000000000     
  0.31250000000000000       0.68750000000000000        0.0000000000000000     
  0.34375000000000000       0.68750000000000000        0.0000000000000000     
  0.37500000000000000       0.68750000000000000        0.0000000000000000     
  0.25000000000000000       0.71875000000000000        0.0000000000000000     
  0.28125000000000000       0.71875000000000000        0.0000000000000000     
  0.31250000000000000       0.71875000000000000        0.0000000000000000     
  0.34375000000000000       0.71875000000000000        0.0000000000000000     
  0.37500000000000000       0.71875000000000000        0.0000000000000000     
  0.25000000000000000       0.75000000000000000        0.0000000000000000     
  0.28125000000000000       0.75000000000000000        0.0000000000000000     
  0.31250000000000000       0.75000000000000000        0.0000000000000000     
  0.34375000000000000       0.75000000000000000        0.0000000000000000     
  0.37500000000000000       0.75000000000000000        0.0000000000000000     
  0.37500000000000000       0.62500000000000000        0.0000000000000000     
  0.40625000000000000       0.62500000000000000        0.0000000000000000     
  0.43750000000000000       0.62500000000000000        0.0000000000000000     
  0.46875000000000000       0.62500000000000000        0.0000000000000000     
  0.50000000000000000       0.62500000000000000        0.0000000000000000     
  0.37500000000000000       0.65625000000000000        0.0000000000000000     
  0.40625000000000000       0.65625000000000000        0.0000000000000000     
  0.43750000000000000       0.65625000000000000        0.0000000000000000     
  0.46875000000000000       0.65625000000000000        0.0000000000000000     
  0.50000000000000000       0.65625000000000000        0.0000000000000000     
  0.37500000000000000       0.68750000000000000        0.0000000000000000     
  0.40625000000000000       0.68750000000000000        0.0000000000000000     
  0.43750000000000000       0.68750000000000000        0.0000000000000000     
  0.46875000000000000       0.68750000000000000        0.0000000000000000     
  0.50000000000000000       0.68750000000000000        0.0000000000000000     
  0.37500000000000000       0.71875000000000000        0.0000000000000000     
  0.40625000000000000       0.71875000000000000        0.0000000000000000     
  0.43750000000000000       0.71875000000000000        0.0000000000000000     
  0.46875000000000000       0.71875000000000000        0.0000000000000000     
  0.50000000000000000       0.71875000000000000        0.0000000000000000     
  0.37500000000000000       0.75000000000000000        0.0000000000000000     
  0.40625000000000000       0.75000000000000000        0.0000000000000000     
  0.43750000000000000       0.75000000000000000        0.0000000000000000     
  0.46875000000000000       0.75000000000000000        0.0000000000000000     
  0.50000000000000000       0.75000000000000000        0.0000000000000000     
  0.50000000000000000       0.62500000000000000        0.0000000000000000     
  0.53125000000000000       0.62500000000000000        0.0000000000000000     
  0.56250000000000000       0.62500000000000000        0.0000000000000000     
  0.59375000000000000       0.62500000000000000        0.0000000000000000     
  0.62500000000000000       0.62500000000000000        0.0000000000000000     
  0.50000000000000000       0.65625000000000000        0.0000000000000000     
  0.53125000000000000       0.65625000000000000        0.0000000000000000     
  0.56250000000000000       0.65625000000000000        0.0000000000000000     
  0.59375000000000000       0.65625000000000000        0.0000000000000000     
  0.62500000000000000       0.65625000000000000        0.0000000000000000     
  0.50000000000000000       0.68750000000000000        0.0000000000000000     
  0.53125000000000000       0.68750000000000000        0.0000000000000000     
  0.56250000000000000       0.68750000000000000        0.0000000000000000     
  0.59375000000000000       0.68750000000000000        0.0000000000000000     
  0.62500000000000000       0.68750000000000000        0.0000000000000000     
  0.50000000000000000       0.71875000000000000        0.0000000000000000     
  0.53125000000000000       0.71875000000000000        0.0000000000000000     
  0.56250000000000000       0.71875000000000000        0.0000000000000000     
  0.59375000000000000       0.71875000000000000        0.0000000000000000     
  0.62500000000000000       0.71875000000000000        0.0000000000000000     
  0.50000000000000000       0.75000000000000000        0.0000000000000000     
  0.53125000000000000       0.75000000000000000        0.0000000000000000     
  0.56250000000000000       0.75000000000000000        0.0000000000000000     
  0.59375000000000000       0.75000000000000000        0.0000000000000000     
  0.62500000000000000       0.75000000000000000        0.0000000000000000     
  0.62500000000000000       0.62500000000000000        0.0000000000000000     
  0.65625000000000000       0.62500000000000000        0.0000000000000000     
  0.68750000000000000       0.62500000000000000        0.0000000000000000     
  0.71875000000000000       0.62500000000000000        0.0000000000000000     
  0.75000000000000000       0.62500000000000000        0.0000000000000000     
  0.62500000000000000       0.65625000000000000        0.0000000000000000     
  0.65625000000000000       0.65625000000000000        0.0000000000000000     
  0.68750000000000000       0.65625000000000000        0.0000000000000000     
  0.71875000000000000       0.65625000000000000        0.0000000000000000     
  0.75000000000000000       0.65625000000000000        0.0000000000000000     
  0.62500000000000000       0.68750000000000000        0.0000000000000000     
  0.65625000000000000       0.68750000000000000        0.0000000000000000     
  0.68750000000000000       0.68750000000000000        0.0000000000000000     
  0.71875000000000000       0.68750000000000000        0.0000000000000000     
  0.75000000000000000       0.68750000000000000        0.0000000000000000     
  0.62500000000000000       0.71875000000000000        0.0000000000000000     
  0.65625000000000000       0.71875000000000000        0.0000000000000000     
  0.68750000000000000       0.71875000000000000        0.0000000000000000     
  0.71875000000000000       0.71875000000000000        0.0000000000000000     
  0.75000000000000000       0.71875000000000000        0.0000000000000000     
  0.62500000000000000       0.75000000000000000        0.0000000000000000     
  0.65625000000000000       0.75000000000000000        0.0000000000000000     
  0.68750000000000000       0.75000000000000000        0.0000000000000000     
  0.71875000000000000       0.75000000000000000        0.0000000000000000     
  0.75000000000000000       0.75000000000000000        0.0000000000000000     
  0.75000000000000000       0.62500000000000000        0.0000000000000000     
  0.78125000000000000       0.62500000000000000        0.0000000000000000     
  0.81250000000000000       0.62500000000000000        0.0000000000000000     
  0.84375000000000000       0.62500000000000000        0.0000000000000000     
  0.87500000000000000       0.62500000000000000        0.0000000000000000     
  0.75000000000000000       0.65625000000000000        0.0000000000000000     
  0.78125000000000000       0.65625000000000000        0.0000000000000000     
  0.81250000000000000       0.65625000000000000        0.0000000000000000     
  0.84375000000000000       0.65625000000000000        0.0000000000000000     
  0.87500000000000000       0.65625000000000000        0.0000000000000000     
  0.75000000000000000       0.68750000000000000        0.0000000000000000     
  0.78125000000000000       0.68750000000000000        0.0000000000000000     
  0.81250000000000000       0.68750000000000000        0.0000000000000000     
  0.84375000000000000       0.68750000000000000        0.0000000000000000     
  0.87500000000000000       0.68750000000000000        0.0000000000000000     
  0.75000000000000000       0.71875000000000000        0.0000000000000000     
  0.78125000000000000       0.71875000000000000        0.0000000000000000     
  0.81250000000000000       0.71875000000000000        0.0000000000000000     
  0.84375000000000000       0.71875000000000000        0.0000000000000000     
  0.87500000000000000       0.71875000000000000        0.0000000000000000     
  0.75000000000000000       0.75000000000000000        0.0000000000000000     
  0.78125000000000000       0.75000000000000000        0.0000000000000000     
  0.81250000000000000       0.75000000000000000        0.0000000000000000     
  0.84375000000000000       0.75000000000000000        0.0000000000000000     
  0.87500000000000000       0.75000000000000000        0.0000000000000000     
  0.87500000000000000       0.62500000000000000        0.0000000000000000     
  0.90625000000000000       0.62500000000000000        0.0000000000000000     
  0.93750000000000000       0.62500000000000000        0.0000000000000000     
  0.96875000000000000       0.62500000000000000        0.0000000000000000     
   1.0000000000000000       0.62500000000000000        0.0000000000000000     
  0.87500000000000000       0.65625000000000000        0.0000000000000000     
  0.90625000000000000       0.65625000000000000        0.0000000000000000     
  0.93750000000000000       0.65625000000000000        0.0000000000000000     
  0.96875000000000000       0.65625000000000000        0.0000000000000000     
   1.0000000000000000       0.65625000000000000        0.0000000000000000     
  0.87500000000000000       0.68750000000000000        0.0000000000000000     
  0.90625000000000000       0.68750000000000000        0.0000000000000000     
  0.93750000000000000       0.68750000000000000        0.0000000000000000     
  0.96875000000000000       0.68750000000000000        0.0000000000000000     
   1.0000000000000000       0.68750000000000000        0.0000000000000000     
  0.87500000000000000       0.71875000000000000        0.0000000000000000     
  0.90625000000000000       0.71875000000000000        0.0000000000000000     
  0.93750000000000000       0.71875000000000000        0.0000000000000000     
  0.96875000000000000       0.71875000000000000        0.0000000000000000     
   1.0000000000000000       0.71875000000000000        0.0000000000000000     
  0.87500000000000000       0.75000000000000000        0.0000000000000000     
  0.90625000000000000       0.75000000000000000        0.0000000000000000     
  0.93750000000000000       0.75000000000000000        0.0000000000000000     
  0.96875000000000000       0.75000000000000000        0.0000000000000000     
   1.0000000000000000       0.75000000000000000        0.0000000000000000     
   0.0000000000000000       0.75000000000000000        0.0000000000000000     
   3.1250000000000000E-002  0.75000000000000000        0.0000000000000000     
   6.2500000000000000E-002  0.75000000000000000        0.0000000000000000     
   9.3750000000000000E-002  0.75000000000000000        0.0000000000000000     
  0.12500000000000000       0.75000000000000000        0.0000000000000000     
   0.0000000000000000       0.78125000000000000        0.0000000000000000     
   3.1250000000000000E-002  0.78125000000000000        0.0000000000000000     
   6.2500000000000000E-002  0.78125000000000000        0.0000000000000000     
   9.3750000000000000E-002  0.78125000000000000        0.0000000000000000     
  0.12500000000000000       0.78125000000000000        0.0000000000000000     
   0.0000000000000000       0.81250000000000000        0.0000000000000000     
   3.1250000000000000E-002  0.81250000000000000        0.0000000000000000     
   6.2500000000000000E-002  0.81250000000000000        0.0000000000000000     
   9.3750000000000000E-002  0.81250000000000000        0.0000000000000000     
  0.12500000000000000       0.81250000000000000        0.0000000000000000     
   0.0000000000000000       0.84375000000000000        0.0000000000000000     
   3.1250000000000000E-002  0.84375000000000000        0.0000000000000000     
   6.2500000000000000E-002  0.84375000000000000        0.0000000000000000     
   9.3750000000000000E-002  0.84375000000000000        0.0000000000000000     
  0.12500000000000000       0.84375000000000000        0.0000000000000000     
   0.0000000000000000       0.87500000000000000        0.0000000000000000     
   3.1250000000000000E-002  0.87500000000000000        0.0000000000000000     
   6.2500000000000000E-002  0.87500000000000000        0.0000000000000000     
   9.3750000000000000E-002  0.87500000000000000        0.0000000000000000     
  0.12500000000000000       0.87500000000000000        0.0000000000000000     
  0.12500000000000000       0.75000000000000000        0.0000000000000000     
  0.15625000000000000       0.75000000000000000        0.0000000000000000     
  0.18750000000000000       0.75000000000000000        0.0000000000000000     
  0.21875000000000000       0.75000000000000000        0.0000000000000000     
  0.25000000000000000       0.75000000000000000        0.0000000000000000     
  0.12500000000000000       0.78125000000000000        0.0000000000000000     
  0.15625000000000000       0.78125000000000000        0.0000000000000000     
  0.18750000000000000       0.78125000000000000        0.0000000000000000     
  0.21875000000000000       0.78125000000000000        0.0000000000000000     
  0.25000000000000000       0.78125000000000000        0.0000000000000000     
  0.12500000000000000       0.81250000000000000        0.0000000000000000     
  0.15625000000000000       0.81250000000000000        0.0000000000000000     
  0.18750000000000000       0.81250000000000000        0.0000000000000000     
  0.21875000000000000       0.81250000000000000        0.0000000000000000     
  0.25000000000000000       0.81250000000000000        0.0000000000000000     
  0.12500000000000000       0.84375000000000000        0.0000000000000000     
  0.15625000000000000       0.84375000000000000        0.0000000000000000     
  0.18750000000000000       0.84375000000000000        0.0000000000000000     
  0.21875000000000000       0.84375000000000000        0.0000000000000000     
  0.25000000000000000       0.84375000000000000        0.0000000000000000     
  0.12500000000000000       0.87500000000000000        0.0000000000000000     
  0.15625000000000000       0.87500000000000000        0.0000000000000000     
  0.18750000000000000       0.87500000000000000        0.0000000000000000     
  0.21875000000000000       0.87500000000000000        0.0000000000000000     
  0.25000000000000000       0.87500000000000000        0.0000000000000000     
  0.25000000000000000       0.75000000000000000        0.0000000000000000     
  0.28125000000000000       0.75000000000000000        0.0000000000000000     
  0.31250000000000000       0.75000000000000000        0.0000000000000000     
  0.34375000000000000       0.75000000000000000        0.0000000000000000     
  0.37500000000000000       0.75000000000000000        0.0000000000000000     
  0.25000000000000000       0.78125000000000000        0.0000000000000000     
  0.28125000000000000       0.78125000000000000        0.0000000000000000     
  0.31250000000000000       0.78125000000000000        0.0000000000000000     
  0.34375000000000000       0.78125000000000000        0.0000000000000000     
  0.37500000000000000       0.78125000000000000        0.0000000000000000     
  0.25000000000000000       0.81250000000000000        0.0000000000000000     
  0.28125000000000000       0.81250000000000000        0.0000000000000000     
  0.31250000000000000       0.81250000000000000        0.0000000000000000     
  0.34375000000000000       0.81250000000000000        0.0000000000000000     
  0.37500000000000000       0.81250000000000000        0.0000000000000000     
  0.25000000000000000       0.84375000000000000        0.0000000000000000     
  0.28125000000000000       0.84375000000000000        0.0000000000000000     
  0.31250000000000000       0.84375000000000000        0.0000000000000000     
  0.34375000000000000       0.84375000000000000        0.0000000000000000     
  0.37500000000000000       0.84375000000000000        0.0000000000000000     
  0.25000000000000000       0.87500000000000000        0.0000000000000000     
  0.28125000000000000       0.87500000000000000        0.0000000000000000     
  0.31250000000000000       0.87500000000000000        0.0000000000000000     
  0.34375000000000000       0.87500000000000000        0.0000000000000000     
  0.37500000000000000       0.87500000000000000        0.0000000000000000     
  0.37500000000000000       0.75000000000000000        0.0000000000000000     
  0.40625000000000000       0.75000000000000000        0.0000000000000000     
  0.43750000000000000       0.75000000000000000        0.0000000000000000     
  0.46875000000000000       0.75000000000000000        0.0000000000000000     
  0.50000000000000000       0.75000000000000000        0.0000000000000000     
  0.37500000000000000       0.78125000000000000        0.0000000000000000     
  0.40625000000000000       0.78125000000000000        0.0000000000000000     
  0.43750000000000000       0.78125000000000000        0.0000000000000000     
  0.46875000000000000       0.78125000000000000        0.0000000000000000     
  0.50000000000000000       0.78125000000000000        0.0000000000000000     
  0.37500000000000000       0.81250000000000000        0.0000000000000000     
  0.40625000000000000       0.81250000000000000        0.0000000000000000     
  0.43750000000000000       0.81250000000000000        0.0000000000000000     
  0.46875000000000000       0.81250000000000000        0.0000000000000000     
  0.50000000000000000       0.81250000000000000        0.0000000000000000     
  0.37500000000000000       0.84375000000000000        0.0000000000000000     
  0.40625000000000000       0.84375000000000000        0.0000000000000000     
  0.43750000000000000       0.84375000000000000        0.0000000000000000     
  0.46875000000000000       0.84375000000000000        0.0000000000000000     
  0.50000000000000000       0.84375000000000000        0.0000000000000000     
  0.37500000000000000       0.87500000000000000        0.0000000000000000     
  0.40625000000000000       0.87500000000000000        0.0000000000000000     
  0.43750000000000000       0.87500000000000000        0.0000000000000000     
  0.46875000000000000       0.87500000000000000        0.0000000000000000     
  0.50000000000000000       0.87500000000000000        0.0000000000000000     
  0.50000000000000000       0.75000000000000000        0.0000000000000000     
  0.53125000000000000       0.75000000000000000        0.0000000000000000     
  0.56250000000000000       0.75000000000000000        0.0000000000000000     
  0.59375000000000000       0.75000000000000000        0.0000000000000000     
  0.62500000000000000       0.75000000000000000        0.0000000000000000     
  0.50000000000000000       0.78125000000000000        0.0000000000000000     
  0.53125000000000000       0.78125000000000000        0.0000000000000000     
  0.56250000000000000       0.78125000000000000        0.0000000000000000     
  0.59375000000000000       0.78125000000000000        0.0000000000000000     
  0.62500000000000000       0.78125000000000000        0.0000000000000000     
  0.50000000000000000       0.81250000000000000        0.0000000000000000     
  0.53125000000000000       0.81250000000000000        0.0000000000000000     
  0.56250000000000000       0.81250000000000000        0.0000000000000000     
  0.59375000000000000       0.81250000000000000        0.0000000000000000     
  0.62500000000000000       0.81250000000000000        0.0000000000000000     
  0.50000000000000000       0.84375000000000000        0.0000000000000000     
  0.53125000000000000       0.84375000000000000        0.0000000000000000     
  0.56250000000000000       0.84375000000000000        0.0000000000000000     
  0.59375000000000000       0.84375000000000000        0.0000000000000000     
  0.62500000000000000       0.84375000000000000        0.0000000000000000     
  0.50000000000000000       0.87500000000000000        0.0000000000000000     
  0.53125000000000000       0.87500000000000000        0.0000000000000000     
  0.56250000000000000       0.87500000000000000        0.0000000000000000     
  0.59375000000000000       0.87500000000000000        0.0000000000000000     
  0.62500000000000000       0.87500000000000000        0.0000000000000000     
  0.62500000000000000       0.75000000000000000        0.0000000000000000     
  0.65625000000000000       0.75000000000000000        0.0000000000000000     
  0.68750000000000000       0.75000000000000000        0.0000000000000000     
  0.71875000000000000       0.75000000000000000        0.0000000000000000     
  0.75000000000000000       0.75000000000000000        0.0000000000000000     
  0.62500000000000000       0.78125000000000000        0.0000000000000000     
  0.65625000000000000       0.78125000000000000        0.0000000000000000     
  0.68750000000000000       0.78125000000000000        0.0000000000000000     
  0.71875000000000000       0.78125000000000000        0.0000000000000000     
  0.75000000000000000       0.78125000000000000        0.0000000000000000     
  0.62500000000000000       0.81250000000000000        0.0000000000000000     
  0.65625000000000000       0.81250000000000000        0.0000000000000000     
  0.68750000000000000       0.81250000000000000        0.0000000000000000     
  0.71875000000000000       0.81250000000000000        0.0000000000000000     
  0.75000000000000000       0.81250000000000000        0.0000000000000000     
  0.62500000000000000       0.84375000000000000        0.0000000000000000     
  0.65625000000000000       0.84375000000000000        0.0000000000000000     
  0.68750000000000000       0.84375000000000000        0.0000000000000000     
  0.71875000000000000       0.84375000000000000        0.0000000000000000     
  0.75000000000000000       0.84375000000000000        0.0000000000000000     
  0.62500000000000000       0.87500000000000000        0.0000000000000000     
  0.65625000000000000       0.87500000000000000        0.0000000000000000     
  0.68750000000000000       0.87500000000000000        0.0000000000000000     
  0.71875000000000000       0.87500000000000000        0.0000000000000000     
  0.75000000000000000       0.87500000000000000        0.0000000000000000     
  0.75000000000000000       0.75000000000000000        0.0000000000000000     
  0.78125000000000000       0.75000000000000000        0.0000000000000000     
  0.81250000000000000       0.75000000000000000        0.0000000000000000     
  0.84375000000000000       0.75000000000000000        0.0000000000000000     
  0.87500000000000000       0.75000000000000000        0.0000000000000000     
  0.75000000000000000       0.78125000000000000        0.0000000000000000     
  0.78125000000000000       0.78125000000000000        0.0000000000000000     
  0.81250000000000000       0.78125000000000000        0.0000000000000000     
  0.84375000000000000       0.78125000000000000        0.0000000000000000     
  0.87500000000000000       0.78125000000000000        0.0000000000000000     
  0.75000000000000000       0.81250000000000000        0.0000000000000000     
  0.78125000000000000       0.81250000000000000        0.0000000000000000     
  0.81250000000000000       0.81250000000000000        0.0000000000000000     
  0.84375000000000000       0.81250000000000000        0.0000000000000000     
  0.87500000000000000       0.81250000000000000        0.0000000000000000     
  0.75000000000000000       0.84375000000000000        0.0000000000000000     
  0.78125000000000000       0.84375000000000000        0.0000000000000000     
  0.81250000000000000       0.84375000000000000        0.0000000000000000     
  0.84375000000000000       0.84375000000000000        0.0000000000000000     
  0.87500000000000000       0.84375000000000000        0.0000000000000000     
  0.75000000000000000       0.87500000000000000        0.0000000000000000     
  0.78125000000000000       0.87500000000000000        0.0000000000000000     
  0.81250000000000000       0.87500000000000000        0.0000000000000000     
  0.84375000000000000       0.87500000000000000        0.0000000000000000     
  0.87500000000000000       0.87500000000000000        0.0000000000000000     
  0.87500000000000000       0.75000000000000000        0.0000000000000000     
  0.90625000000000000       0.75000000000000000        0.0000000000000000     
  0.93750000000000000       0.75000000000000000        0.0000000000000000     
  0.96875000000000000       0.75000000000000000        0.0000000000000000     
   1.0000000000000000       0.75000000000000000        0.0000000000000000     
  0.87500000000000000       0.78125000000000000        0.0000000000000000     
  0.90625000000000000       0.78125000000000000        0.0000000000000000     
  0.93750000000000000       0.78125000000000000        0.0000000000000000     
  0.96875000000000000       0.78125000000000000        0.0000000000000000     
   1.0000000000000000       0.78125000000000000        0.0000000000000000     
  0.87500000000000000       0.81250000000000000        0.0000000000000000     
  0.90625000000000000       0.81250000000000000        0.0000000000000000     
  0.93750000000000000       0.81250000000000000        0.0000000000000000     
  0.96875000000000000       0.81250000000000000        0.0000000000000000     
   1.0000000000000000       0.81250000000000000        0.0000000000000000     
  0.87500000000000000       0.84375000000000000        0.0000000000000000     
  0.90625000000000000       0.84375000000000000        0.0000000000000000     
  0.93750000000000000       0.84375000000000000        0.0000000000000000     
  0.96875000000000000       0.84375000000000000        0.0000000000000000     
   1.0000000000000000       0.84375000000000000        0.0000000000000000     
  0.87500000000000000       0.87500000000000000        0.0000000000000000     
  0.90625000000000000       0.87500000000000000        0.0000000000000000     
  0.93750000000000000       0.87500000000000000        0.0000000000000000     
  0.96875000000000000       0.87500000000000000        0.0000000000000000     
   1.0000000000000000       0.87500000000000000        0.0000000000000000     
   0.0000000000000000       0.87500000000000000        0.0000000000000000     
   3.1250000000000000E-002  0.87500000000000000        0.0000000000000000     
   6.2500000000000000E-002  0.87500000000000000        0.0000000000000000     
   9.3750000000000000E-002  0.87500000000000000        0.0000000000000000     
  0.12500000000000000       0.87500000000000000        0.0000000000000000     
   0.0000000000000000       0.90625000000000000        0.0000000000000000     
   3.1250000000000000E-002  0.90625000000000000        0.0000000000000000     
   6.2500000000000000E-002  0.90625000000000000        0.0000000000000000     
   9.3750000000000000E-002  0.90625000000000000        0.0000000000000000     
  0.12500000000000000       0.90625000000000000        0.0000000000000000     
   0.0000000000000000       0.93750000000000000        0.0000000000000000     
   3.1250000000000000E-002  0.93750000000000000        0.0000000000000000     
   6.2500000000000000E-002  0.93750000000000000        0.0000000000000000     
   9.3750000000000000E-002  0.93750000000000000        0.0000000000000000     
  0.12500000000000000       0.93750000000000000        0.0000000000000000     
   0.0000000000000000       0.96875000000000000        0.0000000000000000     
   3.1250000000000000E-002  0.96875000000000000        0.0000000000000000     
   6.2500000000000000E-002  0.96875000000000000        0.0000000000000000     
   9.3750000000000000E-002  0.96875000000000000        0.0000000000000000     
  0.12500000000000000       0.96875000000000000        0.0000000000000000     
   0.0000000000000000        1.0000000000000000        0.0000000000000000     
   3.1250000000000000E-002   1.0000000000000000        0.0000000000000000     
   6.2500000000000000E-002   1.0000000000000000        0.0000000000000000     
   9.3750000000000000E-002   1.0000000000000000        0.0000000000000000     
  0.12500000000000000        1.0000000000000000        0.0000000000000000     
  0.12500000000000000       0.87500000000000000        0.0000000000000000     
  0.15625000000000000       0.87500000000000000        0.0000000000000000     
  0.18750000000000000       0.87500000000000000        0.0000000000000000     
  0.21875000000000000       0.87500000000000000        0.0000000000000000     
  0.25000000000000000       0.87500000000000000        0.0000000000000000     
  0.12500000000000000       0.90625000000000000        0.0000000000000000     
  0.15625000000000000       0.90625000000000000        0.0000000000000000     
  0.18750000000000000       0.90625000000000000        0.0000000000000000     
  0.21875000000000000       0.90625000000000000        0.0000000000000000     
  0.25000000000000000       0.90625000000000000        0.0000000000000000     
  0.12500000000000000       0.93750000000000000        0.0000000000000000     
  0.15625000000000000       0.93750000000000000        0.0000000000000000     
  0.18750000000000000       0.93750000000000000        0.0000000000000000     
  0.21875000000000000       0.93750000000000000        0.0000000000000000     
  0.25000000000000000       0.93750000000000000        0.0000000000000000     
  0.12500000000000000       0.96875000000000000        0.0000000000000000     
  0.15625000000000000       0.96875000000000000        0.0000000000000000     
  0.18750000000000000       0.96875000000000000        0.0000000000000000     
  0.21875000000000000       0.96875000000000000        0.0000000000000000     
  0.25000000000000000       0.96875000000000000        0.0000000000000000     
  0.12500000000000000        1.0000000000000000        0.0000000000000000     
  0.15625000000000000        1.0000000000000000        0.0000000000000000     
  0.18750000000000000        1.0000000000000000        0.0000000000000000     
  0.21875000000000000        1.0000000000000000        0.0000000000000000     
  0.25000000000000000        1.0000000000000000        0.0000000000000000     
  0.25000000000000000       0.87500000000000000        0.0000000000000000     
  0.28125000000000000       0.87500000000000000        0.0000000000000000     
  0.31250000000000000       0.87500000000000000        0.0000000000000000     
  0.34375000000000000       0.87500000000000000        0.0000000000000000     
  0.37500000000000000       0.87500000000000000        0.0000000000000000     
  0.25000000000000000       0.90625000000000000        0.0000000000000000     
  0.28125000000000000       0.90625000000000000        0.0000000000000000     
  0.31250000000000000       0.90625000000000000        0.0000000000000000     
  0.34375000000000000       0.90625000000000000        0.0000000000000000     
  0.37500000000000000       0.90625000000000000        0.0000000000000000     
  0.25000000000000000       0.93750000000000000        0.0000000000000000     
  0.28125000000000000       0.93750000000000000        0.0000000000000000     
  0.31250000000000000       0.93750000000000000        0.0000000000000000     
  0.34375000000000000       0.93750000000000000        0.0000000000000000     
  0.37500000000000000       0.93750000000000000        0.0000000000000000     
  0.25000000000000000       0.96875000000000000        0.0000000000000000     
  0.28125000000000000       0.96875000000000000        0.0000000000000000     
  0.31250000000000000       0.96875000000000000        0.0000000000000000     
  0.34375000000000000       0.96875000000000000        0.0000000000000000     
  0.37500000000000000       0.96875000000000000        0.0000000000000000     
  0.25000000000000000        1.0000000000000000        0.0000000000000000     
  0.28125000000000000        1.0000000000000000        0.0000000000000000     
  0.31250000000000000        1.0000000000000000        0.0000000000000000     
  0.34375000000000000        1.0000000000000000        0.0000000000000000     
  0.37500000000000000        1.0000000000000000        0.0000000000000000     
  0.37500000000000000       0.87500000000000000        0.0000000000000000     
  0.40625000000000000       0.87500000000000000        0.0000000000000000     
  0.43750000000000000       0.87500000000000000        0.0000000000000000     
  0.46875000000000000       0.87500000000000000        0.0000000000000000     
  0.50000000000000000       0.87500000000000000        0.0000000000000000     
  0.37500000000000000       0.90625000000000000        0.0000000000000000     
  0.40625000000000000       0.90625000000000000        0.0000000000000000     
  0.43750000000000000       0.90625000000000000        0.0000000000000000     
  0.46875000000000000       0.90625000000000000        0.0000000000000000     
  0.50000000000000000       0.90625000000000000        0.0000000000000000     
  0.37500000000000000       0.93750000000000000        0.0000000000000000     
  0.40625000000000000       0.93750000000000000        0.0000000000000000     
  0.43750000000000000       0.93750000000000000        0.0000000000000000     
  0.46875000000000000       0.93750000000000000        0.0000000000000000     
  0.50000000000000000       0.93750000000000000        0.0000000000000000     
  0.37500000000000000       0.96875000000000000        0.0000000000000000     
  0.40625000000000000       0.96875000000000000        0.0000000000000000     
  0.43750000000000000       0.96875000000000000        0.0000000000000000     
  0.46875000000000000       0.96875000000000000        0.0000000000000000     
  0.50000000000000000       0.96875000000000000        0.0000000000000000     
  0.37500000000000000        1.0000000000000000        0.0000000000000000     
  0.40625000000000000        1.0000000000000000        0.0000000000000000     
  0.43750000000000000        1.0000000000000000        0.0000000000000000     
  0.46875000000000000        1.0000000000000000        0.0000000000000000     
  0.50000000000000000        1.0000000000000000        0.0000000000000000     
  0.50000000000000000       0.87500000000000000        0.0000000000000000     
  0.53125000000000000       0.87500000000000000        0.0000000000000000     
  0.56250000000000000       0.87500000000000000        0.0000000000000000     
  0.59375000000000000       0.87500000000000000        0.0000000000000000     
  0.62500000000000000       0.87500000000000000        0.0000000000000000     
  0.50000000000000000       0.90625000000000000        0.0000000000000000     
  0.53125000000000000       0.90625000000000000        0.0000000000000000     
  0.56250000000000000       0.90625000000000000        0.0000000000000000     
  0.59375000000000000       0.90625000000000000        0.0000000000000000     
  0.62500000000000000       0.90625000000000000        0.0000000000000000     
  0.50000000000000000       0.93750000000000000        0.0000000000000000     
  0.53125000000000000       0.93750000000000000        0.0000000000000000     
  0.56250000000000000       0.93750000000000000        0.0000000000000000     
  0.59375000000000000       0.93750000000000000        0.0000000000000000     
  0.62500000000000000       0.93750000000000000        0.0000000000000000     
  0.50000000000000000       0.96875000000000000        0.0000000000000000     
  0.53125000000000000       0.96875000000000000        0.0000000000000000     
  0.56250000000000000       0.96875000000000000        0.0000000000000000     
  0.59375000000000000       0.96875000000000000        0.0000000000000000     
  0.62500000000000000       0.96875000000000000        0.0000000000000000     
  0.50000000000000000        1.0000000000000000        0.0000000000000000     
  0.53125000000000000        1.0000000000000000        0.0000000000000000     
  0.56250000000000000        1.0000000000000000        0.0000000000000000     
  0.59375000000000000        1.0000000000000000        0.0000000000000000     
  0.62500000000000000        1.0000000000000000        0.0000000000000000     
  0.62500000000000000       0.87500000000000000        0.0000000000000000     
  0.65625000000000000       0.87500000000000000        0.0000000000000000     
  0.68750000000000000       0.87500000000000000        0.0000000000000000     
  0.71875000000000000       0.87500000000000000        0.0000000000000000     
  0.75000000000000000       0.87500000000000000        0.0000000000000000     
  0.62500000000000000       0.90625000000000000        0.0000000000000000     
  0.65625000000000000       0.90625000000000000        0.0000000000000000     
  0.68750000000000000       0.90625000000000000        0.0000000000000000     
  0.71875000000000000       0.90625000000000000        0.0000000000000000     
  0.75000000000000000       0.90625000000000000        0.0000000000000000     
  0.62500000000000000       0.93750000000000000        0.0000000000000000     
  0.65625000000000000       0.93750000000000000        0.0000000000000000     
  0.68750000000000000       0.93750000000000000        0.0000000000000000     
  0.71875000000000000       0.93750000000000000        0.0000000000000000     
  0.75000000000000000       0.93750000000000000        0.0000000000000000     
  0.62500000000000000       0.96875000000000000        0.0000000000000000     
  0.65625000000000000       0.96875000000000000        0.0000000000000000     
  0.68750000000000000       0.96875000000000000        0.0000000000000000     
  0.71875000000000000       0.96875000000000000        0.0000000000000000     
  0.75000000000000000       0.96875000000000000        0.0000000000000000     
  0.62500000000000000        1.0000000000000000        0.0000000000000000     
  0.65625000000000000        1.0000000000000000        0.0000000000000000     
  0.68750000000000000        1.0000000000000000        0.0000000000000000     
  0.71875000000000000        1.0000000000000000        0.0000000000000000     
  0.75000000000000000        1.0000000000000000        0.0000000000000000     
  0.75000000000000000       0.87500000000000000        0.0000000000000000     
  0.78125000000000000       0.87500000000000000        0.0000000000000000     
  0.81250000000000000       0.87500000000000000        0.0000000000000000     
  0.84375000000000000       0.87500000000000000        0.0000000000000000     
  0.87500000000000000       0.87500000000000000        0.0000000000000000     
  0.75000000000000000       0.90625000000000000        0.0000000000000000     
  0.78125000000000000       0.90625000000000000        0.0000000000000000     
  0.81250000000000000       0.90625000000000000        0.0000000000000000     
  0.84375000000000000       0.90625000000000000        0.0000000000000000     
  0.87500000000000000       0.90625000000000000        0.0000000000000000     
  0.75000000000000000       0.93750000000000000        0.0000000000000000     
  0.78125000000000000       0.93750000000000000        0.0000000000000000     
  0.81250000000000000       0.93750000000000000        0.0000000000000000     
  0.84375000000000000       0.93750000000000000        0.0000000000000000     
  0.87500000000000000       0.93750000000000000        0.0000000000000000     
  0.75000000000000000       0.96875000000000000        0.0000000000000000     
  0.78125000000000000       0.96875000000000000        0.0000000000000000     
  0.81250000000000000       0.96875000000000000        0.0000000000000000     
  0.84375000000000000       0.96875000000000000        0.0000000000000000     
  0.87500000000000000       0.96875000000000000        0.0000000000000000     
  0.75000000000000000        1.0000000000000000        0.0000000000000000     
  0.78125000000000000        1.0000000000000000        0.0000000000000000     
  0.81250000000000000        1.0000000000000000        0.0000000000000000     
  0.84375000000000000        1.0000000000000000        0.0000000000000000     
  0.87500000000000000        1.0000000000000000        0.0000000000000000     
  0.87500000000000000       0.87500000000000000        0.0000000000000000     
  0.90625000000000000       0.87500000000000000        0.0000000000000000     
  0.93750000000000000       0.87500000000000000        0.0000000000000000     
  0.96875000000000000       0.87500000000000000        0.0000000000000000     
   1.0000000000000000       0.87500000000000000        0.0000000000000000     
  0.87500000000000000       0.90625000000000000        0.0000000000000000     
  0.90625000000000000       0.90625000000000000        0.0000000000000000     
  0.93750000000000000       0.90625000000000000        0.0000000000000000     
  0.96875000000000000       0.90625000000000000        0.0000000000000000     
   1.0000000000000000       0.90625000000000000        0.0000000000000000     
  0.87500000000000000       0.93750000000000000        0.0000000000000000     
  0.90625000000000000       0.93750000000000000        0.0000000000000000     
  0.93750000000000000       0.93750000000000000        0.0000000000000000     
  0.96875000000000000       0.93750000000000000        0.0000000000000000     
   1.0000000000000000       0.93750000000000000        0.0000000000000000     
  0.87500000000000000       0.96875000000000000        0.0000000000000000     
  0.90625000000000000       0.96875000000000000        0.0000000000000000     
  0.93750000000000000       0.96875000000000000        0.0000000000000000     
  0.96875000000000000       0.96875000000000000        0.0000000000000000     
   1.0000000000000000       0.96875000000000000        0.0000000000000000     
  0.87500000000000000        1.0000000000000000        0.0000000000000000     
  0.90625000000000000        1.0000000000000000        0.0000000000000000     
  0.93750000000000000        1.0000000000000000        0.0000000000000000     
  0.96875000000000000        1.0000000000000000        0.0000000000000000     
   1.0000000000000000        1.0000000000000000        0.0000000000000000     
 </DataArray>
 </Points>
 <Cells>
 <DataArray  type="Int32"  Name="connectivity"  format="ascii">
           0           1           6           5
           1           2           7           6
           2           3           8           7
           3           4           9           8
           5           6          11          10
           6           7          12          11
           7           8          13          12
           8           9          14          13
          10          11          16          15
          11          12          17          16
          12          13          18          17
          13          14          19          18
          15          16          21          20
          16          17          22          21
          17          18          23          22
          18          19          24          23
          25          26          31          30
          26          27          32          31
          27          28          33          32
          28          29          34          33
          30          31          36          35
          31          32          37          36
          32          33          38          37
          33          34          39          38
          35          36          41          40
          36          37          42          41
          37          38          43          42
          38          39          44          43
          40          41          46          45
          41          42          47          46
          42          43          48          47
          43          44          49          48
          50          51          56          55
          51          52          57          56
          52          53          58          57
          53          54          59          58
          55          56          61          60
          56          57          62          61
          57          58          63          62
          58          59          64          63
          60          61          66          65
          61          62          67          66
          62          63          68          67
          63          64          69          68
          65          66          71          70
          66          67          72          71
          67          68          73          72
          68          69          74          73
          75          76          81          80
          76          77          82          81
          77          78          83          82
          78          79          84          83
          80          81          86          85
          81          82          87          86
          82          83          88          87
          83          84          89          88
          85          86          91          90
          86          87          92          91
          87          88          93          92
          88          89          94          93
          90          91          96          95
          91          92          97          96
          92          93          98          97
          93          94          99          98
         100         101         106         105
         101         102         107         106
         102         103         108         107
         103         104         109         108
         105         106         111         110
         106         107         112         111
         107         108         113         112
         108         109         114         113
         110         111         116         115
         111         112         117         116
         112         113         118         117
         113         114         119         118
         115         116         121         120
         116         117         122         121
         117         118         123         122
         118         119         124         123
         125         126         131         130
         126         127         132         131
         127         128         133         132
         128         129         134         133
         130         131         136         135
         131         132         137         136
         132         133         138         137
         133         134         139         138
         135         136         141         140
         136         137         142         141
         137         138         143         142
         138         139         144         143
         140         141         146         145
         141         142         147         146
         142         143         148         147
         143         144         149         148
         150         151         156         155
         151         152         157         156
         152         153         158         157
         153         154         159         158
         155         156         161         160
         156         157         162         161
         157         158         163         162
         158         159         164         163
         160         161         166         165
         161         162         167         166
         162         163         168         167
         163         164         169         168
         165         166         171         170
         166         167         172         171
         167         168         173         172
         168         169         174         173
         175         176         181         180
         176         177         182         181
         177         178         183         182
         178         179         184         183
         180         181         186         185
         181         182         187         186
         182         183         188         187
         183         184         189         188
         185         186         191         190
         186         187         192         191
         187         188         193         192
         188         189         194         193
         190         191         196         195
         191         192         197         196
         192         193         198         197
         193         194         199         198
         200         201         206         205
         201         202         207         206
         202         203         208         207
         203         204         209         208
         205         206         211         210
         206         207         212         211
         207         208         213         212
         208         209         214         213
         210         211         216         215
         211         212         217         216
         212         213         218         217
         213         214         219         218
         215         216         221         220
         216         217         222         221
         217         218         223         222
         218         219         224         223
         225         226         231         230
         226         227         232         231
         227         228         233         232
         228         229         234         233
         230         231         236         235
         231         232         237         236
         232         233         238         237
         233         234         239         238
         235         236         241         240
         236         237         242         241
         237         238         243         242
         238         239         244         243
         240         241         246         245
         241         242         247         246
         242         243         248         247
         243         244         249         248
         250         251         256         255
         251         252         257         256
         252         253         258         257
         253         254         259         258
         255         256         261         260
         256         257         262         261
         257         258         263         262
         258         259         264         263
         260         261         266         265
         261         262         267         266
         262         263         268         267
         263         264         269         268
         265         266         271         270
         266         267         272         271
         267         268         273         272
         268         269         274         273
         275         276         281         280
         276         277         282         281
         277         278         283         282
         278         279         284         283
         280         281         286         285
         281         282         287         286
         282         283         288         287
         283         284         289         288
         285         286         291         290
         286         287         292         291
         287         288         293         292
         288         289         294         293
         290         291         296         295
         291         292         297         296
         292         293         298         297
         293         294         299         298
         300         301         306         305
         301         302         307         306
         302         303         308         307
         303         304         309         308
         305         306         311         310
         306         307         312         311
         307         308         313         312
         308         309         314         313
         310         311         316         315
         311         312         317         316
         312         313         318         317
         313         314         319         318
         315         316         321         320
         316         317         322         321
         317         318         323         322
         318         319         324         323
         325         326         331         330
         326         327         332         331
         327         328         333         332
         328         329         334         333
         330         331         336         335
         331         332         337         336
         332         333         338         337
         333         334         339         338
         335         336         341         340
         336         337         342         341
         337         338         343         342
         338         339         344         343
         340         341         346         345
         341         342         347         346
         342         343         348         347
         343         344         349         348
         350         351         356         355
         351         352         357         356
         352         353         358         357
         353         354         359         358
         355         356         361         360
         356         357         362         361
         357         358         363         362
         358         359         364         363
         360         361         366         365
         361         362         367         366
         362         363         368         367
         363         364         369         368
         365         366         371         370
         366         367         372         371
         367         368         373         372
         368         369         374         373
         375         376         381         380
         376         377         382         381
         377         378         383         382
         378         379         384         383
         380         381         386         385
         381         382         387         386
         382         383         388         387
         383         384         389         388
         385         386         391         390
         386         387         392         391
         387         388         393         392
         388         389         394         393
         390         391         396         395
         391         392         397         396
         392         393         398         397
         393         394         399         398
         400         401         406         405
         401         402         407         406
         402         403         408         407
         403         404         409         408
         405         406         411         410
         406         407         412         411
         407         408         413         412
         408         409         414         413
         410         411         416         415
         411         412         417         416
         412         413         418         417
         413         414         419         418
         415         416         421         420
         416         417         422         421
         417         418         423         422
         418         419         424         423
         425         426         431         430
         426         427         432         431
         427         428         433         432
         428         429         434         433
         430         431         436         435
         431         432         437         436
         432         433         438         437
         433         434         439         438
         435         436         441         440
         436         437         442         441
         437         438         443         442
         438         439         444         443
         440         441         446         445
         441         442         447         446
         442         443         448         447
         443         444         449         448
         450         451         456         455
         451         452         457         456
         452         453         458         457
         453         454         459         458
         455         456         461         460
         456         457         462         461
         457         458         463         462
         458         459         464         463
         460         461         466         465
         461         462         467         466
         462         463         468         467
         463         464         469         468
         465         466         471         470
         466         467         472         471
         467         468         473         472
         468         469         474         473
         475         476         481         480
         476         477         482         481
         477         478         483         482
         478         479         484         483
         480         481         486         485
         481         482         487         486
         482         483         488         487
         483         484         489         488
         485         486         491         490
         486         487         492         491
         487         488         493         492
         488         489         494         493
         490         491         496         495
         491         492         497         496
         492         493         498         497
         493         494         499         498
         500         501         506         505
         501         502         507         506
         502         503         508         507
         503         504         509         508
         505         506         511         510
         506         507         512         511
         507         508         513         512
         508         509         514         513
         510         511         516         515
         511         512         517         516
         512         513         518         517
         513         514         519         518
         515         516         521         520
         516         517         522         521
         517         518         523         522
         518         519         524         523
         525         526         531         530
         526         527         532         531
         527         528         533         532
         528         529         534         533
         530         531         536         535
         531         532         537         536
         532         533         538         537
         533         534         539         538
         535         536         541         540
         536         537         542         541
         537         538         543         542
         538         539         544         543
         540         541         546         545
         541         542         547         546
         542         543         548         547
         543         544         549         548
         550         551         556         555
         551         552         557         556
         552         553         558         557
         553         554         559         558
         555         556         561         560
         556         557         562         561
         557         558         563         562
         558         559         564         563
         560         561         566         565
         561         562         567         566
         562         563         568         567
         563         564         569         568
         565         566         571         570
         566         567         572         571
         567         568         573         572
         568         569         574         573
         575         576         581         580
         576         577         582         581
         577         578         583         582
         578         579         584         583
         580         581         586         585
         581         582         587         586
         582         583         588         587
         583         584         589         588
         585         586         591         590
         586         587         592         591
         587         588         593         592
         588         589         594         593
         590         591         596         595
         591         592         597         596
         592         593         598         597
         593         594         599         598
         600         601         606         605
         601         602         607         606
         602         603         608         607
         603         604         609         608
         605         606         611         610
         606         607         612         611
         607         608         613         612
         608         609         614         613
         610         611         616         615
         611         612         617         616
         612         613         618         617
         613         614         619         618
         615         616         621         620
         616         617         622         621
         617         618         623         622
         618         619         624         623
         625         626         631         630
         626         627         632         631
         627         628         633         632
         628         629         634         633
         630         631         636         635
         631         632         637         636
         632         633         638         637
         633         634         639         638
         635         636         641         640
         636         637         642         641
         637         638         643         642
         638         639         644         643
         640         641         646         645
         641         642         647         646
         642         643         648         647
         643         644         649         648
         650         651         656         655
         651         652         657         656
         652         653         658         657
         653         654         659         658
         655         656         661         660
         656         657         662         661
         657         658         663         662
         658         659         664         663
         660         661         666         665
         661         662         667         666
         662         663         668         667
         663         664         669         668
         665         666         671         670
         666         667         672         671
         667         668         673         672
         668         669         674         673
         675         676         681         680
         676         677         682         681
         677         678         683         682
         678         679         684         683
         680         681         686         685
         681         682         687         686
         682         683         688         687
         683         684         689         688
         685         686         691         690
         686         687         692         691
         687         688         693         692
         688         689         694         693
         690         691         696         695
         691         692         697         696
         692         693         698         697
         693         694         699         698
         700         701         706         705
         701         702         707         706
         702         703         708         707
         703         704         709         708
         705         706         711         710
         706         707         712         711
         707         708         713         712
         708         709         714         713
         710         711         716         715
         711         712         717         716
         712         713         718         717
         713         714         719         718
         715         716         721         720
         716         717         722         721
         717         718         723         722
         718         719         724         723
         725         726         731         730
         726         727         732         731
         727         728         733         732
         728         729         734         733
         730         731         736         735
         731         732         737         736
         732         733         738         737
         733         734         739         738
         735         736         741         740
         736         737         742         741
         737         738         743         742
         738         739         744         743
         740         741         746         745
         741         742         747         746
         742         743         748         747
         743         744         749         748
         750         751         756         755
         751         752         757         756
         752         753         758         757
         753         754         759         758
         755         756         761         760
         756         757         762         761
         757         758         763         762
         758         759         764         763
         760         761         766         765
         761         762         767         766
         762         763         768         767
         763         764         769         768
         765         766         771         770
         766         767         772         771
         767         768         773         772
         768         769         774         773
         775         776         781         780
         776         777         782         781
         777         778         783         782
         778         779         784         783
         780         781         786         785
         781         782         787         786
         782         783         788         787
         783         784         789         788
         785         786         791         790
         786         787         792         791
         787         788         793         792
         788         789         794         793
         790         791         796         795
         791         792         797         796
         792         793         798         797
         793         794         799         798
         800         801         806         805
         801         802         807         806
         802         803         808         807
         803         804         809         808
         805         806         811         810
         806         807         812         811
         807         808         813         812
         808         809         814         813
         810         811         816         815
         811         812         817         816
         812         813         818         817
         813         814         819         818
         815         816         821         820
         816         817         822         821
         817         818         823         822
         818         819         824         823
         825         826         831         830
         826         827         832         831
         827         828         833         832
         828         829         834         833
         830         831         836         835
         831         832         837         836
         832         833         838         837
         833         834         839         838
         835         836         841         840
         836         837         842         841
         837         838         843         842
         838         839         844         843
         840         841         846         845
         841         842         847         846
         842         843         848         847
         843         844         849         848
         850         851         856         855
         851         852         857         856
         852         853         858         857
         853         854         859         858
         855         856         861         860
         856         857         862         861
         857         858         863         862
         858         859         864         863
         860         861         866         865
         861         862         867         866
         862         863         868         867
         863         864         869         868
         865         866         871         870
         866         867         872         871
         867         868         873         872
         868         869         874         873
         875         876         881         880
         876         877         882         881
         877         878         883         882
         878         879         884         883
         880         881         886         885
         881         882         887         886
         882         883         888         887
         883         884         889         888
         885         886         891         890
         886         887         892         891
         887         888         893         892
         888         889         894         893
         890         891         896         895
         891         892         897         896
         892         893         898         897
         893         894         899         898
         900         901         906         905
         901         902         907         906
         902         903         908         907
         903         904         909         908
         905         906         911         910
         906         907         912         911
         907         908         913         912
         908         909         914         913
         910         911         916         915
         911         912         917         916
         912         913         918         917
         913         914         919         918
         915         916         921         920
         916         917         922         921
         917         918         923         922
         918         919         924         923
         925         926         931         930
         926         927         932         931
         927         928         933         932
         928         929         934         933
         930         931         936         935
         931         932         937         936
         932         933         938         937
         933         934         939         938
         935         936         941         940
         936         937         942         941
         937         938         943         942
         938         939         944         943
         940         941         946         945
         941         942         947         946
         942         943         948         947
         943         944         949         948
         950         951         956         955
         951         952         957         956
         952         953         958         957
         953         954         959         958
         955         956         961         960
         956         957         962         961
         957         958         963         962
         958         959         964         963
         960         961         966         965
         961         962         967         966
         962         963         968         967
         963         964         969         968
         965         966         971         970
         966         967         972         971
         967         968         973         972
         968         969         974         973
         975         976         981         980
         976         977         982         981
         977         978         983         982
         978         979         984         983
         980         981         986         985
         981         982         987         986
         982         983         988         987
         983         984         989         988
         985         986         991         990
         986         987         992         991
         987         988         993         992
         988         989         994         993
         990         991         996         995
         991         992         997         996
         992         993         998         997
         993         994         999         998
        1000        1001        1006        1005
        1001        1002        1007        1006
        1002        1003        1008        1007
        1003        1004        1009        1008
        1005        1006        1011        1010
        1006        1007        1012        1011
        1007        1008        1013        1012
        1008        1009        1014        1013
        1010        1011        1016        1015
        1011        1012        1017        1016
        1012        1013        1018        1017
        1013        1014        1019        1018
        1015        1016        1021        1020
        1016        1017        1022        1021
        1017        1018        1023        1022
        1018        1019        1024        1023
        1025        1026        1031        1030
        1026        1027        1032        1031
        1027        1028        1033        1032
        1028        1029        1034        1033
        1030        1031        1036        1035
        1031        1032        1037        1036
        1032        1033        1038        1037
        1033        1034        1039        1038
        1035        1036        1041        1040
        1036        1037        1042        1041
        1037        1038        1043        1042
        1038        1039        1044        1043
        1040        1041        1046        1045
        1041        1042        1047        1046
        1042        1043        1048        1047
        1043        1044        1049        1048
        1050        1051        1056        1055
        1051        1052        1057        1056
        1052        1053        1058        1057
        1053        1054        1059        1058
        1055        1056        1061        1060
        1056        1057        1062        1061
        1057        1058        1063        1062
        1058        1059        1064        1063
        1060        1061        1066        1065
        1061        1062        1067        1066
        1062        1063        1068        1067
        1063        1064        1069        1068
        1065        1066        1071        1070
        1066        1067        1072        1071
        1067        1068        1073        1072
        1068        1069        1074        1073
        1075        1076        1081        1080
        1076        1077        1082        1081
        1077        1078        1083        1082
        1078        1079        1084        1083
        1080        1081        1086        1085
        1081        1082        1087        1086
        1082        1083        1088        1087
        1083        1084        1089        1088
        1085        1086        1091        1090
        1086        1087        1092        1091
        1087        1088        1093        1092
        1088        1089        1094        1093
        1090        1091        1096        1095
        1091        1092        1097        1096
        1092        1093        1098        1097
        1093        1094        1099        1098
        1100        1101        1106        1105
        1101        1102        1107        1106
        1102        1103        1108        1107
        1103        1104        1109        1108
        1105        1106        1111        1110
        1106        1107        1112        1111
        1107        1108        1113        1112
        1108        1109        1114        1113
        1110        1111        1116        1115
        1111        1112        1117        1116
        1112        1113        1118        1117
        1113        1114        1119        1118
        1115        1116        1121        1120
        1116        1117        1122        1121
        1117        1118        1123        1122
        1118        1119        1124        1123
        1125        1126        1131        1130
        1126        1127        1132        1131
        1127        1128        1133        1132
        1128        1129        1134        1133
        1130        1131        1136        1135
        1131        1132        1137        1136
        1132        1133        1138        1137
        1133        1134        1139        1138
        1135        1136        1141        1140
        1136        1137        1142        1141
        1137        1138        1143        1142
        1138        1139        1144        1143
        1140        1141        1146        1145
        1141        1142        1147        1146
        1142        1143        1148        1147
        1143        1144        1149        1148
        1150        1151        1156        1155
        1151        1152        1157        1156
        1152        1153        1158        1157
        1153        1154        1159        1158
        1155        1156        1161        1160
        1156        1157        1162        1161
        1157        1158        1163        1162
        1158        1159        1164        1163
        1160        1161        1166        1165
        1161        1162        1167        1166
        1162        1163        1168        1167
        1163        1164        1169        1168
        1165        1166        1171        1170
        1166        1167        1172        1171
        1167        1168        1173        1172
        1168        1169        1174        1173
        1175        1176        1181        1180
        1176        1177        1182        1181
        1177        1178        1183        1182
        1178        1179        1184        1183
        1180        1181        1186        1185
        1181        1182        1187        1186
        1182        1183        1188        1187
        1183        1184        1189        1188
        1185        1186        1191        1190
        1186        1187        1192        1191
        1187        1188        1193        1192
        1188        1189        1194        1193
        1190        1191        1196        1195
        1191        1192        1197        1196
        1192        1193        1198        1197
        1193        1194        1199        1198
        1200        1201        1206        1205
        1201        1202        1207        1206
        1202        1203        1208        1207
        1203        1204        1209        1208
        1205        1206        1211        1210
        1206        1207        1212        1211
        1207        1208        1213        1212
        1208        1209        1214        1213
        1210        1211        1216        1215
        1211        1212        1217        1216
        1212        1213        1218        1217
        1213        1214        1219        1218
        1215        1216        1221        1220
        1216        1217        1222        1221
        1217        1218        1223        1222
        1218        1219        1224        1223
        1225        1226        1231        1230
        1226        1227        1232        1231
        1227        1228        1233        1232
        1228        1229        1234        1233
        1230        1231        1236        1235
        1231        1232        1237        1236
        1232        1233        1238        1237
        1233        1234        1239        1238
        1235        1236        1241        1240
        1236        1237        1242        1241
        1237        1238        1243        1242
        1238        1239        1244        1243
        1240        1241        1246        1245
        1241        1242        1247        1246
        1242        1243        1248        1247
        1243        1244        1249        1248
        1250        1251        1256        1255
        1251        1252        1257        1256
        1252        1253        1258        1257
        1253        1254        1259        1258
        1255        1256        1261        1260
        1256        1257        1262        1261
        1257        1258        1263        1262
        1258        1259        1264        1263
        1260        1261        1266        1265
        1261        1262        1267        1266
        1262        1263        1268        1267
        1263        1264        1269        1268
        1265        1266        1271        1270
        1266        1267        1272        1271
        1267        1268        1273        1272
        1268        1269        1274        1273
        1275        1276        1281        1280
        1276        1277        1282        1281
        1277        1278        1283        1282
        1278        1279        1284        1283
        1280        1281        1286        1285
        1281        1282        1287        1286
        1282        1283        1288        1287
        1283        1284        1289        1288
        1285        1286        1291        1290
        1286        1287        1292        1291
        1287        1288        1293        1292
        1288        1289        1294        1293
        1290        1291        1296        1295
        1291        1292        1297        1296
        1292        1293        1298        1297
        1293        1294        1299        1298
        1300        1301        1306        1305
        1301        1302        1307        1306
        1302        1303        1308        1307
        1303        1304        1309        1308
        1305        1306        1311        1310
        1306        1307        1312        1311
        1307        1308        1313        1312
        1308        1309        1314        1313
        1310        1311        1316        1315
        1311        1312        1317        1316
        1312        1313        1318        1317
        1313        1314        1319        1318
        1315        1316        1321        1320
        1316        1317        1322        1321
        1317        1318        1323        1322
        1318        1319        1324        1323
        1325        1326        1331        1330
        1326        1327        1332        1331
        1327        1328        1333        1332
        1328        1329        1334        1333
        1330        1331        1336        1335
        1331        1332        1337        1336
        1332        1333        1338        1337
        1333        1334        1339        1338
        1335        1336        1341        1340
        1336        1337        1342        1341
        1337        1338        1343        1342
        1338        1339        1344        1343
        1340        1341        1346        1345
        1341        1342        1347        1346
        1342        1343        1348        1347
        1343        1344        1349        1348
        1350        1351        1356        1355
        1351        1352        1357        1356
        1352        1353        1358        1357
        1353        1354        1359        1358
        1355        1356        1361        1360
        1356        1357        1362        1361
        1357        1358        1363        1362
        1358        1359        1364        1363
        1360        1361        1366        1365
        1361        1362        1367        1366
        1362        1363        1368        1367
        1363        1364        1369        1368
        1365        1366        1371        1370
        1366        1367        1372        1371
        1367        1368        1373        1372
        1368        1369        1374        1373
        1375        1376        1381        1380
        1376        1377        1382        1381
        1377        1378        1383        1382
        1378        1379        1384        1383
        1380        1381        1386        1385
        1381        1382        1387        1386
        1382        1383        1388        1387
        1383        1384        1389        1388
        1385        1386        1391        1390
        1386        1387        1392        1391
        1387        1388        1393        1392
        1388        1389        1394        1393
        1390        1391        1396        1395
        1391        1392        1397        1396
        1392        1393        1398        1397
        1393        1394        1399        1398
        1400        1401        1406        1405
        1401        1402        1407        1406
        1402        1403        1408        1407
        1403        1404        1409        1408
        1405        1406        1411        1410
        1406        1407        1412        1411
        1407        1408        1413        1412
        1408        1409        1414        1413
        1410        1411        1416        1415
        1411        1412        1417        1416
        1412        1413        1418        1417
        1413        1414        1419        1418
        1415        1416        1421        1420
        1416        1417        1422        1421
        1417        1418        1423        1422
        1418        1419        1424        1423
        1425        1426        1431        1430
        1426        1427        1432        1431
        1427        1428        1433        1432
        1428        1429        1434        1433
        1430        1431        1436        1435
        1431        1432        1437        1436
        1432        1433        1438        1437
        1433        1434        1439        1438
        1435        1436        1441        1440
        1436        1437        1442        1441
        1437        1438        1443        1442
        1438        1439        1444        1443
        1440        1441        1446        1445
        1441        1442        1447        1446
        1442        1443        1448        1447
        1443        1444        1449        1448
        1450        1451        1456        1455
        1451        1452        1457        1456
        1452        1453        1458        1457
        1453        1454        1459        1458
        1455        1456        1461        1460
        1456        1457        1462        1461
        1457        1458        1463        1462
        1458        1459        1464        1463
        1460        1461        1466        1465
        1461        1462        1467        1466
        1462        1463        1468        1467
        1463        1464        1469        1468
        1465        1466        1471        1470
        1466        1467        1472        1471
        1467        1468        1473        1472
        1468        1469        1474        1473
        1475        1476        1481        1480
        1476        1477        1482        1481
        1477        1478        1483        1482
        1478        1479        1484        1483
        1480        1481        1486        1485
        1481        1482        1487        1486
        1482        1483        1488        1487
        1483        1484        1489        1488
        1485        1486        1491        1490
        1486        1487        1492        1491
        1487        1488        1493        1492
        1488        1489        1494        1493
        1490        1491        1496        1495
        1491        1492        1497        1496
        1492        1493        1498        1497
        1493        1494        1499        1498
        1500        1501        1506        1505
        1501        1502        1507        1506
        1502        1503        1508        1507
        1503        1504        1509        1508
        1505        1506        1511        1510
        1506        1507        1512        1511
        1507        1508        1513        1512
        1508        1509        1514        1513
        1510        1511        1516        1515
        1511        1512        1517        1516
        1512        1513        1518        1517
        1513        1514        1519        1518
        1515        1516        1521        1520
        1516        1517        1522        1521
        1517        1518        1523        1522
        1518        1519        1524        1523
        1525        1526        1531        1530
        1526        1527        1532        1531
        1527        1528        1533        1532
        1528        1529        1534        1533
        1530        1531        1536        1535
        1531        1532        1537        1536
        1532        1533        1538        1537
        1533        1534        1539        1538
        1535        1536        1541        1540
        1536        1537        1542        1541
        1537        1538        1543        1542
        1538        1539        1544        1543
        1540        1541        1546        1545
        1541        1542        1547        1546
        1542        1543        1548        1547
        1543        1544        1549        1548
        1550        1551        1556        1555
        1551        1552        1557        1556
        1552        1553        1558        1557
        1553        1554        1559        1558
        1555        1556        1561        1560
        1556        1557        1562        1561
        1557        1558        1563        1562
        1558        1559        1564        1563
        1560        1561        1566        1565
        1561        1562        1567        1566
        1562        1563        1568        1567
        1563        1564        1569        1568
        1565        1566        1571        1570
        1566        1567        1572        1571
        1567        1568        1573        1572
        1568        1569        1574        1573
        1575        1576        1581        1580
        1576        1577        1582        1581
        1577        1578        1583        1582
        1578        1579        1584        1583
        1580        1581        1586        1585
        1581        1582        1587        1586
        1582        1583        1588        1587
        1583        1584        1589        1588
        1585        1586        1591        1590
        1586        1587        1592        1591
        1587        1588        1593        1592
        1588        1589        1594        1593
        1590        1591        1596        1595
        1591        1592        1597        1596
        1592        1593        1598        1597
        1593        1594        1599        1598
 </DataArray>
 <DataArray  type="Int32"  Name="offsets"  format="ascii"> 
           4
           8
          12
          16
          20
          24
          28
          32
          36
          40
          44
          48
          52
          56
          60
          64
          68
          72
          76
          80
          84
          88
          92
          96
         100
         104
         108
         112
         116
         120
         124
         128
         132
         136
         140
         144
         148
         152
         156
         160
         164
         168
         172
         176
         180
         184
         188
         192
         196
         200
         204
         208
         212
         216
         220
         224
         228
         232
         236
         240
         244
         248
         252
         256
         260
         264
         268
         272
         276
         280
         284
         288
         292
         296
         300
         304
         308
         312
         316
         320
         324
         328
         332
         336
         340
         344
         348
         352
         356
         360
         364
         368
         372
         376
         380
         384
         388
         392
         396
         400
         404
         408
         412
         416
         420
         424
         428
         432
         436
         440
         444
         448
         452
         456
         460
         464
         468
         472
         476
         480
         484
         488
         492
         496
         500
         504
         508
         512
         516
         520
         524
         528
         532
         536
         540
         544
         548
         552
         556
         560
         564
         568
         572
         576
         580
         584
         588
         592
         596
         600
         604
         608
         612
         616
         620
         624
         628
         632
         636
         640
         644
         648
         652
         656
         660
         664
         668
         672
         676
         680
         684
         688
         692
         696
         700
         704
         708
         712
         716
         720
         724
         728
         732
         736
         740
         744
         748
         752
         756
         760
         764
         768
         772
         776
         780
         784
         788
         792
         796
         800
         804
         808
         812
         816
         820
         824
         828
         832
         836
         840
         844
         848
         852
         856
         860
         864
         868
         872
         876
         880
         884
         888
         892
         896
         900
         904
         908
         912
         916
         920
         924
         928
         932
         936
         940
         944
         948
         952
         956
         960
         964
         968
         972
         976
         980
         984
         988
         992
         996
        1000
        1004
        1008
        1012
        1016
        1020
        1024
        1028
        1032
        1036
        1040
        1044
        1048
        1052
        1056
        1060
        1064
        1068
        1072
        1076
        1080
        1084
        1088
        1092
        1096
        1100
        1104
        1108
        1112
        1116
        1120
        1124
        1128
        1132
        1136
        1140
        1144
        1148
        1152
        1156
        1160
        1164
        1168
        1172
        1176
        1180
        1184
        1188
        1192
        1196
        1200
        1204
        1208
        1212
        1216
        1220
        1224
        1228
        1232
        1236
        1240
        1244
        1248
        1252
        1256
        1260
        1264
        1268
        1272
        1276
        1280
        1284
        1288
        1292
        1296
        1300
        1304
        1308
        1312
        1316
        1320
        1324
        1328
        1332
        1336
        1340
        1344
        1348
        1352
        1356
        1360
        1364
        1368
        1372
        1376
        1380
        1384
        1388
        1392
        1396
        1400
        1404
        1408
        1412
        1416
        1420
        1424
        1428
        1432
        1436
        1440
        1444
        1448
        1452
        1456
        1460
        1464
        1468
        1472
        1476
        1480
        1484
        1488
        1492
        1496
        1500
        1504
        1508
        1512
        1516
        1520
        1524
        1528
        1532
        1536
        1540
        1544
        1548
        1552
        1556
        1560
        1564
        1568
        1572
        1576
        1580
        1584
        1588
        1592
        1596
        1600
        1604
        1608
        1612
        1616
        1620
        1624
        1628
        1632
        1636
        1640
        1644
        1648
        1652
        1656
        1660
        1664
        1668
        1672
        1676
        1680
        1684
        1688
        1692
        1696
        1700
        1704
        1708
        1712
        1716
        1720
        1724
        1728
        1732
        1736
        1740
        1744
        1748
        1752
        1756
        1760
        1764
        1768
        1772
        1776
        1780
        1784
        1788
        1792
        1796
        1800
        1804
        1808
        1812
        1816
        1820
        1824
        1828
        1832
        1836
        1840
        1844
        1848
        1852
        1856
        1860
        1864
        1868
        1872
        1876
        1880
        1884
        1888
        1892
        1896
        1900
        1904
        1908
        1912
        1916
        1920
        1924
        1928
        1932
        1936
        1940
        1944
        1948
        1952
        1956
        1960
        1964
        1968
        1972
        1976
        1980
        1984
        1988
        1992
        1996
        2000
        2004
        2008
        2012
        2016
        2020
        2024
        2028
        2032
        2036
        2040
        2044
        2048
        2052
        2056
        2060
        2064
        2068
        2072
        2076
        2080
        2084
        2088
        2092
        2096
        2100
        2104
        2108
        2112
        2116
        2120
        2124
        2128
        2132
        2136
        2140
        2144
        2148
        2152
        2156
        2160
        2164
        2168
        2172
        2176
        2180
        2184
        2188
        2192
        2196
        2200
        2204
        2208
        2212
        2216
        2220
        2224
        2228
        2232
        2236
        2240
        2244
        2248
        2252
        2256
        2260
        2264
        2268
        2272
        2276
        2280
        2284
        2288
        2292
        2296
        2300
        2304
        2308
        2312
        2316
        2320
        2324
        2328
        2332
        2336
        2340
        2344
        2348
        2352
        2356
        2360
        2364
        2368
        2372
        2376
        2380
        2384
        2388
        2392
        2396
        2400
        2404
        2408
        2412
        2416
        2420
        2424
        2428
        2432
        2436
        2440
        2444
        2448
        2452
        2456
        2460
        2464
        2468
        2472
        2476
        2480
        2484
        2488
        2492
        2496
        2500
        2504
        2508
        2512
        2516
        2520
        2524
        2528
        2532
        2536
        2540
        2544
        2548
        2552
        2556
        2560
        2564
        2568
        2572
        2576
        2580
        2584
        2588
        2592
        2596
        2600
        2604
        2608
        2612
        2616
        2620
        2624
        2628
        2632
        2636
        2640
        2644
        2648
        2652
        2656
        2660
        2664
        2668
        2672
        2676
        2680
        2684
        2688
        2692
        2696
        2700
        2704
        2708
        2712
        2716
        2720
        2724
        2728
        2732
        2736
        2740
        2744
        2748
        2752
        2756
        2760
        2764
        2768
        2772
        2776
        2780
        2784
        2788
        2792
        2796
        2800
        2804
        2808
        2812
        2816
        2820
        2824
        2828
        2832
        2836
        2840
        2844
        2848
        2852
        2856
        2860
        2864
        2868
        2872
        2876
        2880
        2884
        2888
        2892
        2896
        2900
        2904
        2908
        2912
        2916
        2920
        2924
        2928
        2932
        2936
        2940
        2944
        2948
        2952
        2956
        2960
        2964
        2968
        2972
        2976
        2980
        2984
        2988
        2992
        2996
        3000
        3004
        3008
        3012
        3016
        3020
        3024
        3028
        3032
        3036
        3040
        3044
        3048
        3052
        3056
        3060
        3064
        3068
        3072
        3076
        3080
        3084
        3088
        3092
        3096
        3100
        3104
        3108
        3112
        3116
        3120
        3124
        3128
        3132
        3136
        3140
        3144
        3148
        3152
        3156
        3160
        3164
        3168
        3172
        3176
        3180
        3184
        3188
        3192
        3196
        3200
        3204
        3208
        3212
        3216
        3220
        3224
        3228
        3232
        3236
        3240
        3244
        3248
        3252
        3256
        3260
        3264
        3268
        3272
        3276
        3280
        3284
        3288
        3292
        3296
        3300
        3304
        3308
        3312
        3316
        3320
        3324
        3328
        3332
        3336
        3340
        3344
        3348
        3352
        3356
        3360
        3364
        3368
        3372
        3376
        3380
        3384
        3388
        3392
        3396
        3400
        3404
        3408
        3412
        3416
        3420
        3424
        3428
        3432
        3436
        3440
        3444
        3448
        3452
        3456
        3460
        3464
        3468
        3472
        3476
        3480
        3484
        3488
        3492
        3496
        3500
        3504
        3508
        3512
        3516
        3520
        3524
        3528
        3532
        3536
        3540
        3544
        3548
        3552
        3556
        3560
        3564
        3568
        3572
        3576
        3580
        3584
        3588
        3592
        3596
        3600
        3604
        3608
        3612
        3616
        3620
        3624
        3628
        3632
        3636
        3640
        3644
        3648
        3652
        3656
        3660
        3664
        3668
        3672
        3676
        3680
        3684
        3688
        3692
        3696
        3700
        3704
        3708
        3712
        3716
        3720
        3724
        3728
        3732
        3736
        3740
        3744
        3748
        3752
        3756
        3760
        3764
        3768
        3772
        3776
        3780
        3784
        3788
        3792
        3796
        3800
        3804
        3808
        3812
        3816
        3820
        3824
        3828
        3832
        3836
        3840
        3844
        3848
        3852
        3856
        3860
        3864
        3868
        3872
        3876
        3880
        3884
        3888
        3892
        3896
        3900
        3904
        3908
        3912
        3916
        3920
        3924
        3928
        3932
        3936
        3940
        3944
        3948
        3952
        3956
        3960
        3964
        3968
        3972
        3976
        3980
        3984
        3988
        3992
        3996
        4000
        4004
        4008
        4012
        4016
        4020
        4024
        4028
        4032
        4036
        4040
        4044
        4048
        4052
        4056
        4060
        4064
        4068
        4072
        4076
        4080
        4084
        4088
        4092
        4096
 </DataArray>
 <DataArray  type="UInt8"  Name="types"  format="ascii">
 9
 9
 9
 9
 9
 9
 9
 9
 9
 9
 9
 9
 9
 9
 9
 9
 9
 9
 9
 9
 9
 9
 9
 9
 9
 9
 9
 9
 9
 9
 9
 9
 9
 9
 9
 9
 9
 9
 9
 9
 9
 9
 9
 9
 9
 9
 9
 9
 9
 9
 9
 9
 9
 9
 9
 9
 9
 9
 9
 9
 9
 9
 9
 9
 9
 9
 9
 9
 9
 9
 9
 9
 9
 9
 9
 9
 9
 9
 9
 9
 9
 9
 9
 9
 9
 9
 9
 9
 9
 9
 9
 9
 9
 9
 9
 9
 9
 9
 9
 9
 9
 9
 9
 9
 9
 9
 9
 9
 9
 9
 9
 9
 9
 9
 9
 9
 9
 9
 9
 9
 9
 9
 9
 9
 9
 9
 9
 9
 9
 9
 9
 9
 9
 9
 9
 9
 9
 9
 9
 9
 9
 9
 9
 9
 9
 9
 9
 9
 9
 9
 9
 9
 9
 9
 9
 9
 9
 9
 9
 9
 9
 9
 9
 9
 9
 9
 9
 9
 9
 9
 9
 9
 9
 9
 9
 9
 9
 9
 9
 9
 9
 9
 9
 9
 9
 9
 9
 9
 9
 9
 9
 9
 9
 9
 9
 9
 9
 9
 9
 9
 9
 9
 9
 9
 9
 9
 9
 9
 9
 9
 9
 9
 9
 9
 9
 9
 9
 9
 9
 9
 9
 9
 9
 9
 9
 9
 9
 9
 9
 9
 9
 9
 9
 9
 9
 9
 9
 9
 9
 9
 9
 9
 9
 9
 9
 9
 9
 9
 9
 9
 9
 9
 9
 9
 9
 9
 9
 9
 9
 9
 9
 9
 9
 9
 9
 9
 9
 9
 9
 9
 9
 9
 9
 9
 9
 9
 9
 9
 9
 9
 9
 9
 9
 9
 9
 9
 9
 9
 9
 9
 9
 9
 9
 9
 9
 9
 9
 9
 9
 9
 9
 9
 9
 9
 9
 9
 9
 9
 9
 9
 9
 9
 9
 9
 9
 9
 9
 9
 9
 9
 9
 9
 9
 9
 9
 9
 9
 9
 9
 9
 9
 9
 9
 9
 9
 9
 9
 9
 9
 9
 9
 9
 9
 9
 9
 9
 9
 9
 9
 9
 9
 9
 9
 9
 9
 9
 9
 9
 9
 9
 9
 9
 9
 9
 9
 9
 9
 9
 9
 9
 9
 9
 9
 9
 9
 9
 9
 9
 9
 9
 9
 9
 9
 9
 9
 9
 9
 9
 9
 9
 9
 9
 9
 9
 9
 9
 9
 9
 9
 9
 9
 9
 9
 9
 9
 9
 9
 9
 9
 9
 9
 9
 9
 9
 9
 9
 9
 9
 9
 9
 9
 9
 9
 9
 9
 9
 9
 9
 9
 9
 9
 9
 9
 9
 9
 9
 9
 9
 9
 9
 9
 9
 9
 9
 9
 9
 9
 9
 9
 9
 9
 9
 9
 9
 9
 9
 9
 9
 9
 9
 9
 9
 9
 9
 9
 9
 9
 9
 9
 9
 9
 9
 9
 9
 9
 9
 9
 9
 9
 9
 9
 9
 9
 9
 9
 9
 9
 9
 9
 9
 9
 9
 9
 9
 9
 9
 9
 9
 9
 9
 9
 9
 9
 9
 9
 9
 9
 9
 9
 9
 9
 9
 9
 9
 9
 9
 9
 9
 9
 9
 9
 9
 9
 9
 9
 9
 9
 9
 9
 9
 9
 9
 9
 9
 9
 9
 9
 9
 9
 9
 9
 9
 9
 9
 9
 9
 9
 9
 9
 9
 9
 9
 9
 9
 9
 9
 9
 9
 9
 9
 9
 9
 9
 9
 9
 9
 9
 9
 9
 9
 9
 9
 9
 9
 9
 9
 9
 9
 9
 9
 9
 9
 9
 9
 9
 9
 9
 9
 9
 9
 9
 9
 9
 9
 9
 9
 9
 9
 9
 9
 9
 9
 9
 9
 9
 9
 9
 9
 9
 9
 9
 9
 9
 9
 9
 9
 9
 9
 9
 9
 9
 9
 9
 9
 9
 9
 9
 9
 9
 9
 9
 9
 9
 9
 9
 9
 9
 9
 9
 9
 9
 9
 9
 9
 9
 9
 9
 9
 9
 9
 9
 9
 9
 9
 9
 9
 9
 9
 9
 9
 9
 9
 9
 9
 9
 9
 9
 9
 9
 9
 9
 9
 9
 9
 9
 9
 9
 9
 9
 9
 9
 9
 9
 9
 9
 9
 9
 9
 9
 9
 9
 9
 9
 9
 9
 9
 9
 9
 9
 9
 9
 9
 9
 9
 9
 9
 9
 9
 9
 9
 9
 9
 9
 9
 9
 9
 9
 9
 9
 9
 9
 9
 9
 9
 9
 9
 9
 9
 9
 9
 9
 9
 9
 9
 9
 9
 9
 9
 9
 9
 9
 9
 9
 9
 9
 9
 9
 9
 9
 9
 9
 9
 9
 9
 9
 9
 9
 9
 9
 9
 9
 9
 9
 9
 9
 9
 9
 9
 9
 9
 9
 9
 9
 9
 9
 9
 9
 9
 9
 9
 9
 9
 9
 9
 9
 9
 9
 9
 9
 9
 9
 9
 9
 9
 9
 9
 9
 9
 9
 9
 9
 9
 9
 9
 9
 9
 9
 9
 9
 9
 9
 9
 9
 9
 9
 9
 9
 9
 9
 9
 9
 9
 9
 9
 9
 9
 9
 9
 9
 9
 9
 9
 9
 9
 9
 9
 9
 9
 9
 9
 9
 9
 9
 9
 9
 9
 9
 9
 9
 9
 9
 9
 9
 9
 9
 9
 9
 9
 9
 9
 9
 9
 9
 9
 9
 9
 9
 9
 9
 9
 9
 9
 9
 9
 9
 9
 9
 9
 9
 9
 9
 9
 9
 9
 9
 9
 9
 9
 9
 9
 9
 9
 9
 9
 9
 9
 9
 9
 9
 9
 9
 9
 9
 9
 9
 9
 9
 9
 9
 9
 9
 9
 9
 9
 9
 9
 9
 9
 9
 9
 9
 9
 9
 9
 9
 9
 9
 9
 9
 9
 9
 9
 9
 9
 9
 9
 9
 9
 9
 9
 9
 9
 9
 9
 9
 9
 9
 9
 9
 9
 9
 9
 9
 9
 9
 9
 9
 9
 9
 9
 9
 9
 9
 9
 9
 9
 9
 9
 9
 9
 9
 9
 9
 9
 9
 9
 9
 9
 9
 9
 9
 9
 9
 9
 9
 9
 9
 9
 9
 9
 9
 9
 9
 9
 9
 9
 9
 9
 9
 9
 9
 9
 9
 9
 9
 9
 9
 9
 9
 9
 9
 9
 9
 9
 9
 9
 9
 9
 9
 9
 9
 9
 9
 9
 </DataArray>
 </Cells> 
 <PointData>
 <DataArray  type="Float64" Name="disp" NumberOfComponents="3" format="ascii">
   0.0000000000000000        0.0000000000000000        0.0000000000000000     
   6.0958872282797921E-003   3.7902550398753914E-003   0.0000000000000000     
   1.1665888760081525E-002   7.3236292302248495E-003   0.0000000000000000     
   1.6710004595405201E-002   1.0600122571048374E-002   0.0000000000000000     
   2.1228234734250818E-002   1.3619735062345966E-002   0.0000000000000000     
   0.0000000000000000        0.0000000000000000        0.0000000000000000     
   4.8911010413721593E-003   3.0220716775297869E-003   0.0000000000000000     
   9.5735527938427701E-003   6.0604362050285313E-003   0.0000000000000000     
   1.4047355257411831E-002   9.1150935824962330E-003   0.0000000000000000     
   1.8312508432079343E-002   1.2186043809932890E-002   0.0000000000000000     
   0.0000000000000000        0.0000000000000000        0.0000000000000000     
   3.9535375853381426E-003   2.4251109571944676E-003   0.0000000000000000     
   7.9105676355332080E-003   5.0628745952331494E-003   0.0000000000000000     
   1.1871090150585198E-002   7.9132909141160414E-003   0.0000000000000000     
   1.5835105130494107E-002   1.0976359913843148E-002   0.0000000000000000     
   0.0000000000000000        0.0000000000000000        0.0000000000000000     
   3.2831968601777419E-003   1.9993728788694331E-003   0.0000000000000000     
   6.6769332851528409E-003   4.3309444008387005E-003   0.0000000000000000     
   1.0181209274925300E-002   6.9947145659078024E-003   0.0000000000000000     
   1.3796024829495119E-002   9.9906833740767385E-003   0.0000000000000000     
   0.0000000000000000        0.0000000000000000        0.0000000000000000     
   2.8800788658909565E-003   1.7448574425546824E-003   0.0000000000000000     
   5.8726497427016707E-003   3.8646456218451863E-003   0.0000000000000000     
   8.9777126304321393E-003   6.3593645378715122E-003   0.0000000000000000     
   1.2195267529082367E-002   9.2290141906336588E-003   0.0000000000000000     
   2.1228234734250818E-002   1.3619735062345966E-002   0.0000000000000000     
   2.5433389483813656E-002   1.6612861567676485E-002   0.0000000000000000     
   2.9538279151289006E-002   1.9809896950598788E-002   0.0000000000000000     
   3.3542903736676857E-002   2.3210841211112884E-002   0.0000000000000000     
   3.7447263239977220E-002   2.6815694349218763E-002   0.0000000000000000     
   1.8312508432079343E-002   1.2186043809932890E-002   0.0000000000000000     
   2.2407205501005660E-002   1.5341550662376453E-002   0.0000000000000000     
   2.6369639647351131E-002   1.8649877914864867E-002   0.0000000000000000     
   3.0199810871115763E-002   2.2111025567398124E-002   0.0000000000000000     
   3.3897719172299549E-002   2.5724993619976239E-002   0.0000000000000000     
   1.5835105130494107E-002   1.0976359913843148E-002   0.0000000000000000     
   1.9730846346614133E-002   1.4210892402690039E-002   0.0000000000000000     
   2.3486547570299457E-002   1.7575699188932273E-002   0.0000000000000000     
   2.7102208801550065E-002   2.1070780272569860E-002   0.0000000000000000     
   3.0577830040365985E-002   2.4696135653602791E-002   0.0000000000000000     
   1.3796024829495119E-002   9.9906833740767385E-003   0.0000000000000000     
   1.7404312020639079E-002   1.3220886788617233E-002   0.0000000000000000     
   2.0889002920133969E-002   1.6587360772801010E-002   0.0000000000000000     
   2.4250097527979794E-002   2.0090105326628069E-002   0.0000000000000000     
   2.7487595844176548E-002   2.3729120450098409E-002   0.0000000000000000     
   1.2195267529082367E-002   9.2290141906336588E-003   0.0000000000000000     
   1.5427602523080499E-002   1.2371533820158041E-002   0.0000000000000000     
   1.8577005696854686E-002   1.5684862666471077E-002   0.0000000000000000     
   2.1643477050404928E-002   1.9169000729572765E-002   0.0000000000000000     
   2.4627016583731221E-002   2.2823948009463101E-002   0.0000000000000000     
   3.7447263239977220E-002   2.6815694349218763E-002   0.0000000000000000     
   4.1255880232906265E-002   3.0620243499360766E-002   0.0000000000000000     
   4.4973277287180188E-002   3.4620275795983223E-002   0.0000000000000000     
   4.8599454402798975E-002   3.8815791239086135E-002   0.0000000000000000     
   5.2134411579762632E-002   4.3206789828669497E-002   0.0000000000000000     
   3.3897719172299549E-002   2.5724993619976239E-002   0.0000000000000000     
   3.7486534023575040E-002   2.9520797277884734E-002   0.0000000000000000     
   4.0989424897614792E-002   3.3527451746409150E-002   0.0000000000000000     
   4.4406391794418812E-002   3.7744957025549475E-002   0.0000000000000000     
   4.7737434713987087E-002   4.2173313115305727E-002   0.0000000000000000     
   3.0577830040365985E-002   2.4696135653602791E-002   0.0000000000000000     
   3.3942720921841960E-002   2.8496348465816185E-002   0.0000000000000000     
   3.7226191081072731E-002   3.2516001842995176E-002   0.0000000000000000     
   4.0428240518058316E-002   3.6755095785139746E-002   0.0000000000000000     
   4.3548869232798708E-002   4.1213630292249913E-002   0.0000000000000000     
   2.7487595844176548E-002   2.3729120450098409E-002   0.0000000000000000     
   3.0624440927707025E-002   2.7546897063155121E-002   0.0000000000000000     
   3.3683575837553999E-002   3.1585926085741296E-002   0.0000000000000000     
   3.6665000573717500E-002   3.5846207517856936E-002   0.0000000000000000     
   3.9568715136197502E-002   4.0327741359502033E-002   0.0000000000000000     
   2.4627016583731221E-002   2.2823948009463101E-002   0.0000000000000000     
   2.7531694041170229E-002   2.6672443069901536E-002   0.0000000000000000     
   3.0361579167058606E-002   3.0737224474647520E-002   0.0000000000000000     
   3.3116671961396352E-002   3.5018292223701043E-002   0.0000000000000000     
   3.5796972424183462E-002   3.9515646317062114E-002   0.0000000000000000     
   5.2134411579762632E-002   4.3206789828669497E-002   0.0000000000000000     
   5.5575066994550976E-002   4.7796960464378598E-002   0.0000000000000000     
   5.8918338823643827E-002   5.2589992045858715E-002   0.0000000000000000     
   6.2164227067041181E-002   5.7585884573109848E-002   0.0000000000000000     
   6.5312731724743028E-002   6.2784638046131991E-002   0.0000000000000000     
   4.7737434713987087E-002   4.2173313115305727E-002   0.0000000000000000     
   5.0978725211007221E-002   4.6805853265688216E-002   0.0000000000000000     
   5.4126434840166833E-002   5.1635910726707299E-002   0.0000000000000000     
   5.7180563601465902E-002   5.6663485498362962E-002   0.0000000000000000     
   6.0141111494904441E-002   6.1888577580655212E-002   0.0000000000000000     
   4.3548869232798708E-002   4.1213630292249913E-002   0.0000000000000000     
   4.6584529158272971E-002   4.5879299277186633E-002   0.0000000000000000     
   4.9531672227460175E-002   5.0739796652810913E-002   0.0000000000000000     
   5.2390298440360326E-002   5.5795122419122739E-002   0.0000000000000000     
   5.5160407796973406E-002   6.1045276576122118E-002   0.0000000000000000     
   3.9568715136197502E-002   4.0327741359502033E-002   0.0000000000000000     
   4.2392478836348217E-002   4.5017298498873821E-002   0.0000000000000000     
   4.5134050985523866E-002   4.9901649824169531E-002   0.0000000000000000     
   4.7793431583724427E-002   5.4980795335389160E-002   0.0000000000000000     
   5.0370620630949929E-002   6.0254735032532709E-002   0.0000000000000000     
   3.5796972424183462E-002   3.9515646317062114E-002   0.0000000000000000     
   3.8402574245232968E-002   4.4219850930749795E-002   0.0000000000000000     
   4.0933571114357900E-002   4.9121470240783172E-002   0.0000000000000000     
   4.3389963031558253E-002   5.4220504247162231E-002   0.0000000000000000     
   4.5771749996834019E-002   5.9516952949886986E-002   0.0000000000000000     
   6.5312731724743028E-002   6.2784638046131991E-002   0.0000000000000000     
   6.8366879345000450E-002   6.8174175651382243E-002   0.0000000000000000     
   7.1329696476064505E-002   7.3742420575317644E-002   0.0000000000000000     
   7.4201183117935166E-002   7.9489372817938220E-002   0.0000000000000000     
   7.6981339270612459E-002   8.5415032379243971E-002   0.0000000000000000     
   6.0141111494904441E-002   6.1888577580655212E-002   0.0000000000000000     
   6.3011401382525284E-002   6.7302633509807600E-002   0.0000000000000000     
   6.5794756126371243E-002   7.2897099822043676E-002   0.0000000000000000     
   6.8491175726442352E-002   7.8671976517363434E-002   0.0000000000000000     
   7.1100660182738612E-002   8.4627263595766902E-002   0.0000000000000000     
   5.5160407796973406E-002   6.1045276576122118E-002   0.0000000000000000     
   5.7845107409056643E-002   6.6483529219014945E-002   0.0000000000000000     
   6.0447504388367240E-002   7.2103150443007094E-002   0.0000000000000000     
   6.2967598734905192E-002   7.7904140248098608E-002   0.0000000000000000     
   6.5405390448670497E-002   8.3886498634289458E-002   0.0000000000000000     
   5.0370620630949929E-002   6.0254735032532709E-002   0.0000000000000000     
   5.2867997424594540E-002   6.5716862779004279E-002   0.0000000000000000     
   5.5287941262052456E-002   7.1360572438207939E-002   0.0000000000000000     
   5.7630452143323671E-002   7.7185864010143712E-002   0.0000000000000000     
   5.9895530068408177E-002   8.3192737494811597E-002   0.0000000000000000     
   4.5771749996834019E-002   5.9516952949886986E-002   0.0000000000000000     
   4.8080071429138976E-002   6.5002634189775574E-002   0.0000000000000000     
   5.0316066747426905E-002   7.0669365807646170E-002   0.0000000000000000     
   5.2479735951697783E-002   7.6517147803498761E-002   0.0000000000000000     
   5.4571079041951624E-002   8.2545980177333361E-002   0.0000000000000000     
   7.6981339270612459E-002   8.5415032379243971E-002   0.0000000000000000     
   7.9664708686642188E-002   9.1508940919028489E-002   0.0000000000000000     
   8.2245835118570143E-002   9.7760640097085419E-002   0.0000000000000000     
   8.4724718566396295E-002  0.10417012991341475        0.0000000000000000     
   8.7101359030120701E-002  0.11073741036801646        0.0000000000000000     
   7.1100660182738612E-002   8.4627263595766902E-002   0.0000000000000000     
   7.3618741794410233E-002   9.0751290852464722E-002   0.0000000000000000     
   7.6040952860607525E-002   9.7032388082667537E-002   0.0000000000000000     
   7.8367293381330444E-002  0.10347055528637539        0.0000000000000000     
   8.0597763356579033E-002  0.11006579246358823        0.0000000000000000     
   6.5405390448670497E-002   8.3886498634289458E-002   0.0000000000000000     
   6.7757249427692803E-002   9.0037870716737425E-002   0.0000000000000000     
   7.0019545570001715E-002   9.6345901610600346E-002   0.0000000000000000     
   7.2192278875597260E-002  0.10281059131587818        0.0000000000000000     
   7.4275449344479383E-002  0.10943193983257098        0.0000000000000000     
   5.9895530068408177E-002   8.3192737494811597E-002   0.0000000000000000     
   6.2080231586489898E-002   8.9368680511846627E-002   0.0000000000000000     
   6.4181613246752742E-002   9.5701180680883804E-002   0.0000000000000000     
   6.6199675049196702E-002  0.10219023800192319        0.0000000000000000     
   6.8134416993821778E-002  0.10883585247496469        0.0000000000000000     
   5.4571079041951624E-002   8.2545980177333361E-002   0.0000000000000000     
   5.6587688270801531E-002   8.8743720237792312E-002   0.0000000000000000     
   5.8527155890860591E-002   9.5098225293517982E-002   0.0000000000000000     
   6.0389481902128825E-002  0.10160949534451034        0.0000000000000000     
   6.2174666304606212E-002  0.10827753039076943        0.0000000000000000     
   8.7101359030120701E-002  0.11073741036801646        0.0000000000000000     
   8.9383978395663810E-002  0.11745061184549647        0.0000000000000000     
   9.1580798548946102E-002  0.12429786473046067        0.0000000000000000     
   9.3691819489967604E-002  0.13127916902290906        0.0000000000000000     
   9.5717041218728288E-002  0.13839452472284161        0.0000000000000000     
   8.0597763356579033E-002  0.11006579246358823        0.0000000000000000     
   8.2740489046769450E-002  0.11680729284769591        0.0000000000000000     
   8.4803596712317963E-002  0.12368424967208828        0.0000000000000000     
   8.6787086353224560E-002  0.13069666293676535        0.0000000000000000     
   8.8690957969489198E-002  0.13784453264172708        0.0000000000000000     
   7.4275449344479383E-002  0.10943193983257098        0.0000000000000000     
   7.6276723231658253E-002  0.11619962007191116        0.0000000000000000     
   7.8203766792143969E-002  0.12310330494513122        0.0000000000000000     
   8.0056580025936561E-002  0.13014299445223115        0.0000000000000000     
   8.1835162933036026E-002  0.13731868859321097        0.0000000000000000     
   6.8134416993821778E-002  0.10883585247496469        0.0000000000000000     
   6.9992680950330205E-002  0.11562759351814220        0.0000000000000000     
   7.1781308788424134E-002  0.12255503054958947        0.0000000000000000     
   7.3500300508103675E-002  0.12961816356930650        0.0000000000000000     
   7.5149656109368745E-002  0.13681699257729329        0.0000000000000000     
   6.2174666304606212E-002  0.10827753039076943        0.0000000000000000     
   6.3888362202785251E-002  0.11509121318638904        0.0000000000000000     
   6.5536222701158470E-002  0.12203942648546302        0.0000000000000000     
   6.7118247799725833E-002  0.12912217028799133        0.0000000000000000     
   6.8634437498487369E-002  0.13633944459397401        0.0000000000000000     
   9.5717041218728288E-002  0.13839452472284161        0.0000000000000000     
   9.7643034281405444E-002  0.14562478126548381        0.0000000000000000     
   9.9456369224176305E-002  0.15295078808606105        0.0000000000000000     
  0.10115704604704087       0.16037254518457347        0.0000000000000000     
  0.10274506474999916       0.16789005256102091        0.0000000000000000     
   8.8690957969489198E-002  0.13784453264172708        0.0000000000000000     
   9.0503437900189582E-002  0.14511271054876468        0.0000000000000000     
   9.2212752484403332E-002  0.15248604841966920        0.0000000000000000     
   9.3818901722130449E-002  0.15996454625444070        0.0000000000000000     
   9.5321885613370905E-002  0.16754820405307919        0.0000000000000000     
   8.1835162933036026E-002  0.13731868859321097        0.0000000000000000     
   8.3529072916271152E-002  0.14461759992811712        0.0000000000000000     
   8.5127867378470778E-002  0.15202694101699596        0.0000000000000000     
   8.6631546319634919E-002  0.15954671185984748        0.0000000000000000     
   8.8040109739763589E-002  0.16717691245667171        0.0000000000000000     
   7.5149656109368745E-002  0.13681699257729329        0.0000000000000000     
   7.6719939329650169E-002  0.14413944940354115        0.0000000000000000     
   7.8201713906378686E-002  0.15157346587804124        0.0000000000000000     
   7.9594979839554381E-002  0.15911904200079377        0.0000000000000000     
   8.0899737129177196E-002  0.16677617777179851        0.0000000000000000     
   6.8634437498487369E-002  0.13633944459397401        0.0000000000000000     
   7.0076037140326605E-002  0.14367825897503675        0.0000000000000000     
   7.1434292068127070E-002  0.15112562300280527        0.0000000000000000     
   7.2709202281888777E-002  0.15868153667727955        0.0000000000000000     
   7.3900767781611698E-002  0.16634599999845964        0.0000000000000000     
   0.0000000000000000        0.0000000000000000        0.0000000000000000     
   2.8800788658909565E-003   1.7448574425546824E-003   0.0000000000000000     
   5.8726497427016707E-003   3.8646456218451863E-003   0.0000000000000000     
   8.9777126304321393E-003   6.3593645378715122E-003   0.0000000000000000     
   1.2195267529082367E-002   9.2290141906336588E-003   0.0000000000000000     
   0.0000000000000000        0.0000000000000000        0.0000000000000000     
   2.6103405218183794E-003   1.5889271964542482E-003   0.0000000000000000     
   5.2897388275394957E-003   3.5566893679779684E-003   0.0000000000000000     
   8.0381949171633472E-003   5.9032865145711589E-003   0.0000000000000000     
   1.0855708790689938E-002   8.6287186362338231E-003   0.0000000000000000     
   0.0000000000000000        0.0000000000000000        0.0000000000000000     
   2.3401387473005989E-003   1.4589446887721610E-003   0.0000000000000000     
   4.7202223590261166E-003   3.2997867489624050E-003   0.0000000000000000     
   7.1402508351765554E-003   5.5225261805707318E-003   0.0000000000000000     
   9.6002241757519105E-003   8.1271629835971415E-003   0.0000000000000000     
   0.0000000000000000        0.0000000000000000        0.0000000000000000     
   2.0694735423376167E-003   1.3549099195084211E-003   0.0000000000000000     
   4.1641003371615370E-003   3.0939377647984973E-003   0.0000000000000000     
   6.2838803844717595E-003   5.2170835358702284E-003   0.0000000000000000     
   8.4288136842682864E-003   7.7243472327236150E-003   0.0000000000000000     
   0.0000000000000000        0.0000000000000000        0.0000000000000000     
   1.7983449069294325E-003   1.2768228886630285E-003   0.0000000000000000     
   3.6213727619457533E-003   2.9391424154862453E-003   0.0000000000000000     
   5.4690835650489629E-003   4.9869585804696494E-003   0.0000000000000000     
   7.3414773162390609E-003   7.4202713836132427E-003   0.0000000000000000     
   1.2195267529082367E-002   9.2290141906336588E-003   0.0000000000000000     
   1.5427602523080499E-002   1.2371533820158041E-002   0.0000000000000000     
   1.8577005696854686E-002   1.5684862666471077E-002   0.0000000000000000     
   2.1643477050404928E-002   1.9169000729572765E-002   0.0000000000000000     
   2.4627016583731221E-002   2.2823948009463101E-002   0.0000000000000000     
   1.0855708790689938E-002   8.6287186362338231E-003   0.0000000000000000     
   1.3688959769707269E-002   1.1650708317413331E-002   0.0000000000000000     
   1.6484627175803339E-002   1.4886978142557057E-002   0.0000000000000000     
   1.9242711008978147E-002   1.8337528111664999E-002   0.0000000000000000     
   2.1963211269231696E-002   2.2002358224737163E-002   0.0000000000000000     
   9.6002241757519105E-003   8.1271629835971415E-003   0.0000000000000000     
   1.2076625676288259E-002   1.1046285100483961E-002   0.0000000000000000     
   1.4545938632321662E-002   1.4212480473673527E-002   0.0000000000000000     
   1.7008163043852127E-002   1.7625749103165833E-002   0.0000000000000000     
   1.9463298910879650E-002   2.1286090988960886E-002   0.0000000000000000     
   8.4288136842682864E-003   7.7243472327236150E-003   0.0000000000000000     
   1.0590600242823470E-002   1.0558264169369939E-002   0.0000000000000000     
   1.2760940066409661E-002   1.3661369659820493E-002   0.0000000000000000     
   1.4939833155026864E-002   1.7033663704075271E-002   0.0000000000000000     
   1.7127279508675076E-002   2.0675146302134271E-002   0.0000000000000000     
   7.3414773162390609E-003   7.4202713836132427E-003   0.0000000000000000     
   9.2308834693128998E-003   1.0186645524071263E-002   0.0000000000000000     
   1.1129631478067335E-002   1.3233645700997953E-002   0.0000000000000000     
   1.3037721342502360E-002   1.6561271914393310E-002   0.0000000000000000     
   1.4955153062617986E-002   2.0169524164257328E-002   0.0000000000000000     
   2.4627016583731221E-002   2.2823948009463101E-002   0.0000000000000000     
   2.7531694041170229E-002   2.6672443069901536E-002   0.0000000000000000     
   3.0361579167058606E-002   3.0737224474647520E-002   0.0000000000000000     
   3.3116671961396352E-002   3.5018292223701043E-002   0.0000000000000000     
   3.5796972424183462E-002   3.9515646317062114E-002   0.0000000000000000     
   2.1963211269231696E-002   2.2002358224737163E-002   0.0000000000000000     
   2.4629515942622898E-002   2.5879569091459557E-002   0.0000000000000000     
   2.7225013015210641E-002   2.9967261321518213E-002   0.0000000000000000     
   2.9749702486994923E-002   3.4265434914913129E-002   0.0000000000000000     
   3.2203584357975767E-002   3.8774089871644296E-002   0.0000000000000000     
   1.9463298910879650E-002   2.1286090988960886E-002   0.0000000000000000     
   2.1882942312456313E-002   2.5174857733233313E-002   0.0000000000000000     
   2.4238689327634184E-002   2.9273400938157775E-002   0.0000000000000000     
   2.6530539956413281E-002   3.3581720603734259E-002   0.0000000000000000     
   2.8758494198793585E-002   3.8099816729962759E-002   0.0000000000000000     
   1.7127279508675076E-002   2.0675146302134271E-002   0.0000000000000000     
   1.9291973150670480E-002   2.4558308995222808E-002   0.0000000000000000     
   2.1402608104329257E-002   2.8655643324566191E-002   0.0000000000000000     
   2.3459184369651401E-002   3.2967149290164421E-002   0.0000000000000000     
   2.5461701946636921E-002   3.7492826892017488E-002   0.0000000000000000     
   1.4955153062617986E-002   2.0169524164257328E-002   0.0000000000000000     
   1.6856608457265408E-002   2.4029922877428046E-002   0.0000000000000000     
   1.8716769345295852E-002   2.8113988480743476E-002   0.0000000000000000     
   2.0535635726709300E-002   3.2421720974203629E-002   0.0000000000000000     
   2.2313207601505763E-002   3.6953120357808497E-002   0.0000000000000000     
   3.5796972424183462E-002   3.9515646317062114E-002   0.0000000000000000     
   3.8402574245232968E-002   4.4219850930749795E-002   0.0000000000000000     
   4.0933571114357900E-002   4.9121470240783172E-002   0.0000000000000000     
   4.3389963031558253E-002   5.4220504247162231E-002   0.0000000000000000     
   4.5771749996834019E-002   5.9516952949886986E-002   0.0000000000000000     
   3.2203584357975767E-002   3.8774089871644296E-002   0.0000000000000000     
   3.4588702139250388E-002   4.3488432698622410E-002   0.0000000000000000     
   3.6907099341916029E-002   4.8403669902758149E-002   0.0000000000000000     
   3.9158775965972677E-002   5.3519801484051506E-002   0.0000000000000000     
   4.1343732011420345E-002   5.8836827442502487E-002   0.0000000000000000     
   2.8758494198793585E-002   3.8099816729962759E-002   0.0000000000000000     
   3.0924749272723647E-002   4.2824519928299519E-002   0.0000000000000000     
   3.3031502396151997E-002   4.7752660810200763E-002   0.0000000000000000     
   3.5078753569078649E-002   5.2884239375666525E-002   0.0000000000000000     
   3.7066502791503593E-002   5.8219255624696757E-002   0.0000000000000000     
   2.5461701946636921E-002   3.7492826892017488E-002   0.0000000000000000     
   2.7410715645652749E-002   4.2228112619781134E-002   0.0000000000000000     
   2.9306780277065833E-002   4.7168442963111054E-002   0.0000000000000000     
   3.1149895840876171E-002   5.2313817922007275E-002   0.0000000000000000     
   3.2940062337083770E-002   5.7664237496469775E-002   0.0000000000000000     
   2.2313207601505763E-002   3.6953120357808497E-002   0.0000000000000000     
   2.4046601258037689E-002   4.1699210773067236E-002   0.0000000000000000     
   2.5732932984657515E-002   4.6651016361488995E-002   0.0000000000000000     
   2.7372202781365238E-002   5.1808537123073768E-002   0.0000000000000000     
   2.8964410648160861E-002   5.7171773057821562E-002   0.0000000000000000     
   4.5771749996834019E-002   5.9516952949886986E-002   0.0000000000000000     
   4.8080071429138976E-002   6.5002634189775574E-002   0.0000000000000000     
   5.0316066747426905E-002   7.0669365807646170E-002   0.0000000000000000     
   5.2479735951697783E-002   7.6517147803498761E-002   0.0000000000000000     
   5.4571079041951624E-002   8.2545980177333361E-002   0.0000000000000000     
   4.1343732011420345E-002   5.8836827442502487E-002   0.0000000000000000     
   4.3461860680195773E-002   6.4344513922189928E-002   0.0000000000000000     
   4.5513055174235720E-002   7.0032627067192599E-002   0.0000000000000000     
   4.7497315493540172E-002   7.5901166877510529E-002   0.0000000000000000     
   4.9414641638109130E-002   8.1950133353143745E-002   0.0000000000000000     
   3.7066502791503593E-002   5.8219255624696757E-002   0.0000000000000000     
   3.8993896435270750E-002   6.3746172447108299E-002   0.0000000000000000     
   4.0860080872224029E-002   6.9453452732717968E-002   0.0000000000000000     
   4.2665056102363437E-002   7.5341096481525788E-002   0.0000000000000000     
   4.4408822125688981E-002   8.1409103693531729E-002   0.0000000000000000     
   3.2940062337083770E-002   5.7664237496469775E-002   0.0000000000000000     
   3.4676178694363895E-002   6.3207609764530728E-002   0.0000000000000000     
   3.6357143841391840E-002   6.8931842804222307E-002   0.0000000000000000     
   3.7982957778167604E-002   7.4836936615544525E-002   0.0000000000000000     
   3.9553620504691182E-002   8.0922891198497340E-002   0.0000000000000000     
   2.8964410648160861E-002   5.7171773057821562E-002   0.0000000000000000     
   3.0508707457475224E-002   6.2728825874457217E-002   0.0000000000000000     
   3.2004244081739158E-002   6.8467797281705600E-002   0.0000000000000000     
   3.3451020520952661E-002   7.4388687279566712E-002   0.0000000000000000     
   3.4849036775115735E-002   8.0491495868040552E-002   0.0000000000000000     
   5.4571079041951624E-002   8.2545980177333361E-002   0.0000000000000000     
   5.6587688270801531E-002   8.8743720237792312E-002   0.0000000000000000     
   5.8527155890860591E-002   9.5098225293517982E-002   0.0000000000000000     
   6.0389481902128825E-002  0.10160949534451034        0.0000000000000000     
   6.2174666304606212E-002  0.10827753039076943        0.0000000000000000     
   4.9414641638109130E-002   8.1950133353143745E-002   0.0000000000000000     
   5.1262997694220450E-002   8.8167847839142902E-002   0.0000000000000000     
   5.3040347748151959E-002   9.4542631680558820E-002   0.0000000000000000     
   5.4746691799903657E-002  0.10107448487739140        0.0000000000000000     
   5.6382029849475560E-002  0.10776340742964075        0.0000000000000000     
   4.4408822125688981E-002   8.1409103693531729E-002   0.0000000000000000     
   4.6089538070339428E-002   8.7645921260466886E-002   0.0000000000000000     
   4.7705363064453526E-002   9.4039996074062368E-002   0.0000000000000000     
   4.9256297108031290E-002  0.10059132813431816        0.0000000000000000     
   5.0742340201072725E-002  0.10729991744123427        0.0000000000000000     
   3.9553620504691182E-002   8.0922891198497340E-002   0.0000000000000000     
   4.1067309399158446E-002   8.7177940501764195E-002   0.0000000000000000     
   4.2522201839765301E-002   9.3590318474028628E-002   0.0000000000000000     
   4.3918297826511715E-002  0.10016002511529053        0.0000000000000000     
   4.5255597359397701E-002  0.10688706042555000        0.0000000000000000     
   3.4849036775115735E-002   8.0491495868040552E-002   0.0000000000000000     
   3.6196311680677551E-002   8.6763905563034899E-002   0.0000000000000000     
   3.7490864074087284E-002   9.3193598880457584E-002   0.0000000000000000     
   3.8732693955344927E-002   9.9780575820308595E-002   0.0000000000000000     
   3.9921801324450487E-002  0.10652483638258795        0.0000000000000000     
   6.2174666304606212E-002  0.10827753039076943        0.0000000000000000     
   6.3888362202785251E-002  0.11509121318638904        0.0000000000000000     
   6.5536222701158470E-002  0.12203942648546302        0.0000000000000000     
   6.7118247799725833E-002  0.12912217028799133        0.0000000000000000     
   6.8634437498487369E-002  0.13633944459397401        0.0000000000000000     
   5.6382029849475560E-002  0.10776340742964075        0.0000000000000000     
   5.7950840132508265E-002  0.11459754893125280        0.0000000000000000     
   5.9457600884642414E-002  0.12156505897617362        0.0000000000000000     
   6.0902312105877973E-002  0.12866593756440317        0.0000000000000000     
   6.2284973796214976E-002  0.13590018469594153        0.0000000000000000     
   5.0742340201072725E-002  0.10729991744123427        0.0000000000000000     
   5.2167187882984037E-002  0.11415367060733461        0.0000000000000000     
   5.3534535693171459E-002  0.12114049424514306        0.0000000000000000     
   5.4844383631634998E-002  0.12826038835465961        0.0000000000000000     
   5.6096731698374626E-002  0.13551335293588429        0.0000000000000000     
   4.5255597359397701E-002  0.10688706042555000        0.0000000000000000     
   4.6537405454212574E-002  0.11375957821463442        0.0000000000000000     
   4.7767027126745631E-002  0.12076573229237127        0.0000000000000000     
   4.8944462376996879E-002  0.12790552265876057        0.0000000000000000     
   5.0069711204966331E-002  0.13517894931380228        0.0000000000000000     
   3.9921801324450487E-002  0.10652483638258795        0.0000000000000000     
   4.1061492846193856E-002  0.11341527175315229        0.0000000000000000     
   4.2155075185364911E-002  0.12044077311785832        0.0000000000000000     
   4.3202548341963659E-002  0.12760134047670607        0.0000000000000000     
   4.4203912315990093E-002  0.13489697382969548        0.0000000000000000     
   6.8634437498487369E-002  0.13633944459397401        0.0000000000000000     
   7.0076037140326605E-002  0.14367825897503675        0.0000000000000000     
   7.1434292068127070E-002  0.15112562300280527        0.0000000000000000     
   7.2709202281888777E-002  0.15868153667727955        0.0000000000000000     
   7.3900767781611698E-002  0.16634599999845964        0.0000000000000000     
   6.2284973796214976E-002  0.13590018469594153        0.0000000000000000     
   6.3597346527017068E-002  0.14325357710226713        0.0000000000000000     
   6.4831190869647934E-002  0.15071189151485850        0.0000000000000000     
   6.5986506824107588E-002  0.15827512793371565        0.0000000000000000     
   6.7063294390395989E-002  0.16594328635883848        0.0000000000000000     
   5.6096731698374626E-002  0.13551335293588429        0.0000000000000000     
   5.7283847668438158E-002  0.14288495224489547        0.0000000000000000     
   5.8397999316873388E-002  0.15036075053777162        0.0000000000000000     
   5.9439186643680315E-002  0.15794074781451264        0.0000000000000000     
   6.0407409648858920E-002  0.16562494407511857        0.0000000000000000     
   5.0069711204966331E-002  0.13517894931380228        0.0000000000000000     
   5.1135540564589868E-002  0.14257238440292180        0.0000000000000000     
   5.2134717409803411E-002  0.15007220007154456        0.0000000000000000     
   5.3067241740606938E-002  0.15767839631967062        0.0000000000000000     
   5.3933113557000478E-002  0.16539097314729989        0.0000000000000000     
   4.4203912315990093E-002  0.13489697382969548        0.0000000000000000     
   4.5152425215472212E-002  0.14231587357634609        0.0000000000000000     
   4.6041345148438016E-002  0.14984624011617745        0.0000000000000000     
   4.6870672114887518E-002  0.15748807344918955        0.0000000000000000     
   4.7640406114820684E-002  0.16524137357538241        0.0000000000000000     
   0.0000000000000000        0.0000000000000000        0.0000000000000000     
   1.7983449069294325E-003   1.2768228886630285E-003   0.0000000000000000     
   3.6213727619457533E-003   2.9391424154862453E-003   0.0000000000000000     
   5.4690835650489629E-003   4.9869585804696494E-003   0.0000000000000000     
   7.3414773162390609E-003   7.4202713836132427E-003   0.0000000000000000     
   0.0000000000000000        0.0000000000000000        0.0000000000000000     
   1.5350331925278729E-003   1.2175612800070135E-003   0.0000000000000000     
   3.0993982612341152E-003   2.8208785954781683E-003   0.0000000000000000     
   4.6930952061187267E-003   4.8099519464134648E-003   0.0000000000000000     
   6.3161240271817068E-003   7.1847813328129034E-003   0.0000000000000000     
   0.0000000000000000        0.0000000000000000        0.0000000000000000     
   1.2878187505847658E-003   1.1700027773114061E-003   0.0000000000000000     
   2.6055354628819701E-003   2.7246241992267863E-003   0.0000000000000000     
   3.9531501368916125E-003   4.6638642657461406E-003   0.0000000000000000     
   5.3306627726136943E-003   6.9877229768694673E-003   0.0000000000000000     
   0.0000000000000000        0.0000000000000000        0.0000000000000000     
   1.0567015811001111E-003   1.1341473805762065E-003   0.0000000000000000     
   2.1397843668893176E-003   2.6503792267320980E-003   0.0000000000000000     
   3.2492483573676209E-003   4.5486955384676769E-003   0.0000000000000000     
   4.3850935525350191E-003   6.8290963157829404E-003   0.0000000000000000     
   0.0000000000000000        0.0000000000000000        0.0000000000000000     
   8.4168168407390824E-004   1.1099950898014140E-003   0.0000000000000000     
   1.7021449732561584E-003   2.5981436779941047E-003   0.0000000000000000     
   2.5813898675467509E-003   4.4644457645780728E-003   0.0000000000000000     
   3.4794163669456851E-003   6.7089013495533166E-003   0.0000000000000000     
   7.3414773162390609E-003   7.4202713836132427E-003   0.0000000000000000     
   9.2308834693128998E-003   1.0186645524071263E-002   0.0000000000000000     
   1.1129631478067335E-002   1.3233645700997953E-002   0.0000000000000000     
   1.3037721342502360E-002   1.6561271914393310E-002   0.0000000000000000     
   1.4955153062617986E-002   2.0169524164257328E-002   0.0000000000000000     
   6.3161240271817068E-003   7.1847813328129034E-003   0.0000000000000000     
   7.9557801145568388E-003   9.8958038452003245E-003   0.0000000000000000     
   9.5993588583779023E-003   1.2893456574099574E-002   0.0000000000000000     
   1.1246860258644895E-002   1.6177739519510657E-002   0.0000000000000000     
   1.2898284315357821E-002   1.9748652681433564E-002   0.0000000000000000     
   5.3306627726136943E-003   6.9877229768694673E-003   0.0000000000000000     
   6.7235949373555658E-003   9.6501138133695159E-003   0.0000000000000000     
   8.1174681984245815E-003   1.2604950256019039E-002   0.0000000000000000     
   9.5122825558207388E-003   1.5852232304818033E-002   0.0000000000000000     
   1.0908038009544043E-002   1.9391959959766499E-002   0.0000000000000000     
   4.3850935525350191E-003   6.8290963157829404E-003   0.0000000000000000     
   5.5343279377090817E-003   9.4495754285788443E-003   0.0000000000000000     
   6.6839594982073718E-003   1.2368126746756344E-002   0.0000000000000000     
   7.8339882340298945E-003   1.5584750270315436E-002   0.0000000000000000     
   8.9844141451766463E-003   1.9099445999256132E-002   0.0000000000000000     
   3.4794163669456851E-003   6.7089013495533166E-003   0.0000000000000000     
   4.3879791156173856E-003   9.2941886908282992E-003   0.0000000000000000     
   5.2988327577262783E-003   1.2182986046311486E-002   0.0000000000000000     
   6.2119772932723609E-003   1.5375293416002874E-002   0.0000000000000000     
   7.1274127222556351E-003   1.8871110799902464E-002   0.0000000000000000     
   1.4955153062617986E-002   2.0169524164257328E-002   0.0000000000000000     
   1.6856608457265408E-002   2.4029922877428046E-002   0.0000000000000000     
   1.8716769345295852E-002   2.8113988480743476E-002   0.0000000000000000     
   2.0535635726709300E-002   3.2421720974203629E-002   0.0000000000000000     
   2.2313207601505763E-002   3.6953120357808497E-002   0.0000000000000000     
   1.2898284315357821E-002   1.9748652681433564E-002   0.0000000000000000     
   1.4537309216443311E-002   2.3580106817896899E-002   0.0000000000000000     
   1.6147613149827995E-002   2.7646012686929282E-002   0.0000000000000000     
   1.7729196115511887E-002   3.1946370288530687E-002   0.0000000000000000     
   1.9282058113494968E-002   3.6481179622701143E-002   0.0000000000000000     
   1.0908038009544043E-002   1.9391959959766499E-002   0.0000000000000000     
   1.2294536412406404E-002   2.3199268254677295E-002   0.0000000000000000     
   1.3661579617219746E-002   2.7249292223363274E-002   0.0000000000000000     
   1.5009167623984070E-002   3.1542031865824438E-002   0.0000000000000000     
   1.6337300432699368E-002   3.6077487182060788E-002   0.0000000000000000     
   8.9844141451766463E-003   1.9099445999256132E-002   0.0000000000000000     
   1.0128290045154691E-002   2.2887407187769201E-002   0.0000000000000000     
   1.1258668747471091E-002   2.6923827090045451E-002   0.0000000000000000     
   1.2375550252125849E-002   3.1208705706084854E-002   0.0000000000000000     
   1.3478934559118964E-002   3.5742043035887440E-002   0.0000000000000000     
   7.1274127222556351E-003   1.8871110799902464E-002   0.0000000000000000     
   8.0385701146881688E-003   2.2644523617172646E-002   0.0000000000000000     
   8.9388805405820372E-003   2.6669617286975811E-002   0.0000000000000000     
   9.8283439999372300E-003   3.0946391809311958E-002   0.0000000000000000     
   1.0706960492753759E-002   3.5474847184181091E-002   0.0000000000000000     
   2.2313207601505763E-002   3.6953120357808497E-002   0.0000000000000000     
   2.4046601258037689E-002   4.1699210773067236E-002   0.0000000000000000     
   2.5732932984657515E-002   4.6651016361488995E-002   0.0000000000000000     
   2.7372202781365238E-002   5.1808537123073768E-002   0.0000000000000000     
   2.8964410648160861E-002   5.7171773057821562E-002   0.0000000000000000     
   1.9282058113494968E-002   3.6481179622701143E-002   0.0000000000000000     
   2.0799896903873565E-002   4.1236328639109608E-002   0.0000000000000000     
   2.2276410246744004E-002   4.6197705287425082E-002   0.0000000000000000     
   2.3711598142106268E-002   5.1365309567647531E-002   0.0000000000000000     
   2.5105460589960372E-002   5.6739141479776989E-002   0.0000000000000000     
   1.6337300432699368E-002   3.6077487182060788E-002   0.0000000000000000     
   1.7638093377155488E-002   4.0837980468860009E-002   0.0000000000000000     
   1.8903661791142262E-002   4.5805834023009771E-002   0.0000000000000000     
   2.0134005674659700E-002   5.0981047844510075E-002   0.0000000000000000     
   2.1329125027707785E-002   5.6363621933360926E-002   0.0000000000000000     
   1.3478934559118964E-002   3.5742043035887440E-002   0.0000000000000000     
   1.4561190677883442E-002   4.0504166262318439E-002   0.0000000000000000     
   1.5614687617852292E-002   4.5475402568243097E-002   0.0000000000000000     
   1.6639425379025515E-002   5.0655751953661406E-002   0.0000000000000000     
   1.7635403961403111E-002   5.6045214418573380E-002   0.0000000000000000     
   1.0706960492753759E-002   3.5474847184181091E-002   0.0000000000000000     
   1.1569188806057441E-002   4.0234886019484890E-002   0.0000000000000000     
   1.2409487726874096E-002   4.5206410923125030E-002   0.0000000000000000     
   1.3227857255203729E-002   5.0389421895101524E-002   0.0000000000000000     
   1.4024297391046339E-002   5.5783918935414359E-002   0.0000000000000000     
   2.8964410648160861E-002   5.7171773057821562E-002   0.0000000000000000     
   3.0508707457475224E-002   6.2728825874457217E-002   0.0000000000000000     
   3.2004244081739158E-002   6.8467797281705600E-002   0.0000000000000000     
   3.3451020520952661E-002   7.4388687279566712E-002   0.0000000000000000     
   3.4849036775115735E-002   8.0491495868040552E-002   0.0000000000000000     
   2.5105460589960372E-002   5.6739141479776989E-002   0.0000000000000000     
   2.6457506584826703E-002   6.2307649542330402E-002   0.0000000000000000     
   2.7767245121225664E-002   6.8059282273824712E-002   0.0000000000000000     
   2.9034676199157259E-002   7.3994039674259965E-002   0.0000000000000000     
   3.0259799818621480E-002   8.0111921743636100E-002   0.0000000000000000     
   2.1329125027707785E-002   5.6363621933360926E-002   0.0000000000000000     
   2.2488599936640319E-002   6.1941909533592882E-002   0.0000000000000000     
   2.3612010487811076E-002   6.7704263889236505E-002   0.0000000000000000     
   2.4699356681220055E-002   7.3650685000291816E-002   0.0000000000000000     
   2.5750638516867264E-002   7.9781172866758773E-002   0.0000000000000000     
   1.7635403961403111E-002   5.6045214418573380E-002   0.0000000000000000     
   1.8601987512916071E-002   6.1631605848244689E-002   0.0000000000000000     
   1.9538540181495385E-002   6.7402742127940979E-002   0.0000000000000000     
   2.0445061967141059E-002   7.3358623257662237E-002   0.0000000000000000     
   2.1321552869853093E-002   7.9499249237408531E-002   0.0000000000000000     
   1.4024297391046339E-002   5.5783918935414359E-002   0.0000000000000000     
   1.4797669313653951E-002   6.1376738486285796E-002   0.0000000000000000     
   1.5546834202278592E-002   6.7154716989938121E-002   0.0000000000000000     
   1.6271792056920264E-002   7.3117854446371311E-002   0.0000000000000000     
   1.6972542877578965E-002   7.9266150855585374E-002   0.0000000000000000     
   3.4849036775115735E-002   8.0491495868040552E-002   0.0000000000000000     
   3.6196311680677551E-002   8.6763905563034899E-002   0.0000000000000000     
   3.7490864074087284E-002   9.3193598880457584E-002   0.0000000000000000     
   3.8732693955344927E-002   9.9780575820308595E-002   0.0000000000000000     
   3.9921801324450487E-002  0.10652483638258795        0.0000000000000000     
   3.0259799818621480E-002   8.0111921743636100E-002   0.0000000000000000     
   3.1440488923617012E-002   8.6399984753173162E-002   0.0000000000000000     
   3.2574616458142538E-002   9.2845284974091100E-002   0.0000000000000000     
   3.3662182422198074E-002   9.9447822406389927E-002   0.0000000000000000     
   3.4703186815783611E-002  0.10620759705006963        0.0000000000000000     
   2.5750638516867264E-002   7.9781172866758773E-002   0.0000000000000000     
   2.6763785136697141E-002   8.6082346381073219E-002   0.0000000000000000     
   2.7736725682654159E-002   9.2540824435671049E-002   0.0000000000000000     
   2.8669460154738296E-002   9.9156607030552152E-002   0.0000000000000000     
   2.9561988552949565E-002  0.10592969416571661        0.0000000000000000     
   2.1321552869853093E-002   7.9499249237408531E-002   0.0000000000000000     
   2.2166200319917954E-002   8.5810990446735139E-002   0.0000000000000000     
   2.2977191747622125E-002   9.2280217265197390E-002   0.0000000000000000     
   2.3754527152965596E-002   9.8906929692795312E-002   0.0000000000000000     
   2.4498206535948377E-002  0.10569112772952893        0.0000000000000000     
   1.6972542877578965E-002   7.9266150855585374E-002   0.0000000000000000     
   1.7647734473279442E-002   8.5585916950158811E-002   0.0000000000000000     
   1.8296014653046446E-002   9.2063463462670178E-002   0.0000000000000000     
   1.8917383416879974E-002   9.8698790393119379E-002   0.0000000000000000     
   1.9511840764780027E-002  0.10549189774150652        0.0000000000000000     
   3.9921801324450487E-002  0.10652483638258795        0.0000000000000000     
   4.1061492846193856E-002  0.11341527175315229        0.0000000000000000     
   4.2155075185364911E-002  0.12044077311785832        0.0000000000000000     
   4.3202548341963659E-002  0.12760134047670607        0.0000000000000000     
   4.4203912315990093E-002  0.13489697382969548        0.0000000000000000     
   3.4703186815783611E-002  0.10620759705006963        0.0000000000000000     
   3.5700994965913516E-002  0.11311433870772036        0.0000000000000000     
   3.6658972199602180E-002  0.12015777718193231        0.0000000000000000     
   3.7577118516849604E-002  0.12733791247270543        0.0000000000000000     
   3.8455433917655775E-002  0.13465474458003976        0.0000000000000000     
   2.9561988552949565E-002  0.10592969416571661        0.0000000000000000     
   3.0417456720357179E-002  0.11285036656317086        0.0000000000000000     
   3.1239010500030334E-002  0.11990890494492135        0.0000000000000000     
   3.2026649891969024E-002  0.12710530931096806        0.0000000000000000     
   3.2780374896173275E-002  0.13443957966131098        0.0000000000000000     
   2.4498206535948377E-002  0.10569112772952893        0.0000000000000000     
   2.5210878109524833E-002  0.11262335531950375        0.0000000000000000     
   2.5895190086649356E-002  0.11969415640682540        0.0000000000000000     
   2.6551142467321934E-002  0.12690353099149390        0.0000000000000000     
   2.7178735251542574E-002  0.13425147907350921        0.0000000000000000     
   1.9511840764780027E-002  0.10549189774150652        0.0000000000000000     
   2.0081259133416494E-002  0.11243330497671906        0.0000000000000000     
   2.0627510959459257E-002  0.11951353156764453        0.0000000000000000     
   2.1150596242908319E-002  0.12673257751428296        0.0000000000000000     
   2.1650514983763684E-002  0.13409044281663438        0.0000000000000000     
   4.4203912315990093E-002  0.13489697382969548        0.0000000000000000     
   4.5152425215472212E-002  0.14231587357634609        0.0000000000000000     
   4.6041345148438016E-002  0.14984624011617745        0.0000000000000000     
   4.6870672114887518E-002  0.15748807344918955        0.0000000000000000     
   4.7640406114820684E-002  0.16524137357538241        0.0000000000000000     
   3.8455433917655775E-002  0.13465474458003976        0.0000000000000000     
   3.9287672161806939E-002  0.14209797085973772        0.0000000000000000     
   4.0067587009089342E-002  0.14965728866760183        0.0000000000000000     
   4.0795178459502965E-002  0.15733269800363206        0.0000000000000000     
   4.1470446513047821E-002  0.16512419886782836        0.0000000000000000     
   3.2780374896173275E-002  0.13443957966131098        0.0000000000000000     
   3.3494451944315842E-002  0.14190122734766614        0.0000000000000000     
   3.4163147468069519E-002  0.14947976372174931        0.0000000000000000     
   3.4786461467434290E-002  0.15717518878356060        0.0000000000000000     
   3.5364393942410172E-002  0.16498750253309996        0.0000000000000000     
   2.7178735251542574E-002  0.13425147907350921        0.0000000000000000     
   2.7772764562998896E-002  0.14172564304013124        0.0000000000000000     
   2.8328026525378535E-002  0.14931366527861992        0.0000000000000000     
   2.8844521138681484E-002  0.15701554578897525        0.0000000000000000     
   2.9322248402907751E-002  0.16483128457119722        0.0000000000000000     
   2.1650514983763684E-002  0.13409044281663438        0.0000000000000000     
   2.2122610017856120E-002  0.14157121793713312        0.0000000000000000     
   2.2562224181016412E-002  0.14915899333821367        0.0000000000000000     
   2.2969357473244557E-002  0.15685376901987599        0.0000000000000000     
   2.3344009894540552E-002  0.16465554498212012        0.0000000000000000     
   0.0000000000000000        0.0000000000000000        0.0000000000000000     
   8.4168168407390824E-004   1.1099950898014140E-003   0.0000000000000000     
   1.7021449732561584E-003   2.5981436779941047E-003   0.0000000000000000     
   2.5813898675467509E-003   4.4644457645780728E-003   0.0000000000000000     
   3.4794163669456851E-003   6.7089013495533166E-003   0.0000000000000000     
   0.0000000000000000        0.0000000000000000        0.0000000000000000     
   6.3384870939693118E-004   1.0939821925166542E-003   0.0000000000000000     
   1.2780737827383060E-003   2.5620676698065391E-003   0.0000000000000000     
   1.9326752200241248E-003   4.4042564318696551E-003   0.0000000000000000     
   2.5976530212543873E-003   6.6205484787060015E-003   0.0000000000000000     
   0.0000000000000000        0.0000000000000000        0.0000000000000000     
   4.2429230695995295E-004   1.0825449762515503E-003   0.0000000000000000     
   8.5302729609157413E-004   2.5363013189631327E-003   0.0000000000000000     
   1.2862049673948634E-003   4.3612690281347481E-003   0.0000000000000000     
   1.7238253208698212E-003   6.5574481037663944E-003   0.0000000000000000     
   0.0000000000000000        0.0000000000000000        0.0000000000000000     
   2.1301247676297372E-004   1.0756834410061025E-003   0.0000000000000000     
   4.2700551331596286E-004   2.5208446254638864E-003   0.0000000000000000     
   6.4197910965896733E-004   4.3354835533733508E-003   0.0000000000000000     
   8.5793326579198712E-004   6.5196002247344962E-003   0.0000000000000000     
   0.0000000000000000        0.0000000000000000        0.0000000000000000     
   9.2188059934038193E-009   1.0733975867803112E-003   0.0000000000000000     
   8.4344114720897798E-009   2.5156975893088000E-003   0.0000000000000000     
  -2.3531835639692238E-009   4.3269000075854651E-003   0.0000000000000000     
  -2.3143979114718981E-008   6.5070048416103069E-003   0.0000000000000000     
   3.4794163669456851E-003   6.7089013495533166E-003   0.0000000000000000     
   4.3879791156173856E-003   9.2941886908282992E-003   0.0000000000000000     
   5.2988327577262783E-003   1.2182986046311486E-002   0.0000000000000000     
   6.2119772932723609E-003   1.5375293416002874E-002   0.0000000000000000     
   7.1274127222556351E-003   1.8871110799902464E-002   0.0000000000000000     
   2.5976530212543873E-003   6.6205484787060015E-003   0.0000000000000000     
   3.2700602414313814E-003   9.1779844472191369E-003   0.0000000000000000     
   3.9469499355573963E-003   1.2043604974312614E-002   0.0000000000000000     
   4.6283221036324306E-003   1.5217410059986442E-002   0.0000000000000000     
   5.3141767456564865E-003   1.8699399704240612E-002   0.0000000000000000     
   1.7238253208698212E-003   6.5574481037663944E-003   0.0000000000000000     
   2.1660830855019684E-003   9.0949935448525979E-003   0.0000000000000000     
   2.6131729902768280E-003   1.1944060350387883E-002   0.0000000000000000     
   3.0650950351943976E-003   1.5104648520372247E-002   0.0000000000000000     
   3.5218492202546796E-003   1.8576758054805693E-002   0.0000000000000000     
   8.5793326579198712E-004   6.5196002247344962E-003   0.0000000000000000     
   1.0760476478291470E-003   9.0452159837286859E-003   0.0000000000000000     
   1.2975019218845717E-003   1.1884352174537286E-002   0.0000000000000000     
   1.5222960879582609E-003   1.5037008797160294E-002   0.0000000000000000     
   1.7504301460502145E-003   1.8503185851597707E-002   0.0000000000000000     
  -2.3143979114718981E-008   6.5070048416103069E-003   0.0000000000000000     
  -4.6071587082920106E-008   9.0286517638474024E-003   0.0000000000000000     
  -6.3269619371448410E-008   1.1864480446760825E-002   0.0000000000000000     
  -7.4738075980190389E-008   1.5014490890350575E-002   0.0000000000000000     
  -8.0476956908822478E-008   1.8478683094616657E-002   0.0000000000000000     
   7.1274127222556351E-003   1.8871110799902464E-002   0.0000000000000000     
   8.0385701146881688E-003   2.2644523617172646E-002   0.0000000000000000     
   8.9388805405820372E-003   2.6669617286975811E-002   0.0000000000000000     
   9.8283439999372300E-003   3.0946391809311958E-002   0.0000000000000000     
   1.0706960492753759E-002   3.5474847184181091E-002   0.0000000000000000     
   5.3141767456564865E-003   1.8699399704240612E-002   0.0000000000000000     
   5.9975593735251357E-003   2.2462183857375948E-002   0.0000000000000000     
   6.6715154991339540E-003   2.6478372469693274E-002   0.0000000000000000     
   7.3360451224829398E-003   3.0747965541192582E-002   0.0000000000000000     
   7.9911482435720948E-003   3.5270963071873870E-002   0.0000000000000000     
   3.5218492202546796E-003   1.8576758054805693E-002   0.0000000000000000     
   3.9774405741838850E-003   2.2331954222867448E-002   0.0000000000000000     
   4.4258741257082275E-003   2.6341802293736734E-002   0.0000000000000000     
   4.8671498748277062E-003   3.0606302267413562E-002   0.0000000000000000     
   5.3012678215423204E-003   3.5125454143897922E-002   0.0000000000000000     
   1.7504301460502145E-003   1.8503185851597707E-002   0.0000000000000000     
   1.9782137166644183E-003   2.2253834713647138E-002   0.0000000000000000     
   2.2019564203048557E-003   2.6259906759106205E-002   0.0000000000000000     
   2.4216582569715275E-003   3.0521401987974893E-002   0.0000000000000000     
   2.6373192266644346E-003   3.5038320400253210E-002   0.0000000000000000     
  -8.0476956908822478E-008   1.8478683094616657E-002   0.0000000000000000     
  -1.2119903326627580E-007   2.2227825329715033E-002   0.0000000000000000     
  -2.3761707616099361E-007   2.6232685865801679E-002   0.0000000000000000     
  -4.2973108559293523E-007   3.0493264702876589E-002   0.0000000000000000     
  -6.9754106156254790E-007   3.5009561840939778E-002   0.0000000000000000     
   1.0706960492753759E-002   3.5474847184181091E-002   0.0000000000000000     
   1.1569188806057441E-002   4.0234886019484890E-002   0.0000000000000000     
   1.2409487726874096E-002   4.5206410923125030E-002   0.0000000000000000     
   1.3227857255203729E-002   5.0389421895101524E-002   0.0000000000000000     
   1.4024297391046339E-002   5.5783918935414359E-002   0.0000000000000000     
   7.9911482435720948E-003   3.5270963071873870E-002   0.0000000000000000     
   8.6338838121191482E-003   4.0027577216387694E-002   0.0000000000000000     
   9.2613107778418205E-003   4.4998020129384551E-002   0.0000000000000000     
   9.8734291407401188E-003   5.0182291810864470E-002   0.0000000000000000     
   1.0470238900814039E-002   5.5580392260827428E-002   0.0000000000000000     
   5.3012678215423204E-003   3.5125454143897922E-002   0.0000000000000000     
   5.7270717465102367E-003   3.9879677329055153E-002   0.0000000000000000     
   6.1434054303896183E-003   4.4849391228750604E-002   0.0000000000000000     
   6.5502688731804660E-003   5.0034595842984288E-002   0.0000000000000000     
   6.9476620748827782E-003   5.5435291171756190E-002   0.0000000000000000     
   2.6373192266644346E-003   3.5038320400253210E-002   0.0000000000000000     
   2.8487526092307106E-003   3.9791186357487289E-002   0.0000000000000000     
   3.0557716845174892E-003   4.4760524221223195E-002   0.0000000000000000     
   3.2583764525247715E-003   4.9946333991460985E-002   0.0000000000000000     
   3.4565669132525572E-003   5.5348615668200624E-002   0.0000000000000000     
  -6.9754106156254790E-007   3.5009561840939778E-002   0.0000000000000000     
  -1.0735997194319738E-006   3.9762104301684073E-002   0.0000000000000000     
  -1.5904597745661198E-006   4.4731419106802332E-002   0.0000000000000000     
  -2.2481212269637255E-006   4.9917506256294555E-002   0.0000000000000000     
  -3.0465840766254280E-006   5.5320365750160742E-002   0.0000000000000000     
   1.4024297391046339E-002   5.5783918935414359E-002   0.0000000000000000     
   1.4797669313653951E-002   6.1376738486285796E-002   0.0000000000000000     
   1.5546834202278592E-002   6.7154716989938121E-002   0.0000000000000000     
   1.6271792056920264E-002   7.3117854446371311E-002   0.0000000000000000     
   1.6972542877578965E-002   7.9266150855585374E-002   0.0000000000000000     
   1.0470238900814039E-002   5.5580392260827428E-002   0.0000000000000000     
   1.1050197238719941E-002   6.1178108019722219E-002   0.0000000000000000     
   1.1611761335114178E-002   6.6961225627997570E-002   0.0000000000000000     
   1.2154931189996753E-002   7.2929745085653502E-002   0.0000000000000000     
   1.2679706803367665E-002   7.9083666392690016E-002   0.0000000000000000     
   6.9476620748827782E-003   5.5435291171756190E-002   0.0000000000000000     
   7.3341231879800123E-003   6.1036515020559873E-002   0.0000000000000000     
   7.7081903649556232E-003   6.6823305194888938E-002   0.0000000000000000     
   8.0698636058096108E-003   7.2795661694743372E-002   0.0000000000000000     
   8.4191429105419761E-003   7.8953584520123174E-002   0.0000000000000000     
   3.4565669132525572E-003   5.5348615668200624E-002   0.0000000000000000     
   3.6494471614341687E-003   6.0951959488798821E-002   0.0000000000000000     
   3.8361212918029295E-003   6.6740955690612253E-002   0.0000000000000000     
   4.0165893043588386E-003   7.2715604273640919E-002   0.0000000000000000     
   4.1908511991018979E-003   7.8875905237884833E-002   0.0000000000000000     
  -3.0465840766254280E-006   5.5320365750160742E-002   0.0000000000000000     
  -3.8308409175920929E-006   6.0924441424439008E-002   0.0000000000000000     
  -4.4458843439048028E-006   6.6714177115167472E-002   0.0000000000000000     
  -4.8917143555627447E-006   7.2689572822346130E-002   0.0000000000000000     
  -5.1683309525674907E-006   7.8850628545974979E-002   0.0000000000000000     
   1.6972542877578965E-002   7.9266150855585374E-002   0.0000000000000000     
   1.7647734473279442E-002   8.5585916950158811E-002   0.0000000000000000     
   1.8296014653046446E-002   9.2063463462670178E-002   0.0000000000000000     
   1.8917383416879974E-002   9.8698790393119379E-002   0.0000000000000000     
   1.9511840764780027E-002  0.10549189774150652        0.0000000000000000     
   1.2679706803367665E-002   7.9083666392690016E-002   0.0000000000000000     
   1.3185233330909761E-002   8.5409343368063342E-002   0.0000000000000000     
   1.3670655928305889E-002   9.1893129830729725E-002   0.0000000000000000     
   1.4135974595556055E-002   9.8535025780689164E-002   0.0000000000000000     
   1.4581189332660255E-002  0.10533503121794167        0.0000000000000000     
   8.4191429105419761E-003   7.8953584520123174E-002   0.0000000000000000     
   8.7555426269370646E-003   8.5283487177167744E-002   0.0000000000000000     
   9.0785771027792304E-003   9.1771783172016508E-002   0.0000000000000000     
   9.3882463380684737E-003   9.8418472504669494E-002   0.0000000000000000     
   9.6845503328047925E-003  0.10522355517512666        0.0000000000000000     
   4.1908511991018979E-003   7.8875905237884833E-002   0.0000000000000000     
   4.3586623613613576E-003   8.5208348377472001E-002   0.0000000000000000     
   4.5197781764664676E-003   9.1699423486530512E-002   0.0000000000000000     
   4.6741986444172288E-003   9.8349130565060339E-002   0.0000000000000000     
   4.8219237652136412E-003  0.10515746961306149        0.0000000000000000     
  -5.1683309525674907E-006   7.8850628545974979E-002   0.0000000000000000     
  -5.4074658173653908E-006   8.5183926968976142E-002   0.0000000000000000     
  -5.7408506324031750E-006   9.1676050774271725E-002   0.0000000000000000     
  -6.1684853976821848E-006   9.8326999961861714E-002   0.0000000000000000     
  -6.6903701132006721E-006  0.10513677453174614        0.0000000000000000     
   1.9511840764780027E-002  0.10549189774150652        0.0000000000000000     
   2.0081259133416494E-002  0.11243330497671906        0.0000000000000000     
   2.0627510959459257E-002  0.11951353156764453        0.0000000000000000     
   2.1150596242908319E-002  0.12673257751428296        0.0000000000000000     
   2.1650514983763684E-002  0.13409044281663438        0.0000000000000000     
   1.4581189332660255E-002  0.10533503121794167        0.0000000000000000     
   1.5007364157822301E-002  0.11228346002493045        0.0000000000000000     
   1.5415563089246014E-002  0.11937062608409869        0.0000000000000000     
   1.5805786126931388E-002  0.12659652939544644        0.0000000000000000     
   1.6178033270878432E-002  0.13396116995897372        0.0000000000000000     
   9.6845503328047925E-003  0.10522355517512666        0.0000000000000000     
   9.9679575485324256E-003  0.11217706495425159        0.0000000000000000     
   1.0238936446795611E-002  0.11926903561290787        0.0000000000000000     
   1.0497487027594350E-002  0.12649946715109547        0.0000000000000000     
   1.0743609290928642E-002  0.13386835956881440        0.0000000000000000     
   4.8219237652136412E-003  0.10515746961306149        0.0000000000000000     
   4.9630393055468619E-003  0.11211411976468252        0.0000000000000000     
   5.0976310321080489E-003  0.11920876015407202        0.0000000000000000     
   5.2256989448972021E-003  0.12644139078123001        0.0000000000000000     
   5.3472430439143216E-003  0.13381201164615644        0.0000000000000000     
  -6.6903701132006721E-006  0.10513677453174614        0.0000000000000000     
  -7.3905711343892622E-006  0.11209462445622320        0.0000000000000000     
  -8.3531548166754363E-006  0.11918979970759118        0.0000000000000000     
  -9.5781211600567821E-006  0.12642230028585008        0.0000000000000000     
  -1.1065470164535983E-005  0.13379212619099987        0.0000000000000000     
   2.1650514983763684E-002  0.13409044281663438        0.0000000000000000     
   2.2122610017856120E-002  0.14157121793713312        0.0000000000000000     
   2.2562224181016412E-002  0.14915899333821367        0.0000000000000000     
   2.2969357473244557E-002  0.15685376901987599        0.0000000000000000     
   2.3344009894540552E-002  0.16465554498212012        0.0000000000000000     
   1.6178033270878432E-002  0.13396116995897372        0.0000000000000000     
   1.6528354784556654E-002  0.14144541397691551        0.0000000000000000     
   1.6852800931435589E-002  0.14903012765150686        0.0000000000000000     
   1.7151371711515224E-002  0.15671531098274782        0.0000000000000000     
   1.7424067124795564E-002  0.16450096397063835        0.0000000000000000     
   1.0743609290928642E-002  0.13386835956881440        0.0000000000000000     
   1.0974365338769642E-002  0.14135569309772206        0.0000000000000000     
   1.1186817273088498E-002  0.14894144796947581        0.0000000000000000     
   1.1380965093885215E-002  0.15662562418407566        0.0000000000000000     
   1.1556808801159791E-002  0.16440822174152162        0.0000000000000000     
   5.3472430439143216E-003  0.13381201164615644        0.0000000000000000     
   5.4606416804950783E-003  0.14130205529955284        0.0000000000000000     
   5.5642732059751491E-003  0.14889295429212052        0.0000000000000000     
   5.6581376203545305E-003  0.15658470862385954        0.0000000000000000     
   5.7422349236332252E-003  0.16437731829476993        0.0000000000000000     
  -1.1065470164535983E-005  0.13379212619099987        0.0000000000000000     
  -1.2816190267031643E-005  0.14128450058240777        0.0000000000000000     
  -1.4831269904461608E-005  0.14888464661944095        0.0000000000000000     
  -1.7110709076827965E-005  0.15659256430209947        0.0000000000000000     
  -1.9654507784130741E-005  0.16440825363038325        0.0000000000000000     
   0.0000000000000000        0.0000000000000000        0.0000000000000000     
   9.2188059934038193E-009   1.0733975867803112E-003   0.0000000000000000     
   8.4344114720897798E-009   2.5156975893088000E-003   0.0000000000000000     
  -2.3531835639692238E-009   4.3269000075854651E-003   0.0000000000000000     
  -2.3143979114718981E-008   6.5070048416103069E-003   0.0000000000000000     
   0.0000000000000000        0.0000000000000000        0.0000000000000000     
  -2.1299475063697048E-004   1.0756870956920210E-003   0.0000000000000000     
  -4.2698852435279198E-004   2.5208583212591932E-003   0.0000000000000000     
  -6.4198132114746476E-004   4.3355136767015169E-003   0.0000000000000000     
  -8.5797314102098834E-004   6.5196531620189922E-003   0.0000000000000000     
   0.0000000000000000        0.0000000000000000        0.0000000000000000     
  -4.2427671529190054E-004   1.0825516498590767E-003   0.0000000000000000     
  -8.5300994670772356E-004   2.5363249320763883E-003   0.0000000000000000     
  -1.2861996942474692E-003   4.3613198466519358E-003   0.0000000000000000     
  -1.7238459579111372E-003   6.5575363935857188E-003   0.0000000000000000     
   0.0000000000000000        0.0000000000000000        0.0000000000000000     
  -6.3383667515879664E-004   1.0939912492814775E-003   0.0000000000000000     
  -1.2780558326533225E-003   2.5620974217603842E-003   0.0000000000000000     
  -1.9326574724835776E-003   4.4043185174367210E-003   0.0000000000000000     
  -2.5976415946495622E-003   6.6206545363104866E-003   0.0000000000000000     
   0.0000000000000000        0.0000000000000000        0.0000000000000000     
  -8.4167463023765898E-004   1.1100058939592246E-003   0.0000000000000000     
  -1.7021261821895889E-003   2.5981757903111814E-003   0.0000000000000000     
  -2.5813546558557899E-003   4.4645096890558716E-003   0.0000000000000000     
  -3.4793600512362612E-003   6.7090075901932947E-003   0.0000000000000000     
  -2.3143979114718981E-008   6.5070048416103069E-003   0.0000000000000000     
  -4.6071587082920106E-008   9.0286517638474024E-003   0.0000000000000000     
  -6.3269619371448410E-008   1.1864480446760825E-002   0.0000000000000000     
  -7.4738075980190389E-008   1.5014490890350575E-002   0.0000000000000000     
  -8.0476956908822478E-008   1.8478683094616657E-002   0.0000000000000000     
  -8.5797314102098834E-004   6.5196531620189922E-003   0.0000000000000000     
  -1.0761290794823663E-003   9.0452884327100920E-003   0.0000000000000000     
  -1.2976142320406025E-003   1.1884431144273294E-002   0.0000000000000000     
  -1.5224285986956971E-003   1.5037081296708587E-002   0.0000000000000000     
  -1.7505721794476496E-003   1.8503238890015986E-002   0.0000000000000000     
  -1.7238459579111372E-003   6.5575363935857188E-003   0.0000000000000000     
  -2.1661323825923492E-003   9.0951135378181079E-003   0.0000000000000000     
  -2.6132426131847239E-003   1.1944190244289476E-002   0.0000000000000000     
  -3.0651766496882626E-003   1.5104766512999818E-002   0.0000000000000000     
  -3.5219344921029660E-003   1.8576842343949136E-002   0.0000000000000000     
  -2.5976415946495622E-003   6.6206545363104866E-003   0.0000000000000000     
  -3.2700559809170290E-003   9.1781270791714449E-003   0.0000000000000000     
  -3.9469484130517348E-003   1.2043757746809375E-002   0.0000000000000000     
  -4.6283188910536789E-003   1.5217546539224266E-002   0.0000000000000000     
  -5.3141674149228598E-003   1.8699493456416118E-002   0.0000000000000000     
  -3.4793600512362612E-003   6.7090075901932947E-003   0.0000000000000000     
  -4.3878998744564081E-003   9.2943290567701117E-003   0.0000000000000000     
  -5.2987316316416358E-003   1.2183133651832993E-002   0.0000000000000000     
  -6.2118553227919421E-003   1.5375421375381931E-002   0.0000000000000000     
  -7.1272709479073288E-003   1.8871192227416931E-002   0.0000000000000000     
  -8.0476956908822478E-008   1.8478683094616657E-002   0.0000000000000000     
  -1.2119903326627580E-007   2.2227825329715033E-002   0.0000000000000000     
  -2.3761707616099361E-007   2.6232685865801679E-002   0.0000000000000000     
  -4.2973108559293523E-007   3.0493264702876589E-002   0.0000000000000000     
  -6.9754106156254790E-007   3.5009561840939778E-002   0.0000000000000000     
  -1.7505721794476496E-003   1.8503238890015986E-002   0.0000000000000000     
  -1.9784289591409068E-003   2.2253908666621892E-002   0.0000000000000000     
  -2.2023829226199164E-003   2.6260095368952741E-002   0.0000000000000000     
  -2.4224340698846773E-003   3.0521798997008513E-002   0.0000000000000000     
  -2.6385824009351904E-003   3.5039019550789224E-002   0.0000000000000000     
  -3.5219344921029660E-003   1.8576842343949136E-002   0.0000000000000000     
  -3.9775743498902429E-003   2.2332067319918502E-002   0.0000000000000000     
  -4.4261544325115030E-003   2.6342091023688965E-002   0.0000000000000000     
  -4.8676747399667430E-003   3.0606913455260537E-002   0.0000000000000000     
  -5.3021352722559664E-003   3.5126534614633213E-002   0.0000000000000000     
  -5.3141674149228598E-003   1.8699493456416118E-002   0.0000000000000000     
  -5.9975573712812745E-003   2.2462301289604844E-002   0.0000000000000000     
  -6.6715521467509177E-003   2.6478672830010357E-002   0.0000000000000000     
  -7.3361517413317893E-003   3.0748608077632650E-002   0.0000000000000000     
  -7.9913561550238946E-003   3.5272107032471717E-002   0.0000000000000000     
  -7.1272709479073288E-003   1.8871192227416931E-002   0.0000000000000000     
  -8.0383780233140006E-003   2.2644610575680939E-002   0.0000000000000000     
  -8.9385760653381656E-003   2.6669840787916916E-002   0.0000000000000000     
  -9.8278650739798204E-003   3.0946882864124853E-002   0.0000000000000000     
  -1.0706245049238970E-002   3.5475736804304756E-002   0.0000000000000000     
  -6.9754106156254790E-007   3.5009561840939778E-002   0.0000000000000000     
  -1.0735997194319738E-006   3.9762104301684073E-002   0.0000000000000000     
  -1.5904597745661198E-006   4.4731419106802332E-002   0.0000000000000000     
  -2.2481212269637255E-006   4.9917506256294555E-002   0.0000000000000000     
  -3.0465840766254280E-006   5.5320365750160742E-002   0.0000000000000000     
  -2.6385824009351904E-003   3.5039019550789224E-002   0.0000000000000000     
  -2.8506939605408687E-003   3.9792188264033697E-002   0.0000000000000000     
  -3.0586347934711293E-003   4.4761736370480774E-002   0.0000000000000000     
  -3.2624048997259699E-003   4.9947663870130443E-002   0.0000000000000000     
  -3.4620042793053907E-003   5.5349970762982710E-002   0.0000000000000000     
  -5.3021352722559664E-003   3.5126534614633213E-002   0.0000000000000000     
  -5.7283955534342774E-003   3.9881195346924345E-002   0.0000000000000000     
  -6.1453151075567822E-003   4.4851136497251309E-002   0.0000000000000000     
  -6.5528939346234764E-003   5.0036358065614094E-002   0.0000000000000000     
  -6.9511320346343627E-003   5.5436860052012704E-002   0.0000000000000000     
  -7.9913561550238946E-003   3.5272107032471717E-002   0.0000000000000000     
  -8.6341783783996581E-003   4.0029125550355996E-002   0.0000000000000000     
  -9.2616314020315220E-003   4.4999619487113937E-002   0.0000000000000000     
  -9.8737152259194827E-003   5.0183588842745486E-002   0.0000000000000000     
  -1.0470429850063542E-002   5.5581033617250718E-002   0.0000000000000000     
  -1.0706245049238970E-002   3.5475736804304756E-002   0.0000000000000000     
  -1.1568042435437010E-002   4.0235978874328671E-002   0.0000000000000000     
  -1.2407583676895349E-002   4.5207185340068644E-002   0.0000000000000000     
  -1.3224868773613988E-002   5.0389356201524661E-002   0.0000000000000000     
  -1.4019897725592926E-002   5.5782491458696744E-002   0.0000000000000000     
  -3.0465840766254280E-006   5.5320365750160742E-002   0.0000000000000000     
  -3.8308409175920929E-006   6.0924441424439008E-002   0.0000000000000000     
  -4.4458843439048028E-006   6.6714177115167472E-002   0.0000000000000000     
  -4.8917143555627447E-006   7.2689572822346130E-002   0.0000000000000000     
  -5.1683309525674907E-006   7.8850628545974979E-002   0.0000000000000000     
  -3.4620042793053907E-003   5.5349970762982710E-002   0.0000000000000000     
  -3.6562614031510733E-003   6.0953281724936831E-002   0.0000000000000000     
  -3.8440047422046999E-003   6.6742221431892054E-002   0.0000000000000000     
  -4.0252342964662690E-003   7.2716789883848360E-002   0.0000000000000000     
  -4.1999500659357803E-003   7.8876987080805788E-002   0.0000000000000000     
  -6.9511320346343627E-003   5.5436860052012704E-002   0.0000000000000000     
  -7.3383951093420833E-003   6.1037801287748640E-002   0.0000000000000000     
  -7.7130488604992805E-003   6.6824340604123414E-002   0.0000000000000000     
  -8.0750932881059525E-003   7.2796478001136991E-002   0.0000000000000000     
  -8.4245283921621020E-003   7.8954213478789406E-002   0.0000000000000000     
  -1.0470429850063542E-002   5.5581033617250718E-002   0.0000000000000000     
  -1.1050231959490621E-002   6.1178000112874435E-002   0.0000000000000000     
  -1.1611578239227646E-002   6.6960534631861537E-002   0.0000000000000000     
  -1.2154468689274615E-002   7.2928637174211997E-002   0.0000000000000000     
  -1.2678903309631529E-002   7.9082307739925861E-002   0.0000000000000000     
  -1.4019897725592926E-002   5.5782491458696744E-002   0.0000000000000000     
  -1.4791771953596685E-002   6.1373878200314223E-002   0.0000000000000000     
  -1.5539592878389796E-002   6.7150803515106439E-002   0.0000000000000000     
  -1.6263360499972252E-002   7.3113267403073404E-002   0.0000000000000000     
  -1.6963074818344064E-002   7.9261269864215111E-002   0.0000000000000000     
  -5.1683309525674907E-006   7.8850628545974979E-002   0.0000000000000000     
  -5.4074658173653908E-006   8.5183926968976142E-002   0.0000000000000000     
  -5.7408506324031750E-006   9.1676050774271725E-002   0.0000000000000000     
  -6.1684853976821848E-006   9.8326999961861714E-002   0.0000000000000000     
  -6.6903701132006721E-006  0.10513677453174614        0.0000000000000000     
  -4.1999500659357803E-003   7.8876987080805788E-002   0.0000000000000000     
  -4.3681491730305274E-003   8.5209441080393203E-002   0.0000000000000000     
  -4.5298287401678008E-003   9.1700779940239466E-002   0.0000000000000000     
  -4.6849887673476006E-003   9.8351003660344591E-002   0.0000000000000000     
  -4.8336292545699284E-003  0.10516011224070858        0.0000000000000000     
  -8.4245283921621020E-003   7.8954213478789406E-002   0.0000000000000000     
  -8.7610450787095548E-003   8.5284108840436260E-002   0.0000000000000000     
  -9.0843342537901463E-003   9.1772725889433110E-002   0.0000000000000000     
  -9.3943959174038749E-003   9.8420064625779957E-002   0.0000000000000000     
  -9.6912300695507370E-003  0.10522612504947683        0.0000000000000000     
  -1.2678903309631529E-002   7.9082307739925861E-002   0.0000000000000000     
  -1.3184095182854450E-002   8.5407930249105340E-002   0.0000000000000000     
  -1.3669257391499441E-002   9.1891888621852644E-002   0.0000000000000000     
  -1.4134389935566500E-002   9.8534182858167840E-002   0.0000000000000000     
  -1.4579492815055627E-002  0.10533481295805086        0.0000000000000000     
  -1.6963074818344064E-002   7.9261269864215111E-002   0.0000000000000000     
  -1.7637299485465212E-002   8.5580905306400390E-002   0.0000000000000000     
  -1.8284598153295681E-002   9.2058268137498081E-002   0.0000000000000000     
  -1.8904970821835478E-002   9.8693358357508185E-002   0.0000000000000000     
  -1.9498417491084601E-002  0.10548617596643069        0.0000000000000000     
  -6.6903701132006721E-006  0.10513677453174614        0.0000000000000000     
  -7.3905711343892622E-006  0.11209462445622320        0.0000000000000000     
  -8.3531548166754363E-006  0.11918979970759118        0.0000000000000000     
  -9.5781211600567821E-006  0.12642230028585008        0.0000000000000000     
  -1.1065470164535983E-005  0.13379212619099987        0.0000000000000000     
  -4.8336292545699284E-003  0.10516011224070858        0.0000000000000000     
  -4.9759828396723702E-003  0.11211703099780429        0.0000000000000000     
  -5.1122821604925118E-003  0.11921068524810459        0.0000000000000000     
  -5.2425272170303549E-003  0.12644107499160950        0.0000000000000000     
  -5.3667180092858997E-003  0.13380820022831896        0.0000000000000000     
  -9.6912300695507370E-003  0.10522612504947683        0.0000000000000000     
  -9.9753882582281229E-003  0.11217979135835643        0.0000000000000000     
  -1.0247422031433421E-002  0.11926994775025150        0.0000000000000000     
  -1.0507331389166626E-002  0.12649659422516202        0.0000000000000000     
  -1.0755116331427741E-002  0.13385973078308802        0.0000000000000000     
  -1.4579492815055627E-002  0.10533481295805086        0.0000000000000000     
  -1.5005606826801653E-002  0.11228290553787959        0.0000000000000000     
  -1.5413772767639401E-002  0.11936758721403189        0.0000000000000000     
  -1.5803990637568870E-002  0.12658885798650771        0.0000000000000000     
  -1.6176260436590064E-002  0.13394671785530707        0.0000000000000000     
  -1.9498417491084601E-002  0.10548617596643069        0.0000000000000000     
  -2.0066638545392951E-002  0.11242637353637382        0.0000000000000000     
  -2.0611334369110449E-002  0.11950360363944576        0.0000000000000000     
  -2.1132504962237088E-002  0.12671786627564652        0.0000000000000000     
  -2.1630150324772866E-002  0.13406916144497613        0.0000000000000000     
  -1.1065470164535983E-005  0.13379212619099987        0.0000000000000000     
  -1.2816190267031643E-005  0.14128450058240777        0.0000000000000000     
  -1.4831269904461608E-005  0.14888464661944095        0.0000000000000000     
  -1.7110709076827965E-005  0.15659256430209947        0.0000000000000000     
  -1.9654507784130741E-005  0.16440825363038325        0.0000000000000000     
  -5.3667180092858997E-003  0.13380820022831896        0.0000000000000000     
  -5.4832461341882740E-003  0.14130115209136207        0.0000000000000000     
  -5.5905031886666068E-003  0.14890902171386791        0.0000000000000000     
  -5.6884891727209041E-003  0.15663180909583649        0.0000000000000000     
  -5.7772040863511599E-003  0.16446951423726774        0.0000000000000000     
  -1.0755116331427741E-002  0.13385973078308802        0.0000000000000000     
  -1.0987886011940231E-002  0.14135013297149090        0.0000000000000000     
  -1.1202749584427563E-002  0.14895857633783219        0.0000000000000000     
  -1.1399707048889733E-002  0.15668506088211168        0.0000000000000000     
  -1.1578758405326746E-002  0.16452958660432951        0.0000000000000000     
  -1.6176260436590064E-002  0.13394671785530707        0.0000000000000000     
  -1.6526735823522910E-002  0.14143144322279430        0.0000000000000000     
  -1.6851570457187322E-002  0.14903331049133359        0.0000000000000000     
  -1.7150764337583318E-002  0.15675231966092504        0.0000000000000000     
  -1.7424317464710889E-002  0.16458847073156860        0.0000000000000000     
  -2.1630150324772866E-002  0.13406916144497613        0.0000000000000000     
  -2.2099795568936299E-002  0.14154508284527217        0.0000000000000000     
  -2.2536965806945891E-002  0.14913322417437230        0.0000000000000000     
  -2.2941661038801655E-002  0.15683358543227657        0.0000000000000000     
  -2.3313881264503587E-002  0.16464616661898493        0.0000000000000000     
   0.0000000000000000        0.0000000000000000        0.0000000000000000     
  -8.4167463023765898E-004   1.1100058939592246E-003   0.0000000000000000     
  -1.7021261821895889E-003   2.5981757903111814E-003   0.0000000000000000     
  -2.5813546558557899E-003   4.4645096890558716E-003   0.0000000000000000     
  -3.4793600512362612E-003   6.7090075901932947E-003   0.0000000000000000     
   0.0000000000000000        0.0000000000000000        0.0000000000000000     
  -1.0566991798902777E-003   1.1341603267190454E-003   0.0000000000000000     
  -2.1397652016030026E-003   2.6504125663413930E-003   0.0000000000000000     
  -3.2491980651381748E-003   4.5487567188670433E-003   0.0000000000000000     
  -4.3849977704957946E-003   6.8291927842959949E-003   0.0000000000000000     
   0.0000000000000000        0.0000000000000000        0.0000000000000000     
  -1.2878189234784435E-003   1.1700192903876690E-003   0.0000000000000000     
  -2.6055170971800443E-003   2.7246602784636322E-003   0.0000000000000000     
  -3.9530945211048024E-003   4.6639229642278885E-003   0.0000000000000000     
  -5.3305511952527187E-003   6.9878073476804404E-003   0.0000000000000000     
   0.0000000000000000        0.0000000000000000        0.0000000000000000     
  -1.5350338610021564E-003   1.2175827849650951E-003   0.0000000000000000     
  -3.0993818689207136E-003   2.8209189266778980E-003   0.0000000000000000     
  -4.6930440237556723E-003   4.8100084251384090E-003   0.0000000000000000     
  -6.3160203255070314E-003   7.1848512803466286E-003   0.0000000000000000     
   0.0000000000000000        0.0000000000000000        0.0000000000000000     
  -1.7983439924614160E-003   1.2768508104513232E-003   0.0000000000000000     
  -3.6213595168250109E-003   2.9391885109841913E-003   0.0000000000000000     
  -5.4690465730907849E-003   4.9870131015986047E-003   0.0000000000000000     
  -7.3414051612587369E-003   7.4203245822945622E-003   0.0000000000000000     
  -3.4793600512362612E-003   6.7090075901932947E-003   0.0000000000000000     
  -4.3878998744564081E-003   9.2943290567701117E-003   0.0000000000000000     
  -5.2987316316416358E-003   1.2183133651832993E-002   0.0000000000000000     
  -6.2118553227919421E-003   1.5375421375381931E-002   0.0000000000000000     
  -7.1272709479073288E-003   1.8871192227416931E-002   0.0000000000000000     
  -4.3849977704957946E-003   6.8291927842959949E-003   0.0000000000000000     
  -5.5341832987461526E-003   9.4496998818542760E-003   0.0000000000000000     
  -6.6837736309595394E-003   1.2368257130767909E-002   0.0000000000000000     
  -7.8337687671359551E-003   1.5584864531036894E-002   0.0000000000000000     
  -8.9841687072754021E-003   1.9099522082661233E-002   0.0000000000000000     
  -5.3305511952527187E-003   6.9878073476804404E-003   0.0000000000000000     
  -6.7234254893219257E-003   9.6502199656641058E-003   0.0000000000000000     
  -8.1172557730105586E-003   1.2605067355021704E-002   0.0000000000000000     
  -9.5120420463186209E-003   1.5852349515753237E-002   0.0000000000000000     
  -1.0907784309246108E-002   1.9392066447858704E-002   0.0000000000000000     
  -6.3160203255070314E-003   7.1848512803466286E-003   0.0000000000000000     
  -7.9556264461837257E-003   9.8958893081996027E-003   0.0000000000000000     
  -9.5991780577946925E-003   1.2893564324594381E-002   0.0000000000000000     
  -1.1246675160339932E-002   1.6177876329530955E-002   0.0000000000000000     
  -1.2898117753819440E-002   1.9748825323009336E-002   0.0000000000000000     
  -7.3414051612587369E-003   7.4203245822945622E-003   0.0000000000000000     
  -9.2307861693315587E-003   1.0186707909460772E-002   0.0000000000000000     
  -1.1129540485311944E-002   1.3233748039485935E-002   0.0000000000000000     
  -1.3037668109199894E-002   1.6561444972370058E-002   0.0000000000000000     
  -1.4955169040995408E-002   2.0169798708113133E-002   0.0000000000000000     
  -7.1272709479073288E-003   1.8871192227416931E-002   0.0000000000000000     
  -8.0383780233140006E-003   2.2644610575680939E-002   0.0000000000000000     
  -8.9385760653381656E-003   2.6669840787916916E-002   0.0000000000000000     
  -9.8278650739798204E-003   3.0946882864124853E-002   0.0000000000000000     
  -1.0706245049238970E-002   3.5475736804304756E-002   0.0000000000000000     
  -8.9841687072754021E-003   1.9099522082661233E-002   0.0000000000000000     
  -1.0127950487568598E-002   2.2887472087179440E-002   0.0000000000000000     
  -1.1258091144206266E-002   2.6923956846130019E-002   0.0000000000000000     
  -1.2374590677188404E-002   3.1208976359512978E-002   0.0000000000000000     
  -1.3477449086515015E-002   3.5742530627328302E-002   0.0000000000000000     
  -1.0907784309246108E-002   1.9392066447858704E-002   0.0000000000000000     
  -1.2294188945625241E-002   2.3199362733133010E-002   0.0000000000000000     
  -1.3660962339288244E-002   2.7249382953371055E-002   0.0000000000000000     
  -1.5008104490235116E-002   3.1542127108572841E-002   0.0000000000000000     
  -1.6335615398465855E-002   3.6077595198738356E-002   0.0000000000000000     
  -1.2898117753819440E-002   1.9748825323009336E-002   0.0000000000000000     
  -1.4537093397483927E-002   2.3580282513541644E-002   0.0000000000000000     
  -1.6147189650584096E-002   2.7646119109640009E-002   0.0000000000000000     
  -1.7728406513119951E-002   3.1946335111304430E-002   0.0000000000000000     
  -1.9280743985091487E-002   3.6480930518534904E-002   0.0000000000000000     
  -1.4955169040995408E-002   2.0169798708113133E-002   0.0000000000000000     
  -1.6856663843144663E-002   2.4030231428405349E-002   0.0000000000000000     
  -1.8716773078093829E-002   2.8114165314936893E-002   0.0000000000000000     
  -2.0535496745842916E-002   3.2421600367707762E-002   0.0000000000000000     
  -2.2312834846391915E-002   3.6952536586717946E-002   0.0000000000000000     
  -1.0706245049238970E-002   3.5475736804304756E-002   0.0000000000000000     
  -1.1568042435437010E-002   4.0235978874328671E-002   0.0000000000000000     
  -1.2407583676895349E-002   4.5207185340068644E-002   0.0000000000000000     
  -1.3224868773613988E-002   5.0389356201524661E-002   0.0000000000000000     
  -1.4019897725592926E-002   5.5782491458696744E-002   0.0000000000000000     
  -1.3477449086515015E-002   3.5742530627328302E-002   0.0000000000000000     
  -1.4558848039593024E-002   4.0504609825979289E-002   0.0000000000000000     
  -1.5610969203829362E-002   4.5475204131869167E-002   0.0000000000000000     
  -1.6633812579224028E-002   5.0654313544997963E-002   0.0000000000000000     
  -1.7627378165777016E-002   5.6041938065365664E-002   0.0000000000000000     
  -1.6335615398465855E-002   3.6077595198738356E-002   0.0000000000000000     
  -1.7635455505914388E-002   4.0837872912444784E-002   0.0000000000000000     
  -1.8899585254514645E-002   4.5805045938269243E-002   0.0000000000000000     
  -2.0128004644266621E-002   5.0979114276211782E-002   0.0000000000000000     
  -2.1320713675170317E-002   5.6360077926272345E-002   0.0000000000000000     
  -1.9280743985091487E-002   3.6480930518534904E-002   0.0000000000000000     
  -2.0797864834401106E-002   4.1235768133725148E-002   0.0000000000000000     
  -2.2273431828951203E-002   4.6196710759268886E-002   0.0000000000000000     
  -2.3707444968741772E-002   5.1363758395166097E-002   0.0000000000000000     
  -2.5099904253772821E-002   5.6736911041416802E-002   0.0000000000000000     
  -2.2312834846391915E-002   3.6952536586717946E-002   0.0000000000000000     
  -2.4046076025053174E-002   4.1698295489820403E-002   0.0000000000000000     
  -2.5732508927139033E-002   4.6650198594868068E-002   0.0000000000000000     
  -2.7372133552649489E-002   5.1808245901860943E-002   0.0000000000000000     
  -2.8964949901584540E-002   5.7172437410799019E-002   0.0000000000000000     
  -1.4019897725592926E-002   5.5782491458696744E-002   0.0000000000000000     
  -1.4791771953596685E-002   6.1373878200314223E-002   0.0000000000000000     
  -1.5539592878389796E-002   6.7150803515106439E-002   0.0000000000000000     
  -1.6263360499972252E-002   7.3113267403073404E-002   0.0000000000000000     
  -1.6963074818344064E-002   7.9261269864215111E-002   0.0000000000000000     
  -1.7627378165777016E-002   5.6041938065365664E-002   0.0000000000000000     
  -1.8591452260960047E-002   6.1626457588572388E-002   0.0000000000000000     
  -1.9525821162244814E-002   6.7396252010218219E-002   0.0000000000000000     
  -2.0430484869631324E-002   7.3351321330303143E-002   0.0000000000000000     
  -2.1305443383119578E-002   7.9491665548827223E-002   0.0000000000000000     
  -2.1320713675170317E-002   5.6360077926272345E-002   0.0000000000000000     
  -2.2477710050880458E-002   6.1936760316153298E-002   0.0000000000000000     
  -2.3598991475051775E-002   6.7697984873556938E-002   0.0000000000000000     
  -2.4684557947684264E-002   7.3643751598483242E-002   0.0000000000000000     
  -2.5734409468777940E-002   7.9774060490932247E-002   0.0000000000000000     
  -2.5099904253772821E-002   5.6736911041416802E-002   0.0000000000000000     
  -2.6450545323357937E-002   6.2304786383056976E-002   0.0000000000000000     
  -2.7759103816810692E-002   6.8056002105122582E-002   0.0000000000000000     
  -2.9025579734131092E-002   7.3990558207613646E-002   0.0000000000000000     
  -3.0249973075319143E-002   8.0108454690530170E-002   0.0000000000000000     
  -2.8964949901584540E-002   5.7172437410799019E-002   0.0000000000000000     
  -3.0509958078392470E-002   6.2730535789283406E-002   0.0000000000000000     
  -3.2006158187521554E-002   6.8470303704915206E-002   0.0000000000000000     
  -3.3453550228971798E-002   7.4391741157694383E-002   0.0000000000000000     
  -3.4852134202743197E-002   8.0494848147621006E-002   0.0000000000000000     
  -1.6963074818344064E-002   7.9261269864215111E-002   0.0000000000000000     
  -1.7637299485465212E-002   8.5580905306400390E-002   0.0000000000000000     
  -1.8284598153295681E-002   9.2058268137498081E-002   0.0000000000000000     
  -1.8904970821835478E-002   9.8693358357508185E-002   0.0000000000000000     
  -1.9498417491084601E-002  0.10548617596643069        0.0000000000000000     
  -2.1305443383119578E-002   7.9491665548827223E-002   0.0000000000000000     
  -2.2148672950302258E-002   8.5803227015911365E-002   0.0000000000000000     
  -2.2958149818772065E-002   9.2271948081676519E-002   0.0000000000000000     
  -2.3733873988528983E-002   9.8897828746122685E-002   0.0000000000000000     
  -2.4475845459573028E-002  0.10568086900924985        0.0000000000000000     
  -2.5734409468777940E-002   7.9774060490932247E-002   0.0000000000000000     
  -2.6746230541126022E-002   8.6075088381228099E-002   0.0000000000000000     
  -2.7717705667521776E-002   9.2533012099694986E-002   0.0000000000000000     
  -2.8648834847965203E-002   9.9147831646332923E-002   0.0000000000000000     
  -2.9539618082456295E-002  0.10591954702114190        0.0000000000000000     
  -3.0249973075319143E-002   8.0108454690530170E-002   0.0000000000000000     
  -3.1429972257936499E-002   8.6396489402350660E-002   0.0000000000000000     
  -3.2563265699544833E-002   9.2841460191553579E-002   0.0000000000000000     
  -3.3649853400144127E-002   9.9443367058138984E-002   0.0000000000000000     
  -3.4689735359734394E-002  0.10620221000210681        0.0000000000000000     
  -3.4852134202743197E-002   8.0494848147621006E-002   0.0000000000000000     
  -3.6199898100733686E-002   8.6767430079278965E-002   0.0000000000000000     
  -3.7494829914841203E-002   9.3197292357252215E-002   0.0000000000000000     
  -3.8736929645065754E-002   9.9784434981540771E-002   0.0000000000000000     
  -3.9926197291407339E-002  0.10652885795214462        0.0000000000000000     
  -1.9498417491084601E-002  0.10548617596643069        0.0000000000000000     
  -2.0066638545392951E-002  0.11242637353637382        0.0000000000000000     
  -2.0611334369110449E-002  0.11950360363944576        0.0000000000000000     
  -2.1132504962237088E-002  0.12671786627564652        0.0000000000000000     
  -2.1630150324772866E-002  0.13406916144497613        0.0000000000000000     
  -2.4475845459573028E-002  0.10568086900924985        0.0000000000000000     
  -2.5186435771020737E-002  0.11261121754601412        0.0000000000000000     
  -2.5868016461988663E-002  0.11967902303137155        0.0000000000000000     
  -2.6520587532476807E-002  0.12688428546532210        0.0000000000000000     
  -2.7144148982485156E-002  0.13422700484786584        0.0000000000000000     
  -2.9539618082456295E-002  0.10591954702114190        0.0000000000000000     
  -3.0392950860703719E-002  0.11283845975897557        0.0000000000000000     
  -3.1211728672416138E-002  0.11989487139468763        0.0000000000000000     
  -3.1995951517593546E-002  0.12708878192827811        0.0000000000000000     
  -3.2745619396235950E-002  0.13442019135974692        0.0000000000000000     
  -3.4689735359734394E-002  0.10620221000210681        0.0000000000000000     
  -3.5686183814441892E-002  0.11310810017525817        0.0000000000000000     
  -3.6642471000392862E-002  0.12015114872939404        0.0000000000000000     
  -3.7558596917587318E-002  0.12733135566451445        0.0000000000000000     
  -3.8434561566025253E-002  0.13464872098061942        0.0000000000000000     
  -3.9926197291407339E-002  0.10652885795214462        0.0000000000000000     
  -4.1066134632235261E-002  0.11342013879486192        0.0000000000000000     
  -4.2160243445918850E-002  0.12044785503549078        0.0000000000000000     
  -4.3208523732458121E-002  0.12761200667403125        0.0000000000000000     
  -4.4210975491853051E-002  0.13491259371048328        0.0000000000000000     
  -2.1630150324772866E-002  0.13406916144497613        0.0000000000000000     
  -2.2099795568936299E-002  0.14154508284527217        0.0000000000000000     
  -2.2536965806945891E-002  0.14913322417437230        0.0000000000000000     
  -2.2941661038801655E-002  0.15683358543227657        0.0000000000000000     
  -2.3313881264503587E-002  0.16464616661898493        0.0000000000000000     
  -2.7144148982485156E-002  0.13422700484786584        0.0000000000000000     
  -2.7733713318752094E-002  0.14169179250519479        0.0000000000000000     
  -2.8284293048015979E-002  0.14926325976350097        0.0000000000000000     
  -2.8795888170276802E-002  0.15694140662278444        0.0000000000000000     
  -2.9268498685534564E-002  0.16472623308304513        0.0000000000000000     
  -3.2745619396235950E-002  0.13442019135974692        0.0000000000000000     
  -3.3455137143541973E-002  0.14187231286883228        0.0000000000000000     
  -3.4118909594710263E-002  0.14942835963527218        0.0000000000000000     
  -3.4736936749740772E-002  0.15708833165906669        0.0000000000000000     
  -3.5309218608633550E-002  0.16485222894021576        0.0000000000000000     
  -3.8434561566025253E-002  0.13464872098061942        0.0000000000000000     
  -3.9264067043305963E-002  0.14208664393618467        0.0000000000000000     
  -4.0040815447028734E-002  0.14962852378968597        0.0000000000000000     
  -4.0764806777193602E-002  0.15727436054112340        0.0000000000000000     
  -4.1436041033800546E-002  0.16502415419049682        0.0000000000000000     
  -4.4210975491853051E-002  0.13491259371048328        0.0000000000000000     
  -4.5160503018044029E-002  0.14233478570725194        0.0000000000000000     
  -4.6050010604971436E-002  0.14986375222674236        0.0000000000000000     
  -4.6879498252635286E-002  0.15749949326895446        0.0000000000000000     
  -4.7648965961035537E-002  0.16524200883388834        0.0000000000000000     
   0.0000000000000000        0.0000000000000000        0.0000000000000000     
  -1.7983439924614160E-003   1.2768508104513232E-003   0.0000000000000000     
  -3.6213595168250109E-003   2.9391885109841913E-003   0.0000000000000000     
  -5.4690465730907849E-003   4.9870131015986047E-003   0.0000000000000000     
  -7.3414051612587369E-003   7.4203245822945622E-003   0.0000000000000000     
   0.0000000000000000        0.0000000000000000        0.0000000000000000     
  -2.0694706934216789E-003   1.3549423023330232E-003   0.0000000000000000     
  -4.1640915050328575E-003   3.0939884239875475E-003   0.0000000000000000     
  -6.2838624348335358E-003   5.2171383649635738E-003   0.0000000000000000     
  -8.4287834828237120E-003   7.7243921252611010E-003   0.0000000000000000     
   0.0000000000000000        0.0000000000000000        0.0000000000000000     
  -2.3401353394484005E-003   1.4589761960968639E-003   0.0000000000000000     
  -4.7202192976841754E-003   3.2998380582930026E-003   0.0000000000000000     
  -7.1402518747073224E-003   5.5225855865884159E-003   0.0000000000000000     
  -9.6002330705178430E-003   8.1272187809831049E-003   0.0000000000000000     
   0.0000000000000000        0.0000000000000000        0.0000000000000000     
  -2.6103379305415816E-003   1.5889524917428448E-003   0.0000000000000000     
  -5.2897428947789637E-003   3.5567374139005557E-003   0.0000000000000000     
  -8.0382148927121439E-003   5.9033547664731319E-003   0.0000000000000000     
  -1.0855753924341124E-002   8.6288045494605763E-003   0.0000000000000000     
   0.0000000000000000        0.0000000000000000        0.0000000000000000     
  -2.8800784667012210E-003   1.7448711892709664E-003   0.0000000000000000     
  -5.8726622963172215E-003   3.8646864908102076E-003   0.0000000000000000     
  -8.9777514888480011E-003   6.3594459046177219E-003   0.0000000000000000     
  -1.2195346044293561E-002   9.2291494306935128E-003   0.0000000000000000     
  -7.3414051612587369E-003   7.4203245822945622E-003   0.0000000000000000     
  -9.2307861693315587E-003   1.0186707909460772E-002   0.0000000000000000     
  -1.1129540485311944E-002   1.3233748039485935E-002   0.0000000000000000     
  -1.3037668109199894E-002   1.6561444972370058E-002   0.0000000000000000     
  -1.4955169040995408E-002   2.0169798708113133E-002   0.0000000000000000     
  -8.4287834828237120E-003   7.7243921252611010E-003   0.0000000000000000     
  -1.0590573564105900E-002   1.0558317016710402E-002   0.0000000000000000     
  -1.2760951593782604E-002   1.3661480351141751E-002   0.0000000000000000     
  -1.4939917571853823E-002   1.7033882128555149E-002   0.0000000000000000     
  -1.7127471498319561E-002   2.0675522348950596E-002   0.0000000000000000     
  -9.6002330705178430E-003   8.1272187809831049E-003   0.0000000000000000     
  -1.2076657535847224E-002   1.1046357877211296E-002   0.0000000000000000     
  -1.4546019921426954E-002   1.4212623111007213E-002   0.0000000000000000     
  -1.7008320227257036E-002   1.7626014482370854E-002   0.0000000000000000     
  -1.9463558453337460E-002   2.1286531991302232E-002   0.0000000000000000     
  -1.0855753924341124E-002   8.6288045494605763E-003   0.0000000000000000     
  -1.3689038084555535E-002   1.1650830490963448E-002   0.0000000000000000     
  -1.6484745468245000E-002   1.4887176319082316E-002   0.0000000000000000     
  -1.9242876075409521E-002   1.8337842033817178E-002   0.0000000000000000     
  -2.1963429906049100E-002   2.2002827635168028E-002   0.0000000000000000     
  -1.2195346044293561E-002   9.2291494306935128E-003   0.0000000000000000     
  -1.5427715210230829E-002   1.2371734857966863E-002   0.0000000000000000     
  -1.8577128234236739E-002   1.5685139975367062E-002   0.0000000000000000     
  -2.1643585116311294E-002   1.9169364782894108E-002   0.0000000000000000     
  -2.4627085856454480E-002   2.2824409280547998E-002   0.0000000000000000     
  -1.4955169040995408E-002   2.0169798708113133E-002   0.0000000000000000     
  -1.6856663843144663E-002   2.4030231428405349E-002   0.0000000000000000     
  -1.8716773078093829E-002   2.8114165314936893E-002   0.0000000000000000     
  -2.0535496745842916E-002   3.2421600367707762E-002   0.0000000000000000     
  -2.2312834846391915E-002   3.6952536586717946E-002   0.0000000000000000     
  -1.7127471498319561E-002   2.0675522348950596E-002   0.0000000000000000     
  -1.9292287422830172E-002   2.4558752439135856E-002   0.0000000000000000     
  -2.1403039395035996E-002   2.8655923825918684E-002   0.0000000000000000     
  -2.3459727414937050E-002   3.2967036509299094E-002   0.0000000000000000     
  -2.5462351482533320E-002   3.7492090489277083E-002   0.0000000000000000     
  -1.9463558453337460E-002   2.1286531991302232E-002   0.0000000000000000     
  -2.1883351276763184E-002   2.5175388507144885E-002   0.0000000000000000     
  -2.4239315374629169E-002   2.9273796899242380E-002   0.0000000000000000     
  -2.6531450746935401E-002   3.3581757167594713E-002   0.0000000000000000     
  -2.8759757393681896E-002   3.8099269312201894E-002   0.0000000000000000     
  -2.1963429906049100E-002   2.2002827635168028E-002   0.0000000000000000     
  -2.4629855404943713E-002   2.5880139632432436E-002   0.0000000000000000     
  -2.7225601016873335E-002   2.9967784534907962E-002   0.0000000000000000     
  -2.9750666741837975E-002   3.4265762342594611E-002   0.0000000000000000     
  -3.2205052579837620E-002   3.8774073055492374E-002   0.0000000000000000     
  -2.4627085856454480E-002   2.2824409280547998E-002   0.0000000000000000     
  -2.7531799807371742E-002   2.6673005814998520E-002   0.0000000000000000     
  -3.0361896321768507E-002   3.0737886732915453E-002   0.0000000000000000     
  -3.3117375399644759E-002   3.5019052034298795E-002   0.0000000000000000     
  -3.5798237041000519E-002   3.9516501719148542E-002   0.0000000000000000     
  -2.2312834846391915E-002   3.6952536586717946E-002   0.0000000000000000     
  -2.4046076025053174E-002   4.1698295489820403E-002   0.0000000000000000     
  -2.5732508927139033E-002   4.6650198594868068E-002   0.0000000000000000     
  -2.7372133552649489E-002   5.1808245901860943E-002   0.0000000000000000     
  -2.8964949901584540E-002   5.7172437410799019E-002   0.0000000000000000     
  -2.5462351482533320E-002   3.7492090489277083E-002   0.0000000000000000     
  -2.7411807431047364E-002   4.2227084762840511E-002   0.0000000000000000     
  -2.9308991093701720E-002   4.7168018326977222E-002   0.0000000000000000     
  -3.1153902470496389E-002   5.2314891181687265E-002   0.0000000000000000     
  -3.2946541561431369E-002   5.7667703326970604E-002   0.0000000000000000     
  -2.8759757393681896E-002   3.8099269312201894E-002   0.0000000000000000     
  -3.0926777405560435E-002   4.2823765734895415E-002   0.0000000000000000     
  -3.3035052873262832E-002   4.7752678837506814E-002   0.0000000000000000     
  -3.5084583796789102E-002   5.2886008620036062E-002   0.0000000000000000     
  -3.7075370176139211E-002   5.8223755082483175E-002   0.0000000000000000     
  -3.2205052579837620E-002   3.8774073055492374E-002   0.0000000000000000     
  -3.4590985948592390E-002   4.3488338405985143E-002   0.0000000000000000     
  -3.6910694265822393E-002   4.8404180126456794E-002   0.0000000000000000     
  -3.9164177531527622E-002   5.3521598216907322E-002   0.0000000000000000     
  -4.1351435745708084E-002   5.8840592677336732E-002   0.0000000000000000     
  -3.5798237041000519E-002   3.9516501719148542E-002   0.0000000000000000     
  -3.8404433060143239E-002   4.4220802776109687E-002   0.0000000000000000     
  -4.0935915271380387E-002   4.9122522193827185E-002   0.0000000000000000     
  -4.3392683674711968E-002   5.4221659972301064E-002   0.0000000000000000     
  -4.5774738270137970E-002   5.9518216111531283E-002   0.0000000000000000     
  -2.8964949901584540E-002   5.7172437410799019E-002   0.0000000000000000     
  -3.0509958078392470E-002   6.2730535789283406E-002   0.0000000000000000     
  -3.2006158187521554E-002   6.8470303704915206E-002   0.0000000000000000     
  -3.3453550228971798E-002   7.4391741157694383E-002   0.0000000000000000     
  -3.4852134202743197E-002   8.0494848147621006E-002   0.0000000000000000     
  -3.2946541561431369E-002   5.7667703326970604E-002   0.0000000000000000     
  -3.4685316320410789E-002   6.3213586172068487E-002   0.0000000000000000     
  -3.6368634701338769E-002   6.8939671126222166E-002   0.0000000000000000     
  -3.7996496704215316E-002   7.4845958189431641E-002   0.0000000000000000     
  -3.9568902329040416E-002   8.0932447361696899E-002   0.0000000000000000     
  -3.7075370176139211E-002   5.8223755082483175E-002   0.0000000000000000     
  -3.9005988053839626E-002   6.3753515168648148E-002   0.0000000000000000     
  -4.0875013472416753E-002   6.9462885822330941E-002   0.0000000000000000     
  -4.2682446431870587E-002   7.5351867043531556E-002   0.0000000000000000     
  -4.4428286932201147E-002   8.1420458832250020E-002   0.0000000000000000     
  -4.1351435745708084E-002   5.8840592677336732E-002   0.0000000000000000     
  -4.3471973278678973E-002   6.4350322779022348E-002   0.0000000000000000     
  -4.5525294500755480E-002   7.0039947793241492E-002   0.0000000000000000     
  -4.7511399411937619E-002   7.5909467719994170E-002   0.0000000000000000     
  -4.9430288012225369E-002   8.1958882559280369E-002   0.0000000000000000     
  -4.5774738270137970E-002   5.9518216111531283E-002   0.0000000000000000     
  -4.8083271994928831E-002   6.5004009003191129E-002   0.0000000000000000     
  -5.0319477786354976E-002   7.0670857038953858E-002   0.0000000000000000     
  -5.2483355644416398E-002   7.6518760218819440E-002   0.0000000000000000     
  -5.4574905569113097E-002   8.2547718542787932E-002   0.0000000000000000     
  -3.4852134202743197E-002   8.0494848147621006E-002   0.0000000000000000     
  -3.6199898100733686E-002   8.6767430079278965E-002   0.0000000000000000     
  -3.7494829914841203E-002   9.3197292357252215E-002   0.0000000000000000     
  -3.8736929645065754E-002   9.9784434981540771E-002   0.0000000000000000     
  -3.9926197291407339E-002  0.10652885795214462        0.0000000000000000     
  -3.9568902329040416E-002   8.0932447361696899E-002   0.0000000000000000     
  -4.1084149305782247E-002   8.7187846688817391E-002   0.0000000000000000     
  -4.2540535364408945E-002   9.3600864216592528E-002   0.0000000000000000     
  -4.3938060504920523E-002  0.10017149994502234        0.0000000000000000     
  -4.5276724727316982E-002  0.10689975387410679        0.0000000000000000     
  -4.4428286932201147E-002   8.1420458832250020E-002   0.0000000000000000     
  -4.6110867109346837E-002   8.7657675507770233E-002   0.0000000000000000     
  -4.7728519099246088E-002   9.4052531389376096E-002   0.0000000000000000     
  -4.9281242901898885E-002  0.10060502647706759        0.0000000000000000     
  -5.0769038517305215E-002  0.10731516077084476        0.0000000000000000     
  -4.9430288012225369E-002   8.1958882559280369E-002   0.0000000000000000     
  -5.1280051511427463E-002   8.8176916536137476E-002   0.0000000000000000     
  -5.3058781119352603E-002   9.4552293875602877E-002   0.0000000000000000     
  -5.4766476836000798E-002  0.10108501457767656        0.0000000000000000     
  -5.6403138661372046E-002  0.10777507864235857        0.0000000000000000     
  -5.4574905569113097E-002   8.2547718542787932E-002   0.0000000000000000     
  -5.6591702512024125E-002   8.8745569773919133E-002   0.0000000000000000     
  -5.8531321424728534E-002   9.5100151675272915E-002   0.0000000000000000     
  -6.0393762307226311E-002  0.10161146424684925        0.0000000000000000     
  -6.2179025159517461E-002  0.10827950748864819        0.0000000000000000     
  -3.9926197291407339E-002  0.10652885795214462        0.0000000000000000     
  -4.1066134632235261E-002  0.11342013879486192        0.0000000000000000     
  -4.2160243445918850E-002  0.12044785503549078        0.0000000000000000     
  -4.3208523732458121E-002  0.12761200667403125        0.0000000000000000     
  -4.4210975491853051E-002  0.13491259371048328        0.0000000000000000     
  -4.5276724727316982E-002  0.10689975387410679        0.0000000000000000     
  -4.6560287070157497E-002  0.11377465745924217        0.0000000000000000     
  -4.7792506572001237E-002  0.12078524215582473        0.0000000000000000     
  -4.8973383232848201E-002  0.12793150796385452        0.0000000000000000     
  -5.0102917052698405E-002  0.13521345488333150        0.0000000000000000     
  -5.0769038517305215E-002  0.10731516077084476        0.0000000000000000     
  -5.2196124884282255E-002  0.11417173800985429        0.0000000000000000     
  -5.3566720941647120E-002  0.12116356193324285        0.0000000000000000     
  -5.4880826689399829E-002  0.12829063254101045        0.0000000000000000     
  -5.6138442127540378E-002  0.13555294983315710        0.0000000000000000     
  -5.6403138661372046E-002  0.10777507864235857        0.0000000000000000     
  -5.7973648074609557E-002  0.11461138044669827        0.0000000000000000     
  -5.9482886554856541E-002  0.12158281436774507        0.0000000000000000     
  -6.0930854102113005E-002  0.12868938040549904        0.0000000000000000     
  -6.2317550716378949E-002  0.13593107855996006        0.0000000000000000     
  -6.2179025159517461E-002  0.10827950748864819        0.0000000000000000     
  -6.3892856641139389E-002  0.11509358476977412        0.0000000000000000     
  -6.5541003411629467E-002  0.12204299945933145        0.0000000000000000     
  -6.7123465470987714E-002  0.12912775155732023        0.0000000000000000     
  -6.8640242819214131E-002  0.13634784106374043        0.0000000000000000     
  -4.4210975491853051E-002  0.13491259371048328        0.0000000000000000     
  -4.5160503018044029E-002  0.14233478570725194        0.0000000000000000     
  -4.6050010604971436E-002  0.14986375222674236        0.0000000000000000     
  -4.6879498252635286E-002  0.15749949326895446        0.0000000000000000     
  -4.7648965961035537E-002  0.16524200883388834        0.0000000000000000     
  -5.0102917052698405E-002  0.13521345488333150        0.0000000000000000     
  -5.1173252683794163E-002  0.14261818945971805        0.0000000000000000     
  -5.2176534778377789E-002  0.15013281823847668        0.0000000000000000     
  -5.3112763336449285E-002  0.15775734121960727        0.0000000000000000     
  -5.3981938358008658E-002  0.16549175840310987        0.0000000000000000     
  -5.6138442127540378E-002  0.13555294983315710        0.0000000000000000     
  -5.7331123656594318E-002  0.14293830647126698        0.0000000000000000     
  -5.8450427677087233E-002  0.15043449511692419        0.0000000000000000     
  -5.9496354189019142E-002  0.15804151577012890        0.0000000000000000     
  -6.0468903192390018E-002  0.16575936843088090        0.0000000000000000     
  -6.2317550716378949E-002  0.13593107855996006        0.0000000000000000     
  -6.3634115936444496E-002  0.14329513674189864        0.0000000000000000     
  -6.4871689301099780E-002  0.15076878286208506        0.0000000000000000     
  -6.6030270810344835E-002  0.15835201692051934        0.0000000000000000     
  -6.7109860464179619E-002  0.16604483891720151        0.0000000000000000     
  -6.8640242819214131E-002  0.13634784106374043        0.0000000000000000     
  -7.0082229523344697E-002  0.14368868027161305        0.0000000000000000     
  -7.1440319650415446E-002  0.15113568147395914        0.0000000000000000     
  -7.2714513200426364E-002  0.15868884467077865        0.0000000000000000     
  -7.3904810173377439E-002  0.16634816986207163        0.0000000000000000     
   0.0000000000000000        0.0000000000000000        0.0000000000000000     
  -2.8800784667012210E-003   1.7448711892709664E-003   0.0000000000000000     
  -5.8726622963172215E-003   3.8646864908102076E-003   0.0000000000000000     
  -8.9777514888480011E-003   6.3594459046177219E-003   0.0000000000000000     
  -1.2195346044293561E-002   9.2291494306935128E-003   0.0000000000000000     
   0.0000000000000000        0.0000000000000000        0.0000000000000000     
  -3.2832055721610061E-003   1.9993858035082632E-003   0.0000000000000000     
  -6.6769618665335701E-003   4.3309904872286392E-003   0.0000000000000000     
  -1.0181268883117692E-002   6.9948140511611285E-003   0.0000000000000000     
  -1.3796126621913370E-002   9.9908564953057333E-003   0.0000000000000000     
   0.0000000000000000        0.0000000000000000        0.0000000000000000     
  -3.9535678711546214E-003   2.4251498492817705E-003   0.0000000000000000     
  -7.9106259696626272E-003   5.0629546013625350E-003   0.0000000000000000     
  -1.1871174295524013E-002   7.9134142562422953E-003   0.0000000000000000     
  -1.5835212848738778E-002   1.0976528813921051E-002   0.0000000000000000     
   0.0000000000000000        0.0000000000000000        0.0000000000000000     
  -4.8911653636820691E-003   3.0221633265914874E-003   0.0000000000000000     
  -9.5736546057043903E-003   6.0605788332118949E-003   0.0000000000000000     
  -1.4047467726066964E-002   9.1152465198612222E-003   0.0000000000000000     
  -1.8312604724769789E-002   1.2186166386539469E-002   0.0000000000000000     
   0.0000000000000000        0.0000000000000000        0.0000000000000000     
  -6.0959980497433475E-003   3.7904262354374147E-003   0.0000000000000000     
  -1.1666047774658862E-002   7.3238631827767173E-003   0.0000000000000000     
  -1.6710149174746544E-002   1.0600310842017908E-002   0.0000000000000000     
  -2.1228302250006392E-002   1.3619769213160989E-002   0.0000000000000000     
  -1.2195346044293561E-002   9.2291494306935128E-003   0.0000000000000000     
  -1.5427715210230829E-002   1.2371734857966863E-002   0.0000000000000000     
  -1.8577128234236739E-002   1.5685139975367062E-002   0.0000000000000000     
  -2.1643585116311294E-002   1.9169364782894108E-002   0.0000000000000000     
  -2.4627085856454480E-002   2.2824409280547998E-002   0.0000000000000000     
  -1.3796126621913370E-002   9.9908564953057333E-003   0.0000000000000000     
  -1.7404440033854510E-002   1.3221141390747419E-002   0.0000000000000000     
  -2.0889114069875009E-002   1.6587692308571152E-002   0.0000000000000000     
  -2.4250148729974871E-002   2.0090509248776939E-002   0.0000000000000000     
  -2.7487544014154090E-002   2.3729592211364781E-002   0.0000000000000000     
  -1.5835212848738778E-002   1.0976528813921051E-002   0.0000000000000000     
  -1.9730963676407975E-002   1.4211120501830989E-002   0.0000000000000000     
  -2.3486648825632651E-002   1.7576011547404298E-002   0.0000000000000000     
  -2.7102268296412792E-002   2.1071201950640966E-002   0.0000000000000000     
  -3.0577822088748405E-002   2.4696691711541017E-002   0.0000000000000000     
  -1.8312604724769789E-002   1.2186166386539469E-002   0.0000000000000000     
  -2.2407286137891228E-002   1.5341672191217584E-002   0.0000000000000000     
  -2.6369732501509646E-002   1.8650097691866489E-002   0.0000000000000000     
  -3.0199943815625054E-002   2.2111442888486203E-002   0.0000000000000000     
  -3.3897920080237426E-002   2.5725707781076711E-002   0.0000000000000000     
  -2.1228302250006392E-002   1.3619769213160989E-002   0.0000000000000000     
  -2.5433407418304264E-002   1.6612796458907189E-002   0.0000000000000000     
  -2.9538365097506018E-002   1.9809950741957735E-002   0.0000000000000000     
  -3.3543175287611651E-002   2.3211232062312622E-002   0.0000000000000000     
  -3.7447837988621155E-002   2.6816640419971859E-002   0.0000000000000000     
  -2.4627085856454480E-002   2.2824409280547998E-002   0.0000000000000000     
  -2.7531799807371742E-002   2.6673005814998520E-002   0.0000000000000000     
  -3.0361896321768507E-002   3.0737886732915453E-002   0.0000000000000000     
  -3.3117375399644759E-002   3.5019052034298795E-002   0.0000000000000000     
  -3.5798237041000519E-002   3.9516501719148542E-002   0.0000000000000000     
  -2.7487544014154090E-002   2.3729592211364781E-002   0.0000000000000000     
  -3.0624347806964488E-002   2.7547489655588373E-002   0.0000000000000000     
  -3.3683607992957887E-002   3.1586750040701439E-002   0.0000000000000000     
  -3.6665324572134284E-002   3.5847373366703975E-002   0.0000000000000000     
  -3.9569497544493668E-002   4.0329359633595963E-002   0.0000000000000000     
  -3.0577822088748405E-002   2.4696691711541017E-002   0.0000000000000000     
  -3.3942662726639157E-002   2.8497093754947262E-002   0.0000000000000000     
  -3.7226142734084700E-002   3.2517021005702550E-002   0.0000000000000000     
  -4.0428262111085030E-002   3.6756473463806866E-002   0.0000000000000000     
  -4.3549020857640161E-002   4.1215451129260214E-002   0.0000000000000000     
  -3.3897920080237426E-002   2.5725707781076711E-002   0.0000000000000000     
  -3.7486744566395738E-002   2.9521818113075176E-002   0.0000000000000000     
  -4.0989500545148938E-002   3.3528699627918761E-002   0.0000000000000000     
  -4.4406188016497025E-002   3.7746352325607468E-002   0.0000000000000000     
  -4.7736806980439993E-002   4.2174776206141289E-002   0.0000000000000000     
  -3.7447837988621155E-002   2.6816640419971859E-002   0.0000000000000000     
  -4.1256593326234242E-002   3.0621662729972125E-002   0.0000000000000000     
  -4.4973681426150609E-002   3.4621785907350100E-002   0.0000000000000000     
  -4.8599102288370249E-002   3.8817009952105790E-002   0.0000000000000000     
  -5.2132855912893163E-002   4.3207334864239187E-002   0.0000000000000000     
  -3.5798237041000519E-002   3.9516501719148542E-002   0.0000000000000000     
  -3.8404433060143239E-002   4.4220802776109687E-002   0.0000000000000000     
  -4.0935915271380387E-002   4.9122522193827185E-002   0.0000000000000000     
  -4.3392683674711968E-002   5.4221659972301064E-002   0.0000000000000000     
  -4.5774738270137970E-002   5.9518216111531283E-002   0.0000000000000000     
  -3.9569497544493668E-002   4.0329359633595963E-002   0.0000000000000000     
  -4.2393490332977408E-002   4.5019119346600904E-002   0.0000000000000000     
  -4.5134666360526841E-002   4.9903063010942272E-002   0.0000000000000000     
  -4.7793025627141980E-002   5.4981190626620047E-002   0.0000000000000000     
  -5.0368568132822804E-002   6.0253502193634248E-002   0.0000000000000000     
  -4.3549020857640161E-002   4.1215451129260214E-002   0.0000000000000000     
  -4.6584529359859322E-002   4.5881248618790671E-002   0.0000000000000000     
  -4.9530898003851770E-002   5.0741160549126300E-002   0.0000000000000000     
  -5.2388126789617510E-002   5.5795186920267109E-002   0.0000000000000000     
  -5.5156215717156509E-002   6.1043327732213090E-002   0.0000000000000000     
  -4.7736806980439993E-002   4.2174776206141289E-002   0.0000000000000000     
  -5.0977550140788995E-002   4.6807190592678967E-002   0.0000000000000000     
  -5.4124610201355172E-002   5.1636814808379290E-002   0.0000000000000000     
  -5.7177987162138545E-002   5.6663648853242231E-002   0.0000000000000000     
  -6.0137681023139086E-002   6.1887692727267789E-002   0.0000000000000000     
  -5.2132855912893163E-002   4.3207334864239187E-002   0.0000000000000000     
  -5.5572552675766412E-002   4.7796945268265834E-002   0.0000000000000000     
  -5.8915802953037055E-002   5.2590025788701235E-002   0.0000000000000000     
  -6.2162606744705098E-002   5.7586576425545412E-002   0.0000000000000000     
  -6.5312964050770528E-002   6.2786597178798351E-002   0.0000000000000000     
  -4.5774738270137970E-002   5.9518216111531283E-002   0.0000000000000000     
  -4.8083271994928831E-002   6.5004009003191129E-002   0.0000000000000000     
  -5.0319477786354976E-002   7.0670857038953858E-002   0.0000000000000000     
  -5.2483355644416398E-002   7.6518760218819440E-002   0.0000000000000000     
  -5.4574905569113097E-002   8.2547718542787932E-002   0.0000000000000000     
  -5.0368568132822804E-002   6.0253502193634248E-002   0.0000000000000000     
  -5.2864105956724389E-002   6.5713932090682936E-002   0.0000000000000000     
  -5.5282451178001790E-002   7.1356414696464157E-002   0.0000000000000000     
  -5.7623603796655001E-002   7.7180950010977939E-002   0.0000000000000000     
  -5.9887563812684015E-002   8.3187538034224268E-002   0.0000000000000000     
  -5.5156215717156509E-002   6.1043327732213090E-002   0.0000000000000000     
  -5.7838696918200830E-002   6.6479450291026240E-002   0.0000000000000000     
  -6.0439102524482494E-002   7.2097421902768591E-002   0.0000000000000000     
  -6.2957432536001487E-002   7.7897242567440142E-002   0.0000000000000000     
  -6.5393686952757810E-002   8.3878912285040866E-002   0.0000000000000000     
  -6.0137681023139086E-002   6.1887692727267789E-002   0.0000000000000000     
  -6.3007044879358154E-002   6.7300563604221070E-002   0.0000000000000000     
  -6.5789431825797079E-002   7.2893878657867145E-002   0.0000000000000000     
  -6.8484841862455861E-002   7.8667637888206063E-002   0.0000000000000000     
  -7.1093274989334515E-002   8.4621841295237782E-002   0.0000000000000000     
  -6.5312964050770528E-002   6.2786597178798351E-002   0.0000000000000000     
  -6.8369149840196361E-002   6.8177272030267383E-002   0.0000000000000000     
  -7.1333439081945560E-002   7.3745784961759847E-002   0.0000000000000000     
  -7.4205831776018152E-002   7.9492135973275702E-002   0.0000000000000000     
  -7.6986327922414097E-002   8.5416325064815002E-002   0.0000000000000000     
  -5.4574905569113097E-002   8.2547718542787932E-002   0.0000000000000000     
  -5.6591702512024125E-002   8.8745569773919133E-002   0.0000000000000000     
  -5.8531321424728534E-002   9.5100151675272915E-002   0.0000000000000000     
  -6.0393762307226311E-002  0.10161146424684925        0.0000000000000000     
  -6.2179025159517461E-002  0.10827950748864819        0.0000000000000000     
  -5.9887563812684015E-002   8.3187538034224268E-002   0.0000000000000000     
  -6.2071263336313499E-002   8.9363294316741768E-002   0.0000000000000000     
  -6.4171634477768108E-002   9.5695334409069077E-002   0.0000000000000000     
  -6.6188677237047841E-002  0.10218365831120624        0.0000000000000000     
  -6.8122391614152705E-002  0.10882826602315321        0.0000000000000000     
  -6.5393686952757810E-002   8.3878912285040866E-002   0.0000000000000000     
  -6.7744177209472276E-002   9.0029749260231898E-002   0.0000000000000000     
  -7.0005214740865615E-002   9.6337071697674276E-002   0.0000000000000000     
  -7.2176799546937856E-002  0.10280087959736806        0.0000000000000000     
  -7.4258931627688984E-002  0.10942117295931321        0.0000000000000000     
  -7.1093274989334515E-002   8.4621841295237782E-002   0.0000000000000000     
  -7.3610444131500447E-002   9.0744934604389538E-002   0.0000000000000000     
  -7.6032062214021048E-002   9.7025363541088511E-002   0.0000000000000000     
  -7.8358129236896348E-002  0.10346312810533476        0.0000000000000000     
  -8.0588645200126319E-002  0.11005822829712823        0.0000000000000000     
  -7.6986327922414097E-002   8.5416325064815002E-002   0.0000000000000000     
  -7.9670064102397992E-002   9.1508850349214702E-002   0.0000000000000000     
  -8.2252176897234394E-002   9.7760209939311796E-002   0.0000000000000000     
  -8.4732666306923304E-002  0.10417040383510630        0.0000000000000000     
  -8.7111532331464736E-002  0.11073943203659822        0.0000000000000000     
  -6.2179025159517461E-002  0.10827950748864819        0.0000000000000000     
  -6.3892856641139389E-002  0.11509358476977412        0.0000000000000000     
  -6.5541003411629467E-002  0.12204299945933145        0.0000000000000000     
  -6.7123465470987714E-002  0.12912775155732023        0.0000000000000000     
  -6.8640242819214131E-002  0.13634784106374043        0.0000000000000000     
  -6.8122391614152705E-002  0.10882826602315321        0.0000000000000000     
  -6.9979366479509961E-002  0.11561873178653251        0.0000000000000000     
  -7.1766190703546950E-002  0.12254462984296664        0.0000000000000000     
  -7.3482864286263633E-002  0.12960596019245557        0.0000000000000000     
  -7.5129387227660008E-002  0.13680272283499936        0.0000000000000000     
  -7.4258931627688984E-002  0.10942117295931321        0.0000000000000000     
  -7.6258793485359536E-002  0.11618720230442417        0.0000000000000000     
  -7.8183567622190003E-002  0.12308821815361527        0.0000000000000000     
  -8.0033254038180388E-002  0.13012422050688655        0.0000000000000000     
  -8.1807852733330716E-002  0.13729520936423803        0.0000000000000000     
  -8.0588645200126319E-002  0.11005822829712823        0.0000000000000000     
  -8.2731137658688073E-002  0.11679899632344908        0.0000000000000000     
  -8.4793134167558640E-002  0.12367376439127736        0.0000000000000000     
  -8.6774634726738006E-002  0.13068253250061318        0.0000000000000000     
  -8.8675639336226200E-002  0.13782530065145646        0.0000000000000000     
  -8.7111532331464736E-002  0.11073943203659822        0.0000000000000000     
  -8.9396398999495599E-002  0.11745411384360721        0.0000000000000000     
  -9.1594890339652846E-002  0.12430126855595294        0.0000000000000000     
  -9.3707006351936489E-002  0.13128089617363542        0.0000000000000000     
  -9.5732747036346516E-002  0.13839299669665461        0.0000000000000000     
  -6.8640242819214131E-002  0.13634784106374043        0.0000000000000000     
  -7.0082229523344697E-002  0.14368868027161305        0.0000000000000000     
  -7.1440319650415446E-002  0.15113568147395914        0.0000000000000000     
  -7.2714513200426364E-002  0.15868884467077865        0.0000000000000000     
  -7.3904810173377439E-002  0.16634816986207163        0.0000000000000000     
  -7.5129387227660008E-002  0.13680272283499936        0.0000000000000000     
  -7.6696390326350547E-002  0.14411893153973138        0.0000000000000000     
  -7.8174504380949666E-002  0.15153860007578521        0.0000000000000000     
  -7.9563729391457366E-002  0.15906172844316077        0.0000000000000000     
  -8.0864065357873674E-002  0.16668831664185807        0.0000000000000000     
  -8.1807852733330716E-002  0.13729520936423803        0.0000000000000000     
  -8.3497524254517647E-002  0.14458588502557476        0.0000000000000000     
  -8.5092429148617921E-002  0.15198094779080198        0.0000000000000000     
  -8.6592567415631511E-002  0.15948039765991956        0.0000000000000000     
  -8.7997939055558430E-002  0.16708423463292760        0.0000000000000000     
  -8.8675639336226200E-002  0.13782530065145646        0.0000000000000000     
  -9.0485631307845996E-002  0.14508954072914321        0.0000000000000000     
  -9.2194093953420195E-002  0.15246272461900942        0.0000000000000000     
  -9.3801027272948770E-002  0.15994485232105504        0.0000000000000000     
  -9.5306431266431735E-002  0.16753592383528018        0.0000000000000000     
  -9.5732747036346516E-002  0.13839299669665461        0.0000000000000000     
  -9.7660711486335636E-002  0.14562989865043663        0.0000000000000000     
  -9.9479498795356502E-002  0.15298393056040749        0.0000000000000000     
 -0.10118910896340917       0.16045509242656722        0.0000000000000000     
 -0.10278954199049357       0.16804338424891582        0.0000000000000000     
 </DataArray>
 <DataArray  type="Float64" Name="stress" NumberOfComponents="3" format="ascii">
   13416432688.918831        4024929806.6756492        2893805881.5790949     
   11766447771.503553        1890648539.4176328        1715754138.6594338     
   10313683123.397631        413768169.85746193        810773461.20600939     
   9058138744.6010609       -405711302.00486326        178863849.21882027     
   7999814635.1138439       -567789876.16934681       -179974697.30213234     
   10539799249.208826        3161939774.7626481        2225667878.8026896     
   9667526578.3263206        1589719654.1242099        1446678115.2320793     
   8943853530.2422810        512831609.48065138        863151057.38515472     
   8368780104.9567032       -68724359.168027878        475086705.26191640     
   7942306302.4695911       -154948251.82182598        282485058.86236340     
   8337845491.8533916        2501353647.5560174        1712333255.4626670     
   8021546896.8106565        1424673222.3292565        1275681383.6450698     
   7805227278.0554943        681256051.39441013        956883857.80860817     
   7688886635.5879087        271102134.75147915        755940677.95328176     
   7672524969.4078970        194211472.40046167        672851844.07909048     
   6810571416.8525276        2043171425.0557582        1353802011.5590270     
   6828508726.9565592        1395509244.0327740        1202763943.8984056     
   6897804366.8372793        919041495.59874010        1091971862.4763687     
   7018458336.4946814        613768179.75365520        1021425767.2929161     
   7190470635.9287701        479689296.49751997        991125658.34804869     
   5957977024.2062311        1787393107.2618694        1150074147.0917697     
   6088412068.7640324        1502227719.2347622        1227925795.9920859     
   6221584796.5876284        1226187942.0936394        1268415071.3884361     
   6357495207.6770201        959273775.83850038        1271541973.2808206     
   6496143302.0322056        701485220.46934652        1237306501.6692388     
   7999814635.1138439       -567789876.16934681       -179974697.30213234     
   7917428128.5352993       -200715039.40453672       -78288334.441716388     
   7793671108.7287359        28458086.600211143       -9174199.8740485236     
   7628543575.6941509        119729501.84488964        27367706.400872696     
   7422045529.4315519        73099206.329512596        31337384.383045990     
   7942306302.4695911       -154948251.82182598        282485058.86236340     
   7739647084.7745285        16003727.045369625        281092049.62428856     
   7513683736.2041101        109275269.66137695        265012919.64262876     
   7264416256.7583361        124866376.02619696        234247668.91738522     
   6991844646.4372044        62777046.139826775        188796297.44855919     
   7672524969.4078970        194211472.40046167        672851844.07909048     
   7400696205.0224972        184371542.69789600        589456908.82063293     
   7123629692.1144085        157072451.25302076        509261960.36775124     
   6841325430.6836214        112314198.06582975        432266998.72044957     
   6553783420.7301416        50096783.136324883        358472023.87872511     
   7190470635.9287701        479689296.49751997        991125658.34804869     
   6900575489.2792149        304388407.55304956        846806243.14731324     
   6623508976.4596272        171849631.37513900        723572922.30131674     
   6359271097.4700098        82072967.963793755        621425695.81006491     
   6107861852.3103628        35058417.319008350        540364563.67355156     
   6496143302.0322056        701485220.46934652        1237306501.6692388     
   6239284937.5446749        376054321.61082387        1053140052.6043310     
   6013321589.2397728        153606810.02773786        907945805.44332874     
   5818253257.1175041        34142685.720089197        801723760.18622851     
   5654079941.1778641        17661948.687876463        734473916.83303332     
   7422045529.4315519        73099206.329512596        31337384.383045990     
   7219882645.9728603       -16969464.473296642        14900647.570656456     
   7029592084.0090408       -67463730.293195724        2667466.1801523874     
   6851173843.5400925       -78383591.130189896       -5362159.7884511622     
   6684627924.5660229       -49729046.984260082       -9188230.3351686038     
   6991844646.4372044        62777046.139826775        188796297.44855919     
   6809182117.1887894        3815402.9538393021        180664177.98225132     
   6634101715.9884195       -29872480.072001934        176150230.72884747     
   6466603442.8360910       -38286602.937703133        175254455.68833727     
   6306687297.7318001       -21426965.643266678        177976852.86073607     
   6553783420.7301416        50096783.136324883        358472023.87872511     
   6388948722.2377424        21740410.530893326        353639296.07053518     
   6227405958.3465538        4357153.2628297806        351839357.26625443     
   6069155129.0565758       -2052988.6678690910        353072207.46587849     
   5914196234.3678093        2509984.7387990952        357337846.66941023     
   6107861852.3103628        35058417.319008350        540364563.67355156     
   5959182461.1197128        36805558.257846355        533826001.83550853     
   5809504811.0834417        35225169.711280107        529734845.79237676     
   5658828902.2015486        30317251.679305792        528091095.54416275     
   5507154734.4740343        22081804.161925316        528894751.09086263     
   5654079941.1778641        17661948.687876463        734473916.83303332     
   5519883333.8346987        49010846.134706259        721224295.27716410     
   5380398274.1990833        62731569.273359299        709836696.30721521     
   5235624762.2710114        58824118.103832006        700311119.92319179     
   5085562798.0504847        37288492.626121998        692647566.12508595     
   6684627924.5660229       -49729046.984260082       -9188230.3351686038     
   6508902289.1713467       -12226216.515335560       -4293075.9536428191     
   6328954135.3032265        11201552.375455618        2944530.8333239020     
   6144783462.9616690        20554259.688109875        12524590.025737004     
   5956390272.1466713        15831905.422644138        24447101.623594247     
   6306687297.7318001       -21426965.643266678        177976852.86073607     
   6133135933.2101860       -1013959.7412292957        174298993.89178061     
   5957042397.4094086        10925141.896933317        173895004.24286500     
   5778406690.3294697        14390339.271219492        176764883.91399059     
   5597228811.9703693        9381632.3816292286        182908632.90514901     
   5914196234.3678093        2509984.7387990952        357337846.66941023     
   5745480331.9038067        6631523.4293165207        347047379.40997201     
   5575902605.3549204        7880315.1702167988        340962198.38516104     
   5405463054.7211447        6256359.9614884853        339082303.59498298     
   5234161680.0024843        1759657.8031411171        341407695.03943229     
   5507154734.4740343        22081804.161925316        528894751.09086263     
   5345935485.2522020        10710232.996295691        513952080.60092366     
   5185534759.1397543        2067072.1952900887        504146113.26020759     
   5025952556.1366978       -3847678.2410745621        499476849.06871247     
   4867188876.2430344       -7034018.3128132820        499944288.02644432     
   5085562798.0504847        37288492.626121998        692647566.12508595     
   4934501393.2553673        11222168.959702492        675013097.46463776     
   4785938858.7639160       -6514587.0278306007        663446748.86800396     
   4639875194.5761290       -15921775.336482286        657948520.33518875     
   4496310400.6920090       -16999395.966243982        658518411.86618686     
   5956390272.1466713        15831905.422644138        24447101.623594247     
   5779314051.3147259        10092966.820403814        21283427.161391020     
   5603551552.0342331        8733100.0563514233        21277977.408093024     
   5429102774.3051815        11752305.130426645        24430752.363712106     
   5255967718.1275864        19150582.042696714        30741752.028244745     
   5597228811.9703693        9381632.3816292286        182908632.90514901     
   5429222718.3366537        5746240.4283909798        179723189.70263672     
   5262058870.3900671        4918334.0988941193        179871108.87086397     
   5095737268.1306028        6897913.3931438923        183352390.40981647     
   4930257911.5582619        11684978.311148882        190167034.31950369     
   5234161680.0024843        1759657.8031411171        341407695.03943229     
   5075726106.8864975        377930.49475026131        337650427.92156911     
   4917661303.5933123        232102.59568762779        337401660.83626014     
   4759967270.1229153        1322174.1059315205        340661393.78350496     
   4602644006.4753237        3648145.0255074501        347429626.76330191     
   4867188876.2430344       -7034018.3128132820        499944288.02644432     
   4718824216.9642696       -6011962.9805006981        495065141.81817752     
   4570358851.6439695       -5325594.4532954693        493869633.30428755     
   4421792780.2821341       -4974912.7312037945        496357762.48476964     
   4273126002.8787746       -4959917.8142120838        502529529.35963255     
   4496310400.6920090       -16999395.966243982        658518411.86618686     
   4358517048.5699511       -13423439.997387886        651967331.39246786     
   4220151514.5420313       -11754757.048068523        649275026.27494884     
   4081213798.6082573       -11993347.118265867        650441496.51362181     
   3941703900.7686181       -14139210.208014250        655466742.10849667     
   5255967718.1275864        19150582.042696714        30741752.028244745     
   5060188302.8766136        20907629.457499981        25550550.595577929     
   4863854778.0903959        20817645.088144779        25089050.253852721     
   4666967143.7689190        18880628.934594631        29357251.003074888     
   4469525399.9121971        15096580.996893883        38355152.843247630     
   4930257911.5582619        11684978.311148882        190167034.31950369     
   4746167859.8838873        11622963.765748262        183753314.93584722     
   4561719603.6656046        10366934.074002028        182021496.12636450     
   4376913142.9034214        7916889.2359275818        184971577.89105809     
   4191748477.5973511        4272829.2515354156        192603560.22992158     
   4602644006.4753237        3648145.0255074501        347429626.76330191     
   4430106745.4724779        1726096.6483781338        340021945.25190032     
   4257407184.9170895       -736950.23724460602        337248363.79790431     
   4084545324.8091502       -3740995.6313650608        339108882.40131295     
   3911521165.1486611       -7286039.5339770317        345603501.06212139     
   4273126002.8787746       -4959917.8142120838        502529529.35963255     
   4112004959.6424050       -8782971.8945906162        494356441.54373217     
   3950917521.8448377       -12494007.845631599        490769653.26846129     
   3789863689.4860792       -16093025.667307377        491769164.53383219     
   3628843462.5661216       -19580025.359650373        497354975.33983403     
   3941703900.7686181       -14139210.208014250        655466742.10849667     
   3791862502.3936625       -19904241.863157511        646756803.81134188     
   3642250614.4488621       -24904238.751123667        642585364.53805268     
   3492868236.9342213       -29139200.871894360        642952424.28862607     
   3343715369.8497372       -32609128.225464106        647857983.06305742     
   4469525399.9121971        15096580.996893883        38355152.843247630     
   4307081410.3282528        22731574.186224937        34616171.399034418     
   4145797935.6720324        34234950.467958212        35734740.074643105     
   3985674975.9435163        49606709.842037201        41710858.870066024     
   3826712531.1427078        68846852.308484316        52544527.785318539     
   4191748477.5973511        4272829.2515354156        192603560.22992158     
   4041004824.9635396        11349344.847167253        188751524.12105024     
   3890879336.2879238        20486406.970126629        189171076.52946904     
   3741372011.5704994        31684015.620380878        193862217.45518023     
   3592482850.8112850        44942170.798001528        202824946.89817327     
   3911521165.1486611       -7286039.5339770317        345603501.06212139     
   3770803673.4577470       -1270254.3342425823        341005667.49082136     
   3630161994.7555256        4998240.8277888298        340093460.83428776     
   3489596129.0419831        11519445.952094555        342866881.09251183     
   3349106076.3171272        18293361.038694620        349325928.26550132     
   3628843462.5661216       -19580025.359650373        497354975.33983403     
   3496477955.8108926       -15127223.357963324        491378601.50834048     
   3363645911.0748363       -12229547.959026575        488501892.98908329     
   3230347328.3579502       -10886999.162849665        488724849.78206450     
   3096582207.6602378       -11099576.969436884        492047471.88727915     
   3343715369.8497372       -32609128.225464106        647857983.06305742     
   3218027672.0229692       -30221562.223999977        639870326.17361045     
   3091331085.2458606       -31196959.390326977        634396372.99386597     
   2963625609.5184116       -35535319.724449158        631436123.52383864     
   2834911244.8406272       -43236643.226367831        630989577.76351833     
   3826712531.1427078        68846852.308484316        52544527.785318539     
   3615294115.0892873        85130766.197324991        41294475.134883843     
   3411141928.8102479        125635446.00078011        37587251.336582355     
   3214255972.3055992        190360891.71887100        41422856.390395500     
   3024636245.5753336        279307103.35156286        52801290.296343133     
   3592482850.8112850        44942170.798001528        202824946.89817327     
   3396543416.6548829        52068941.124436259        194789321.65211767     
   3205249794.6950088        74681752.105965734        193230963.68142503     
   3018601984.9316545        112780603.74254322        198149872.98610246     
   2836599987.3648272        166365496.03424585        209546049.56615949     
   3349106076.3171272        18293361.038694620        349325928.26550132     
   3165601162.4098959        15349649.308385968        341447576.58296049     
   2984121643.1213193        19157252.973608494        338980930.59904027     
   2804667518.4513950        29716172.034343958        341925990.31375146     
   2627238788.4001360        47026406.490633368        350282755.72706813     
   3096582207.6602378       -11099576.969436884        492047471.88727915     
   2922467352.3543057       -25027109.250858665        481269239.92742819     
   2747757474.0891685       -40938051.396283269        474837152.08943778     
   2572452572.8648276       -58832403.405745625        472751208.37332177     
   2396552648.6812711       -78710165.279211164        475011408.77907038     
   2834911244.8406272       -43236643.226367831        630989577.76351833     
   2667141986.4881306       -69061334.553261995        614254311.68550646     
   2496157287.5985608       -105604161.00372970        600799628.15261149     
   2321957148.1719313       -152865122.57772529        590625527.16482687     
   2144541568.2082214       -210844219.27531111        583732008.72217262     
   5957977024.2062311        1787393107.2618694        1150074147.0917697     
   6088412068.7640324        1502227719.2347622        1227925795.9920859     
   6221584796.5876284        1226187942.0936394        1268415071.3884361     
   6357495207.6770201        959273775.83850038        1271541973.2808206     
   6496143302.0322056        701485220.46934652        1237306501.6692388     
   5434679482.7963295        1630403844.8388989        1033484092.7405629     
   5489897144.3390656        1372492899.6704988        1113876645.9277327     
   5547319630.9240971        1121931371.3097591        1167482560.4091165     
   5606946942.5514297        878719259.75667977        1194301836.1847146     
   5668779079.2210598        642856565.01126027        1194334473.2545261     
   4895295961.5046444        1468588788.4513934        936366279.18507278     
   4905512625.1699715        1246997201.6829977        1018678068.7316835     
   4917401255.6540985        1030978837.6439378        1084778954.3706872     
   4930961852.9570265        820533696.33421445        1134668936.1020849     
   4946194417.0787554        615661777.75382721        1168348013.9258761     
   4339826460.3311787        1301947938.0993536        858720706.42529976     
   4335258511.2567530        1125740625.2722590        942330064.40393734     
   4331829670.7776299        953330341.09617615        1020304253.2731483     
   4329539938.8938093        784717085.57110476        1092643273.0329323     
   4328389315.6052952        619900858.69704688        1159347123.6832902     
   3768270979.2759309        1130481293.7827792        800547374.46124387     
   3779134802.5994081        1008723170.4382823        884832632.94449496     
   3790604876.2946911        888985881.66647315        974058457.11649930     
   3802681200.3617816        771269427.46735239        1068224846.9772564     
   3815363774.8006773        655573807.84091961        1167331802.5267665     
   6496143302.0322056        701485220.46934652        1237306501.6692388     
   6239284937.5446749        376054321.61082387        1053140052.6043310     
   6013321589.2397728        153606810.02773786        907945805.44332874     
   5818253257.1175041        34142685.720089197        801723760.18622851     
   5654079941.1778641        17661948.687876463        734473916.83303332     
   5668779079.2210598        642856565.01126027        1194334473.2545261     
   5518780240.0469532        383395301.12697053        1073458212.7499044     
   5392917712.2795057        204388408.59820414        980585623.28072906     
   5291191495.9187164        105835887.42496395        915716704.84700358     
   5213601590.9645824        87737737.607247114        878851457.44872594     
   4946194417.0787554        615661777.75382721        1168348013.9258761     
   4871716443.5939188        412768550.95652199        1102876786.4095707     
   4814616076.7397633        267800679.59482932        1054440699.0602571     
   4774893316.5162935        180758163.66874909        1023039751.8779355     
   4752548162.9235077        151641003.17828155        1008673944.8626055     
   4328389315.6052952        619900858.69704688        1159347123.6832902     
   4298093548.1855621        464174071.09947789        1141395773.5833321     
   4278416682.6205425        343843623.01760936        1129511032.7819080     
   4269358718.9102335        258909514.45144224        1123692901.2790217     
   4270919657.0546336        209371745.40097499        1123941379.0746715     
   3815363774.8006773        655573807.84091961        1167331802.5267665     
   3797911553.8218937        537611861.55583942        1189015174.2711854     
   3784319529.9218478        432517238.86654866        1205796624.4456849     
   3774587703.1005373        340289939.77304542        1217676153.0502639     
   3768716073.3579645        260929964.27533054        1224653760.0849228     
   5654079941.1778641        17661948.687876463        734473916.83303332     
   5519883333.8346987        49010846.134706259        721224295.27716410     
   5380398274.1990833        62731569.273359299        709836696.30721521     
   5235624762.2710114        58824118.103832006        700311119.92319179     
   5085562798.0504847        37288492.626121998        692647566.12508595     
   5213601590.9645824        87737737.607247114        878851457.44872594     
   5076950658.4388294        85403274.330161572        855194351.28632569     
   4938239455.0418768        76201241.482411385        835560363.33383834     
   4797467980.7737255        60131639.064003944        819949493.59126556     
   4654636235.6343803        37194467.074934959        808361742.05860400     
   4752548162.9235077        151641003.17828155        1008673944.8626055     
   4619617464.1408491        117475546.85497785        978375565.75180721     
   4487854675.9082499        87203125.698535204        954261400.47491348     
   4357259798.2257090        60823739.708954334        936331449.03192341     
   4227832831.0932293        38337388.886235952        924585711.42283726     
   4270919657.0546336        209371745.40097499        1123941379.0746715     
   4147883750.9407611        145227663.70916414        1090767938.6736069     
   4029243936.7982049        95737221.921737194        1065939807.7304385     
   3915000214.6269617        60900420.038687944        1049456986.2451640     
   3805152584.4270334        40717258.060020685        1041319474.2177829     
   3768716073.3579645        260929964.27533054        1224653760.0849228     
   3661749518.8385653        168659624.89271855        1192371470.0517268     
   3562407237.7117367        101803530.15200722        1170595585.1004148     
   3470689229.9774814        60361680.053200245        1159326105.2309885     
   3386595495.6357946        44334074.596296906        1158563030.4434464     
   5085562798.0504847        37288492.626121998        692647566.12508595     
   4934501393.2553673        11222168.959702492        675013097.46463776     
   4785938858.7639160       -6514587.0278306007        663446748.86800396     
   4639875194.5761290       -15921775.336482286        657948520.33518875     
   4496310400.6920090       -16999395.966243982        658518411.86618686     
   4654636235.6343803        37194467.074934959        808361742.05860400     
   4520350610.8538094        16587420.903878212        794494175.48474860     
   4387971162.2479830        2334295.3152897358        786203101.74395418     
   4257497889.8168993       -5564909.6908187866        783488520.83621359     
   4128930793.5605540       -7110194.1144640446        786350432.76154208     
   4227832831.0932293        38337388.886235952        924585711.42283726     
   4108918337.0964761        22768225.441314459        913793570.45183003     
   3991317325.1455407        11577335.482456207        908086295.08312857     
   3875029795.2404246        4764719.0096642971        907463885.31673014     
   3760055747.3811297        2330376.0229337215        911926341.15263546     
   3805152584.4270334        40717258.060020685        1041319474.2177829     
   3700204571.9833632        29764582.572020054        1032911282.3658835     
   3595977347.4565868        21214533.473671436        1029096328.8855319     
   3492470910.8467093        15067110.764975786        1029874613.7767289     
   3389685262.1537237        11322314.445933342        1035246137.0394729     
   3386595495.6357946        44334074.596296906        1158563030.4434464     
   3294209315.5144739        37576492.295993209        1151847311.2269115     
   3201951229.1811233        31245889.288925886        1149233203.1511662     
   3109821236.6357527        25342265.575117230        1150720706.2162116     
   3017819337.8783479        19865621.154540300        1156309820.4220493     
   4496310400.6920090       -16999395.966243982        658518411.86618686     
   4358517048.5699511       -13423439.997387886        651967331.39246786     
   4220151514.5420313       -11754757.048068523        649275026.27494884     
   4081213798.6082573       -11993347.118265867        650441496.51362181     
   3941703900.7686181       -14139210.208014250        655466742.10849667     
   4128930793.5605540       -7110194.1144640446        786350432.76154208     
   4000757422.4336038       -5976046.2305088043        778938325.22654128     
   3872366654.1003232       -5566555.7009799480        775630921.88962889     
   3743758488.5607271       -5881722.5258498192        776428222.75081635     
   3614932925.8147998       -6921546.7051372528        781330227.81009376     
   3760055747.3811297        2330376.0229337215        911926341.15263546     
   3642205011.0832686        1233511.9721662998        904067122.03914261     
   3524491662.2786198        594606.23210716248        900558535.96564174     
   3406915700.9671855        413658.80276656151        901400582.93212771     
   3289477127.1489668        690669.68413519859        906593262.93860245     
   3389685262.1537237        11322314.445933342        1035246137.0394729     
   3282859814.5189476        8205234.6106477976        1027353721.8302814     
   3176526539.0769196        6728728.7511945963        1024057868.5029799     
   3070685435.8276453        6892796.8675831556        1025358577.0575619     
   2965336504.7711163        8697438.9598023891        1031255847.4940259     
   3017819337.8783479        19865621.154540300        1156309820.4220493     
   2922721832.7406425        14939121.684935570        1148798124.5999546     
   2828471284.4952226        12835811.856282353        1146128919.5016415     
   2735067693.1420927        13555691.668592453        1148302205.1271152     
   2642511058.6812487        17098761.121861100        1155317981.4763660     
   3941703900.7686181       -14139210.208014250        655466742.10849667     
   3791862502.3936625       -19904241.863157511        646756803.81134188     
   3642250614.4488621       -24904238.751123667        642585364.53805268     
   3492868236.9342213       -29139200.871894360        642952424.28862607     
   3343715369.8497372       -32609128.225464106        647857983.06305742     
   3614932925.8147998       -6921546.7051372528        781330227.81009376     
   3477485450.7377911       -10641383.011072397        773297769.95186484     
   3340193765.1128268       -13841921.143533945        769788632.06453264     
   3203057868.9399033       -16523161.102518439        770802814.14808965     
   3066077762.2190151       -18685102.888047218        776340316.20253956     
   3289477127.1489668        690669.68413519859        906593262.93860245     
   3164380206.6471353       -996981.88941931725        899152277.71150219     
   3039365354.6192284       -2411071.8832197189        896219433.40232182     
   2914432571.0652480       -3551600.2972697020        897794730.01106417     
   2789581855.9851961       -4418567.1315561533        903878167.53773427     
   2965336504.7711163        8697438.9598023891        1031255847.4940259     
   2852546770.1216879        9028961.5017879009        1024320327.0902473     
   2739765382.9680781        9388309.0298324823        1021877768.5514178     
   2626992343.3102741        9775481.5438972712        1023928171.8775468     
   2514227651.1482797        10190479.044007540        1030471537.0686247     
   2642511058.6812487        17098761.121861100        1155317981.4763660     
   2541985141.1614594        19436447.162575841        1148801918.0881047     
   2441393850.1593676        21556221.595614910        1146763637.5118268     
   2340737185.6749659        23458084.420953751        1149203139.7475381     
   2240015147.7082672        25142035.638635755        1156120424.7952316     
   3343715369.8497372       -32609128.225464106        647857983.06305742     
   3218027672.0229692       -30221562.223999977        639870326.17361045     
   3091331085.2458606       -31196959.390326977        634396372.99386597     
   2963625609.5184116       -35535319.724449158        631436123.52383864     
   2834911244.8406272       -43236643.226367831        630989577.76351833     
   3066077762.2190151       -18685102.888047218        776340316.20253956     
   2947841682.4093361       -15688371.169460893        768176206.79323030     
   2829143526.6184273       -14231892.721645951        763089830.82956052     
   2709983294.8462949       -14315667.544556737        761081188.31153345     
   2590360987.0929332       -15939695.638247013        762150279.23914623     
   2789581855.9851961       -4418567.1315561533        903878167.53773427     
   2680408907.7238407       -329215.63648641109        896175554.07252157     
   2571320696.4503727        4042592.4848618507        892114703.78888583     
   2462317222.1647944        8696857.2325106859        891695616.68682373     
   2353398484.8670940        13633578.606428504        894918292.76633549     
   2514227651.1482797        10190479.044007540        1030471537.0686247     
   2415729347.9664903        15855904.374929547        1023868368.0114832     
   2317862594.7416959        23626496.229171515        1021470991.8718426     
   2220627391.4739027        33502254.606755614        1023279408.6497147     
   2124023738.1631088        45483179.507661104        1029293618.3450949     
   2240015147.7082672        25142035.638635755        1156120424.7952316     
   2153803003.1372824        32866988.864794970        1151254648.6101129     
   2068769221.4923997        44519818.511306047        1151158695.0784357     
   1984913802.7736349        60100524.578203201        1155832564.2002058     
   1902236746.9809761        79609107.065452933        1165276255.9754069     
   2834911244.8406272       -43236643.226367831        630989577.76351833     
   2667141986.4881306       -69061334.553261995        614254311.68550646     
   2496157287.5985608       -105604161.00372970        600799628.15261149     
   2321957148.1719313       -152865122.57772529        590625527.16482687     
   2144541568.2082214       -210844219.27531111        583732008.72217262     
   2590360987.0929332       -15939695.638247013        762150279.23914623     
   2435050606.8296289       -31059278.886723042        745667943.51822114     
   2278363313.4914131       -50768572.384903550        733018368.07192767     
   2120299107.0782919       -75067576.132777691        724201552.90026367     
   1960857987.5902548       -103956290.13034940        719217498.00323462     
   2353398484.8670940        13633578.606428504        894918292.76633549     
   2212124633.3487449        9692398.6331095695        880833836.10834932     
   2071312396.2176418        7289933.2839424610        871134317.45450711     
   1930961773.4737830        6426182.5589342117        865819736.80480766     
   1791072765.1171765        7101146.4580790997        864890094.15925586     
   2124023738.1631088        45483179.507661104        1029293618.3450949     
   1998364066.0454648        53193698.006215692        1019751989.4558917     
   1875004535.7772245        68571356.002791166        1015147476.3003453     
   1753945147.3583910        91616153.497378528        1015480078.8784556     
   1635185900.7889566        122328090.48996484        1020749797.1902347     
   1902236746.9809761        79609107.065452933        1165276255.9754069     
   1793768904.9197977        99444619.232615948        1162422403.5608399     
   1689439732.1701787        133075695.77164704        1165057844.6094463     
   1589249228.7321258        180502336.68255311        1173182579.1212275     
   1493197394.6056235        241724541.96531677        1186796607.0961812     
   3768270979.2759309        1130481293.7827792        800547374.46124387     
   3779134802.5994081        1008723170.4382823        884832632.94449496     
   3790604876.2946911        888985881.66647315        974058457.11649930     
   3802681200.3617816        771269427.46735239        1068224846.9772564     
   3815363774.8006773        655573807.84091961        1167331802.5267665     
   3207807833.5409689        962342350.06229067        756689178.29534245     
   3235888064.5225091        868219112.45919514        853053208.29544687     
   3263690425.0159283        773169639.89569783        951342781.78806186     
   3291214915.0212278        677193932.37179875        1051557898.7731878     
   3318461534.5384064        580291989.88749754        1153698559.2508245     
   2685615338.3283625        805684601.49850869        721989012.93003249     
   2722297627.8358450        736611944.89717853        829400340.11040878     
   2757817925.9952803        663665983.80235684        935722188.58705330     
   2792176232.8066673        586846718.21404314        1040954558.3599663     
   2825372548.2700071        506154148.13223755        1145097449.4291477     
   2201693493.6381111        660508048.09143329        696446878.36531460     
   2238363492.5394144        613901667.75223219        813874028.38938129     
   2272987379.2327437        560474913.38644946        927196677.51347387     
   2305565153.7180986        500227784.99408495        1036414825.7375925     
   2336096815.9954791        433160282.57513845        1141528473.0617371     
   1756042299.4702148        526812689.84106445        680062774.60118842     
   1784085658.6332190        500088281.02435619        806474273.13236392     
   1809198784.7283218        463596428.64797640        925766248.56732297     
   1831381677.7555230        417337132.71192491        1037938700.9060655     
   1850634337.7148225        361310393.21620119        1142991630.1485918     
   3815363774.8006773        655573807.84091961        1167331802.5267665     
   3797911553.8218937        537611861.55583942        1189015174.2711854     
   3784319529.9218478        432517238.86654866        1205796624.4456849     
   3774587703.1005373        340289939.77304542        1217676153.0502639     
   3768716073.3579645        260929964.27533054        1224653760.0849228     
   3318461534.5384064        580291989.88749754        1153698559.2508245     
   3293828906.8859811        473078229.79211843        1182050477.2908320     
   3272936978.2094593        378333466.28308356        1207300576.4926436     
   3255785748.5088401        296057699.36038959        1229448856.8562570     
   3242375217.7841239        226250929.02404046        1248495318.3816738     
   2825372548.2700071        506154148.13223755        1145097449.4291477     
   2798702664.6060052        411231519.42517889        1179978499.3114390     
   2775653981.8150721        328379560.29501760        1213557833.0872567     
   2756226499.8972087        257598270.74175525        1245835450.7565992     
   2740420218.8524146        198887650.76539004        1276811352.3194675     
   2336096815.9954791        433160282.57513845        1141528473.0617371     
   2312532826.9819651        352071730.45502031        1182799240.3330066     
   2292470540.7386870        282655520.90235317        1224568394.2295232     
   2275909957.2656436        224911653.91714019        1266835934.7512894     
   2262851076.5628376        178840129.49937892        1309601861.8983042     
   1850634337.7148225        361310393.21620119        1142991630.1485918     
   1835319394.0138614        295598862.88164181        1190512700.3555336     
   1823386654.9803023        241161348.10508853        1240332259.9194450     
   1814836120.6141462        197997848.88654530        1292450308.8403282     
   1809667790.9153910        166108365.22600716        1346866847.1181824     
   3768716073.3579645        260929964.27533054        1224653760.0849228     
   3661749518.8385653        168659624.89271855        1192371470.0517268     
   3562407237.7117367        101803530.15200722        1170595585.1004148     
   3470689229.9774814        60361680.053200245        1159326105.2309885     
   3386595495.6357946        44334074.596296906        1158563030.4434464     
   3242375217.7841239        226250929.02404046        1248495318.3816738     
   3164974889.8232460        152064029.10625255        1231490939.3120167     
   3093603187.8904743        97972549.282145262        1222550304.9443772     
   3028260111.9858065        63976489.551718354        1221673415.2787564     
   2968945662.1092420        50075849.914974809        1228860270.3151522     
   2740420218.8524146        198887650.76539004        1276811352.3194675     
   2685607087.7932978        140690481.41539884        1273223295.6214726     
   2635226935.3978167        97269907.610867620        1275256323.2456274     
   2589279761.6659727        68625929.351790428        1282910435.1919334     
   2547765566.5977683        54758546.638175964        1296185631.4603908     
   2262851076.5628376        178840129.49937892        1309601861.8983042     
   2223646112.7487154        134538981.82015622        1317568538.9800920     
   2187278480.2337642        99695605.138169885        1328713640.0041635     
   2153748179.0179839        74309999.453416944        1343037164.9705195     
   2123055209.1013725        58382164.765899777        1360539113.8791580     
   1809667790.9153910        166108365.22600716        1346866847.1181824     
   1779091964.6894999        133609530.32052016        1364526669.3878751     
   1749757822.3983152        105249641.86405230        1382922255.2199867     
   1721665364.0418324        81028699.856589913        1402053604.6145141     
   1694814589.6200552        60946704.298149765        1421920717.5714576     
   3386595495.6357946        44334074.596296906        1158563030.4434464     
   3294209315.5144739        37576492.295993209        1151847311.2269115     
   3201951229.1811233        31245889.288925886        1149233203.1511662     
   3109821236.6357527        25342265.575117230        1150720706.2162116     
   3017819337.8783479        19865621.154540300        1156309820.4220493     
   2968945662.1092420        50075849.914974809        1228860270.3151522     
   2886311780.5575714        39112442.128333330        1221421950.9569445     
   2804198544.1993165        29884518.319742441        1218354363.7006800     
   2722605953.0344739        22392078.489196062        1219657508.5463529     
   2641534007.0630484        16635122.636702180        1225331385.4939659     
   2547765566.5977683        54758546.638175964        1296185631.4603908     
   2475652900.6476045        39819988.474753857        1288482688.6001923     
   2404453431.2962971        27925418.974185348        1285419598.8030865     
   2334167158.5438471        19074838.136476159        1286996362.0690699     
   2264794082.3902516        13268245.961616158        1293212978.3981459     
   2123055209.1013725        58382164.765899777        1360539113.8791580     
   2062232675.7845726        39699131.335255027        1353029524.1566539     
   2002715890.4720709        25368591.252269387        1350428908.4583895     
   1944504853.1638682        15390544.516949177        1352737266.7843659     
   1887599563.8599634        9764991.1292839050        1359954599.1345823     
   1694814589.6200552        60946704.298149765        1421920717.5714576     
   1646051105.9684746        38749870.709835589        1415062457.6263273     
   1598985921.7266350        22214035.153989315        1413382292.6665881     
   1553619036.8945372        11339197.630613983        1416880222.6922371     
   1509950451.4721756        6125358.1396982670        1425556247.7032797     
   3017819337.8783479        19865621.154540300        1156309820.4220493     
   2922721832.7406425        14939121.684935570        1148798124.5999546     
   2828471284.4952226        12835811.856282353        1146128919.5016415     
   2735067693.1420927        13555691.668592453        1148302205.1271152     
   2642511058.6812487        17098761.121861100        1155317981.4763660     
   2641534007.0630484        16635122.636702180        1225331385.4939659     
   2558990377.8524733        12257426.125967503        1218473823.9555049     
   2477126607.3914618        10145925.447105885        1216303952.4928570     
   2395942695.6800027        10300620.600085855        1218821771.1060154     
   2315438642.7181039        12721511.584934831        1226027279.7949855     
   2264794082.3902516        13268245.961616158        1293212978.3981459     
   2194362041.5411792        9306666.1400710344        1286814603.3101344     
   2124442761.2989337        7054288.3412878513        1284949117.6499598     
   2055036241.6635170        6511112.5652625561        1287616521.4176240     
   1986142482.6349266        7677138.8119972944        1294816814.6131279     
   1887599563.8599634        9764991.1292839050        1359954599.1345823     
   1828836823.8067536        6086841.7272323370        1353820462.6638355     
   1770419746.2176454        3560900.5388458967        1352064414.9729545     
   1712348331.0926342        2187167.5641207695        1354686456.0619409     
   1654622578.4317238        1965642.8030579090        1361686585.9307926     
   1509950451.4721756        6125358.1396982670        1425556247.7032797     
   1462414724.6491992        2597952.8874524832        1419491402.0166130     
   1415057562.1475930       -334237.96022546291        1417649844.4618402     
   1367878963.9673541       -2671214.4033428431        1420031575.0389645     
   1320878930.1084843       -4412976.4418992996        1426636593.7479832     
   2642511058.6812487        17098761.121861100        1155317981.4763660     
   2541985141.1614594        19436447.162575841        1148801918.0881047     
   2441393850.1593676        21556221.595614910        1146763637.5118268     
   2340737185.6749659        23458084.420953751        1149203139.7475381     
   2240015147.7082672        25142035.638635755        1156120424.7952316     
   2315438642.7181039        12721511.584934831        1226027279.7949855     
   2226302120.3684249        13593821.427335501        1218770468.8521554     
   2137172218.1750574        14488198.457446575        1216135112.0431888     
   2048048936.1379910        15404642.675228477        1218121209.3680856     
   1958932274.2572336        16343154.080706835        1224728760.8268521     
   1986142482.6349266        7677138.8119972944        1294816814.6131279     
   1908805844.9464426        7207219.3034180403        1286903248.6941104     
   1831547821.0528786        6999345.7779045105        1283754808.2308338     
   1754368410.9542332        7053518.2354550362        1285371493.2232983     
   1677267614.6505096        7369736.6760706902        1291753303.6715117     
   1654622578.4317238        1965642.8030579090        1361686585.9307926     
   1589496314.8955164        276640.79081702232        1353200257.6139667     
   1524520658.7928369       -910336.44299656153        1349622726.0747650     
   1459695610.1236956       -1595288.8983522654        1350953991.3131812     
   1395021168.8880832       -1778216.5752793550        1357194053.3292236     
   1320878930.1084843       -4412976.4418992996        1426636593.7479832     
   1268373530.2156398       -7197914.1104723811        1417661495.6117272     
   1216090731.3949375       -9240848.2052425146        1413738865.5749788     
   1164030533.6463814       -10541778.726187766        1414868703.6377287     
   1112192936.9699657       -11100705.673330247        1421051009.7999802     
   2240015147.7082672        25142035.638635755        1156120424.7952316     
   2153803003.1372824        32866988.864794970        1151254648.6101129     
   2068769221.4923997        44519818.511306047        1151158695.0784357     
   1984913802.7736349        60100524.578203201        1155832564.2002058     
   1902236746.9809761        79609107.065452933        1165276255.9754069     
   1958932274.2572336        16343154.080706835        1224728760.8268521     
   1884462938.1881127        23029899.074266791        1220730094.5326838     
   1810879752.8492155        32670479.835247755        1221234121.7171013     
   1738182718.2405565        45264896.363687754        1226240842.3801150     
   1666371834.3621268        60813148.659557402        1235750256.5217214     
   1677267614.6505096        7369736.6760706902        1291753303.6715117     
   1613777860.8693914        12789305.572861552        1288280833.0397687     
   1550882045.6226280        20188669.584167898        1289043926.7117655     
   1488580168.9102204        29567828.709991574        1294042584.6875093     
   1426872230.7321668        40926782.950326979        1303276806.9669905     
   1395021168.8880832       -1778216.5752793550        1357194053.3292236     
   1341747771.1811211        2145208.3606024384        1353906864.1313779     
   1288776099.8126347        7074387.7580665946        1354588110.0624285     
   1236106154.7826231        13009321.617115378        1359237791.1223686     
   1183737936.0910933        19950009.937770128        1367855907.3112042     
   1112192936.9699657       -11100705.673330247        1421051009.7999802     
   1068372669.1233003       -8902392.5625352263        1417608187.8075116     
   1024561915.4192377       -6672365.6430574656        1417866671.7690861     
   980760675.85777164       -4410624.9149307013        1421826461.6847048     
   936968950.43890476       -2117170.3781347275        1429487557.5543704     
   1902236746.9809761        79609107.065452933        1165276255.9754069     
   1793768904.9197977        99444619.232615948        1162422403.5608399     
   1689439732.1701787        133075695.77164704        1165057844.6094463     
   1589249228.7321258        180502336.68255311        1173182579.1212275     
   1493197394.6056235        241724541.96531677        1186796607.0961812     
   1666371834.3621268        60813148.659557402        1235750256.5217214     
   1569504235.0729537        72790890.989114821        1234918455.2882545     
   1474352576.0361292        90488434.159833908        1239333955.7633722     
   1380916857.2516460        113905778.17168874        1248996757.9470654     
   1289197078.7195129        143042923.02472082        1263906861.8393650     
   1426872230.7321668        40926782.950326979        1303276806.9669905     
   1340913469.2018957        44839333.938350916        1301640539.6788688     
   1254247918.8647573        46395922.236817777        1305009582.3447433     
   1166875579.7207515        45596547.845716536        1313383934.9646237     
   1078796451.7698762        42441210.765067041        1326763597.5385015     
   1183737936.0910933        19950009.937770128        1367855907.3112042     
   1107996607.3066227        15589948.080328465        1362588656.7326772     
   1029125760.6560662        798160.00260561705        1362084724.3535676     
   947125396.13943112       -24425354.295381725        1366344110.1738656     
   861995513.75671530       -60080594.813644111        1375366814.1935840     
   936968950.43890476       -2117170.3781347275        1429487557.5543704     
   870753649.38712859       -14957266.584973633        1417762806.4496922     
   798986101.41005683       -46304852.542795330        1410559381.7898395     
   721666306.50768292       -96159928.251630038        1407877283.5748098     
   638794264.68002319       -164522493.71141452        1409716511.8046186     
   1756042299.4702148        526812689.84106445        680062774.60118842     
   1784085658.6332190        500088281.02435619        806474273.13236392     
   1809198784.7283218        463596428.64797640        925766248.56732297     
   1831381677.7555230        417337132.71192491        1037938700.9060655     
   1850634337.7148225        361310393.21620119        1142991630.1485918     
   1326404629.2916942        397921388.78750825        669733329.32679784     
   1339610108.4905636        375530923.53929967        791881215.76341569     
   1350618517.3639405        345816890.53944868        908734730.65418422     
   1359429855.9118247        308779289.78795540        1020293873.9991045     
   1366044124.1342161        264418121.28481972        1126558645.7981758     
   890523356.56956935        267157006.97087082        662355170.23128676     
   894105674.51963997        250664900.90576261        781094801.10615695     
   896224084.88662648        229293102.89704138        896365211.98554599     
   896878587.67052948        203041612.94470716        1008166402.8694539     
   896069182.87134790        171910431.04875976        1116498373.7578804     
   448398481.30384034        134519544.39115211        657928297.31465518     
   447572356.72044784        125490213.12374492        774115029.16058838     
   446015487.29638004        114025065.72075415        888657692.56140780     
   443727873.03163731        100124102.18217963        1001556287.5171137     
   440709513.92621964        83787322.508021936        1112810814.0277057     
   30003.494507161009        9001.0483521483038        656452710.57690299     
   10155.092987254511        6860.1932468277446        770941899.92670941     
  -7275.4067989015712        12779.010587211798        885612172.38176954     
  -22288.004851262918        26757.500373469891        1000463527.9420835     
  -34882.701170025401        48795.662605231009        1115495966.6076517     
   1850634337.7148225        361310393.21620119        1142991630.1485918     
   1835319394.0138614        295598862.88164181        1190512700.3555336     
   1823386654.9803023        241161348.10508853        1240332259.9194450     
   1814836120.6141462        197997848.88654530        1292450308.8403282     
   1809667790.9153910        166108365.22600716        1346866847.1181824     
   1366044124.1342161        264418121.28481972        1126558645.7981758     
   1360392127.1317437        216890298.00284955        1181966941.1044419     
   1357275590.4252856        177814009.04092729        1238313542.8865924     
   1356694514.0148420        147189254.39905214        1295598451.1446278     
   1358648897.9004128        125016034.07722527        1353821665.8785472     
   896069182.87134790        171910431.04875976        1116498373.7578804     
   896193895.76426017        141400443.77844724        1178806025.7301855     
   898007324.58179855        116519509.59022200        1240691801.2972891     
   901509469.32396412        97267628.484086365        1302155700.4591906     
   906700329.99075532        83644800.460038811        1363197723.2158897     
   440709513.92621964        83787322.508021936        1112810814.0277057     
   442724699.91141164        69129300.208435372        1181029954.2327645     
   445581857.44984215        57277849.752977297        1247467035.1515350     
   449280986.54151189        48232971.141648591        1312122056.7840166     
   453822087.18642002        41994664.374448955        1374995019.1302097     
  -34882.701170025401        48795.662605231009        1115495966.6076517     
  -15460.426802192982        76867.292814029090        1188638726.6121781     
  -810.97058369411025        89029.529191585229        1258639244.4493296     
   9065.6674856874524        85282.371738728660        1325497520.1191065     
   14169.487406112192        65625.820456362970        1389213553.6215067     
   1809667790.9153910        166108365.22600716        1346866847.1181824     
   1779091964.6894999        133609530.32052016        1364526669.3878751     
   1749757822.3983152        105249641.86405230        1382922255.2199867     
   1721665364.0418324        81028699.856589913        1402053604.6145141     
   1694814589.6200552        60946704.298149765        1421920717.5714576     
   1358648897.9004128        125016034.07722527        1353821665.8785472     
   1332994744.8115067        99831804.910460591        1372742113.8270919     
   1308280880.1611414        77781870.538829744        1393024714.6865811     
   1284507303.9493139        58866230.962327063        1414669468.4570134     
   1261674016.1760268        43084886.180956602        1437676375.1383891     
   906700329.99075532        83644800.460038811        1363197723.2158897     
   887757533.89176846        66312082.187876046        1383027168.7644272     
   869453630.73515701        51109007.056963295        1404845156.5724349     
   851788620.52091980        38035575.067298263        1428651686.6399136     
   834762503.24905694        27091786.218883842        1454446758.9668624     
   453822087.18642002        41994664.374448955        1374995019.1302097     
   443380331.93028533        33050362.152766243        1395381834.1998811     
   433276074.12036186        25231051.418453604        1418383580.8775499     
   423509313.75664878        18536732.171508908        1444000259.1632166     
   414080050.83914453        12967404.411926925        1472231869.0568802     
   14169.487406112192        65625.820456362970        1389213553.6215067     
  -136861.07294122773        46644.805136535499        1409806110.1334538     
  -251789.68324337469        148003.62330103142        1433639987.6019251     
  -330616.34349889331        369702.27495428850        1460715186.0269201     
  -373341.05371012259        711740.76008816320        1491031705.4084401     
   1694814589.6200552        60946704.298149765        1421920717.5714576     
   1646051105.9684746        38749870.709835589        1415062457.6263273     
   1598985921.7266350        22214035.153989315        1413382292.6665881     
   1553619036.8945372        11339197.630613983        1416880222.6922371     
   1509950451.4721756        6125358.1396982670        1425556247.7032797     
   1261674016.1760268        43084886.180956602        1437676375.1383891     
   1227533989.0716174        27259853.908937812        1434439383.8634360     
   1194661366.4794495        15659503.344388902        1435802694.6433110     
   1163056148.3995223        8283834.4873082042        1441766307.4780116     
   1132718334.8318379        5132847.3377062082        1452330222.3675401     
   834762503.24905694        27091786.218883842        1454446758.9668624     
   813595095.74734926        17143304.179812074        1454328325.6483409     
   793264197.86038566        9983187.5232199430        1458232401.4540813     
   773769809.58816576        5611436.2491056621        1466158986.3840859     
   755111930.93068933        4028050.3574725688        1478108080.4383550     
   414080050.83914453        12967404.411926925        1472231869.0568802     
   404234425.99567193        8400221.5224650353        1474729282.9810400     
   394794415.86944520        5185087.6904889047        1480671413.0989003     
   385760020.46046335        3322002.9159948677        1490058259.4104605     
   377131239.76872915        2810967.1989937723        1502889821.9157188     
  -373341.05371012259        711740.76008816320        1491031705.4084401     
  -548020.18341383967        1030605.9368988043        1495642255.8615341     
  -747979.49337106850        1265203.8461973930        1503119729.5777655     
  -973218.98358158604        1415534.4879851928        1513464126.5571325     
  -1223738.6540425385        1481597.8622715431        1526675446.7996347     
   1509950451.4721756        6125358.1396982670        1425556247.7032797     
   1462414724.6491992        2597952.8874524832        1419491402.0166130     
   1415057562.1475930       -334237.96022546291        1417649844.4618402     
   1367878963.9673541       -2671214.4033428431        1420031575.0389645     
   1320878930.1084843       -4412976.4418992996        1426636593.7479832     
   1132718334.8318379        5132847.3377062082        1452330222.3675401     
   1096568328.3506241        2355971.4083038568        1446382981.4755199     
   1060547248.6281065        8851.3412221670151        1444797499.7938430     
   1024655095.6642874       -1908512.8635307550        1447573777.3225119     
   988891869.45916390       -3396121.2059660554        1454711814.0615196     
   755111930.93068933        4028050.3574725688        1478108080.4383550     
   730743276.44394839        2120393.2467245758        1472220533.8511949     
   706453911.15323126        477033.45605641603        1470833217.5528281     
   682243835.05854023       -902029.01452454925        1473946131.5432532     
   658113048.15987360       -2016794.1650255919        1481559275.8224730     
   377131239.76872915        2810967.1989937723        1502889821.9157188     
   364939568.92917073        1891218.4027116895        1497004059.1436374     
   352777549.72296745        1070308.3842791617        1495756997.7387958     
   340645182.15011340        348237.14367693663        1499148637.7011962     
   328542466.21061206       -274995.31908056140        1507178979.0308363     
  -1223738.6540425385        1481597.8622715431        1526675446.7996347     
  -842794.19370548648        1668446.8762750174        1520733557.3528454     
  -481835.66269035952        1788676.1258724211        1519568840.3517458     
  -140863.06099222810        1842285.6110794935        1523181295.7963364     
   180123.61138418410        1829275.3318811820        1531570923.6866124     
   1320878930.1084843       -4412976.4418992996        1426636593.7479832     
   1268373530.2156398       -7197914.1104723811        1417661495.6117272     
   1216090731.3949375       -9240848.2052425146        1413738865.5749788     
   1164030533.6463814       -10541778.726187766        1414868703.6377287     
   1112192936.9699657       -11100705.673330247        1421051009.7999802     
   988891869.45916390       -3396121.2059660554        1454711814.0615196     
   949682841.01018977       -5427729.7683631182        1446377203.0882478     
   910667791.59582055       -6812741.5487431884        1443044256.8708725     
   871846721.21606362       -7551156.5470821857        1444712975.4093935     
   833219629.87091899       -7642974.7633808255        1451383358.7038064     
   658113048.15987360       -2016794.1650255919        1481559275.8224730     
   632055238.74446273       -3338619.3443469405        1473831759.6350582     
   606162786.32612836       -4109254.5334126949        1471055104.8599343     
   580435690.90487123       -4328699.7322222590        1473229311.4971011     
   554873952.48069036       -3996954.9407760203        1480354379.5465541     
   328542466.21061206       -274995.31908056140        1507178979.0308363     
   315490723.41846555       -930582.83840349317        1500025165.2521591     
   302575715.58585900       -1130387.1592588723        1497771409.5421638     
   289797442.71279699       -874408.28163023293        1500417711.9008527     
   277155904.79927605       -162646.20553526282        1507964072.3282232     
   180123.61138418410        1829275.3318811820        1531570923.6866124     
  -10704.967807113426        1796379.7494506519        1524957419.9395504     
  -93420.624985805829        2123860.5737281116        1523193170.9175625     
  -68023.360159613658        2811717.8046893878        1526278176.6206515     
   65486.826679984573        3859951.4423609753        1534212437.0488162     
   1112192936.9699657       -11100705.673330247        1421051009.7999802     
   1068372669.1233003       -8902392.5625352263        1417608187.8075116     
   1024561915.4192377       -6672365.6430574656        1417866671.7690861     
   980760675.85777164       -4410624.9149307013        1421826461.6847048     
   936968950.43890476       -2117170.3781347275        1429487557.5543704     
   833219629.87091899       -7642974.7633808255        1451383358.7038064     
   799122725.11175966       -6253604.0352318287        1448231365.3930936     
   764912368.55006754       -5242405.9821903110        1449044255.2070289     
   730588560.18583381       -4609380.6042843461        1453822028.1456118     
   696151300.01907754       -4354527.9014620185        1462564684.2088408     
   554873952.48069036       -3996954.9407760203        1480354379.5465541     
   531253488.43932045       -3190603.3062162399        1477349754.6482804     
   507396606.65029079       -3172310.8305242956        1478573590.0452554     
   483303307.11359274       -3942077.5137254596        1484025885.7374806     
   458973589.82923430       -5499903.3557941914        1493706641.7249553     
   277155904.79927605       -162646.20553526282        1507964072.3282232     
   264764959.10599315        286609.62453871965        1504963355.5730689     
   252014629.71991715       -462080.18803109229        1506454676.2837644     
   238904916.64104083       -2408715.6432682127        1512438034.4603157     
   225435819.86937717       -5553296.7411305308        1522913430.1027162     
   65486.826679984573        3859951.4423609753        1534212437.0488162     
  -342862.88822576939        4178034.7570295306        1531072168.1674595     
  -1233562.2410547470        2888285.9452859531        1532687513.9225588     
  -2606611.2318146117       -9294.9928928742884        1539058474.3141093     
  -4462009.8604951836       -4514708.0574747538        1550185049.3421185     
   936968950.43890476       -2117170.3781347275        1429487557.5543704     
   870753649.38712859       -14957266.584973633        1417762806.4496922     
   798986101.41005683       -46304852.542795330        1410559381.7898395     
   721666306.50768292       -96159928.251630038        1407877283.5748098     
   638794264.68002319       -164522493.71141452        1409716511.8046186     
   696151300.01907754       -4354527.9014620185        1462564684.2088408     
   643632747.67525101       -13814021.532063633        1447647881.8880031     
   588399102.94913816       -32323823.103621781        1437965574.6108618     
   530450365.84074277       -59883932.616123110        1433517762.3774149     
   469786536.35007536       -96494350.069530815        1434304445.1876566     
   458973589.82923430       -5499903.3557941914        1493706641.7249553     
   422189410.76154602       -10967507.039718509        1478907801.8214750     
   385527293.85459334       -16028236.854525983        1470056625.5605581     
   348987239.10837114       -20682092.800232321        1467153112.9421997     
   312569246.52288240       -24929074.876827389        1470197263.9664099     
   225435819.86937717       -5553296.7411305308        1522913430.1027162     
   206423638.64602119       -6417723.1079143733        1511542566.2501092     
   190370674.12641686        2581906.2044752538        1506832534.6389360     
   177276926.31055665        21445591.196012318        1508783335.2691934     
   167142395.19844240        50173331.866701968        1517394968.1408739     
  -4462009.8604951836       -4514708.0574747538        1550185049.3421185     
  -3664568.6713242419       -164669.73664971080        1545552175.1739028     
   2929243.7646128181        23506606.073395729        1548293301.8459876     
   15319427.447306573        66499119.372629806        1558408429.3583665     
   33505982.376761049        128812870.16106558        1575897557.7110453     
   30003.494507161009        9001.0483521483038        656452710.57690299     
   10155.092987254511        6860.1932468277446        770941899.92670941     
  -7275.4067989015712        12779.010587211798        885612172.38176954     
  -22288.004851262918        26757.500373469891        1000463527.9420835     
  -34882.701170025401        48795.662605231009        1115495966.6076517     
  -448341603.37064421       -134502481.01119328        657928638.09559047     
  -447552322.21098459       -125477796.10768078        774119035.25955677     
  -446029047.22308666       -114006465.11004075        888667643.03641856     
  -443771778.40695024       -100088488.01827325        1001574461.4261763     
  -440780515.76257551       -83723864.832377061        1112839490.4288292     
  -890475865.80382776       -267142759.74114832        662356307.94827724     
  -894085662.20401216       -250653711.21532536        781101418.17399216     
  -896229888.84945369       -229279430.17369276        896381866.52024460     
  -896908545.74015224       -203019916.61625051        1008197652.9870341     
  -896121632.87610817       -171875170.54299867        1116548777.5743608     
  -1326372783.8050432       -397911835.14151299        669735720.13496351     
  -1339589864.8860958       -375520885.12968659        791889048.67001569     
  -1350609800.2859006       -345806116.18036860        908754842.83324742     
  -1359432590.0044572       -308767528.29355896        1020333102.6246578     
  -1366058234.0417669       -264405121.46925724        1126623828.0442469     
  -1756032357.3742914       -526809707.21228743        680066874.65564907     
  -1784064930.2572346       -500079317.85076451        806481926.74762738     
  -1809168781.5324259       -463586523.13006812        925786571.97542667     
  -1831343911.1998653       -417331323.05019814        1037980810.3390466     
  -1850590319.2595522       -361313717.61115462        1143064641.8384871     
  -34882.701170025401        48795.662605231009        1115495966.6076517     
  -15460.426802192982        76867.292814029090        1188638726.6121781     
  -810.97058369411025        89029.529191585229        1258639244.4493296     
   9065.6674856874524        85282.371738728660        1325497520.1191065     
   14169.487406112192        65625.820456362970        1389213553.6215067     
  -440780515.76257551       -83723864.832377061        1112839490.4288292     
  -442763138.98380941       -69025638.683265090        1181055386.3073351     
  -445594633.79840273       -57156984.512017876        1247488069.0830064     
  -449275000.20635533       -48117902.318635240        1312137538.7558436     
  -453804238.20766759       -41908392.103117362        1375003795.3258450     
  -896121632.87610817       -171875170.54299867        1116548777.5743608     
  -896223361.40854144       -141341907.81966087        1178853027.4224343     
  -898018060.30954492       -116451879.65822259        1240733093.2322133     
  -901505729.57911837       -97205086.058685392        1302188975.0036981     
  -906686369.21726167       -83601527.021047264        1363220672.7368889     
  -1366058234.0417669       -264405121.46925724        1126623828.0442469     
  -1360396127.7009985       -216871940.11637419        1182031649.9574754     
  -1357271090.5040104       -177795655.90942597        1238374316.8969498     
  -1356683122.4508028       -147176268.84841138        1295651828.8626709     
  -1358632223.5413759       -125013778.93333226        1353864185.8546379     
  -1850590319.2595522       -361313717.61115462        1143064641.8384871     
  -1835281437.8611808       -295615735.57340568        1190591253.9124582     
  -1823353724.3818002       -241188313.26562524        1240411740.0772159     
  -1814807178.8214102       -198031450.68781579        1292526100.3327608     
  -1809641801.1800110       -166145147.83997500        1346934334.6790926     
   14169.487406112192        65625.820456362970        1389213553.6215067     
  -136861.07294122773        46644.805136535499        1409806110.1334538     
  -251789.68324337469        148003.62330103142        1433639987.6019251     
  -330616.34349889331        369702.27495428850        1460715186.0269201     
  -373341.05371012259        711740.76008816320        1491031705.4084401     
  -453804238.20766759       -41908392.103117362        1375003795.3258450     
  -443644637.65579993       -33021080.701413423        1395471998.0602255     
  -433776066.85986948       -25103868.486167476        1418574836.2897038     
  -424198525.81987697       -18156755.457379535        1444312310.0142787     
  -414912014.53582191       -12179741.615051717        1472684419.2339513     
  -906686369.21726167       -83601527.021047264        1363220672.7368889     
  -887949524.58582759       -66327939.312112361        1383182868.0367239     
  -869830841.41631448       -51114889.809580952        1405173013.3702276     
  -852330319.70872176       -37962378.513450027        1429191108.7374020     
  -835447959.46305037       -26870405.423723638        1455237154.1382451     
  -1358632223.5413759       -125013778.93333226        1353864185.8546379     
  -1333051521.8630250       -99873931.026963413        1372938720.0629461     
  -1308416113.3525777       -77885060.346939802        1393434518.8434958     
  -1284725998.0100346       -59047166.893262684        1415351582.1962895     
  -1261981175.8353946       -43360250.665930986        1438689910.1213248     
  -1809641801.1800110       -166145147.83997500        1346934334.6790926     
  -1778950629.4873922       -133659055.84596419        1364739554.1388934     
  -1749531882.6686609       -105414380.09824616        1383359352.7095096     
  -1721385560.7238157       -81411120.596815407        1402793730.3909414     
  -1694511663.6528575       -61649277.341675639        1423042687.1831892     
  -373341.05371012259        711740.76008816320        1491031705.4084401     
  -548020.18341383967        1030605.9368988043        1495642255.8615341     
  -747979.49337106850        1265203.8461973930        1503119729.5777655     
  -973218.98358158604        1415534.4879851928        1513464126.5571325     
  -1223738.6540425385        1481597.8622715431        1526675446.7996347     
  -414912014.53582191       -12179741.615051717        1472684419.2339513     
  -405441841.54428899       -7305149.0326247215        1475222719.7452435     
  -396443838.64658391       -4004456.7629572004        1481261892.3007481     
  -387918005.84270889       -2277664.8060564697        1490801936.9004641     
  -379864343.13266277       -2124773.1619188339        1503842853.5443919     
  -835447959.46305037       -26870405.423723638        1455237154.1382451     
  -814521652.11863613       -16896700.766181529        1455181833.1418989     
  -794514404.78162837       -9986529.4666595161        1459261332.9708388     
  -775426217.45202601       -6139891.5251566768        1467475653.6250644     
  -757257090.12982845       -5356786.9416686893        1479824795.1045766     
  -1261981175.8353946       -43360250.665930986        1438689910.1213248     
  -1227787451.9064593       -27744049.263785303        1435519596.0514991     
  -1194959677.8985054       -16681014.264914155        1437118051.5880353     
  -1163497853.8115320       -10171145.669310272        1443485276.7309301     
  -1133401979.6455417       -8214443.4769824147        1454621271.4801872     
  -1694511663.6528575       -61649277.341675639        1423042687.1831892     
  -1645239240.9077563       -39847194.525429487        1416236008.4740450     
  -1597779657.9972138       -24087911.157715321        1414832048.1523373     
  -1552132914.9212298       -14371427.238527417        1418830806.2180636     
  -1508299011.6798027       -10697742.767863750        1428232282.6712282     
  -1223738.6540425385        1481597.8622715431        1526675446.7996347     
  -842794.19370548648        1668446.8762750174        1520733557.3528454     
  -481835.66269035952        1788676.1258724211        1519568840.3517458     
  -140863.06099222810        1842285.6110794935        1523181295.7963364     
   180123.61138418410        1829275.3318811820        1531570923.6866124     
  -379864343.13266277       -2124773.1619188339        1503842853.5443919     
  -367112971.15402710       -1308422.5689684153        1498222670.9482501     
  -354381200.83876836       -557410.85393904150        1497195759.7868912     
  -341669032.18688595        128261.98316891491        1500762120.0603168     
  -328976465.19838214        748595.94234833121        1508921751.7685230     
  -757257090.12982845       -5356786.9416686893        1479824795.1045766     
  -732660722.09262681       -4068564.2076848745        1474526767.6693492     
  -708083571.45286000       -2844399.4651531279        1473638110.6579995     
  -683525638.21052647       -1684292.7140657306        1477158824.0705259     
  -658986922.36562800       -588243.95442673564        1485088907.9069278     
  -1133401979.6455417       -8214443.4769824147        1454621271.4801872     
  -1097486047.0095086       -6611978.0398945212        1449645847.5161438     
  -1061588947.5049660       -5072289.7077739239        1448895892.9650683     
  -1025710681.1319138       -3595378.4806193709        1452371407.8269615     
  -989851247.89035320       -2181244.3584397435        1460072392.1018269     
  -1508299011.6798027       -10697742.767863750        1428232282.6712282     
  -1461588945.9046693       -8938664.0655803084        1423579910.4886324     
  -1414897328.9950857       -7241081.5817967653        1422969106.7080984     
  -1368224160.9510493       -5604995.3165044188        1426399871.3296297     
  -1321569441.7725613       -4030405.2697076797        1433872204.3532205     
   180123.61138418410        1829275.3318811820        1531570923.6866124     
  -10704.967807113426        1796379.7494506519        1524957419.9395504     
  -93420.624985805829        2123860.5737281116        1523193170.9175625     
  -68023.360159613658        2811717.8046893878        1526278176.6206515     
   65486.826679984573        3859951.4423609753        1534212437.0488162     
  -328976465.19838214        748595.94234833121        1508921751.7685230     
  -316297965.14530021        1285207.0581282079        1502088091.0307014     
  -303652282.83286738        1712425.7050792128        1500173234.5084240     
  -291039418.26108497        2030251.8831934035        1503177182.2016969     
  -278459371.42994946        2238685.5924876630        1511099934.1105127     
  -658986922.36562800       -588243.95442673564        1485088907.9069278     
  -633240380.85036254        577487.70853337646        1477870671.0719137     
  -607667587.73840511        1164058.0271338522        1475640787.9429169     
  -582268543.02975464        1171467.0013775527        1478399258.5199344     
  -557043246.72441185        599714.63126277924        1486146082.8029656     
  -989851247.89035320       -2181244.3584397435        1460072392.1018269     
  -950837952.08299243       -326778.29932761192        1452305160.0631883     
  -912139335.34160161        478757.53988569975        1449595831.2210345     
  -873755397.66616988        235363.15923297405        1451944405.5753639     
  -835686139.05670500       -1056961.4413055182        1459350883.1261792     
  -1321569441.7725613       -4030405.2697076797        1433872204.3532205     
  -1269090678.8431921       -1427590.9654661417        1425391558.0045238     
  -1217067525.6424506       -343475.75664651394        1422038364.3427777     
  -1165499982.1703300       -778059.64323127270        1423812623.3679855     
  -1114388048.4268341       -2731342.6252345443        1430714335.0801504     
   65486.826679984573        3859951.4423609753        1534212437.0488162     
  -342862.88822576939        4178034.7570295306        1531072168.1674595     
  -1233562.2410547470        2888285.9452859531        1532687513.9225588     
  -2606611.2318146117       -9294.9928928742884        1539058474.3141093     
  -4462009.8604951836       -4514708.0574747538        1550185049.3421185     
  -278459371.42994946        2238685.5924876630        1511099934.1105127     
  -267009584.47396892        1657350.7057054341        1507412425.9577646     
  -255824138.43680972        194879.42285354435        1508298504.8080389     
  -244903033.31847030       -2148728.2560648620        1513758170.6613371     
  -234246269.11895010       -5373472.3310460746        1523791423.5176563     
  -557043246.72441185        599714.63126277924        1486146082.8029656     
  -534255402.05020750       -1037062.1427689195        1482165678.8844485     
  -511513889.57571828       -2828279.5825216174        1482576834.3355241     
  -488818709.30094236       -4773937.6879817545        1487379549.1561902     
  -466169861.22588134       -6874036.4591586292        1496573823.3464491     
  -835686139.05670500       -1056961.4413055182        1459350883.1261792     
  -802080315.61693847       -3905203.7883901894        1455331926.9475164     
  -768302815.65778112       -6181191.0708380342        1455522502.5050144     
  -734353639.17923081       -7884923.2886435688        1459922609.7986722     
  -700232786.18129265       -9016400.4418227077        1468532248.8284895     
  -1114388048.4268341       -2731342.6252345443        1430714335.0801504     
  -1070484325.1741656       -6947074.2311620116        1426911170.1469636     
  -1026190916.6830026       -9863855.0421128869        1427135509.3165097     
  -981507822.95333576       -11481685.058049679        1431387352.5887856     
  -936435043.98517656       -11800564.279011905        1439666699.9637876     
  -4462009.8604951836       -4514708.0574747538        1550185049.3421185     
  -3664568.6713242419       -164669.73664971080        1545552175.1739028     
   2929243.7646128181        23506606.073395729        1548293301.8459876     
   15319427.447306573        66499119.372629806        1558408429.3583665     
   33505982.376761049        128812870.16106558        1575897557.7110453     
  -234246269.11895010       -5373472.3310460746        1523791423.5176563     
  -215309499.06542125       -1585756.1998001337        1523354460.5079737     
  -193122591.31281987        13035752.261684559        1529626593.2127881     
  -167685545.86115831        38491053.053374521        1542607821.6320968     
  -138998362.71042728        74780146.175286859        1562298145.7659066     
  -466169861.22588134       -6874036.4591586292        1496573823.3464491     
  -430993491.23884809       -4218561.1967328191        1497362165.6896520     
  -395113217.10044473        783261.23692533374        1504194698.6215501     
  -358529038.81067216        8131430.8418144137        1517071422.1421449     
  -321240956.36953044        17825947.617940366        1535992336.2514362     
  -700232786.18129265       -9016400.4418227077        1468532248.8284895     
  -650716545.19161475       -8063084.7274791598        1467575290.7189367     
  -603042633.59826434       -13250867.000897169        1471997618.0722783     
  -557211051.40123570       -24579747.262055516        1481799230.8885181     
  -513221798.60054022       -42049725.510984764        1496980129.1676497     
  -936435043.98517656       -11800564.279011905        1439666699.9637876     
  -874478660.92371464       -13119326.792018831        1433993835.5958290     
  -816910840.80627871       -29066632.451777190        1433035351.5649662     
  -763731583.63286304       -59642481.258264393        1436791247.8711965     
  -714940889.40346062       -104846873.21147642        1445261524.5145285     
  -1756032357.3742914       -526809707.21228743        680066874.65564907     
  -1784064930.2572346       -500079317.85076451        806481926.74762738     
  -1809168781.5324259       -463586523.13006812        925786571.97542667     
  -1831343911.1998653       -417331323.05019814        1037980810.3390466     
  -1850590319.2595522       -361313717.61115462        1143064641.8384871     
  -2201703579.3843780       -660511073.81531334        696453688.81284511     
  -2238341467.4368029       -613889579.65973413        813883670.06791687     
  -2272935601.3737097       -560455571.78576052        927214330.02740014     
  -2305485981.1950979       -500209050.19339263        1036445668.6912947     
  -2335992606.9009676       -433150014.88263035        1141577686.0596001     
  -2685635442.7081103       -805690632.81243312        722000079.90906227     
  -2722275544.3054724       -736597103.37543440        829412528.25295496     
  -2757756859.2795510       -663640951.86082077        935736740.86984956     
  -2792079387.6303439       -586822178.26859152        1040972717.7597455     
  -2825243129.3578525       -506140782.59874701        1145120458.9226434     
  -3207827947.3454890       -962348384.20364666        756706047.94430077     
  -3235867160.8632445       -868201888.99786520        853068501.30274177     
  -3263632555.2499495       -773142663.35524774        951353804.50277483     
  -3291124130.5056038       -677170707.27579427        1051561957.5443997     
  -3318341886.6302071       -580286020.75950456        1153692960.4276168     
  -3768281093.2965136       -1130484327.9889541        800571592.91856050     
  -3779116317.1101184       -1008703936.5270267        884851589.21727693     
  -3790562689.2849064       -888960706.26904202        974065520.92617571     
  -3802620209.8208761       -771254637.21500111        1068213388.0452571     
  -3815288878.7180295       -655585729.36490262        1167295190.5745211     
  -1850590319.2595522       -361313717.61115462        1143064641.8384871     
  -1835281437.8611808       -295615735.57340568        1190591253.9124582     
  -1823353724.3818002       -241188313.26562524        1240411740.0772159     
  -1814807178.8214102       -198031450.68781579        1292526100.3327608     
  -1809641801.1800110       -166145147.83997500        1346934334.6790926     
  -2335992606.9009676       -433150014.88263035        1141577686.0596001     
  -2312448620.0920057       -352079313.48936981        1182845070.1315925     
  -2292401256.1932545       -282664021.79681253        1224605725.9619803     
  -2275850515.2047172       -224904139.80496198        1266859653.5507631     
  -2262796397.1263890       -178799667.51381290        1309606852.8979406     
  -2825243129.3578525       -506140782.59874701        1145120458.9226434     
  -2798608615.2308483       -411240735.27773881        1179993917.5029006     
  -2775586179.0052772       -328380947.62817013        1213560045.5091610     
  -2756175820.6811376       -257561419.65004110        1245818842.9414241     
  -2740377540.2584300       -198782151.34335089        1276770309.7996907     
  -3318341886.6302071       -580286020.75950456        1153692960.4276168     
  -3293761423.2777095       -473100000.93851364        1182037796.0263813     
  -3272908492.8178663       -378339090.75969875        1207274698.7187569     
  -3255783095.2506742       -296003290.22305536        1229403668.5047438     
  -3242385230.5761337       -226092599.32858670        1248424705.3843417     
  -3815288878.7180295       -655585729.36490262        1167295190.5745211     
  -3797907044.2325892       -537657110.47169375        1188976705.7020354     
  -3784368197.6310210       -432538451.19139528        1205749685.5907695     
  -3774672338.9133253       -340229751.52400494        1217614130.2407229     
  -3768819468.0795012       -260731011.46952343        1224570039.6518941     
  -1809641801.1800110       -166145147.83997500        1346934334.6790926     
  -1778950629.4873922       -133659055.84596419        1364739554.1388934     
  -1749531882.6686609       -105414380.09824616        1383359352.7095096     
  -1721385560.7238157       -81411120.596815407        1402793730.3909414     
  -1694511663.6528575       -61649277.341675639        1423042687.1831892     
  -2262796397.1263890       -178799667.51381290        1309606852.8979406     
  -2223293316.6015759       -134425923.82648718        1317645725.9658630     
  -2186666415.8068371       -99639445.906077147        1328905107.0954311     
  -2152915694.7421761       -74440233.752589226        1343384996.2866445     
  -2122041153.4075902       -58828287.366020441        1361085393.5395033     
  -2740377540.2584300       -198782151.34335089        1276770309.7996907     
  -2685188468.1847653       -140458531.14771235        1273171789.1435144     
  -2634479330.6973653       -97068026.239620328        1275199705.4998136     
  -2588250127.7962284       -68610636.619072556        1282854058.8685884     
  -2546500859.4813576       -55086362.286075711        1296134849.2498381     
  -3242385230.5761337       -226092599.32858670        1248424705.3843417     
  -3164636084.2369614       -151756877.80963743        1231317743.6718471     
  -3092970627.3402424       -97700121.098866105        1222243147.9226580     
  -3027388859.8859754       -63922329.196267247        1221200918.1367738     
  -2967890781.8741608       -50423502.101841807        1228191054.3141966     
  -3768819468.0795012       -260731011.46952343        1224570039.6518941     
  -3661636164.7581644       -168320963.81226802        1192083589.5508611     
  -3562140305.7354689       -101535730.48381448        1170035434.3639643     
  -3470331891.0114131       -60375311.484161854        1158425574.0912013     
  -3386210920.5859995       -44839706.813320160        1157254008.7325745     
  -1694511663.6528575       -61649277.341675639        1423042687.1831892     
  -1645239240.9077563       -39847194.525429487        1416236008.4740450     
  -1597779657.9972138       -24087911.157715321        1414832048.1523373     
  -1552132914.9212298       -14371427.238527417        1418830806.2180636     
  -1508299011.6798027       -10697742.767863750        1428232282.6712282     
  -2122041153.4075902       -58828287.366020441        1361085393.5395033     
  -2060256955.6531131       -40258810.104470015        1353326929.5003624     
  -1999760555.7845979       -25981992.462790728        1350536175.2859268     
  -1940551953.8020444       -15997834.440983534        1352713130.8961966     
  -1882631149.7054529       -10306336.039050460        1359857796.3311729     
  -2546500859.4813576       -55086362.286075711        1296134849.2498381     
  -2473447768.3253055       -40122355.061559200        1288037148.8207297     
  -2401157433.1066203       -27700867.628260851        1284472149.6535959     
  -2329629853.8252983       -17821899.986178160        1285439851.7484384     
  -2258865030.4813418       -10485452.135311127        1290940255.1052549     
  -2967890781.8741608       -50423502.101841807        1228191054.3141966     
  -2884811678.9243336       -39437829.396697760        1220366666.4351480     
  -2801970289.9632764       -29244536.654117823        1216639971.2553461     
  -2719366614.9909887       -19843623.874101996        1217010968.7747889     
  -2637000654.0074663       -11235091.056642890        1221479658.9934759     
  -3386210920.5859995       -44839706.813320160        1157254008.7325745     
  -3294348687.4501982       -38205233.109890580        1150315482.3436174     
  -3202199126.3545704       -30612999.540368795        1147039640.0911748     
  -3109762237.2991157       -22063006.104756713        1147426481.9752495     
  -3017038020.2838283       -12555252.803044438        1151476007.9958363     
  -1508299011.6798027       -10697742.767863750        1428232282.6712282     
  -1461588945.9046693       -8938664.0655803084        1423579910.4886324     
  -1414897328.9950857       -7241081.5817967653        1422969106.7080984     
  -1368224160.9510493       -5604995.3165044188        1426399871.3296297     
  -1321569441.7725613       -4030405.2697076797        1433872204.3532205     
  -1882631149.7054529       -10306336.039050460        1359857796.3311729     
  -1824610139.8323395       -7016210.7441872358        1354477236.0253930     
  -1766904475.9238343       -4777238.6646852493        1353402515.1023238     
  -1709514157.9799366       -3589419.8005409241        1356633633.5619669     
  -1652439186.0006433       -3452754.1517444849        1364170591.4043207     
  -2258865030.4813418       -10485452.135311127        1290940255.1052549     
  -2188778016.5655384       -5437762.2644532919        1284485126.7273912     
  -2119303245.7134032       -2430882.6058166027        1282600108.7128863     
  -2050440717.9249337       -1464813.1594054699        1285285201.0617394     
  -1982190433.2001302       -2539553.9252110720        1292540403.7739522     
  -2637000654.0074663       -11235091.056642890        1221479658.9934759     
  -2554092576.1042681       -4203318.6263833046        1213603582.5946248     
  -2472093638.3637934       -202013.40519785881        1210561887.5397799     
  -2391003840.7860456        768824.60688984394        1212354573.8289425     
  -2310823183.3710222       -1290804.5900952816        1218981641.4621093     
  -3017038020.2838283       -12555252.803044438        1151476007.9958363     
  -2920553818.4485230       -3312879.8299597502        1141832603.6270955     
  -2825275653.8750010        1909368.9371796846        1137287851.5830085     
  -2731203526.5632668        3111493.4983559847        1137841751.8635783     
  -2638337436.5133152        293493.85359740257        1143494304.4688005     
  -1321569441.7725613       -4030405.2697076797        1433872204.3532205     
  -1269090678.8431921       -1427590.9654661417        1425391558.0045238     
  -1217067525.6424506       -343475.75664651394        1422038364.3427777     
  -1165499982.1703300       -778059.64323127270        1423812623.3679855     
  -1114388048.4268341       -2731342.6252345443        1430714335.0801504     
  -1652439186.0006433       -3452754.1517444849        1364170591.4043207     
  -1587113684.2593498       -1718353.4432045221        1355575930.0388167     
  -1522051357.7856557       -861203.62666314840        1351936325.9022326     
  -1457252206.5795586       -881304.70211052895        1353251778.9945691     
  -1392716230.6410604       -1778656.6695601940        1359522289.3158238     
  -1982190433.2001302       -2539553.9252110720        1292540403.7739522     
  -1904510751.0984328       -1821334.3478138447        1284056234.2628379     
  -1826901809.8033149       -1338917.4590094090        1280354726.5226073     
  -1749363609.3147717       -1092303.2587918043        1281435880.5532632     
  -1671896149.6328039       -1081491.7471544743        1287299696.3548036     
  -2310823183.3710222       -1290804.5900952816        1218981641.4621093     
  -2221281879.3604493       -1736533.6793066263        1210832470.6765795     
  -2131618881.6954286       -1776617.2536936998        1207293566.2038994     
  -2041834190.3759637       -1411055.3132566214        1208364928.0440745     
  -1951927805.4020464       -639847.85798835754        1214046556.1970973     
  -2638337436.5133152        293493.85359740257        1143494304.4688005     
  -2537427069.0453906       -1463951.4376751184        1135904639.2800481     
  -2436202573.4620028       -2174303.0107216835        1132752844.9461119     
  -2334663949.7631407       -1837560.8655310869        1134038921.4669933     
  -2232811197.9488044       -453725.00208675861        1139762868.8426924     
  -1114388048.4268341       -2731342.6252345443        1430714335.0801504     
  -1070484325.1741656       -6947074.2311620116        1426911170.1469636     
  -1026190916.6830026       -9863855.0421128869        1427135509.3165097     
  -981507822.95333576       -11481685.058049679        1431387352.5887856     
  -936435043.98517656       -11800564.279011905        1439666699.9637876     
  -1392716230.6410604       -1778656.6695601940        1359522289.3158238     
  -1338245417.8128605       -5870851.6461745501        1355756937.8994195     
  -1283627008.2287464       -9471057.4364140034        1356064104.3700845     
  -1228861001.8887329       -12579274.040315807        1360443788.7278192     
  -1173947398.7928085       -15195501.457854629        1368895990.9726236     
  -1671896149.6328039       -1081491.7471544743        1287299696.3548036     
  -1606729636.4166594       -5011566.8507074714        1283289721.8921564     
  -1541657614.9272015       -9256614.3765480518        1283397279.1009178     
  -1476680085.1644249       -13816634.324663579        1287622367.9810910     
  -1411797047.1283371       -18691626.695067883        1295964988.5326741     
  -1951927805.4020464       -639847.85798835754        1214046556.1970973     
  -1875936980.9855614       -4369219.8447735310        1209509522.1251771     
  -1800282736.7783551       -9220525.8624835014        1209135033.5090125     
  -1724965072.7804251       -15193765.911113858        1212923090.3485994     
  -1649983988.9917674       -22288939.990650773        1220873692.6439373     
  -2232811197.9488044       -453725.00208675861        1139762868.8426924     
  -2145867451.5195765       -3943810.6283799410        1134416338.5984831     
  -2059502373.7822137       -9362791.8942286968        1133277367.5943694     
  -1973715964.7367203       -16710668.799636364        1136345955.8303447     
  -1888508224.3830922       -25987441.344598889        1143622103.3064156     
  -936435043.98517656       -11800564.279011905        1439666699.9637876     
  -874478660.92371464       -13119326.792018831        1433993835.5958290     
  -816910840.80627871       -29066632.451777190        1433035351.5649662     
  -763731583.63286304       -59642481.258264393        1436791247.8711965     
  -714940889.40346062       -104846873.21147642        1445261524.5145285     
  -1173947398.7928085       -15195501.457854629        1368895990.9726236     
  -1099226435.3013990       -15627107.972722411        1359106464.3801010     
  -1027130598.5984150       -24809137.115666330        1354216737.1662583     
  -957659888.68384171       -42741588.886654735        1354226809.3310874     
  -890814305.55768800       -69424463.285699546        1359136680.8746004     
  -1411797047.1283371       -18691626.695067883        1295964988.5326741     
  -1323781734.5167513       -18077146.604729831        1284116141.8971229     
  -1236628112.5379813       -20334968.623784721        1277352513.6818359     
  -1150336181.1920271       -25465092.752208889        1275674103.8868055     
  -1064905940.4788808       -33467518.990018904        1279080912.5120339     
  -1649983988.9917674       -22288939.990650773        1220873692.6439373     
  -1548144558.5697660       -20469442.688040912        1209022868.1468980     
  -1445403382.6249776       -15644126.976125419        1202442681.1117010     
  -1341760461.1573975       -7812992.8549210429        1201133131.5383489     
  -1237215794.1670349        3023959.6755765080        1205094219.4268303     
  -1888508224.3830922       -25987441.344598889        1143622103.3064156     
  -1772314907.4604435       -22803996.222634196        1133826643.1294265     
  -1653456408.8594077       -10736612.172715366        1129487239.4558566     
  -1531932728.5799756        10214710.805206358        1130603892.2857137     
  -1407743866.6221485        40049972.711084187        1137176601.6189935     
  -3768281093.2965136       -1130484327.9889541        800571592.91856050     
  -3779116317.1101184       -1008703936.5270267        884851589.21727693     
  -3790562689.2849064       -888960706.26904202        974065520.92617571     
  -3802620209.8208761       -771254637.21500111        1068213388.0452571     
  -3815288878.7180295       -655585729.36490262        1167295190.5745211     
  -4339823755.9425316       -1301947126.7827594        858749828.43490887     
  -4335248059.0831070       -1125734047.5052135        942349689.96943867     
  -4331812090.2532358       -953320061.65951204        1020308780.9617428     
  -4329515849.4529181       -784705169.24565649        1092627101.4118209     
  -4328359336.6821556       -619889370.26364601        1159304651.3196735     
  -4895284810.6648912       -1468585443.1994674        936393868.09641302     
  -4905511638.7107468       -1247003709.7797954        1018696918.5869906     
  -4917406774.4545250       -1030983002.0198700        1084784492.5829344     
  -4930970217.8962297       -820523319.91969252        1134656590.0842438     
  -4946201969.0358553       -615624663.47926080        1168313211.0909193     
  -5434664257.4635916       -1630399277.2390776        1033503711.9030733     
  -5489907055.9930372       -1372512923.3507724        1113893275.0699329     
  -5547346741.8887739       -1121949527.3501155        1167492655.7897503     
  -5606983315.1508093       -878709089.23710871        1194301854.0625255     
  -5668816775.7791367       -642791609.01175046        1194320869.8882582     
  -5957962096.3386326       -1787388628.9015899        1150079359.8548892     
  -6088434310.9299755       -1502261688.2181444        1227938759.4182653     
  -6221631992.5559835       -1226219637.6502495        1268433270.5821910     
  -6357555141.2166576       -959262477.19790637        1271562893.3466661     
  -6496203756.9119959       -701390206.86111331        1237327627.7116909     
  -3815288878.7180295       -655585729.36490262        1167295190.5745211     
  -3797907044.2325892       -537657110.47169375        1188976705.7020354     
  -3784368197.6310210       -432538451.19139528        1205749685.5907695     
  -3774672338.9133253       -340229751.52400494        1217614130.2407229     
  -3768819468.0795012       -260731011.46952343        1224570039.6518941     
  -4328359336.6821556       -619889370.26364601        1159304651.3196735     
  -4298134281.1081133       -464176315.29193008        1141372378.8424568     
  -4278521128.3954725       -343836269.85821652        1129508557.1925194     
  -4269519878.5442309       -258869233.96250129        1123713186.3698614     
  -4271130531.5543895       -209275207.60478544        1123986266.3744826     
  -4946201969.0358553       -615624663.47926080        1168313211.0909193     
  -4871770875.0416145       -412718327.22956038        1102870083.5351894     
  -4814720598.8863001       -267748050.44295073        1054472392.8727990     
  -4775051140.5699129       -180713833.11943078        1023120139.1037482     
  -4752762500.0924540       -151615675.25900126        1008813322.2280374     
  -5668816775.7791367       -642791609.01175046        1194320869.8882582     
  -5518816826.0330954       -383283146.28458452        1073469819.7802340     
  -5392966609.1035070       -204273792.94559741        980641192.63160861     
  -5291266124.9903717       -105763548.99479318        915834988.44238281     
  -5213715373.6936941       -87752414.432170630        879051207.21255755     
  -6496203756.9119959       -701390206.86111331        1237327627.7116909     
  -6239272134.0825520       -375870772.45700002        1053171587.5775886     
  -6013259159.0470896       -153413497.36615801        908014956.46894753     
  -5818164831.8056087       -34018381.588588953        801857734.38576579     
  -5653989152.3581104       -17685425.124290228        734699921.32804465     
  -3768819468.0795012       -260731011.46952343        1224570039.6518941     
  -3661636164.7581644       -168320963.81226802        1192083589.5508611     
  -3562140305.7354689       -101535730.48381448        1170035434.3639643     
  -3470331891.0114131       -60375311.484161854        1158425574.0912013     
  -3386210920.5859995       -44839706.813320160        1157254008.7325745     
  -4271130531.5543895       -209275207.60478544        1123986266.3744826     
  -4148065870.5173550       -145068965.56525469        1090602108.3136859     
  -4029415929.8270607       -95578458.014853001        1065504654.8779954     
  -3915180709.4835024       -60803684.953573704        1048693906.0674105     
  -3805360209.4866800       -40744646.381419659        1040169861.8819326     
  -4752762500.0924540       -151615675.25900126        1008813322.2280374     
  -4619963882.1655216       -117457459.08493567        978349634.15136361     
  -4488307260.6334238       -87105897.560319662        954021060.41076732     
  -4357792635.4961596       -60560990.685151100        935827601.00624740     
  -4228420006.7537341       -37822738.459433556        923769255.93780458     
  -5213715373.6936941       -87752414.432170630        879051207.21255755     
  -5077330199.7026606       -85486444.371306896        855326167.06389403     
  -4938814298.1545572       -76118049.120220184        835584650.96227813     
  -4798167669.0493870       -59647228.678900957        819826658.90771151     
  -4655390312.3871479       -36073983.047356129        808052190.90019274     
  -5653989152.3581104       -17685425.124290228        734699921.32804465     
  -5520164823.1287718       -49155921.424372673        721531707.05127931     
  -5380937042.3904629       -62614912.694550991        710195426.53253138     
  -5236305810.1431828       -58062398.934819460        700691079.77180183     
  -5086271126.3869305       -35498380.145186901        693018666.76909328     
  -3386210920.5859995       -44839706.813320160        1157254008.7325745     
  -3294348687.4501982       -38205233.109890580        1150315482.3436174     
  -3202199126.3545704       -30612999.540368795        1147039640.0911748     
  -3109762237.2991157       -22063006.104756713        1147426481.9752495     
  -3017038020.2838283       -12555252.803044438        1151476007.9958363     
  -3805360209.4866800       -40744646.381419659        1040169861.8819326     
  -3701800655.0989618       -30088761.257675886        1032083614.9635286     
  -3598787832.9572587       -21255316.953989744        1028404605.3130913     
  -3496321743.0615721       -14244313.470352173        1029132832.9306190     
  -3394402385.4119015       -9055750.8067727089        1034268297.8161116     
  -4228420006.7537341       -37822738.459433556        923769255.93780458     
  -4111035836.4528079       -22507253.516986847        913562218.24980402     
  -3995032458.6037416       -11794410.080745935        908506970.96121812     
  -3880409873.2065344       -5684208.1507036686        908603514.07204807     
  -3767168080.2611923       -4176647.7268705368        913851847.58229387     
  -4655390312.3871479       -36073983.047356129        808052190.90019274     
  -4522054231.5117264       -15460709.887817144        794751292.20243943     
  -4390933003.2940140       -2230278.9206404686        787346737.03555441     
  -4262026627.7340050        3617309.8541915417        785838525.39953458     
  -4135335104.8317022        2082056.4366660118        790226657.29438269     
  -5086271126.3869305       -35498380.145186901        693018666.76909328     
  -4934855840.2757301       -8949130.3701777458        675650836.82143700     
  -4786489467.0280800        7437076.5263261795        664923903.53610229     
  -4641172006.6439781        13660240.544338703        660837866.91308129     
  -4498903459.1234293        9720361.6838419437        663392726.95237720     
  -3017038020.2838283       -12555252.803044438        1151476007.9958363     
  -2920553818.4485230       -3312879.8299597502        1141832603.6270955     
  -2825275653.8750010        1909368.9371796846        1137287851.5830085     
  -2731203526.5632668        3111493.4983559847        1137841751.8635783     
  -2638337436.5133152        293493.85359740257        1143494304.4688005     
  -3394402385.4119015       -9055750.8067727089        1034268297.8161116     
  -3286364124.2352333       -3849033.0804200172        1024961658.0200895     
  -3178977493.0072646       -814415.18306612968        1020375408.9112438     
  -3072242491.7279992        48102.885284543037        1020509550.4895775     
  -2966159120.3974304       -1261478.8753695488        1025364082.7550858     
  -3767168080.2611923       -4176647.7268705368        913851847.58229387     
  -3648656507.2788115       -3329809.5079343319        905528780.89092064     
  -3530242156.9320416       -2807046.7410562038        901547843.24924791     
  -3411925029.2208953       -2608359.4262394905        901909034.65727484     
  -3293705124.1453633       -2733747.5634829998        906612355.11500227     
  -4135335104.8317022        2082056.4366660118        790226657.29438269     
  -4007430967.5792527       -1755209.1125092506        783533972.23958933     
  -3879069645.6493402       -4068525.7368056774        780805154.59701717     
  -3750251139.0419607       -4857893.4362173080        782040204.36666918     
  -3620975447.7571168       -4123312.2107391357        787239121.54854023     
  -4498903459.1234293        9720361.6838419437        663392726.95237720     
  -4362687505.1365633        874768.10585904121        658977232.06609213     
  -4225459959.1591520       -4598852.1703078747        658147342.95455337     
  -4087220821.1911893       -6700499.1446373463        660903059.61775875     
  -3947970091.2326803       -5430172.8171443939        667244382.05571115     
  -2638337436.5133152        293493.85359740257        1143494304.4688005     
  -2537427069.0453906       -1463951.4376751184        1135904639.2800481     
  -2436202573.4620028       -2174303.0107216835        1132752844.9461119     
  -2334663949.7631407       -1837560.8655310869        1134038921.4669933     
  -2232811197.9488044       -453725.00208675861        1139762868.8426924     
  -2966159120.3974304       -1261478.8753695488        1025364082.7550858     
  -2853161572.0311022       -1312860.2577226162        1018134589.3966056     
  -2740050450.4627223       -985664.29990625381        1015371349.5877165     
  -2626825755.6922984       -279891.00194764137        1017074363.3284189     
  -2513487487.7198219        804459.63618254662        1023243630.6187147     
  -3293705124.1453633       -2733747.5634829998        906612355.11500227     
  -3168539301.4669819       -1054737.0128127337        899509052.85446298     
  -3043460460.4999733        334334.49993610382        896900386.83829212     
  -2918468601.2443390        1433466.9747704268        898786357.06648755     
  -2793563723.7000847        2242660.4116834402        905166963.53905046     
  -3620975447.7571168       -4123312.2107391357        787239121.54854023     
  -3483560257.3530340       -689581.70295214653        780028029.65361869     
  -3346432603.5737538        1785693.3888330460        777339956.69783998     
  -3209592486.4192739        3302513.0646171570        779174902.68120372     
  -3073039905.8895936        3860877.3244080544        785532867.60370731     
  -3947970091.2326803       -5430172.8171443939        667244382.05571115     
  -3798224439.6892619       -217394.32815551758        659691519.79407728     
  -3648966879.6840682        3368412.3667523861        656690059.16636002     
  -3500197411.2170939        5327247.2675955296        658240000.17256188     
  -3351916034.2883453        5659110.3743565083        664341342.81267774     
  -2232811197.9488044       -453725.00208675861        1139762868.8426924     
  -2145867451.5195765       -3943810.6283799410        1134416338.5984831     
  -2059502373.7822137       -9362791.8942286968        1133277367.5943694     
  -1973715964.7367203       -16710668.799636364        1136345955.8303447     
  -1888508224.3830922       -25987441.344598889        1143622103.3064156     
  -2513487487.7198219        804459.63618254662        1023243630.6187147     
  -2416142853.8231630       -3307609.7542705536        1017414657.1092809     
  -2319174428.1653748       -8673706.6076364517        1015522341.7418178     
  -2222582210.7464533       -15293830.923886418        1017566684.5163217     
  -2126366201.5664039       -23167982.703040004        1023547685.4327989     
  -2793563723.7000847        2242660.4116834402        905166963.53905046     
  -2686592205.4734874       -2723593.6841925383        899091750.62622190     
  -2579794435.0327640       -8269007.0663046837        896682294.75724256     
  -2473170412.3779101       -14393579.734659791        897938595.93210745     
  -2366720137.5089293       -21097311.689240336        902860654.15082419     
  -3073039905.8895936        3860877.3244080544        785532867.60370731     
  -2957215506.4705534       -2191762.4181320667        779447619.14931583     
  -2841362394.3843870       -8148693.2702522278        776757226.64064789     
  -2725480569.6310902       -14009915.231933475        777461690.07770526     
  -2609570032.2106662       -19775428.303196311        781561009.46048439     
  -3351916034.2883453        5659110.3743565083        664341342.81267774     
  -3228012756.8143525       -1712115.9560947418        658482262.67855322     
  -3103878306.2202339       -8312765.2194541693        655747137.39203012     
  -2979512682.5059938       -14142837.415752053        656135966.95311058     
  -2854915885.6716228       -19202332.544931769        659648751.36179316     
  -1888508224.3830922       -25987441.344598889        1143622103.3064156     
  -1772314907.4604435       -22803996.222634196        1133826643.1294265     
  -1653456408.8594077       -10736612.172715366        1129487239.4558566     
  -1531932728.5799756        10214710.805206358        1130603892.2857137     
  -1407743866.6221485        40049972.711084187        1137176601.6189935     
  -2126366201.5664039       -23167982.703040004        1023547685.4327989     
  -1996548391.8855834       -19584584.111257911        1014920387.6658028     
  -1865446455.1390586       -11720761.967128158        1011225115.4855574     
  -1733060391.3268318        423483.72933959961        1012461868.8920653     
  -1599390200.4488933        16848152.978191018        1018630647.8853188     
  -2366720137.5089293       -21097311.689240336        902860654.15082419     
  -2224775066.2604322       -17563128.984796286        893790288.41235423     
  -2082926922.5589170       -14352038.103623748        889127917.34396172     
  -1941175706.4043813       -11464039.045712233        888873540.94564927     
  -1799521417.7968206       -8899131.8110700846        893027159.21741450     
  -2609570032.2106662       -19775428.303196311        781561009.46048439     
  -2456994930.5849872       -16739630.843242168        770436345.36907935     
  -2305897811.1189733       -18630440.582175136        763195645.03107858     
  -2156278673.8126173       -25447857.519978166        759838908.44648039     
  -2008137518.6659391       -37191881.656685352        760366135.61529374     
  -2854915885.6716228       -19202332.544931769        659648751.36179316     
  -2693207984.8592520       -17114089.686611056        644858558.53598142     
  -2534359120.8192291       -24555969.402782917        633428298.54690170     
  -2378369293.5515571       -41527971.693462491        625357971.39455462     
  -2225238503.0562325       -68030096.558646441        620647577.07894337     
  -5957962096.3386326       -1787388628.9015899        1150079359.8548892     
  -6088434310.9299755       -1502261688.2181444        1227938759.4182653     
  -6221631992.5559835       -1226219637.6502495        1268433270.5821910     
  -6357555141.2166576       -959262477.19790637        1271562893.3466661     
  -6496203756.9119959       -701390206.86111331        1237327627.7116909     
  -6810578027.7209177       -2043173408.3162754        1353804083.7431679     
  -6828530920.6473799       -1395491762.5838418        1202769630.5631652     
  -6897845673.2740078       -919016315.85196733        1091986919.7442935     
  -7018522285.6008034       -613747068.12065101        1021455951.2865527     
  -7190560757.6277695       -479684019.38989329        991176725.18994379     
  -8337911752.0413485       -2501373525.6124043        1712361155.3592167     
  -8021583521.1298389       -1424608634.1790559        1275690391.3260820     
  -7805253542.5839958       -681171250.63127422        956888000.41466010     
  -7688921816.4038258       -271061374.96905851        755953982.62495172     
  -7672588342.5893259       -194279007.19240904        672888337.95695615     
  -10539963269.299923       -3161988980.7899771        2225750574.7030354     
  -9667592112.3773518       -1589612303.0037870        1446701041.7070165     
  -8943855600.4859505       -512684441.98817062        863136512.59329176     
  -8368753733.6257181        68794602.256873608        475056987.36186236     
  -7942286511.7966652        154824829.73134184        282462466.01272792     
  -13416732579.496645       -4025019773.8489933        2893972341.7746239     
  -11766556694.389917       -1890502769.0580335        1715801581.7059679     
  -10313651846.979866       -413555889.92265558        810732456.28018820     
  -9058018037.2664871        405820863.55714130        178764965.49728549     
  -7999655265.2497835        567627491.38135672       -180100890.64274025     
  -6496203756.9119959       -701390206.86111331        1237327627.7116909     
  -6239272134.0825520       -375870772.45700002        1053171587.5775886     
  -6013259159.0470896       -153413497.36615801        908014956.46894753     
  -5818164831.8056087       -34018381.588588953        801857734.38576579     
  -5653989152.3581104       -17685425.124290228        734699921.32804465     
  -7190560757.6277695       -479684019.38989329        991176725.18994379     
  -6900576796.2750587       -304362820.77295589        846863020.46336210     
  -6623416852.2294731       -171788346.51309538        723635913.83395088     
  -6359080925.4910107       -81960596.610312700        621495405.30170846     
  -6107569016.0596685       -34879571.064604044        540441494.86663532     
  -7672588342.5893259       -194279007.19240904        672888337.95695615     
  -7400731502.5084648       -184509882.30118418        589527370.87256336     
  -7123604049.2478695       -157172046.81083679        509340190.95704955     
  -6841205982.8075428       -112265500.72137356        432326798.21041554     
  -6553537303.1874752       -49790244.032789707        358487192.63266033     
  -7942286511.7966652        154824829.73134184        282462466.01272792     
  -7739736252.7827702       -16311957.041681290        281164638.80519295     
  -7513820750.1022844       -109564598.25938797        265127787.83824641     
  -7264540003.7551994       -124933093.92177582        234351913.11188754     
  -6991894013.7415237       -62417444.028846741        188837014.62611890     
  -7999655265.2497835        567627491.38135672       -180100890.64274025     
  -7917591047.0979710        200230955.00555706       -78225175.738748968     
  -7794066954.7927065       -28966000.858732224       -9001295.5224617776     
  -7629082988.3339911       -119963376.21151495        27570750.006127074     
  -7422639147.7218180       -72761171.052780151        31490960.847010545     
  -5653989152.3581104       -17685425.124290228        734699921.32804465     
  -5520164823.1287718       -49155921.424372673        721531707.05127931     
  -5380937042.3904629       -62614912.694550991        710195426.53253138     
  -5236305810.1431828       -58062398.934819460        700691079.77180183     
  -5086271126.3869305       -35498380.145186901        693018666.76909328     
  -6107569016.0596685       -34879571.064604044        540441494.86663532     
  -5959213288.9520941       -36639564.334834814        534016582.17941463     
  -5809831894.5058403       -34980666.476141453        530081464.17208606     
  -5659424832.7209120       -29902877.488528967        528636140.84464943     
  -5507992103.5973053       -21406197.371992826        529680612.19710249     
  -6553537303.1874752       -49790244.032789707        358487192.63266033     
  -6388770575.5677366       -21275853.482989073        353698166.66964185     
  -6227355964.7796183       -3935185.7052540779        352056796.30838639     
  -6069293470.8231163        2231759.3004224300        353563081.54889572     
  -5914583093.6982365       -2775018.4659638405        358217022.39117068     
  -6991894013.7415237       -62417444.028846741        188837014.62611890     
  -6808836682.9757013       -3064788.8688430786        180576460.52195793     
  -6633509253.2117939        30521529.618115425        176121422.94143161     
  -6465911724.4498005        38341511.432030916        175471901.88454288     
  -6306044096.6897202        20395156.572896242        178627897.35129184     
  -7422639147.7218180       -72761171.052780151        31490960.847010545     
  -7219411611.1759930        17993629.507606030        14651463.736361951     
  -7028291759.8023748        68389479.493960857        2275344.0712232557     
  -6849279593.6009636        78426378.906293392       -5637398.1484069414     
  -6682375112.5717640        48104327.744593143       -9086762.9225260392     
  -5086271126.3869305       -35498380.145186901        693018666.76909328     
  -4934855840.2757301       -8949130.3701777458        675650836.82143700     
  -4786489467.0280800        7437076.5263261795        664923903.53610229     
  -4641172006.6439781        13660240.544338703        660837866.91308129     
  -4498903459.1234293        9720361.6838419437        663392726.95237720     
  -5507992103.5973053       -21406197.371992826        529680612.19710249     
  -5345443583.1865072       -9605065.9822084904        514562613.27884877     
  -5183940698.9800453       -1289388.6068634987        504771156.01763606     
  -5023483450.9779167        3540834.7540328503        500306240.41345882     
  -4864071839.1801157        4885604.1004984379        501167866.46632177     
  -5914583093.6982365       -2775018.4659638405        358217022.39117068     
  -5744656639.0029249       -6848595.4659273624        347686010.60473990     
  -5573772543.8527317       -7730037.6162757874        341167185.47006923     
  -5401930808.2476521       -5419344.9170072079        338660546.98715883     
  -5229131432.1876822        83482.631889343262        340166095.15600783     
  -6306044096.6897202        20395156.572896242        178627897.35129184     
  -6132495007.7249823       -679718.82134509087        175021028.79910970     
  -5955985001.6461353       -11884870.501898766        174111991.89340159     
  -5776514078.4531918       -13220298.468789577        175900786.63417938     
  -5594082238.1461372       -4686002.7219834328        180387413.02143782     
  -6682375112.5717640        48104327.744593143       -9086762.9225260392     
  -6508958689.3526745        8901563.9515528679       -3432332.1380521120     
  -6330578072.3602638       -13753887.263748646        3605575.2876326032     
  -6147233261.5945282       -19862025.901303768        12026959.354520421     
  -5958924257.0554733       -9422851.9611277580        21831820.062604934     
  -4498903459.1234293        9720361.6838419437        663392726.95237720     
  -4362687505.1365633        874768.10585904121        658977232.06609213     
  -4225459959.1591520       -4598852.1703078747        658147342.95455337     
  -4087220821.1911893       -6700499.1446373463        660903059.61775875     
  -3947970091.2326803       -5430172.8171443939        667244382.05571115     
  -4864071839.1801157        4885604.1004984379        501167866.46632177     
  -4716923771.9508905        1346504.7364435196        497533875.52907735     
  -4569524445.6645412       -1355064.4372041225        497499021.10799372     
  -4421873860.3210773       -3219103.4204604626        501063303.20307547     
  -4273972015.9204893       -4245612.2133233547        508226721.81432188     
  -5229131432.1876822        83482.631889343262        340166095.15600783     
  -5071012592.4548998        1862475.2601335049        336426553.07879883     
  -4913402826.5984249        1944554.9673416615        336299678.25917602     
  -4756302134.6182585        329721.75352311134        339785470.69712967     
  -4599710516.5144043       -2982024.3813276291        346883930.39267272     
  -5594082238.1461372       -4686002.7219834328        180387413.02143782     
  -5424953966.6485987        2422679.6769163609        175655264.71526948     
  -5257095101.9608002        5300006.0433545113        174549314.40810144     
  -5090505644.0827417        3945976.3773188591        177069562.09992945     
  -4925185593.0144215       -1639409.3211641312        183216007.79076114     
  -5958924257.0554733       -9422851.9611277580        21831820.062604934     
  -5778747894.5319920        3027117.9867746830        15220010.438476129     
  -5600601271.7516651        8711288.7908122540        12247929.554759294     
  -5424484388.7145224        7629660.4509158134        12915577.411466438     
  -5250397245.4205341       -217767.03283262253        17222954.008588437     
  -3947970091.2326803       -5430172.8171443939        667244382.05571115     
  -3798224439.6892619       -217394.32815551758        659691519.79407728     
  -3648966879.6840682        3368412.3667523861        656690059.16636002     
  -3500197411.2170939        5327247.2675955296        658240000.17256188     
  -3351916034.2883453        5659110.3743565083        664341342.81267774     
  -4273972015.9204893       -4245612.2133233547        508226721.81432188     
  -4113037523.5413814       -1098950.2021691799        500426465.50031328     
  -3952180635.4432645        1789030.8723387718        497158404.30549932     
  -3791401351.6261411        4418331.0102076530        498422538.22987640     
  -3630699672.0900092        6788950.2114338875        504218867.27344525     
  -4599710516.5144043       -2982024.3813276291        346883930.39267272     
  -4427642059.0559559       -1917941.5749130249        339315181.82639205     
  -4255240718.6212773        255751.15228104591        336259421.86458015     
  -4082506495.2103543        3539053.8002798557        337716650.50723869     
  -3909439388.8231945        7931966.3690633774        343686867.75436163     
  -4925185593.0144215       -1639409.3211641312        183216007.79076114     
  -4742038046.2329941       -2674368.4464144707        176357668.77231252     
  -4558147129.2180986       -1231426.7934265137        173993111.84360594     
  -4373512841.9697361        2689415.6377897263        176122337.00464553     
  -4188135184.4879012        9088158.8472354412        182745344.25542539     
  -5250397245.4205341       -217767.03283262253        17222954.008588437     
  -5056225485.0724812       -3368230.8166170120        11553926.338078083     
  -4860899867.2337341       -2672502.9647679329        10359474.242579030     
  -4664420391.9042883        1869416.5227446556        13639597.722099846     
  -4466787059.0841427        10257527.645933867        21394296.776641089     
  -3351916034.2883453        5659110.3743565083        664341342.81267774     
  -3228012756.8143525       -1712115.9560947418        658482262.67855322     
  -3103878306.2202339       -8312765.2194541693        655747137.39203012     
  -2979512682.5059938       -14142837.415752053        656135966.95311058     
  -2854915885.6716228       -19202332.544931769        659648751.36179316     
  -3630699672.0900092        6788950.2114338875        504218867.27344525     
  -3497895907.5156698        504061.00935196877        498619190.98828602     
  -3365203198.3843646       -6151013.0028471947        496491395.21078503     
  -3232621544.6960955       -13176271.825157285        497835479.94093674     
  -3100150946.4508562       -20571715.457581162        502651445.17875123     
  -3909439388.8231945        7931966.3690633774        343686867.75436163     
  -3766741063.8340740        3031636.2896637917        337947328.66115129     
  -3624496022.8511362       -3379640.4770319462        336027595.73564714     
  -3482704265.8743916       -11301863.931027174        337927668.97785318     
  -3341365792.9038424       -20735034.072340012        343647548.38777721     
  -4188135184.4879012        9088158.8472354412        182745344.25542539     
  -4034548225.7695527        5870609.8848462105        176466675.69713548     
  -3881756779.6205373        1352.3580112457275        174355738.96662164     
  -3729760846.0408902       -8519613.7333812714        176412534.06386775     
  -3578560425.0305810       -19692288.389239550        182637060.98887983     
  -4466787059.0841427        10257527.645933867        21394296.776641089     
  -4301317393.3221130        9020981.7949304581        14177232.096261274     
  -4136985468.6925917        3991965.5022315979        11475824.903702503     
  -3973791285.1955781       -4829521.2321491241        13290075.198966222     
  -3811734842.8310795       -17443478.408266783        19619982.982051946     
  -2854915885.6716228       -19202332.544931769        659648751.36179316     
  -2693207984.8592520       -17114089.686611056        644858558.53598142     
  -2534359120.8192291       -24555969.402782917        633428298.54690170     
  -2378369293.5515571       -41527971.693462491        625357971.39455462     
  -2225238503.0562325       -68030096.558646441        620647577.07894337     
  -3100150946.4508562       -20571715.457581162        502651445.17875123     
  -2928480767.0517521       -17227666.312284470        487599695.85707694     
  -2757372311.2657433       -15756029.210628152        476561503.46839231     
  -2586825579.0928187       -16156804.152592778        469536868.01269501     
  -2416840570.5329828       -18429991.138182759        466525789.48998928     
  -3341365792.9038424       -20735034.072340012        343647548.38777721     
  -3157865837.5001383       -15574929.414732337        331014441.25605249     
  -2972630292.5502644       -4629526.2698721886        323048515.15357119     
  -2785659158.0542164        12101175.362234592        319749770.08033234     
  -2596952434.0119810        34617175.481613040        321118206.03633684     
  -3578560425.0305810       -19692288.389239550        182637060.98887983     
  -3381363196.2044129       -12155878.993942499        175102794.73290846     
  -3180133064.6728067        8823539.4194824696        172889333.60243738     
  -2974870030.4357629        43245966.851028085        175996677.59746009     
  -2765574093.4932847        91111403.300704002        184424826.71798414     
  -3811734842.8310795       -17443478.408266783        19619982.982051946     
  -3598972843.1645708       -6970515.0499241352        19864756.287645537     
  -3379880627.6333637        24603167.857402802        26083958.814996451     
  -3154458196.2374549        77277570.313763738        38277590.564084835     
  -2922705548.9768271        151052692.31914341        56445651.534949765     
 </DataArray>
 <DataArray  type="Float64" Name="VM" NumberOfComponents="1" format="ascii">
   12935333921.351015     
   11340593659.891745     
   10210183675.819656     
   9272833723.8679237     
   8304143903.8421078     
   10130143800.014109     
   9321923321.9489307     
   8826319202.9765034     
   8443545740.0871201     
   8035812234.3315973     
   7982279925.9137650     
   7734915275.5764570     
   7669107151.8125963     
   7669572309.2863894     
   7666384672.2626352     
   6491656741.4260464     
   6586854617.1220903     
   6757379784.9067564     
   6961156096.2236986     
   7171524816.8294716     
   5657828992.2895651     
   5890897516.0900908     
   6116326705.8058052     
   6331653025.0282087     
   6536649978.0749454     
   8304143903.8421078     
   8020815967.6117525     
   7779497332.3608875     
   7569537468.8165436     
   7385966679.6132956     
   8035812234.3315973     
   7746971546.2141666     
   7473755421.3772774     
   7214213036.9548416     
   6968345376.7199001     
   7666384672.2626352     
   7381205711.1627674     
   7101400495.7184505     
   6827044340.1738195     
   6558335911.0736504     
   7171524816.8294716     
   6910960978.1717224     
   6658290261.2227354     
   6409652899.8356180     
   6161903530.1447439     
   6536649978.0749454     
   6328593463.9023390     
   6142722620.9211502     
   5965137790.3188801     
   5786832091.8605604     
   7385966679.6132956     
   7228428391.7253323     
   7063567092.6962872     
   6890706269.2697229     
   6709649537.4099045     
   6968345376.7199001     
   6814463627.0507860     
   6656084564.2021494     
   6492930971.5991430     
   6324944603.6105537     
   6558335911.0736504     
   6407450531.0557690     
   6254985451.0309563     
   6100908789.1128311     
   5945245988.7148685     
   6161903530.1447439     
   6012386366.2859058     
   5864196721.6502848     
   5717372137.2394419     
   5571967510.3479509     
   5786832091.8605604     
   5635731840.8280334     
   5488779866.0544596     
   5345891217.8304863     
   5207109407.9421482     
   6709649537.4099045     
   6515028244.7981968     
   6323362856.9855499     
   6134570515.1477022     
   5948640827.8057270     
   6324944603.6105537     
   6141068032.0354013     
   5959203836.6952038     
   5779340377.6333485     
   5601509970.4884310     
   5945245988.7148685     
   5773544196.1267395     
   5603175684.9188004     
   5434168002.6661110     
   5266585126.8212976     
   5571967510.3479509     
   5414270489.2165642     
   5257522805.1680231     
   5101762785.3245592     
   4947084576.1433849     
   5207109407.9421482     
   5065667001.8858070     
   4925131102.8871565     
   4785526004.6147366     
   4646985071.6376476     
   5948640827.8057270     
   5774391855.3864746     
   5599311399.0860300     
   5423401254.1244993     
   5246688834.2787600     
   5601509970.4884310     
   5435273314.2183132     
   5268820364.1145115     
   5102184848.6586132     
   4935429075.4970503     
   5266585126.8212976     
   5109119377.9073792     
   4952148118.8452568     
   4795742613.0850363     
   4640008198.6056452     
   4947084576.1433849     
   4799059909.4761858     
   4652340262.3418341     
   4507037525.8972416     
   4363305235.1036310     
   4646985071.6376476     
   4508940180.0317116     
   4373110793.8168163     
   4239648540.2963233     
   4108755540.1436992     
   5246688834.2787600     
   5049960865.1379004     
   4853673974.9901981     
   4657833087.2666016     
   4462490785.2285271     
   4935429075.4970503     
   4751039439.1827192     
   4567438849.5687742     
   4384680519.1474056     
   4202874174.3286929     
   4640008198.6056452     
   4468226352.0376549     
   4297657891.8251944     
   4128412439.9162478     
   3960666073.9659028     
   4363305235.1036310     
   4204514529.2408423     
   4047447679.3252945     
   3892277852.0487938     
   3739254874.2645335     
   4108755540.1436992     
   3963454888.6156816     
   3820479693.7832365     
   3680070714.3317742     
   3542554356.9172616     
   4462490785.2285271     
   4296179127.6693983     
   4129250813.7945242     
   3961763370.6104202     
   3793849542.9865637     
   4202874174.3286929     
   4048563629.1521401     
   3894484388.6519823     
   3740731799.3438907     
   3587466059.9749103     
   3960666073.9659028     
   3817408339.8034434     
   3675179907.5680423     
   3534103665.9819441     
   3394357901.4810891     
   3739254874.2645335     
   3605944775.1487627     
   3474377864.3495550     
   3344695369.3308406     
   3217086797.9796495     
   3542554356.9172616     
   3417919157.5006561     
   3295620963.2502246     
   3175812908.5623941     
   3058693636.3832617     
   3793849542.9865637     
   3574205048.5298605     
   3350724039.7517362     
   3124253134.8455162     
   2896549398.2250285     
   3587466059.9749103     
   3387652959.8162985     
   3186195938.0836353     
   2983626613.7350450     
   2780969838.6186290     
   3394357901.4810891     
   3212854619.5174618     
   3031980478.4982796     
   2852093810.8721743     
   2673787493.7716384     
   3217086797.9796495     
   3051137973.8360982     
   2888034947.8801360     
   2728149221.3391857     
   2572003199.5525126     
   3058693636.3832617     
   2904227488.9066010     
   2754712075.5004230     
   2610807259.7836761     
   2473440354.8999467     
   5657828992.2895651     
   5890897516.0900908     
   6116326705.8058052     
   6331653025.0282087     
   6536649978.0749454     
   5151456450.7154655     
   5311311148.0660868     
   5467798437.7194185     
   5618019216.3201904     
   5760504619.1743650     
   4643473295.0084248     
   4755524223.8310995     
   4868701262.3010397     
   4980367533.6377087     
   5088595782.0529337     
   4134142932.0362535     
   4224374455.2858973     
   4320530602.3696718     
   4420954760.0562172     
   4524192319.9747734     
   3624985872.1297641     
   3719686521.2240481     
   3825644604.7208652     
   3942798759.7879748     
   4071058315.1086278     
   6536649978.0749454     
   6328593463.9023390     
   6142722620.9211502     
   5965137790.3188801     
   5786832091.8605604     
   5760504619.1743650     
   5651989958.0973454     
   5559472160.0011644     
   5473894590.2027702     
   5389717015.2347832     
   5088595782.0529337     
   5053921177.1012125     
   5029753798.8014278     
   5010889117.9115715     
   4994126274.4155531     
   4524192319.9747734     
   4538981722.0241594     
   4558437997.1446991     
   4580080525.8893461     
   4602185786.3967075     
   4071058315.1086278     
   4112496521.3123474     
   4151288779.5199132     
   4186533290.2622719     
   4217495089.9471903     
   5786832091.8605604     
   5635731840.8280334     
   5488779866.0544596     
   5345891217.8304863     
   5207109407.9421482     
   5389717015.2347832     
   5248162119.5482855     
   5109813981.9026546     
   4974714739.9269409     
   4842957910.0299377     
   4994126274.4155531     
   4866583008.0482302     
   4742249833.4748440     
   4621096989.6847248     
   4503169144.6098948     
   4602185786.3967075     
   4493658565.9408188     
   4389408470.1751709     
   4289124652.1993341     
   4192725539.3470950     
   4217495089.9471903     
   4133341925.7623677     
   4055776833.7254467     
   3983960552.6971145     
   3917608692.8674831     
   5207109407.9421482     
   5065667001.8858070     
   4925131102.8871565     
   4785526004.6147366     
   4646985071.6376476     
   4842957910.0299377     
   4717258400.1728048     
   4593299413.3522711     
   4471193870.5593224     
   4351151406.4225731     
   4503169144.6098948     
   4392633786.4879837     
   4284670508.0982699     
   4179460168.2373166     
   4077265169.8622427     
   4192725539.3470950     
   4096703786.2289124     
   4004039700.1553655     
   3914956423.1528001     
   3829741372.6805592     
   3917608692.8674831     
   3835322523.7744727     
   3757077458.8384118     
   3683109402.3568525     
   3613700948.5720649     
   4646985071.6376476     
   4508940180.0317116     
   4373110793.8168163     
   4239648540.2963233     
   4108755540.1436992     
   4351151406.4225731     
   4224954333.6135392     
   4101416854.6953669     
   3980741679.5386076     
   3863190348.3649397     
   4077265169.8622427     
   3963985146.8291373     
   3853954226.0414071     
   3747430385.8339367     
   3644738994.5165396     
   3829741372.6805592     
   3730504826.6906176     
   3635254557.5140648     
   3544301282.3595834     
   3458029969.1730528     
   3613700948.5720649     
   3529599776.8979597     
   3450354089.1313438     
   3376314139.9171739     
   3307907542.9186659     
   4108755540.1436992     
   3963454888.6156816     
   3820479693.7832365     
   3680070714.3317742     
   3542554356.9172616     
   3863190348.3649397     
   3731486550.5264411     
   3602921633.9170794     
   3477813724.5568056     
   3356573374.0197153     
   3644738994.5165396     
   3527305256.3524556     
   3413898580.6406999     
   3304903456.4482141     
   3200796718.7766023     
   3458029969.1730528     
   3355450112.9325123     
   3257818787.4022388     
   3165563286.3956008     
   3079194392.9535484     
   3307907542.9186659     
   3220542906.7920265     
   3139019257.0940566     
   3063771403.4885550     
   2995300444.5514145     
   3542554356.9172616     
   3417919157.5006561     
   3295620963.2502246     
   3175812908.5623941     
   3058693636.3832617     
   3356573374.0197153     
   3241380508.0631938     
   3129127350.8581948     
   3020056844.1982408     
   2914469561.9461341     
   3200796718.7766023     
   3097558122.8871918     
   2998152364.2025571     
   2902934814.1162658     
   2812333783.8862772     
   3079194392.9535484     
   2990420609.8534999     
   2906628839.2705579     
   2828288286.7684407     
   2755952515.0544448     
   2995300444.5514145     
   2923237998.1449208     
   2857478941.2200384     
   2798579508.6263895     
   2747182764.3712497     
   3058693636.3832617     
   2904227488.9066010     
   2754712075.5004230     
   2610807259.7836761     
   2473440354.8999467     
   2914469561.9461341     
   2770221850.0508566     
   2630804795.6467934     
   2496772481.9810419     
   2368846957.4707885     
   2812333783.8862772     
   2683235599.5676370     
   2559670575.2526660     
   2442371266.5135231     
   2332247420.6498232     
   2755952515.0544448     
   2647578232.1456323     
   2546241471.7454586     
   2453085152.1042471     
   2369505933.3991971     
   2747182764.3712497     
   2665106561.4175572     
   2592136517.5228653     
   2529921559.4711690     
   2480440548.9782529     
   3624985872.1297641     
   3719686521.2240481     
   3825644604.7208652     
   3942798759.7879748     
   4071058315.1086278     
   3137970698.4323511     
   3255520766.1004238     
   3382490117.8181195     
   3518411361.9263272     
   3662828169.5089741     
   2694754701.8777151     
   2830536937.4347548     
   2973629154.1879025     
   3122950032.3479977     
   3277589438.7386026     
   2298826572.9927959     
   2449527322.4760809     
   2604943835.5862865     
   2763153603.7544761     
   2922727077.8499465     
   1955394316.4084389     
   2119446120.0053313     
   2284844247.8564110     
   2448627328.5616398     
   2608836681.6811829     
   4071058315.1086278     
   4112496521.3123474     
   4151288779.5199132     
   4186533290.2622719     
   4217495089.9471903     
   3662828169.5089741     
   3702242985.4648466     
   3740282760.5873575     
   3776046085.2729850     
   3808781670.1117921     
   3277589438.7386026     
   3320840404.8927279     
   3364340644.3236656     
   3407265783.4052711     
   3448936824.9244809     
   2922727077.8499465     
   2975672575.0529451     
   3030847921.8270149     
   3087570658.2562709     
   3145307825.4938984     
   2608836681.6811829     
   2676792690.7044330     
   2749261655.5247841     
   2825735841.7500176     
   2905862945.1028404     
   4217495089.9471903     
   4133341925.7623677     
   4055776833.7254467     
   3983960552.6971145     
   3917608692.8674831     
   3808781670.1117921     
   3756144364.7996058     
   3709552379.7505159     
   3668538216.5709939     
   3633010617.9032259     
   3448936824.9244809     
   3423117375.8771200     
   3402409473.5006318     
   3386586042.9833097     
   3375631424.6052699     
   3145307825.4938984     
   3141893736.7715859     
   3142054124.8495913     
   3145688263.0217152     
   3152780261.9617529     
   2905862945.1028404     
   2920807281.9048405     
   2937003648.6100183     
   2954396029.7399144     
   2972943526.4560318     
   3917608692.8674831     
   3835322523.7744727     
   3757077458.8384118     
   3683109402.3568525     
   3613700948.5720649     
   3633010617.9032259     
   3563011299.7395453     
   3497682447.5077662     
   3437268259.6711612     
   3382062596.7667832     
   3375631424.6052699     
   3318497455.5456405     
   3266793748.8898525     
   3220753828.0158801     
   3180663116.3226705     
   3152780261.9617529     
   3108790353.8163023     
   3071104546.0797987     
   3039918311.9245214     
   3015480825.7823915     
   2972943526.4560318     
   2941837317.9617515     
   2917992122.5788484     
   2901532800.4817033     
   2892640790.8211598     
   3613700948.5720649     
   3529599776.8979597     
   3450354089.1313438     
   3376314139.9171739     
   3307907542.9186659     
   3382062596.7667832     
   3312287841.0424180     
   3247970495.7892575     
   3189443107.5417180     
   3137099095.9700637     
   3180663116.3226705     
   3124510306.9692383     
   3074345960.0482354     
   3030462785.7020540     
   2993196411.6079383     
   3015480825.7823915     
   2971874639.4900823     
   2934676986.6358685     
   2904121653.9054322     
   2880468437.3823953     
   2892640790.8211598     
   2860023044.1153288     
   2834087900.2542100     
   2814999629.7982521     
   2802935165.4701762     
   3307907542.9186659     
   3220542906.7920265     
   3139019257.0940566     
   3063771403.4885550     
   2995300444.5514145     
   3137099095.9700637     
   3063094242.2505817     
   2995614303.4496403     
   2935072422.9440103     
   2881934980.9823084     
   2993196411.6079383     
   2932267796.4125276     
   2878519758.1576376     
   2832317678.2748933     
   2794065091.6107168     
   2880468437.3823953     
   2831874238.6798391     
   2791056502.9617057     
   2758309720.6981497     
   2733952261.5879869     
   2802935165.4701762     
   2765365294.9058924     
   2736087080.1611071     
   2715310205.1656156     
   2703257368.1612735     
   2995300444.5514145     
   2923237998.1449208     
   2857478941.2200384     
   2798579508.6263895     
   2747182764.3712497     
   2881934980.9823084     
   2824690751.4759207     
   2774063602.2306342     
   2730503474.2321634     
   2694511477.2070699     
   2794065091.6107168     
   2750055629.7487454     
   2712791033.5314393     
   2682605025.9526029     
   2659855894.7894998     
   2733952261.5879869     
   2701222824.0332274     
   2675182876.7982421     
   2656055135.7729011     
   2644070209.0049458     
   2703257368.1612735     
   2679524101.0379610     
   2662263245.3337665     
   2651604832.1411314     
   2647678804.3515348     
   2747182764.3712497     
   2665106561.4175572     
   2592136517.5228653     
   2529921559.4711690     
   2480440548.9782529     
   2694511477.2070699     
   2632388121.0177507     
   2579987942.0067658     
   2538225795.2778449     
   2508079251.8031216     
   2659855894.7894998     
   2612037157.9542303     
   2574150047.0450907     
   2546645685.4837165     
   2529964929.4802938     
   2644070209.0049458     
   2603952661.0660052     
   2573733368.1322765     
   2553716051.0769448     
   2544275293.1941319     
   2647678804.3515348     
   2607990386.9195418     
   2578090993.7182178     
   2558476051.6415143     
   2549926218.5174232     
   1955394316.4084389     
   2119446120.0053313     
   2284844247.8564110     
   2448627328.5616398     
   2608836681.6811829     
   1653938964.2041075     
   1820368445.0454452     
   1988489234.9068277     
   2155604130.0483966     
   2319954701.7813802     
   1393785591.4691961     
   1571134686.9052224     
   1749487558.0655000     
   1926839876.6314442     
   2101940863.3760722     
   1207247812.0378602     
   1399165856.0634935     
   1590664033.9540913     
   1780965018.5889831     
   1969609871.1048017     
   1137009447.7982385     
   1335310540.3868928     
   1533925278.4674613     
   1732853662.0372910     
   1932095691.1741617     
   2608836681.6811829     
   2676792690.7044330     
   2749261655.5247841     
   2825735841.7500176     
   2905862945.1028404     
   2319954701.7813802     
   2407029255.4655070     
   2496544317.1627531     
   2588111254.7238894     
   2681455248.2989521     
   2101940863.3760722     
   2205716733.5418768     
   2309395378.7664738     
   2412741393.3966694     
   2515588454.1421266     
   1969609871.1048017     
   2086785573.4967668     
   2201096087.0544467     
   2312466765.8610516     
   2420845687.0101638     
   1932095691.1741617     
   2058782668.1179020     
   2180027121.6209793     
   2295829051.5863395     
   2406188458.1791849     
   2905862945.1028404     
   2920807281.9048405     
   2937003648.6100183     
   2954396029.7399144     
   2972943526.4560318     
   2681455248.2989521     
   2703151649.6266909     
   2727167379.1524978     
   2753484929.7523155     
   2782096085.3320165     
   2515588454.1421266     
   2543999632.3303566     
   2575828910.6008258     
   2611078170.8366270     
   2649753444.8392038     
   2420845687.0101638     
   2454444123.2760634     
   2492562677.0385094     
   2535204827.2175741     
   2582375055.5258493     
   2406188458.1791849     
   2441855817.1602616     
   2483137322.9692006     
   2530032990.3551717     
   2582542845.9717956     
   2972943526.4560318     
   2941837317.9617515     
   2917992122.5788484     
   2901532800.4817033     
   2892640790.8211598     
   2782096085.3320165     
   2765315431.3181720     
   2755601809.1833806     
   2753035400.7435679     
   2757725933.8634682     
   2649753444.8392038     
   2644521847.2998214     
   2645897514.3321629     
   2653917060.9786072     
   2668628695.9619756     
   2582375055.5258493     
   2585451556.3826799     
   2594418234.0121918     
   2609283653.1293759     
   2630058786.5017333     
   2582542845.9717956     
   2590528749.0825706     
   2603480338.1048284     
   2621397588.2426047     
   2644280481.5941300     
   2892640790.8211598     
   2860023044.1153288     
   2834087900.2542100     
   2814999629.7982521     
   2802935165.4701762     
   2757725933.8634682     
   2734219331.5497122     
   2717916578.1195407     
   2708927241.0491562     
   2707367068.8845344     
   2668628695.9619756     
   2652308554.8077526     
   2643632239.0915585     
   2642654813.6182852     
   2649433485.3887677     
   2630058786.5017333     
   2618312002.8992343     
   2614563549.2818017     
   2618828087.1126323     
   2631120673.7555399     
   2644280481.5941300     
   2633988716.2916040     
   2631971252.7076898     
   2638228089.6389694     
   2652759229.9422626     
   2802935165.4701762     
   2765365294.9058924     
   2736087080.1611071     
   2715310205.1656156     
   2703257368.1612735     
   2707367068.8845344     
   2680131082.8812881     
   2661333606.7209520     
   2651102397.1710620     
   2649570267.9936509     
   2649433485.3887677     
   2630238645.0999327     
   2619532487.1588421     
   2617374767.4912829     
   2623826623.8652673     
   2631120673.7555399     
   2617261038.1789808     
   2611867713.8911123     
   2614956338.8771892     
   2626542866.7115464     
   2652759229.9422626     
   2641304345.2451782     
   2638248855.9105310     
   2643592880.7083864     
   2657336647.2322421     
   2703257368.1612735     
   2679524101.0379610     
   2662263245.3337665     
   2651604832.1411314     
   2647678804.3515348     
   2649570267.9936509     
   2633582331.6495938     
   2624560183.3837938     
   2622583443.8521223     
   2627729699.0321870     
   2623826623.8652673     
   2613737240.1875176     
   2611055453.8892560     
   2615817526.9613290     
   2628058201.4263520     
   2626542866.7115464     
   2620070378.1355205     
   2621420438.0774403     
   2630601307.5650268     
   2647621575.4428253     
   2657336647.2322421     
   2651898368.7979960     
   2654695175.1103797     
   2665728743.2059360     
   2685003018.4453144     
   2647678804.3515348     
   2607990386.9195418     
   2578090993.7182178     
   2558476051.6415143     
   2549926218.5174232     
   2627729699.0321870     
   2590443642.9906125     
   2563106050.0313444     
   2545908218.1266880     
   2539100238.3290963     
   2628058201.4263520     
   2597017406.3663402     
   2576483450.0781837     
   2566525355.2101092     
   2567207245.1829462     
   2647621575.4428253     
   2626453781.1039829     
   2616751612.7675395     
   2618657417.8100915     
   2632400106.4917397     
   2685003018.4453144     
   2676977293.7569823     
   2681814447.3550563     
   2699916403.7772989     
   2731988056.6751308     
   1137009447.7982385     
   1335310540.3868928     
   1533925278.4674613     
   1732853662.0372910     
   1932095691.1741617     
   1207231680.8285782     
   1399167867.5742011     
   1590685301.8064346     
   1781007820.2415969     
   1969677256.4736664     
   1393763242.9591799     
   1571136162.5744667     
   1749517460.4521086     
   1926904058.3956711     
   2102046030.6064360     
   1653921692.8720958     
   1820367480.9531877     
   1988513431.2402067     
   2155663385.9516039     
   2320059508.6113224     
   1955391540.7730138     
   2119441511.5079312     
   2284850150.4175944     
   2448657032.8984408     
   2608903752.6341076     
   1932095691.1741617     
   2058782668.1179020     
   2180027121.6209793     
   2295829051.5863395     
   2406188458.1791849     
   1969677256.4736664     
   2086843837.9910870     
   2201143362.0914221     
   2312500799.9126315     
   2420864041.0961704     
   2102046030.6064360     
   2205811258.8106012     
   2309475570.7200499     
   2412803109.8821688     
   2515627323.3888497     
   2320059508.6113224     
   2407130195.8215656     
   2496636147.0677118     
   2588188434.7528930     
   2681512057.8774576     
   2608903752.6341076     
   2676869654.7866082     
   2749342258.0986199     
   2825813832.0750751     
   2905931995.0657105     
   2406188458.1791849     
   2441855817.1602616     
   2483137322.9692006     
   2530032990.3551717     
   2582542845.9717956     
   2420864041.0961704     
   2454646129.8971891     
   2492983377.7066326     
   2535879755.5787516     
   2583339892.6090384     
   2515627323.3888497     
   2544315709.7454576     
   2576488057.3251619     
   2612147259.5824361     
   2651300060.4666667     
   2681512057.8774576     
   2703469299.5176420     
   2727836508.1639977     
   2754597671.3743534     
   2783746172.3072929     
   2905931995.0657105     
   2921009992.4038315     
   2937447442.4776745     
   2955189814.8545332     
   2974198456.8582072     
   2582542845.9717956     
   2590528749.0825706     
   2603480338.1048284     
   2621397588.2426047     
   2644280481.5941300     
   2583339892.6090384     
   2586565455.8812795     
   2595767052.6091480     
   2610952558.9376254     
   2632133030.9755926     
   2651300060.4666667     
   2646248437.7250147     
   2647970797.1147914     
   2656504633.1723022     
   2671900971.8635244     
   2783746172.3072929     
   2767005149.2039070     
   2757571147.0799365     
   2755530045.9781108     
   2761000975.8012543     
   2974198456.8582072     
   2942790357.0856762     
   2918945368.1011243     
   2902801978.8252234     
   2894561679.3019671     
   2644280481.5941300     
   2633988716.2916040     
   2631971252.7076898     
   2638228089.6389694     
   2652759229.9422626     
   2632133030.9755926     
   2620745470.6423254     
   2617283752.2245359     
   2621763221.6083369     
   2634199480.7489138     
   2671900971.8635244     
   2656410167.0190120     
   2648434293.2738328     
   2648028219.6889434     
   2655248323.2216377     
   2761000975.8012543     
   2738919866.9648290     
   2723877761.7302127     
   2715981522.1838388     
   2715342577.6245508     
   2894561679.3019671     
   2864087425.0897198     
   2840117028.1887527     
   2822808824.4435177     
   2812330718.1769295     
   2652759229.9422626     
   2641304345.2451782     
   2638248855.9105310     
   2643592880.7083864     
   2657336647.2322421     
   2634199480.7489138     
   2620927023.5049062     
   2616158791.7885137     
   2619909134.2080870     
   2632192441.4524951     
   2655248323.2216377     
   2636980197.7283978     
   2627263941.3798184     
   2626159408.6608496     
   2633727803.6380329     
   2715342577.6245508     
   2689117520.4023728     
   2671407739.6666026     
   2662345182.5077391     
   2662067646.0970054     
   2812330718.1769295     
   2775608893.1344156     
   2747255862.8107104     
   2727491731.3718128     
   2716552030.2292933     
   2657336647.2322421     
   2651898368.7979960     
   2654695175.1103797     
   2665728743.2059360     
   2685003018.4453144     
   2632192441.4524951     
   2624617316.7399473     
   2624955051.3225698     
   2633219945.3190184     
   2649426802.1806483     
   2633727803.6380329     
   2622083361.1948104     
   2618073712.3368483     
   2621741158.2246213     
   2633126800.8677053     
   2662067646.0970054     
   2644652878.7362566     
   2634618694.0546565     
   2632046579.5808940     
   2637016224.5737553     
   2716552030.2292933     
   2691983410.1799760     
   2674544854.8355999     
   2664362837.7829103     
   2661563451.0462122     
   2685003018.4453144     
   2676977293.7569823     
   2681814447.3550563     
   2699916403.7772989     
   2731988056.6751308     
   2649426802.1806483     
   2647233594.4691634     
   2656926101.4112110     
   2678613647.1651726     
   2712495792.0281754     
   2633126800.8677053     
   2628732656.4424634     
   2635190622.8537450     
   2652553796.9215779     
   2680868760.6796613     
   2637016224.5737553     
   2622895719.3663449     
   2618430088.5284500     
   2623848146.3204918     
   2639400022.6538787     
   2661563451.0462122     
   2631050633.3785396     
   2608680566.9338088     
   2595072172.5269308     
   2591045473.9553351     
   1955391540.7730138     
   2119441511.5079312     
   2284850150.4175944     
   2448657032.8984408     
   2608903752.6341076     
   2298840393.9046102     
   2449522060.2174373     
   2604927353.1640263     
   2763133840.9388628     
   2922711754.9240990     
   2694779425.8081250     
   2830532560.7327709     
   2973599092.9239850     
   3122897062.8168950     
   3277515684.1116905     
   3137999145.8579717     
   3255518764.3369079     
   3382457043.5756068     
   3518345208.4276185     
   3662725716.5070262     
   3625010223.5249348     
   3719688329.5474620     
   3825619723.7097325     
   3942740827.4409003     
   4070958992.6870365     
   2608903752.6341076     
   2676869654.7866082     
   2749342258.0986199     
   2825813832.0750751     
   2905931995.0657105     
   2922711754.9240990     
   2975664719.1367126     
   3030841576.5499387     
   3087560425.7401133     
   3145288530.4794073     
   3277515684.1116905     
   3320780660.4690833     
   3364289972.0941825     
   3407220604.9070940     
   3448894393.2596660     
   3662725716.5070262     
   3702168208.7151594     
   3740232324.4877691     
   3776018954.2817311     
   3808778449.4724512     
   4070958992.6870365     
   4112444306.9707708     
   4151282250.2168579     
   4186574283.1713953     
   4217587945.4254060     
   2905931995.0657105     
   2921009992.4038315     
   2937447442.4776745     
   2955189814.8545332     
   2974198456.8582072     
   3145288530.4794073     
   3141783891.3726602     
   3141898495.1997614     
   3145532313.3368545     
   3152672473.1399560     
   3448894393.2596660     
   3422821539.9814968     
   3401849894.3237128     
   3385750768.0814028     
   3374510380.4939933     
   3808778449.4724512     
   3755812370.4084373     
   3708835929.0129719     
   3667375992.8863492     
   3631339501.2463675     
   4217587945.4254060     
   4133130904.6497688     
   4055171672.9730673     
   3982860237.9772272     
   3915904597.3183117     
   2974198456.8582072     
   2942790357.0856762     
   2918945368.1011243     
   2902801978.8252234     
   2894561679.3019671     
   3152672473.1399560     
   3107702903.4154224     
   3069137250.5940981     
   3037178234.9292002     
   3012082820.2201543     
   3374510380.4939933     
   3316237658.3485169     
   3263344346.2387810     
   3216059900.4189348     
   3174661584.5211558     
   3631339501.2463675     
   3560590885.8009567     
   3494365305.0133505     
   3432889972.3420768     
   3376434421.9971328     
   3915904597.3183117     
   3833798205.6376958     
   3755540878.2231417     
   3681339408.4433994     
   3611438406.8013859     
   2894561679.3019671     
   2864087425.0897198     
   2840117028.1887527     
   2822808824.4435177     
   2812330718.1769295     
   3012082820.2201543     
   2969894827.9456153     
   2934046425.7277246     
   2904768462.9648252     
   2882316069.7673278     
   3174661584.5211558     
   3119067623.9714518     
   3069444493.0143428     
   3026083263.0747056     
   2989319917.5520682     
   3376434421.9971328     
   3306232275.1675043     
   3241470014.0963702     
   3182475303.6566887     
   3129643966.4080729     
   3611438406.8013859     
   3525807031.2918515     
   3444974837.6027246     
   3369277676.8575983     
   3299141785.9687972     
   2812330718.1769295     
   2775608893.1344156     
   2747255862.8107104     
   2727491731.3718128     
   2716552030.2292933     
   2882316069.7673278     
   2833542638.3838921     
   2792584066.6203113     
   2759741223.2151494     
   2735340392.7368479     
   2989319917.5520682     
   2927472801.8735456     
   2872812319.2822552     
   2825702946.7121806     
   2786548274.7655702     
   3129643966.4080729     
   3054273184.9760613     
   2985412602.5187545     
   2923464572.9105611     
   2868884931.8025622     
   3299141785.9687972     
   3210243238.8350539     
   3127167678.1309299     
   3050328158.4202342     
   2980203207.9816432     
   2716552030.2292933     
   2691983410.1799760     
   2674544854.8355999     
   2664362837.7829103     
   2661563451.0462122     
   2735340392.7368479     
   2701353225.4907446     
   2674389698.1450739     
   2654660303.6287818     
   2642380249.1863127     
   2786548274.7655702     
   2741176852.7951894     
   2702563428.4030433     
   2671008482.2272167     
   2646829660.2392378     
   2868884931.8025622     
   2810640873.1748052     
   2758718177.8285398     
   2713498462.6154952     
   2675400023.7028198     
   2980203207.9816432     
   2908092341.3998675     
   2841708601.0110369     
   2781492088.0910311     
   2727943494.5528545     
   2661563451.0462122     
   2631050633.3785396     
   2608680566.9338088     
   2595072172.5269308     
   2591045473.9553351     
   2642380249.1863127     
   2594778675.9061785     
   2555746358.6336026     
   2525826231.9273491     
   2505650240.9423876     
   2646829660.2392378     
   2583729371.4753251     
   2529704357.9099011     
   2485289045.7933202     
   2451050574.6244502     
   2675400023.7028198     
   2598208960.6313696     
   2530697296.6438231     
   2473471530.4858446     
   2427181408.4299340     
   2727943494.5528545     
   2637781806.9365835     
   2558027584.4708195     
   2489450935.1986866     
   2432948574.7910948     
   3625010223.5249348     
   3719688329.5474620     
   3825619723.7097325     
   3942740827.4409003     
   4070958992.6870365     
   4134158836.7283421     
   4224379877.5159960     
   4320521008.1391668     
   4420925036.0220957     
   4524136962.8950300     
   4643480698.4493370     
   4755533799.0289583     
   4868708732.6590443     
   4980370115.4596024     
   5088592241.4474020     
   5151455569.5182505     
   5311325400.5568190     
   5467824143.6173534     
   5618056168.5973902     
   5760555863.3023386     
   5657819752.4845982     
   5890916883.0072165     
   6116371539.4676237     
   6331725227.3999443     
   6536755827.7498541     
   4070958992.6870365     
   4112444306.9707708     
   4151282250.2168579     
   4186574283.1713953     
   4217587945.4254060     
   4524136962.8950300     
   4538999728.8426361     
   4558533143.8537111     
   4580257624.7297249     
   4602449976.0878744     
   5088592241.4474020     
   5053987140.2500410     
   5029893387.7438583     
   5011105421.6314449     
   4994422725.0790901     
   5760555863.3023386     
   5652078203.1584253     
   5559599475.7695503     
   5474058935.3675642     
   5389917016.6738625     
   6536755827.7498541     
   6328676539.5903683     
   6142782739.1495171     
   5965165730.0979195     
   5786818195.7476196     
   4217587945.4254060     
   4133130904.6497688     
   4055171672.9730673     
   3982860237.9772272     
   3915904597.3183117     
   4602449976.0878744     
   4493771102.5333004     
   4389316931.4378796     
   4288770964.6807556     
   4192044658.4890094     
   4994422725.0790901     
   4866900176.5474482     
   4742573143.5479593     
   4621410168.4211664     
   4503452542.6272001     
   5389917016.6738625     
   5248551756.3900337     
   5110416112.8509331     
   4975552292.9592199     
   4844054794.4226370     
   5786818195.7476196     
   5636054577.7755814     
   5489499959.9180775     
   5347068474.4476013     
   5208808341.4170237     
   3915904597.3183117     
   3833798205.6376958     
   3755540878.2231417     
   3681339408.4433994     
   3611438406.8013859     
   4192044658.4890094     
   4097369960.3939714     
   4006005538.6616569     
   3918163995.0386686     
   3834115730.4096584     
   4503452542.6272001     
   4394585518.4661226     
   4288293267.8583598     
   4184762487.1937385     
   4084264224.2287145     
   4844054794.4226370     
   4719553812.2883291     
   4596765086.5802422     
   4475815869.2432775     
   4356946783.5837955     
   5208808341.4170237     
   5067369311.8676205     
   4926713469.3442259     
   4786876202.9620647     
   4648034801.8562984     
   3611438406.8013859     
   3525807031.2918515     
   3444974837.6027246     
   3369277676.8575983     
   3299141785.9687972     
   3834115730.4096584     
   3733522980.9285293     
   3636867812.0209808     
   3544452135.6540303     
   3456656517.2702627     
   4084264224.2287145     
   3969950022.8183784     
   3858895379.8142748     
   3751354342.3863020     
   3647647823.8970265     
   4356946783.5837955     
   4230159408.1406455     
   4106140017.3821888     
   3985090905.9090767     
   3867271142.0553989     
   4648034801.8562984     
   4509945936.4524221     
   4374308462.5240173     
   4241274700.0032401     
   4111046626.3868885     
   3299141785.9687972     
   3210243238.8350539     
   3127167678.1309299     
   3050328158.4202342     
   2980203207.9816432     
   3456656517.2702627     
   3353592253.6375303     
   3255474405.5815978     
   3162720219.3419528     
   3075829088.2483435     
   3647647823.8970265     
   3530389504.0398340     
   3417156732.1341052     
   3308337241.9661188     
   3204411025.1834073     
   3867271142.0553989     
   3736056948.6898584     
   3607958188.0026917     
   3483308074.7322488     
   3362534677.5773773     
   4111046626.3868885     
   3966265489.4658160     
   3823739970.4765892     
   3683734030.5226669     
   3546602634.7144675     
   2980203207.9816432     
   2908092341.3998675     
   2841708601.0110369     
   2781492088.0910311     
   2727943494.5528545     
   3075829088.2483435     
   2989174355.2684236     
   2907298798.3024769     
   2830625312.6399379     
   2759647795.6929150     
   3204411025.1834073     
   3104120783.5783386     
   3007688943.0731235     
   2915486658.2553096     
   2827958619.9004984     
   3362534677.5773773     
   3249809627.4575224     
   3140112837.8161402     
   3033743051.0888772     
   2931067090.6734757     
   3546602634.7144675     
   3422767773.0364103     
   3301263508.8484445     
   3182310529.0033937     
   3066186854.2426434     
   2727943494.5528545     
   2637781806.9365835     
   2558027584.4708195     
   2489450935.1986866     
   2432948574.7910948     
   2759647795.6929150     
   2652862161.3385324     
   2554582569.0228138     
   2465658031.8615375     
   2387070345.5812740     
   2827958619.9004984     
   2703228030.7964540     
   2584674381.6891313     
   2473121377.6547146     
   2369564278.6517587     
   2931067090.6734757     
   2788672014.2096977     
   2649897110.1278915     
   2515428023.3181634     
   2386164935.1128254     
   3066186854.2426434     
   2907765124.6841049     
   2750461730.7074995     
   2594766654.9042201     
   2441422033.1795726     
   5657819752.4845982     
   5890916883.0072165     
   6116371539.4676237     
   6331725227.3999443     
   6536755827.7498541     
   6491663517.0118179     
   6586883746.9610310     
   6757435867.3847036     
   6961239820.8243780     
   7171635628.1801662     
   7982352558.1851206     
   7734975935.7488871     
   7669169886.9971027     
   7669629881.5344667     
   7666424819.1549120     
   10130333122.841715     
   9322033730.6369400     
   8826382987.3713188     
   8443549861.2602844     
   8035726728.4516964     
   12935691365.425879     
   11340770447.921072     
   10210241562.953791     
   9272765756.6343517     
   8303903815.3371449     
   6536755827.7498541     
   6328676539.5903683     
   6142782739.1495171     
   5965165730.0979195     
   5786818195.7476196     
   7171635628.1801662     
   6910994773.2268562     
   6658249245.2937279     
   6409540022.9834929     
   6161721959.8910131     
   7666424819.1549120     
   7381191647.2505474     
   7101344137.8404970     
   6826960583.4520979     
   6558244218.7609825     
   8035726728.4516964     
   7746915112.4596958     
   7473763185.0115099     
   7214314294.7245111     
   6968575172.7117081     
   8303903815.3371449     
   8020725950.6537399     
   7779640020.2615490     
   7569964883.7103920     
   7386728723.2211399     
   5786818195.7476196     
   5636054577.7755814     
   5489499959.9180775     
   5347068474.4476013     
   5208808341.4170237     
   6161721959.8910131     
   6012548846.5658274     
   5864733376.1763411     
   5718314353.0321236     
   5573348609.7045555     
   6558244218.7609825     
   6407512993.4941006     
   6255182168.3360643     
   6101220695.5476742     
   5945657751.7611446     
   6968575172.7117081     
   6814486209.2291689     
   6655816831.3301277     
   6492285305.9019766     
   6323839391.1966877     
   7386728723.2211399     
   7228469768.6473637     
   7062735937.9045124     
   6888834530.2847471     
   6706575135.0279331     
   5208808341.4170237     
   5067369311.8676205     
   4926713469.3442259     
   4786876202.9620647     
   4648034801.8562984     
   5573348609.7045555     
   5414502753.6196461     
   5256514099.5559902     
   5099422011.0851030     
   4943327861.5008221     
   5945657751.7611446     
   5772732512.4069080     
   5601169502.7006874     
   5430992892.4998312     
   5262261016.0080490     
   6323839391.1966877     
   6139643653.4278316     
   5957688934.1999054     
   5777953417.5042276     
   5600462750.3000460     
   6706575135.0279331     
   6513416746.3999624     
   6323715430.2720900     
   6137361705.9382935     
   5954338495.2018919     
   4648034801.8562984     
   4509945936.4524221     
   4374308462.5240173     
   4241274700.0032401     
   4111046626.3868885     
   4943327861.5008221     
   4795658757.2061195     
   4649395586.9192762     
   4504657326.7452192     
   4361604337.0075092     
   5262261016.0080490     
   5105307561.1560345     
   4948775396.0332546     
   4792738346.6095200     
   4637306832.9353981     
   5600462750.3000460     
   5434688459.4632435     
   5268428800.5453949     
   5101706693.6129084     
   4934580603.7253504     
   5954338495.2018919     
   5780322161.4237947     
   5605002139.3496647     
   5428349335.2540388     
   5250373111.4223709     
   4111046626.3868885     
   3966265489.4658160     
   3823739970.4765892     
   3683734030.5226669     
   3546602634.7144675     
   4361604337.0075092     
   4202836993.7998252     
   4045776190.7808032     
   3890600272.0366960     
   3737564024.3893499     
   4637306832.9353981     
   4465526878.2855721     
   4295040525.7594843     
   4125951723.7302427     
   3958427816.9403572     
   4934580603.7253504     
   4750532192.2127514     
   4567484488.4700928     
   4385480730.5968037     
   4204617573.4004822     
   5250373111.4223709     
   5054581827.0181541     
   4859597292.8173962     
   4665415195.6239014     
   4472078173.2462740     
   3546602634.7144675     
   3422767773.0364103     
   3301263508.8484445     
   3182310529.0033937     
   3066186854.2426434     
   3737564024.3893499     
   3603179495.9035220     
   3470366278.8388619     
   3339302660.8044791     
   3210227264.4054241     
   3958427816.9403572     
   3813448834.3942623     
   3669261095.0235505     
   3525986530.6500387     
   3383807453.5352454     
   4204617573.4004822     
   4049039462.8492513     
   3893486961.1684208     
   3738017733.6759882     
   3582747736.8702645     
   4472078173.2462740     
   4305904990.1080017     
   4139030622.1273780     
   3971445438.5631509     
   3803194933.7049685     
   3066186854.2426434     
   2907765124.6841049     
   2750461730.7074995     
   2594766654.9042201     
   2441422033.1795726     
   3210227264.4054241     
   3039589757.8820763     
   2870755593.3020067     
   2703983616.0710211     
   2539656392.9846883     
   3383807453.5352454     
   3201856862.7464647     
   3022560412.6468267     
   2846132969.4283047     
   2672940358.1503010     
   3582747736.8702645     
   3388900168.8397422     
   3198602250.7259278     
   3012191483.6099200     
   2830320519.1519823     
   3803194933.7049685     
   3595657275.8225574     
   3392549964.5638170     
   3194486300.1056991     
   3002676392.5933580     
 </DataArray>
 <DataArray  type="Float64" Name="strain" NumberOfComponents="3" format="ascii">
  0.20348256244860227        0.0000000000000000       0.12539825486842746     
  0.18665422016130440       -2.7321429867223884E-002   7.4349346008575470E-002
  0.16982587787400655       -4.4672279452697125E-002   3.5133516652260409E-002
  0.15299753558670867       -5.2052548756419695E-002   7.7507667994822123E-003
  0.13616919329941080       -4.9462237778391663E-002  -7.7989035497590675E-003
  0.15985362194633387        0.0000000000000000        9.6445608081449877E-002
  0.15317684470148432       -2.1842305322894780E-002   6.2689384993390107E-002
  0.14650006745663474       -3.6172074159867208E-002   3.7403212486690041E-002
  0.13982329021178519       -4.2989306510917313E-002   2.0587090561349712E-002
  0.13314651296693564       -4.2294002376045053E-002   1.2241019217369080E-002
  0.12645732329310977        0.0000000000000000        7.4201107736715566E-002
  0.12656908216853133       -1.6363180778565672E-002   5.5279526624619692E-002
  0.12668084104395286       -2.7671868867037305E-002   4.1464967171706356E-002
  0.12679259991937442       -3.3926064265414890E-002   3.2757429377975544E-002
  0.12690435879479597       -3.5125766973698451E-002   2.9156913243427254E-002
  0.10329366648893000        0.0000000000000000        5.8664753834224502E-002
  0.10683093256244545       -1.0884056234236565E-002   5.2119770902264245E-002
  0.11036819863596095       -1.9171663574207395E-002   4.7318780707309313E-002
  0.11390546470947641       -2.4862822019912488E-002   4.4261783249359699E-002
  0.11744273078299190       -2.7957531571351849E-002   4.2948778528415443E-002
   9.0362651533794511E-002   0.0000000000000000        4.9836546373976692E-002
   9.3962395883226732E-002  -5.4049316899074593E-003   5.3210117826323726E-002
   9.7562140232658939E-002  -1.0671458281377486E-002   5.4964653093498898E-002
  0.10116188458209116       -1.5799579774410093E-002   5.5100152175502230E-002
  0.10476162893152337       -2.0789296169005256E-002   5.3616615072333687E-002
  0.13616919329941080       -4.9462237778391663E-002  -7.7989035497590675E-003
  0.13296071067261100       -4.2932391299418775E-002  -3.3924944924743766E-003
  0.12975222804581121       -3.8494054100306832E-002  -3.9754866120876933E-004
  0.12654374541901139       -3.6147226181055925E-002   1.1859339440378168E-003
  0.12333526279221163       -3.5891907541665879E-002   1.3579533232653263E-003
  0.13314651296693564       -4.2294002376045053E-002   1.2241019217369080E-002
  0.12891409944434862       -3.8431506639783147E-002   1.2180655483719171E-002
  0.12468168592176163       -3.5747164186664272E-002   1.1483893184513913E-002
  0.12044927239917462       -3.4240975016688394E-002   1.0150732319753360E-002
  0.11621685887658761       -3.3912939129855574E-002   8.1811728894375657E-003
  0.12690435879479597       -3.5125766973698451E-002   2.9156913243427254E-002
  0.12242307903688548       -3.3930621980147554E-002   2.5543132715560760E-002
  0.11794179927897504       -3.3000274273021692E-002   2.2068018282602554E-002
  0.11346051952106455       -3.2334723852320946E-002   1.8731569944552814E-002
  0.10897923976315407       -3.1933970718045296E-002   1.5533787701411422E-002
  0.11744273078299190       -2.7957531571351849E-002   4.2948778528415443E-002
  0.11348764945022166       -2.9429737320511913E-002   3.6694937203050240E-002
  0.10953256811745142       -3.0253384359379149E-002   3.1354826633057060E-002
  0.10557748678468121       -3.0428472687953491E-002   2.6928446818436147E-002
  0.10162240545191099       -2.9955002306235004E-002   2.3415797759187236E-002
  0.10476162893152337       -2.0789296169005256E-002   5.3616615072333687E-002
  0.10210781068435712       -2.4928852660876306E-002   4.5636068946187679E-002
   9.9453992437190858E-002  -2.7506494445736569E-002   3.9344318235877578E-002
   9.6800174190024624E-002  -2.8522221523586033E-002   3.4741362941403238E-002
   9.4146355942858348E-002  -2.7976033894424712E-002   3.1827203062764778E-002
  0.12333526279221163       -3.5891907541665879E-002   1.3579533232653263E-003
  0.12041622475524749       -3.6382237637752585E-002   6.4569472806177974E-004
  0.11749718671828333       -3.6272355924931804E-002   1.1559020113993679E-004
  0.11457814868131916       -3.5562262403203627E-002  -2.3236025749955036E-004
  0.11165911064435502       -3.4251957072567785E-002  -3.9815664785730620E-004
  0.11621685887658761       -3.3912939129855574E-002   8.1811728894375657E-003
  0.11346729160504397       -3.3982320536713295E-002   7.8287810458975565E-003
  0.11071772433350033       -3.3668383247808790E-002   7.6331766649167243E-003
  0.10796815706195670       -3.2971127263142178E-002   7.5943597464946146E-003
  0.10521858979041301       -3.1890552582713450E-002   7.7123302906318969E-003
  0.10897923976315407       -3.1933970718045296E-002   1.5533787701411422E-002
  0.10637377665130791       -3.1582403435673825E-002   1.5324369496389857E-002
  0.10376831353946175       -3.1064410570685611E-002   1.5246372148204360E-002
  0.10116285042761561       -3.0379992123080696E-002   1.5299795656854735E-002
   9.8557387315769490E-002  -2.9529148092859059E-002   1.5484640022341109E-002
  0.10162240545191099       -2.9955002306235004E-002   2.3415797759187236E-002
   9.9135679894039319E-002  -2.9182486334634460E-002   2.3132460079538703E-002
   9.6648954336167631E-002  -2.8460437893562542E-002   2.2955176651002992E-002
   9.4162228778295942E-002  -2.7788856983019312E-002   2.2883947473580385E-002
   9.1675503220424281E-002  -2.7167743603004751E-002   2.2918772547270715E-002
   9.4146355942858348E-002  -2.7976033894424712E-002   3.1827203062764778E-002
   9.1753001333238104E-002  -2.6782569233595052E-002   3.1253052795343780E-002
   8.9359646723617930E-002  -2.5856465216439431E-002   3.0759590173312659E-002
   8.6966292113997701E-002  -2.5197721842957859E-002   3.0346815196671643E-002
   8.4572937504377471E-002  -2.4806339113150389E-002   3.0014727865420393E-002
  0.11165911064435502       -3.4251957072567785E-002  -3.9815664785730620E-004
  0.10854283590209912       -3.2748281721112327E-002  -1.8603329132452218E-004
  0.10542656115984317       -3.1458078136925208E-002   1.2759633611070242E-004
  0.10231028641758727       -3.0381346320006514E-002   5.4273223444860352E-004
   9.9194011675331317E-002  -2.9518086270355959E-002   1.0593744036890840E-003
  0.10521858979041301       -3.1890552582713450E-002   7.7123302906318969E-003
  0.10222400201887591       -3.0682578995071416E-002   7.5529564019771595E-003
   9.9229414247338818E-002  -2.9603126288764825E-002   7.5354501838574839E-003
   9.6234826475801727E-002  -2.8652194463793690E-002   7.6598116362729257E-003
   9.3240238704264677E-002  -2.7829783520158025E-002   7.9260407592231241E-003
   9.8557387315769490E-002  -2.9529148092859059E-002   1.5484640022341109E-002
   9.5724847914583522E-002  -2.8616876269030422E-002   1.5038719774432122E-002
   9.2892308513397595E-002  -2.7748174440604324E-002   1.4775028596690311E-002
   9.0059769112211641E-002  -2.6923042607580917E-002   1.4693566489115930E-002
   8.7227229711025686E-002  -2.6141480769960063E-002   1.4794333451708733E-002
   9.1675503220424281E-002  -2.7167743603004751E-002   2.2918772547270715E-002
   8.9045373589221891E-002  -2.6551173542989415E-002   2.2271256826040024E-002
   8.6415243958019458E-002  -2.5893222592443938E-002   2.1846331574608996E-002
   8.3785114326816998E-002  -2.5193890751368065E-002   2.1643996792977540E-002
   8.1154984695614635E-002  -2.4453178019762059E-002   2.1664252481145920E-002
   8.4572937504377471E-002  -2.4806339113150389E-002   3.0014727865420393E-002
   8.2185579042790946E-002  -2.4485470816948463E-002   2.9250567556800972E-002
   7.9798220581204435E-002  -2.4038270744283427E-002   2.8749359117613504E-002
   7.7410862119617896E-002  -2.3464738895155348E-002   2.8511102547858179E-002
   7.5023503658031371E-002  -2.2764875269564111E-002   2.8535797847534766E-002
   9.9194011675331317E-002  -2.9518086270355959E-002   1.0593744036890840E-003
   9.6271436021143408E-002  -2.8728354142900231E-002   9.2228184366027754E-004
   9.3348860366955472E-002  -2.7872206092565313E-002   9.2204568768403106E-004
   9.0426284712767549E-002  -2.6949642119352125E-002   1.0586659357608580E-003
   8.7503709058579626E-002  -2.5960662223259656E-002   1.3321425878906057E-003
   9.3240238704264677E-002  -2.7829783520158025E-002   7.9260407592231241E-003
   9.0458314103468940E-002  -2.7050342917876752E-002   7.7880048871142582E-003
   8.7676389502673313E-002  -2.6228322116968766E-002   7.7944147177374384E-003
   8.4894464901877659E-002  -2.5363721117433950E-002   7.9452702510920473E-003
   8.2112540301081949E-002  -2.4456539919272158E-002   8.2405714871784941E-003
   8.7227229711025686E-002  -2.6141480769960063E-002   1.4794333451708733E-002
   8.4593545462301203E-002  -2.5372331692853314E-002   1.4631518543267996E-002
   8.1959861213576762E-002  -2.4584438141371769E-002   1.4620738636237939E-002
   7.9326176964852266E-002  -2.3777800115515717E-002   1.4761993730618549E-002
   7.6692492716127852E-002  -2.2952417615284826E-002   1.5055283826409749E-002
   8.1154984695614635E-002  -2.4453178019762059E-002   2.1664252481145920E-002
   7.8677130097640324E-002  -2.3694320467829690E-002   2.1452822812121027E-002
   7.6199275499665972E-002  -2.2940554165774774E-002   2.1401017443185795E-002
   7.3721420901691592E-002  -2.2191879113597403E-002   2.1508836374340017E-002
   7.1243566303717309E-002  -2.1448295311297411E-002   2.1776279605584078E-002
   7.5023503658031371E-002  -2.2764875269564111E-002   2.8535797847534766E-002
   7.2709068009486122E-002  -2.2016309242806217E-002   2.8251917693673606E-002
   7.0394632360940859E-002  -2.1296670190177960E-002   2.8135251138581119E-002
   6.8080196712395624E-002  -2.0605958111679052E-002   2.8185798182256944E-002
   6.5765761063850375E-002  -1.9944173007309995E-002   2.8403558824701525E-002
   8.7503709058579626E-002  -2.5960662223259656E-002   1.3321425878906057E-003
   8.4231933567322725E-002  -2.4952481023424733E-002   1.1071905258083770E-003
   8.0960158076065880E-002  -2.3972313138982904E-002   1.0871921776669513E-003
   7.7688382584809007E-002  -2.3020158569934682E-002   1.2721475434665785E-003
   7.4416607093552134E-002  -2.2096017316279415E-002   1.6620566232073974E-003
   8.2112540301081949E-002  -2.4456539919272158E-002   8.2405714871784941E-003
   7.9044682845902714E-002  -2.3537123236656965E-002   7.9626436472200468E-003
   7.5976825390723396E-002  -2.2635815783761323E-002   7.8875981654757954E-003
   7.2908967935544050E-002  -2.1752617560584980E-002   8.0154350419458509E-003
   6.9841110480364843E-002  -2.0887528567127833E-002   8.3461542766299357E-003
   7.6692492716127852E-002  -2.2952417615284826E-002   1.5055283826409749E-002
   7.3826481941299399E-002  -2.2121765449889419E-002   1.4734284294249014E-002
   7.0960471166471042E-002  -2.1299318428539521E-002   1.4614095764575855E-002
   6.8094460391642658E-002  -2.0485076551235167E-002   1.4694718237390228E-002
   6.5228449616814232E-002  -1.9679039817976252E-002   1.4976151712691926E-002
   7.1243566303717309E-002  -2.1448295311297411E-002   2.1776279605584078E-002
   6.8577330853513044E-002  -2.0706407663121873E-002   2.1422112466895061E-002
   6.5911095403308792E-002  -1.9962821073318052E-002   2.1266684974966657E-002
   6.3244859953104526E-002  -1.9217535541885520E-002   2.1309997129799394E-002
   6.0578624502900275E-002  -1.8470551068824781E-002   2.1552048931392807E-002
   6.5765761063850375E-002  -1.9944173007309995E-002   2.8403558824701525E-002
   6.3297229582543496E-002  -1.9291049876354271E-002   2.8026128165158148E-002
   6.0828698101236658E-002  -1.8626323718096374E-002   2.7845365796648952E-002
   5.8360166619929828E-002  -1.7949994532536016E-002   2.7861271719173797E-002
   5.5891635138622942E-002  -1.7262062319673088E-002   2.8073845932732489E-002
   7.4416607093552134E-002  -2.2096017316279415E-002   1.6620566232073974E-003
   7.1671032301206417E-002  -2.1156547481870847E-002   1.5000340939581580E-003
   6.8925457508860755E-002  -2.0158407170560860E-002   1.5485054032345347E-003
   6.6179882716515093E-002  -1.9101596382350296E-002   1.8074705510361944E-003
   6.3434307924169375E-002  -1.7986115117238799E-002   2.2769295373638032E-003
   6.9841110480364843E-002  -2.0887528567127833E-002   8.3461542766299357E-003
   6.7293333691823165E-002  -2.0015868377364909E-002   8.1792327119121766E-003
   6.4745556903281432E-002  -1.9112956565270844E-002   8.1974133162769913E-003
   6.2197780114739754E-002  -1.8178793130846152E-002   8.4006960897244770E-003
   5.9650003326198076E-002  -1.7213378074089736E-002   8.7890810322541757E-003
   6.5228449616814232E-002  -1.9679039817976252E-002   1.4976151712691926E-002
   6.2853079162633663E-002  -1.8875189272859444E-002   1.4776912257935593E-002
   6.0477708708453148E-002  -1.8067505959981148E-002   1.4737383302819138E-002
   5.8102338254272579E-002  -1.7255989879341672E-002   1.4857564847342179E-002
   5.5726967800091981E-002  -1.6440641030940728E-002   1.5137456891505058E-002
   6.0578624502900275E-002  -1.8470551068824781E-002   2.1552048931392807E-002
   5.8350268713638027E-002  -1.7734510168353854E-002   2.1293072732028087E-002
   5.6121912924375739E-002  -1.7022055354691291E-002   2.1168415362860276E-002
   5.3893557135113422E-002  -1.6333186627837247E-002   2.1178076823889461E-002
   5.1665201345851147E-002  -1.5667903987791804E-002   2.1322057115115430E-002
   5.5891635138622942E-002  -1.7262062319673088E-002   2.8073845932732489E-002
   5.3784902344836155E-002  -1.6593831063848180E-002   2.7727714134189785E-002
   5.1678169551049313E-002  -1.5976604749401421E-002   2.7490509496400861E-002
   4.9571436757262444E-002  -1.5410383376332878E-002   2.7362232019366342E-002
   4.7464703963475630E-002  -1.4895166944642602E-002   2.7342881703085797E-002
   6.3434307924169375E-002  -1.7986115117238799E-002   2.2769295373638032E-003
   5.9829248087168163E-002  -1.6657624472157684E-002   1.7894272558449664E-003
   5.6224188250166895E-002  -1.4961785544038236E-002   1.6287808912519020E-003
   5.2619128413165628E-002  -1.2898598332880144E-002   1.7949904435838049E-003
   4.9014068576164416E-002  -1.0468062838683956E-002   2.2880559128415356E-003
   5.9650003326198076E-002  -1.7213378074089736E-002   8.7890810322541757E-003
   5.6348712238625864E-002  -1.6114901397867143E-002   8.4408706049250992E-003
   5.3047421151053653E-002  -1.4781553105042283E-002   8.3733417595284187E-003
   4.9746130063481525E-002  -1.3213333195615885E-002   8.5864944960644396E-003
   4.6444838975909231E-002  -1.1410241669586707E-002   9.0803288145335781E-003
   5.5726967800091981E-002  -1.6440641030940728E-002   1.5137456891505058E-002
   5.2683271126956338E-002  -1.5572178323576380E-002   1.4796061651928288E-002
   4.9639574453820612E-002  -1.4601320666046455E-002   1.4689173659291746E-002
   4.6595877780684858E-002  -1.3528068058351241E-002   1.4816792913595896E-002
   4.3552181107549104E-002  -1.2352420500490124E-002   1.5178919414839620E-002
   5.1665201345851147E-002  -1.5667903987791804E-002   2.1322057115115430E-002
   4.8832924752159390E-002  -1.5029455249285839E-002   2.0855000396855221E-002
   4.6000648158467564E-002  -1.4421088227050564E-002   2.0576276590542304E-002
   4.3168371564775862E-002  -1.3842802921086568E-002   2.0485885696177278E-002
   4.0336094971083911E-002  -1.3294599331393209E-002   2.0583827713759717E-002
   4.7464703963475630E-002  -1.4895166944642602E-002   2.7342881703085797E-002
   4.4797673114235159E-002  -1.4486732174995021E-002   2.6617686839705279E-002
   4.2130642264994661E-002  -1.4240855788054965E-002   2.6034650553279831E-002
   3.9463611415754149E-002  -1.4157537783821745E-002   2.5593772843809162E-002
   3.6796580566513581E-002  -1.4236778162296293E-002   2.5295053711294146E-002
   9.0362651533794511E-002   0.0000000000000000        4.9836546373976692E-002
   9.3962395883226732E-002  -5.4049316899074593E-003   5.3210117826323726E-002
   9.7562140232658939E-002  -1.0671458281377486E-002   5.4964653093498898E-002
  0.10116188458209116       -1.5799579774410093E-002   5.5100152175502230E-002
  0.10476162893152337       -2.0789296169005256E-002   5.3616615072333687E-002
   8.2425972155744334E-002   0.0000000000000000        4.4784310685424392E-002
   8.4635821240631931E-002  -4.5746040605203460E-003   4.8267987990201752E-002
   8.6845670325519500E-002  -9.0377419661245070E-003   5.0590910951061718E-002
   8.9055519410407097E-002  -1.3389413716812487E-002   5.1753079568004297E-002
   9.1265368495294694E-002  -1.7629619312584291E-002   5.1754493841029467E-002
   7.4245322082820447E-002   0.0000000000000000        4.0575872098019820E-002
   7.5523557744417866E-002  -3.7442764311332311E-003   4.4142716311706284E-002
   7.6801793406015284E-002  -7.4040256508715284E-003   4.7007088022729779E-002
   7.8080029067612716E-002  -1.0979247659214895E-002   4.9168987231090346E-002
   7.9358264729210121E-002  -1.4469942456163324E-002   5.0628413936787964E-002
   6.5820701315022878E-002   0.0000000000000000        3.7211230611762992E-002
   6.6625605394584592E-002  -2.9139488017461170E-003   4.0834302790837287E-002
   6.7430509474146291E-002  -5.7703093356185490E-003   4.4213184308503094E-002
   6.8235413553707963E-002  -8.5690816016173003E-003   4.7347875164760404E-002
   6.9040317633269677E-002  -1.1310265599742360E-002   5.0238375359609247E-002
   5.7152109852351619E-002   0.0000000000000000        3.4690386226653901E-002
   5.7941964191132053E-002  -2.0836211723590028E-003   3.8342747427594782E-002
   5.8731818529912487E-002  -4.1365930203655712E-003   4.2209199808381635E-002
   5.9521672868692928E-002  -6.1589155440197017E-003   4.6289743369014445E-002
   6.0311527207473362E-002  -8.1505887433213960E-003   5.0584378109493219E-002
  0.10476162893152337       -2.0789296169005256E-002   5.3616615072333687E-002
  0.10210781068435712       -2.4928852660876306E-002   4.5636068946187679E-002
   9.9453992437190858E-002  -2.7506494445736569E-002   3.9344318235877578E-002
   9.6800174190024624E-002  -2.8522221523586033E-002   3.4741362941403238E-002
   9.4146355942858348E-002  -2.7976033894424712E-002   3.1827203062764778E-002
   9.1265368495294694E-002  -1.7629619312584291E-002   5.1754493841029467E-002
   9.0062694161814380E-002  -2.1203979514785261E-002   4.6516522552495859E-002
   8.8860019828334080E-002  -2.3558115084760793E-002   4.2492043675498262E-002
   8.7657345494853781E-002  -2.4692026022510846E-002   3.9681057210036820E-002
   8.6454671161373481E-002  -2.4605712328035462E-002   3.8083563156111458E-002
   7.9358264729210121E-002  -1.4469942456163324E-002   5.0628413936787964E-002
   7.9131431305116032E-002  -1.7479106368694226E-002   4.7791327411081400E-002
   7.8904597881021915E-002  -1.9609735723784997E-002   4.5692430292611143E-002
   7.8677764456927812E-002  -2.0861830521435649E-002   4.4331722581377207E-002
   7.8450931032833723E-002  -2.1235390761646183E-002   4.3709204277379572E-002
   6.9040317633269677E-002  -1.1310265599742360E-002   5.0238375359609247E-002
   6.9314022114261992E-002  -1.3754233222603182E-002   4.9460483521944390E-002
   6.9587726595254334E-002  -1.5661356362809225E-002   4.8945478087216020E-002
   6.9861431076246677E-002  -1.7031635020360463E-002   4.8693359055424275E-002
   7.0135135557239020E-002  -1.7865069195256919E-002   4.8704126426569100E-002
   6.0311527207473362E-002  -8.1505887433213960E-003   5.0584378109493219E-002
   6.0610466589252371E-002  -1.0029360076512145E-002   5.1523990885084699E-002
   6.0909405971031387E-002  -1.1712977001833429E-002   5.2251187059313010E-002
   6.1208345352810396E-002  -1.3201439519285265E-002   5.2765966632178099E-002
   6.1507284734589419E-002  -1.4494747628867648E-002   5.3068329603679985E-002
   9.4146355942858348E-002  -2.7976033894424712E-002   3.1827203062764778E-002
   9.1753001333238104E-002  -2.6782569233595052E-002   3.1253052795343780E-002
   8.9359646723617930E-002  -2.5856465216439431E-002   3.0759590173312659E-002
   8.6966292113997701E-002  -2.5197721842957859E-002   3.0346815196671643E-002
   8.4572937504377471E-002  -2.4806339113150389E-002   3.0014727865420393E-002
   8.6454671161373481E-002  -2.4605712328035462E-002   3.8083563156111458E-002
   8.4188827935663013E-002  -2.3961365386691455E-002   3.7058421889074114E-002
   8.1922984709952559E-002  -2.3421176583835860E-002   3.6207615744466327E-002
   7.9657141484242078E-002  -2.2985145919468562E-002   3.5531144722288174E-002
   7.7391298258531652E-002  -2.2653273393589649E-002   3.5029008822539509E-002
   7.8450931032833723E-002  -2.1235390761646183E-002   4.3709204277379572E-002
   7.6406246668072594E-002  -2.1140161539787948E-002   4.2396274515911644E-002
   7.4361562303311493E-002  -2.0985887951232331E-002   4.1351327353912920E-002
   7.2316877938550392E-002  -2.0772569995979311E-002   4.0574362791383350E-002
   7.0272193573789304E-002  -2.0500207674028881E-002   4.0065380828322950E-002
   7.0135135557239020E-002  -1.7865069195256919E-002   4.8704126426569100E-002
   6.8405257530466862E-002  -1.8318957692884403E-002   4.7266610675856302E-002
   6.6675379503694732E-002  -1.8550599318628739E-002   4.6190725001652333E-002
   6.4945501476922587E-002  -1.8559994072490010E-002   4.5476469403957109E-002
   6.3215623450150457E-002  -1.8347141954468155E-002   4.5123843882770590E-002
   6.1507284734589419E-002  -1.4494747628867648E-002   5.3068329603679985E-002
   6.0185860522845837E-002  -1.5497753845980854E-002   5.1669430368908163E-002
   5.8864436311102247E-002  -1.6115310686025230E-002   5.0725808687684643E-002
   5.7543012099358692E-002  -1.6347418149000738E-002   5.0237464560009507E-002
   5.6221587887615096E-002  -1.6194076234907359E-002   5.0204397985882679E-002
   8.4572937504377471E-002  -2.4806339113150389E-002   3.0014727865420393E-002
   8.2185579042790946E-002  -2.4485470816948463E-002   2.9250567556800972E-002
   7.9798220581204435E-002  -2.4038270744283427E-002   2.8749359117613504E-002
   7.7410862119617896E-002  -2.3464738895155348E-002   2.8511102547858179E-002
   7.5023503658031371E-002  -2.2764875269564111E-002   2.8535797847534766E-002
   7.7391298258531652E-002  -2.2653273393589649E-002   3.5029008822539509E-002
   7.5256239743044101E-002  -2.2325296039204412E-002   3.4428080937672439E-002
   7.3121181227556592E-002  -2.1900950889318416E-002   3.4068801075571351E-002
   7.0986122712069083E-002  -2.1380237943931475E-002   3.3951169236235923E-002
   6.8851064196581546E-002  -2.0763157203043836E-002   3.4075185419666823E-002
   7.0272193573789304E-002  -2.0500207674028881E-002   4.0065380828322950E-002
   6.8368131157734699E-002  -2.0165121261460472E-002   3.9597721386245968E-002
   6.6464068741680066E-002  -1.9763631034353434E-002   3.9350406120268903E-002
   6.4560006325625419E-002  -1.9295736992707715E-002   3.9323435030391637E-002
   6.2655943909570827E-002  -1.8761439136523422E-002   3.9516808116614205E-002
   6.3215623450150457E-002  -1.8347141954468155E-002   4.5123843882770590E-002
   6.1521253286862615E-002  -1.8004946483716477E-002   4.4759488902521620E-002
   5.9826883123574759E-002  -1.7626311179388409E-002   4.4594174251706385E-002
   5.8132512960286944E-002  -1.7211236041483953E-002   4.4627899930324920E-002
   5.6438142796999068E-002  -1.6759721070003064E-002   4.4860665938377162E-002
   5.6221587887615096E-002  -1.6194076234907359E-002   5.0204397985882679E-002
   5.4715606130427932E-002  -1.5844771705972482E-002   4.9913383486499499E-002
   5.3209624373240762E-002  -1.5488991324423520E-002   4.9800105469883872E-002
   5.1703642616053619E-002  -1.5126735090260142E-002   4.9864563936035833E-002
   5.0197660858866427E-002  -1.4758003003482734E-002   5.0106758884955471E-002
   7.5023503658031371E-002  -2.2764875269564111E-002   2.8535797847534766E-002
   7.2709068009486122E-002  -2.2016309242806217E-002   2.8251917693673606E-002
   7.0394632360940859E-002  -2.1296670190177960E-002   2.8135251138581119E-002
   6.8080196712395624E-002  -2.0605958111679052E-002   2.8185798182256944E-002
   6.5765761063850375E-002  -1.9944173007309995E-002   2.8403558824701525E-002
   6.8851064196581546E-002  -2.0763157203043836E-002   3.4075185419666823E-002
   6.6709170605045942E-002  -2.0103387882676502E-002   3.3753994093150122E-002
   6.4567277013510282E-002  -1.9454609198851280E-002   3.3610673281883920E-002
   6.2425383421974699E-002  -1.8816821151567797E-002   3.3645222985868709E-002
   6.0283489830439019E-002  -1.8190023740826289E-002   3.3857643205104065E-002
   6.2655943909570827E-002  -1.8761439136523422E-002   3.9516808116614205E-002
   6.0697249291526978E-002  -1.8190466522546904E-002   3.9176241955029514E-002
   5.8738554673483129E-002  -1.7612548207524649E-002   3.9024203225177807E-002
   5.6779860055439259E-002  -1.7027684191456484E-002   3.9060691927058869E-002
   5.4821165437395437E-002  -1.6435874474342582E-002   3.9285708060672775E-002
   5.6438142796999068E-002  -1.6759721070003064E-002   4.4860665938377162E-002
   5.4673304068929222E-002  -1.6277545162417275E-002   4.4518661279312192E-002
   5.2908465340859349E-002  -1.5770487216198021E-002   4.4375840968462463E-002
   5.1143626612789504E-002  -1.5238547231345174E-002   4.4432205005827681E-002
   4.9378787884719597E-002  -1.4681725207858876E-002   4.4687753391407792E-002
   5.0197660858866427E-002  -1.4758003003482734E-002   5.0106758884955471E-002
   4.8637334937252696E-002  -1.4364623802287618E-002   4.9781252065998038E-002
   4.7077009015638965E-002  -1.3928426224871407E-002   4.9665586511737803E-002
   4.5516683094025248E-002  -1.3449410271233923E-002   4.9759762222175000E-002
   4.3956357172411503E-002  -1.2927575941375224E-002   5.0063779197309199E-002
   6.5765761063850375E-002  -1.9944173007309995E-002   2.8403558824701525E-002
   6.3297229582543496E-002  -1.9291049876354271E-002   2.8026128165158148E-002
   6.0828698101236658E-002  -1.8626323718096374E-002   2.7845365796648952E-002
   5.8360166619929828E-002  -1.7949994532536016E-002   2.7861271719173797E-002
   5.5891635138622942E-002  -1.7262062319673088E-002   2.8073845932732489E-002
   6.0283489830439019E-002  -1.8190023740826289E-002   3.3857643205104065E-002
   5.8011297760685213E-002  -1.7564783637206829E-002   3.3509570031247479E-002
   5.5739105690931448E-002  -1.6931667511289702E-002   3.3357507389463081E-002
   5.3466913621177642E-002  -1.6290675363074821E-002   3.3401455279750553E-002
   5.1194721551423822E-002  -1.5641807192562529E-002   3.3641413702110046E-002
   5.4821165437395437E-002  -1.6435874474342582E-002   3.9285708060672775E-002
   5.2744655020232685E-002  -1.5838517398059332E-002   3.8963265367498431E-002
   5.0668144603069898E-002  -1.5237011304483135E-002   3.8836175447433945E-002
   4.8591634185907145E-002  -1.4631356193614069E-002   3.8904438300479446E-002
   4.6515123768744379E-002  -1.4021552065451914E-002   3.9168053926635152E-002
   4.9378787884719597E-002  -1.4681725207858876E-002   4.4687753391407792E-002
   4.7497301361185858E-002  -1.4112251158911973E-002   4.4387214173910713E-002
   4.5615814837652140E-002  -1.3542355097676515E-002   4.4281369970561438E-002
   4.3734328314118415E-002  -1.2972037024153081E-002   4.4370220781360360E-002
   4.1852841790584620E-002  -1.2401296938341272E-002   4.4653766606307072E-002
   4.3956357172411503E-002  -1.2927575941375224E-002   5.0063779197309199E-002
   4.2269236783544772E-002  -1.2385984919764365E-002   4.9781416450484534E-002
   4.0582116394678056E-002  -1.1847698890869923E-002   4.9693090958845831E-002
   3.8894996005811332E-002  -1.1312717854692268E-002   4.9798802722393315E-002
   3.7207875616944608E-002  -1.0781041811230740E-002   5.0098551741126707E-002
   5.5891635138622942E-002  -1.7262062319673088E-002   2.8073845932732489E-002
   5.3784902344836155E-002  -1.6593831063848180E-002   2.7727714134189785E-002
   5.1678169551049313E-002  -1.5976604749401421E-002   2.7490509496400861E-002
   4.9571436757262444E-002  -1.5410383376332878E-002   2.7362232019366342E-002
   4.7464703963475630E-002  -1.4895166944642602E-002   2.7342881703085797E-002
   5.1194721551423822E-002  -1.5641807192562529E-002   3.3641413702110046E-002
   4.9209136562669578E-002  -1.5000681264871030E-002   3.3287635627706647E-002
   4.7223551573915348E-002  -1.4382915845119568E-002   3.3067226002614289E-002
   4.5237966585161028E-002  -1.3788510933307418E-002   3.2980184826833119E-002
   4.3252381596406791E-002  -1.3217466529435451E-002   3.3026512100363004E-002
   4.6515123768744379E-002  -1.4021552065451914E-002   3.9168053926635152E-002
   4.4675127873579780E-002  -1.3407531465893976E-002   3.8834274009809266E-002
   4.2835131978415236E-002  -1.2789226940837499E-002   3.8658303830851719E-002
   4.0995136083250686E-002  -1.2166638490282126E-002   3.8640143389762363E-002
   3.9155140188086093E-002  -1.1539766114228328E-002   3.8779792686541206E-002
   4.1852841790584620E-002  -1.2401296938341272E-002   4.4653766606307072E-002
   4.0182876277566858E-002  -1.1814381666916958E-002   4.4367629280497603E-002
   3.8512910764549074E-002  -1.1195538036555621E-002   4.4263742981113179E-002
   3.6842945251531263E-002  -1.0544766047256918E-002   4.4342107708154305E-002
   3.5172979738513507E-002  -9.8620656990211913E-003   4.4602723461620780E-002
   3.7207875616944608E-002  -1.0781041811230740E-002   5.0098551741126707E-002
   3.5732381774630728E-002  -1.0221231867939828E-002   4.9887701439771559E-002
   3.4256887932316793E-002  -9.6018491322735627E-003   4.9883543453398876E-002
   3.2781394090002899E-002  -8.9228936042314543E-003   5.0086077782008923E-002
   3.1305900247689006E-002  -8.1843652838139991E-003   5.0495304425600962E-002
   4.7464703963475630E-002  -1.4895166944642602E-002   2.7342881703085797E-002
   4.4797673114235159E-002  -1.4486732174995021E-002   2.6617686839705279E-002
   4.2130642264994661E-002  -1.4240855788054965E-002   2.6034650553279831E-002
   3.9463611415754149E-002  -1.4157537783821745E-002   2.5593772843809162E-002
   3.6796580566513581E-002  -1.4236778162296293E-002   2.5295053711294146E-002
   4.3252381596406791E-002  -1.3217466529435451E-002   3.3026512100363004E-002
   4.0739473174927432E-002  -1.2692907682260196E-002   3.2312277552456248E-002
   3.8226564753448072E-002  -1.2237959440538793E-002   3.1764129283116865E-002
   3.5713656331968754E-002  -1.1852621804271088E-002   3.1382067292344759E-002
   3.3200747910489325E-002  -1.1536894773457096E-002   3.1166091580140165E-002
   3.9155140188086093E-002  -1.1539766114228328E-002   3.8779792686541206E-002
   3.6820281895980203E-002  -1.0899083189525233E-002   3.8169466231361804E-002
   3.4485423603874320E-002  -1.0235063093022502E-002   3.7749153756361974E-002
   3.2150565311768381E-002  -9.5477058247200128E-003   3.7518855261541667E-002
   2.9815707019662546E-002  -8.8370113846178988E-003   3.7478570746901085E-002
   3.5172979738513507E-002  -9.8620656990211913E-003   4.4602723461620780E-002
   3.3040099277393334E-002  -9.1052586967903942E-003   4.4189252876421975E-002
   3.0907218816273119E-002  -8.2321667455062704E-003   4.3989723973014962E-002
   2.8774338355152959E-002  -7.2427898451689803E-003   4.4004136751399747E-002
   2.6641457894032786E-002  -6.1371279957787017E-003   4.4232491211576838E-002
   3.1305900247689006E-002  -8.1843652838139991E-003   5.0495304425600962E-002
   2.9398925319166880E-002  -7.3114342040553892E-003   5.0371637487636400E-002
   2.7491950390644740E-002  -6.2292703979901082E-003   5.0485839933076010E-002
   2.5584975462122662E-002  -4.9378738656180761E-003   5.0837911761919860E-002
   2.3678000533600474E-002  -3.4372446069395046E-003   5.1427852974167854E-002
   5.7152109852351619E-002   0.0000000000000000        3.4690386226653901E-002
   5.7941964191132053E-002  -2.0836211723590028E-003   3.8342747427594782E-002
   5.8731818529912487E-002  -4.1365930203655712E-003   4.2209199808381635E-002
   5.9521672868692928E-002  -6.1589155440197017E-003   4.6289743369014445E-002
   6.0311527207473362E-002  -8.1505887433213960E-003   5.0584378109493219E-002
   4.8651752142038027E-002   0.0000000000000000        3.2789864392798171E-002
   4.9590372179745844E-002  -1.7091217816259593E-003   3.6965639026136032E-002
   5.0528992217453654E-002  -3.4322914601513464E-003   4.1224853877482683E-002
   5.1467612255161471E-002  -5.1695090355761610E-003   4.5567508946838135E-002
   5.2406232292869281E-002  -6.9207745079004051E-003   4.9993604234202391E-002
   4.0731832631313497E-002   0.0000000000000000        3.1286190560301408E-002
   4.1688567406111522E-002  -1.3346223908929141E-003   3.5940681404784382E-002
   4.2645302180909554E-002  -2.7279898999371215E-003   4.0547961505438976E-002
   4.3602036955707572E-002  -4.1801025271326186E-003   4.5108030862265204E-002
   4.4558771730505604E-002  -5.6909602724794115E-003   4.9620889475263066E-002
   3.3392351320178017E-002   0.0000000000000000        3.0179364729163632E-002
   3.4236549870229081E-002  -9.6012300015986974E-004   3.5267874563539858E-002
   3.5080748420280153E-002  -2.0236883397228957E-003   4.0178522692250536E-002
   3.5924946970331217E-002  -3.1906960186890779E-003   4.4911309115295672E-002
   3.6769145520382289E-002  -4.4611460370584197E-003   4.9466233832675274E-002
   2.6633308208631593E-002   0.0000000000000000        2.9469386899384831E-002
   2.7234319572098535E-002  -5.8562360942682450E-004   3.4947218502402434E-002
   2.7835330935565481E-002  -1.3193867795086699E-003   4.0116537437917328E-002
   2.8436342299032427E-002  -2.2012895102455337E-003   4.4977343705929505E-002
   2.9037353662499370E-002  -3.2313318016374262E-003   4.9529637306438980E-002
   6.0311527207473362E-002  -8.1505887433213960E-003   5.0584378109493219E-002
   6.0610466589252371E-002  -1.0029360076512145E-002   5.1523990885084699E-002
   6.0909405971031387E-002  -1.1712977001833429E-002   5.2251187059313010E-002
   6.1208345352810396E-002  -1.3201439519285265E-002   5.2765966632178099E-002
   6.1507284734589419E-002  -1.4494747628867648E-002   5.3068329603679985E-002
   5.2406232292869281E-002  -6.9207745079004051E-003   4.9993604234202391E-002
   5.2531757299139094E-002  -8.5845073712279320E-003   5.1222187349269394E-002
   5.2657282305408906E-002  -1.0059127119662571E-002   5.2316358314681226E-002
   5.2782807311678726E-002  -1.1344633753204375E-002   5.3276117130437804E-002
   5.2908332317948524E-002  -1.2441027271853276E-002   5.4101463796539198E-002
   4.4558771730505604E-002  -5.6909602724794115E-003   4.9620889475263066E-002
   4.4588886812974196E-002  -7.1396546659437121E-003   5.1132401636829021E-002
   4.4619001895442781E-002  -8.4052772374917338E-003   5.2587506100447788E-002
   4.4649116977911373E-002  -9.4878279871234567E-003   5.3986202866119298E-002
   4.4679232060379964E-002  -1.0387306914838908E-002   5.5328491933843593E-002
   3.6769145520382289E-002  -4.4611460370584197E-003   4.9466233832675274E-002
   3.6781855130757650E-002  -5.6948019606594871E-003   5.1254633747763623E-002
   3.6794564741133018E-002  -6.7514273553208829E-003   5.3064630416612669E-002
   3.6807274351508365E-002  -7.6310222210425500E-003   5.4896223839222540E-002
   3.6819983961883733E-002  -8.3335865578245388E-003   5.6749414015593184E-002
   2.9037353662499370E-002  -3.2313318016374262E-003   4.9529637306438980E-002
   2.9110662252489483E-002  -4.2499492553752776E-003   5.1588883682073122E-002
   2.9183970842479593E-002  -5.0975774731500355E-003   5.3747731263175953E-002
   2.9257279432469710E-002  -5.7742164549616426E-003   5.6006180049747556E-002
   2.9330588022459816E-002  -6.2798662008101691E-003   5.8364230041787910E-002
   6.1507284734589419E-002  -1.4494747628867648E-002   5.3068329603679985E-002
   6.0185860522845837E-002  -1.5497753845980854E-002   5.1669430368908163E-002
   5.8864436311102247E-002  -1.6115310686025230E-002   5.0725808687684643E-002
   5.7543012099358692E-002  -1.6347418149000738E-002   5.0237464560009507E-002
   5.6221587887615096E-002  -1.6194076234907359E-002   5.0204397985882679E-002
   5.2908332317948524E-002  -1.2441027271853276E-002   5.4101463796539198E-002
   5.1989261351522834E-002  -1.3290473964012020E-002   5.3364607370187389E-002
   5.1070190385097178E-002  -1.3835140118083284E-002   5.2977179880923007E-002
   5.0151119418671515E-002  -1.4075025734067060E-002   5.2939181328746109E-002
   4.9232048452245825E-002  -1.4010130811963298E-002   5.3250611713656595E-002
   4.4679232060379964E-002  -1.0387306914838908E-002   5.5328491933843593E-002
   4.4056665722811299E-002  -1.1083194082043174E-002   5.5173009476930483E-002
   4.3434099385242612E-002  -1.1554969550141292E-002   5.5261107340643850E-002
   4.2811533047673926E-002  -1.1802633319133355E-002   5.5592785524983784E-002
   4.2188966710105261E-002  -1.1826185389019243E-002   5.6168044029950265E-002
   3.6819983961883733E-002  -8.3335865578245388E-003   5.6749414015593184E-002
   3.6388073636711142E-002  -8.8759142000743065E-003   5.7094636689137328E-002
   3.5956163311538551E-002  -9.2747989821993226E-003   5.7577591066847088E-002
   3.5524252986365981E-002  -9.5302409041996359E-003   5.8198277148722513E-002
   3.5092342661193376E-002  -9.6422399660751994E-003   5.8956694934763514E-002
   2.9330588022459816E-002  -6.2798662008101691E-003   5.8364230041787910E-002
   2.8983485093222398E-002  -6.6686343181054965E-003   5.9129489006807923E-002
   2.8636382163984991E-002  -6.9946284142573707E-003   5.9926631059532755E-002
   2.8289279234747590E-002  -7.2578484892659974E-003   6.0755656199962274E-002
   2.7942176305510172E-002  -7.4582945431311137E-003   6.1616564428096501E-002
   5.6221587887615096E-002  -1.6194076234907359E-002   5.0204397985882679E-002
   5.4715606130427932E-002  -1.5844771705972482E-002   4.9913383486499499E-002
   5.3209624373240762E-002  -1.5488991324423520E-002   4.9800105469883872E-002
   5.1703642616053619E-002  -1.5126735090260142E-002   4.9864563936035833E-002
   5.0197660858866427E-002  -1.4758003003482734E-002   5.0106758884955471E-002
   4.9232048452245825E-002  -1.4010130811963298E-002   5.3250611713656595E-002
   4.7909634131984527E-002  -1.3779684867315636E-002   5.2928284541467599E-002
   4.6587219811723229E-002  -1.3522917415667541E-002   5.2795355760362803E-002
   4.5264805491461918E-002  -1.3239828457019102E-002   5.2851825370341957E-002
   4.3942391171200634E-002  -1.2930417991370208E-002   5.3097693371405186E-002
   4.2188966710105261E-002  -1.1826185389019243E-002   5.6168044029950265E-002
   4.1061781735086303E-002  -1.1714598028658790E-002   5.5834249839341668E-002
   3.9934596760067359E-002  -1.1556843506911730E-002   5.5701515948133745E-002
   3.8807411785048408E-002  -1.1352921823777968E-002   5.5769842356326364E-002
   3.7680226810029444E-002  -1.1102832979257654E-002   5.6039229063919657E-002
   3.5092342661193376E-002  -9.6422399660751994E-003   5.8956694934763514E-002
   3.4172048939733267E-002  -9.6495111900019442E-003   5.8631279380121672E-002
   3.3251755218273164E-002  -9.5907695981558641E-003   5.8518586033196880E-002
   3.2331461496813055E-002  -9.4660151905368532E-003   5.8618614893989188E-002
   3.1411167775352973E-002  -9.2752479671450866E-003   5.8931365962498566E-002
   2.7942176305510172E-002  -7.4582945431311137E-003   6.1616564428096501E-002
   2.7240435745925398E-002  -7.5844243513451121E-003   6.1319373163807520E-002
   2.6538695186340638E-002  -7.6246956894000205E-003   6.1246566015552152E-002
   2.5836954626755882E-002  -7.5791085572957861E-003   6.1398142983330281E-002
   2.5135214067171105E-002  -7.4476629550325746E-003   6.1774104067142122E-002
   5.0197660858866427E-002  -1.4758003003482734E-002   5.0106758884955471E-002
   4.8637334937252696E-002  -1.4364623802287618E-002   4.9781252065998038E-002
   4.7077009015638965E-002  -1.3928426224871407E-002   4.9665586511737803E-002
   4.5516683094025248E-002  -1.3449410271233923E-002   4.9759762222175000E-002
   4.3956357172411503E-002  -1.2927575941375224E-002   5.0063779197309199E-002
   4.3942391171200634E-002  -1.2930417991370208E-002   5.3097693371405186E-002
   4.2588552500244715E-002  -1.2590661453829574E-002   5.2800532371405209E-002
   4.1234713829288838E-002  -1.2216534279505545E-002   5.2706504608023799E-002
   3.9880875158332947E-002  -1.1808036468398581E-002   5.2815610081260671E-002
   3.8527036487377056E-002  -1.1365168020508271E-002   5.3127848791116039E-002
   3.7680226810029444E-002  -1.1102832979257654E-002   5.6039229063919657E-002
   3.6526167361652630E-002  -1.0816699105371377E-002   5.5761966143439159E-002
   3.5372107913275788E-002  -1.0504642334139870E-002   5.5681128431498257E-002
   3.4218048464898974E-002  -1.0166662665563210E-002   5.5796715928097040E-002
   3.3063989016522126E-002  -9.8027600996413444E-003   5.6108728633235544E-002
   3.1411167775352973E-002  -9.2752479671450866E-003   5.8931365962498566E-002
   3.0450179521476398E-002  -9.0427367569132291E-003   5.8665553382099542E-002
   2.9489191267599860E-002  -8.7927503887741294E-003   5.8589457982161364E-002
   2.8528203013723302E-002  -8.5252888627278256E-003   5.8703079762684102E-002
   2.7567214759846775E-002  -8.2403521787743211E-003   5.9006418723667679E-002
   2.5135214067171105E-002  -7.4476629550325746E-003   6.1774104067142122E-002
   2.4360588979716061E-002  -7.2687744084551226E-003   6.1511294087386564E-002
   2.3585963892261010E-002  -7.0808584434083888E-003   6.1431493260013070E-002
   2.2811338804805948E-002  -6.8839150598924842E-003   6.1534701585021792E-002
   2.2036713717350900E-002  -6.6779442579074089E-003   6.1820919062412605E-002
   4.3956357172411503E-002  -1.2927575941375224E-002   5.0063779197309199E-002
   4.2269236783544772E-002  -1.2385984919764365E-002   4.9781416450484534E-002
   4.0582116394678056E-002  -1.1847698890869923E-002   4.9693090958845831E-002
   3.8894996005811332E-002  -1.1312717854692268E-002   4.9798802722393315E-002
   3.7207875616944608E-002  -1.0781041811230740E-002   5.0098551741126707E-002
   3.8527036487377056E-002  -1.1365168020508271E-002   5.3127848791116039E-002
   3.7037066232337074E-002  -1.0904946911386534E-002   5.2813386983593405E-002
   3.5547095977297057E-002  -1.0444391116584510E-002   5.2699188188538179E-002
   3.4057125722257039E-002  -9.9835006361028138E-003   5.2785252405950382E-002
   3.2567155467217029E-002  -9.5222754699410550E-003   5.3071579635830257E-002
   3.3063989016522126E-002  -9.8027600996413444E-003   5.6108728633235544E-002
   3.1777394652590288E-002  -9.4239089030085793E-003   5.5765807443411454E-002
   3.0490800288658453E-002  -9.0410833422993192E-003   5.5629375023336133E-002
   2.9204205924726612E-002  -8.6542834175135815E-003   5.5699431373009596E-002
   2.7917611560794808E-002  -8.2635091286513696E-003   5.5975976492432175E-002
   2.7567214759846775E-002  -8.2403521787743211E-003   5.9006418723667679E-002
   2.6490222044304519E-002  -7.9428708946306312E-003   5.8638677829938562E-002
   2.5413229328762266E-002  -7.6377755680141282E-003   5.8483651463239819E-002
   2.4336236613220021E-002  -7.3250661989243491E-003   5.8541339623571186E-002
   2.3259243897677785E-002  -7.0047427873617396E-003   5.8811742310933030E-002
   2.2036713717350900E-002  -6.6779442579074089E-003   6.1820919062412605E-002
   2.1175548407479691E-002  -6.4618328862527386E-003   6.1431998143174849E-002
   2.0314383097608503E-002  -6.2344677937287291E-003   6.1262017508249084E-002
   1.9453217787737297E-002  -5.9958489803350369E-003   6.1310977157634908E-002
   1.8592052477866078E-002  -5.7459764460719986E-003   6.1578877091332473E-002
   3.7207875616944608E-002  -1.0781041811230740E-002   5.0098551741126707E-002
   3.5732381774630728E-002  -1.0221231867939828E-002   4.9887701439771559E-002
   3.4256887932316793E-002  -9.6018491322735627E-003   4.9883543453398876E-002
   3.2781394090002899E-002  -8.9228936042314543E-003   5.0086077782008923E-002
   3.1305900247689006E-002  -8.1843652838139991E-003   5.0495304425600962E-002
   3.2567155467217029E-002  -9.5222754699410550E-003   5.3071579635830257E-002
   3.1292566141097211E-002  -9.0384830397027827E-003   5.2898304096416299E-002
   3.0017976814977351E-002  -8.5098907669919482E-003   5.2920145274407721E-002
   2.8743387488857505E-002  -7.9364986518079862E-003   5.3137103169804981E-002
   2.7468798162737659E-002  -7.3183066941513442E-003   5.3549177782607926E-002
   2.7917611560794808E-002  -8.2635091286513696E-003   5.5975976492432175E-002
   2.6832351153292217E-002  -7.8557342114659312E-003   5.5825502765056642E-002
   2.5747090745789625E-002  -7.4179324017103407E-003   5.5858570157509842E-002
   2.4661830338287047E-002  -6.9501036993845754E-003   5.6075178669792072E-002
   2.3576569930784476E-002  -6.4522481044887170E-003   5.6475328301902925E-002
   2.3259243897677785E-002  -7.0047427873617396E-003   5.8811742310933030E-002
   2.2351736811215675E-002  -6.6729853832288993E-003   5.8669297445693047E-002
   2.1444229724753579E-002  -6.3259740364287297E-003   5.8698818102705233E-002
   2.0536722638291472E-002  -5.9637087469611915E-003   5.8900304281969303E-002
   1.9629215551829372E-002  -5.5861895148259649E-003   5.9273755983485513E-002
   1.8592052477866078E-002  -5.7459764460719986E-003   6.1578877091332473E-002
   1.7850723114867684E-002  -5.4902365549920895E-003   6.1429688138325500E-002
   1.7109393751869248E-002  -5.2340156711471464E-003   6.1440889109993735E-002
   1.6368064388870847E-002  -4.9773137945377036E-003   6.1612480006337206E-002
   1.5626735025872418E-002  -4.7201309251634349E-003   6.1944460827356052E-002
   3.1305900247689006E-002  -8.1843652838139991E-003   5.0495304425600962E-002
   2.9398925319166880E-002  -7.3114342040553892E-003   5.0371637487636400E-002
   2.7491950390644740E-002  -6.2292703979901082E-003   5.0485839933076010E-002
   2.5584975462122662E-002  -4.9378738656180761E-003   5.0837911761919860E-002
   2.3678000533600474E-002  -3.4372446069395046E-003   5.1427852974167854E-002
   2.7468798162737659E-002  -7.3183066941513442E-003   5.3549177782607926E-002
   2.5794449462936991E-002  -6.6343396588795234E-003   5.3513133062491031E-002
   2.4120100763136317E-002  -5.8636223108500807E-003   5.3704471416412797E-002
   2.2445752063335659E-002  -5.0061546500634185E-003   5.4123192844372836E-002
   2.0771403363534946E-002  -4.0619366765188847E-003   5.4769297346372481E-002
   2.3576569930784476E-002  -6.4522481044887170E-003   5.6475328301902925E-002
   2.2124361150339840E-002  -5.9572451137036297E-003   5.6404423386084312E-002
   2.0672152369895200E-002  -5.4979742237101573E-003   5.6550415234938874E-002
   1.9219943589450610E-002  -5.0744354345084817E-003   5.6913303848467031E-002
   1.7767734809005939E-002  -4.6866287460982647E-003   5.7493089226668403E-002
   1.9629215551829372E-002  -5.5861895148259649E-003   5.9273755983485513E-002
   1.8388660381375405E-002  -5.2801505685276390E-003   5.9045508458416010E-002
   1.7148105210921409E-002  -5.1323261365702373E-003   5.9023671388654601E-002
   1.5907550040467427E-002  -5.1427162189535179E-003   5.9208244774200842E-002
   1.4666994870013477E-002  -5.3113208156776448E-003   5.9599228615055302E-002
   1.5626735025872418E-002  -4.7201309251634349E-003   6.1944460827356052E-002
   1.4587347156043678E-002  -4.6030560233518703E-003   6.1436388279486664E-002
   1.3547959286214925E-002  -4.7666780494302063E-003   6.1124239877559716E-002
   1.2508571416386199E-002  -5.2109970033989150E-003   6.1008015621575096E-002
   1.1469183546557460E-002  -5.9360128852570249E-003   6.1087715511533469E-002
   2.6633308208631593E-002   0.0000000000000000        2.9469386899384831E-002
   2.7234319572098535E-002  -5.8562360942682450E-004   3.4947218502402434E-002
   2.7835330935565481E-002  -1.3193867795086699E-003   4.0116537437917328E-002
   2.8436342299032427E-002  -2.2012895102455337E-003   4.4977343705929505E-002
   2.9037353662499370E-002  -3.2313318016374262E-003   4.9529637306438980E-002
   2.0117136877590695E-002   0.0000000000000000        2.9021777604161240E-002
   2.0449180523812897E-002  -4.3920181679782400E-004   3.4314852683081348E-002
   2.0781224170035098E-002  -9.8947774449555798E-004   3.9378504995014649E-002
   2.1113267816257299E-002  -1.6508277830931993E-003   4.4212734539961197E-002
   2.1445311462479501E-002  -2.4232519325907515E-003   4.8817541317920952E-002
   1.3506270907971803E-002   0.0000000000000000        2.8702057376689093E-002
   1.3648436737465186E-002  -2.9278002416882306E-004   3.3847441381266802E-002
   1.3790602566958569E-002  -6.5956870948244341E-004   3.8842492519373661E-002
   1.3932768396451954E-002  -1.1003660559408606E-003   4.3687210791009672E-002
   1.4074934225945334E-002  -1.6151720635440773E-003   4.8381596196174818E-002
   6.8007102997749121E-003   0.0000000000000000        2.8510226216968391E-002
   6.8320882130554058E-003  -1.4635823153982363E-004   3.3544984596958830E-002
   6.8634661263358970E-003  -3.2965967446933102E-004   3.8508500010994338E-002
   6.8948440396163898E-003  -5.4990432878852585E-004   4.3400772459074928E-002
   6.9262219528968844E-003  -8.0709219449739945E-004   4.8221801941200577E-002
   4.5505300002527532E-007   0.0000000000000000        2.8446284124999131E-002
   1.3495058355343648E-007   6.3561089177523178E-008   3.3407482330157411E-002
  -1.8515183291775185E-007   2.4936054378137118E-007   3.8376527469876680E-002
  -5.0525424938839807E-007   5.5739836381414609E-007   4.3353419544156953E-002
  -8.2535666585991166E-007   9.8767454927064374E-007   4.8338158552998237E-002
   2.9037353662499370E-002  -3.2313318016374262E-003   4.9529637306438980E-002
   2.9110662252489483E-002  -4.2499492553752776E-003   5.1588883682073122E-002
   2.9183970842479593E-002  -5.0975774731500355E-003   5.3747731263175953E-002
   2.9257279432469710E-002  -5.7742164549616426E-003   5.6006180049747556E-002
   2.9330588022459816E-002  -6.2798662008101691E-003   5.8364230041787910E-002
   2.1445311462479501E-002  -2.4232519325907515E-003   4.8817541317920952E-002
   2.1588750628848147E-002  -3.1871223356112260E-003   5.1218567447859152E-002
   2.1732189795216791E-002  -3.8228111347776402E-003   5.3660253525085667E-002
   2.1875628961585441E-002  -4.3303183300900079E-003   5.6142599549600540E-002
   2.2019068127954088E-002  -4.7096439215483094E-003   5.8665605521403708E-002
   1.4074934225945334E-002  -1.6151720635440773E-003   4.8381596196174818E-002
   1.4229562710512100E-002  -2.1242954158471805E-003   5.1081594448308038E-002
   1.4384191195078867E-002  -2.5480447964052935E-003   5.3763311389549193E-002
   1.4538819679645636E-002  -2.8864202052183807E-003   5.6426747019898256E-002
   1.4693448164212397E-002  -3.1394216422864635E-003   5.9071901339355221E-002
   6.9262219528968844E-003  -8.0709219449739945E-004   4.8221801941200577E-002
   7.0330984974813502E-003  -1.0614684960831354E-003   5.1177964683419799E-002
   7.1399750420658159E-003  -1.2732784580329224E-003   5.4056904856566515E-002
   7.2468515866502886E-003  -1.4425220803467498E-003   5.6858622460640718E-002
   7.3537281312347560E-003  -1.5691993630246176E-003   5.9583117495642421E-002
  -8.2535666585991166E-007   9.8767454927064374E-007   4.8338158552998237E-002
  -6.4201024410669508E-007   1.3584236809114497E-006   5.1507678153194382E-002
  -4.5866382235282797E-007   1.4878803394448911E-006   5.4541033926137621E-002
  -2.7531740059885245E-007   1.3760445248837071E-006   5.7438225871827946E-002
  -9.1970978846611651E-008   1.0229162372421552E-006   6.0199253990265295E-002
   2.9330588022459816E-002  -6.2798662008101691E-003   5.8364230041787910E-002
   2.8983485093222398E-002  -6.6686343181054965E-003   5.9129489006807923E-002
   2.8636382163984991E-002  -6.9946284142573707E-003   5.9926631059532755E-002
   2.8289279234747590E-002  -7.2578484892659974E-003   6.0755656199962274E-002
   2.7942176305510172E-002  -7.4582945431311137E-003   6.1616564428096501E-002
   2.2019068127954088E-002  -4.7096439215483094E-003   5.8665605521403708E-002
   2.1717420055639473E-002  -5.0011103088831894E-003   5.9485491599173990E-002
   2.1415771983324873E-002  -5.2450398918252109E-003   6.0364404303085178E-002
   2.1114123911010262E-002  -5.4414326703744516E-003   6.1302343633137246E-002
   2.0812475838695665E-002  -5.5902886445308581E-003   6.2299309589330193E-002
   1.4693448164212397E-002  -3.1394216422864635E-003   5.9071901339355221E-002
   1.4464398487256761E-002  -3.3335862996609084E-003   5.9931177313125174E-002
   1.4235348810301134E-002  -3.4954513693930631E-003   6.0876623451472177E-002
   1.4006299133345505E-002  -3.6250168514829610E-003   6.1908239754396258E-002
   1.3777249456389862E-002  -3.7222827459305538E-003   6.3026026221897374E-002
   7.3537281312347560E-003  -1.5691993630246176E-003   5.9583117495642421E-002
   7.2244203880742573E-003  -1.6660622904386560E-003   6.0466546148661517E-002
   7.0951126449137637E-003  -1.7458628469609163E-003   6.1463288504693833E-002
   6.9658049017532692E-003  -1.8086010325914289E-003   6.2573344563739391E-002
   6.8364971585927739E-003  -1.8542768473302738E-003   6.3796714325798143E-002
  -9.1970978846611651E-008   1.0229162372421552E-006   6.0199253990265295E-002
  -2.5142419080364728E-006   1.4617187836483969E-006   6.1091598105783004E-002
  -4.9365128372280687E-006   3.7256754712340634E-006   6.2124399462750092E-002
  -7.3587837664196645E-006   7.8147863000659415E-006   6.3297658061166537E-002
  -9.7810546956095257E-006   1.3729051270019998E-005   6.4611373901032401E-002
   2.7942176305510172E-002  -7.4582945431311137E-003   6.1616564428096501E-002
   2.7240435745925398E-002  -7.5844243513451121E-003   6.1319373163807520E-002
   2.6538695186340638E-002  -7.6246956894000205E-003   6.1246566015552152E-002
   2.5836954626755882E-002  -7.5791085572957861E-003   6.1398142983330281E-002
   2.5135214067171105E-002  -7.4476629550325746E-003   6.1774104067142122E-002
   2.0812475838695665E-002  -5.5902886445308581E-003   6.2299309589330193E-002
   2.0322600548315601E-002  -5.6833390468757905E-003   6.2159039967415564E-002
   1.9832725257935547E-002  -5.7123151099907656E-003   6.2218116767876815E-002
   1.9342849967555496E-002  -5.6772168338758084E-003   6.2476539990713842E-002
   1.8852974677175435E-002  -5.5780442185307533E-003   6.2934309635926736E-002
   1.3777249456389862E-002  -3.7222827459305538E-003   6.3026026221897374E-002
   1.3474201741556762E-002  -3.7822537424065453E-003   6.3020894111428111E-002
   1.3171154026723661E-002  -3.7999345305815956E-003   6.3190070729676862E-002
   1.2868106311890566E-002  -3.7753251104557339E-003   6.3533556076643724E-002
   1.2565058597057460E-002  -3.7084254820289042E-003   6.4051350152328712E-002
   6.8364971585927739E-003  -1.8542768473302738E-003   6.3796714325798143E-002
   6.6952393256488737E-003  -1.8811684379372758E-003   6.3904935595845064E-002
   6.5539814927049762E-003  -1.8875539511724109E-003   6.4162427900952348E-002
   6.4127236597610812E-003  -1.8734333870357356E-003   6.4569191241119955E-002
   6.2714658268171837E-003  -1.8388067455270829E-003   6.5125225616347815E-002
  -9.7810546956095257E-006   1.3729051270019998E-005   6.4611373901032401E-002
  -1.4286699408058018E-005   1.9916866532049271E-005   6.4811164420666478E-002
  -1.8792344120504775E-005   2.4826628236811893E-005   6.5135188281703171E-002
  -2.3297988832952400E-005   2.8458336384327813E-005   6.5583445484142411E-002
  -2.7803633545400025E-005   3.0811990974738412E-005   6.6155936027984169E-002
   2.5135214067171105E-002  -7.4476629550325746E-003   6.1774104067142122E-002
   2.4360588979716061E-002  -7.2687744084551226E-003   6.1511294087386564E-002
   2.3585963892261010E-002  -7.0808584434083888E-003   6.1431493260013070E-002
   2.2811338804805948E-002  -6.8839150598924842E-003   6.1534701585021792E-002
   2.2036713717350900E-002  -6.6779442579074089E-003   6.1820919062412605E-002
   1.8852974677175435E-002  -5.5780442185307533E-003   6.2934309635926736E-002
   1.8264358948802219E-002  -5.4435754516147239E-003   6.2676595863939200E-002
   1.7675743220428999E-002  -5.3025887207868300E-003   6.2607891657733200E-002
   1.7087127492055779E-002  -5.1550840260469501E-003   6.2728197017308848E-002
   1.6498511763682562E-002  -5.0010613673952542E-003   6.3037511942665853E-002
   1.2565058597057460E-002  -3.7084254820289042E-003   6.4051350152328712E-002
   1.2168452641165516E-002  -3.6183764947743322E-003   6.3796223133551780E-002
   1.1771846685273571E-002  -3.5243189981652157E-003   6.3736106093955885E-002
   1.1375240729381626E-002  -3.4262529922014437E-003   6.3870999033540973E-002
   1.0978634773489686E-002  -3.3241784768831273E-003   6.4200901952307168E-002
   6.2714658268171837E-003  -1.8388067455270829E-003   6.5125225616347815E-002
   6.0728700568059542E-003  -1.7931775379339925E-003   6.4870175896224291E-002
   5.8742742867947291E-003  -1.7460492755435181E-003   6.4816136568681154E-002
   5.6756785167835049E-003  -1.6974219583559512E-003   6.4963107633718500E-002
   5.4770827467722711E-003  -1.6472955863710698E-003   6.5311089091336247E-002
  -2.7803633545400025E-005   3.0811990974738412E-005   6.6155936027984169E-002
  -2.2388804276466528E-005   3.2021418906444388E-005   6.5898454151956637E-002
  -1.6973975007534767E-005   3.2220447077992154E-005   6.5847983081908992E-002
  -1.1559145738601270E-005   3.1409075489619367E-005   6.6004522817841249E-002
  -6.1443164696695085E-006   2.9587304141098780E-005   6.6368073359753199E-002
   2.2036713717350900E-002  -6.6779442579074089E-003   6.1820919062412605E-002
   2.1175548407479691E-002  -6.4618328862527386E-003   6.1431998143174849E-002
   2.0314383097608503E-002  -6.2344677937287291E-003   6.1262017508249084E-002
   1.9453217787737297E-002  -5.9958489803350369E-003   6.1310977157634908E-002
   1.8592052477866078E-002  -5.7459764460719986E-003   6.1578877091332473E-002
   1.6498511763682562E-002  -5.0010613673952542E-003   6.3037511942665853E-002
   1.5855185999011645E-002  -4.8388763678570007E-003   6.2676345467157404E-002
   1.5211860234340725E-002  -4.6668846504581557E-003   6.2531917797737813E-002
   1.4568534469669806E-002  -4.4850862151983549E-003   6.2604228934407050E-002
   1.3925208704998887E-002  -4.2934810620776087E-003   6.2893278877164949E-002
   1.0978634773489686E-002  -3.3241784768831273E-003   6.4200901952307168E-002
   1.0550947075796114E-002  -3.2159198494614294E-003   6.3866042917519183E-002
   1.0123259378102536E-002  -3.0993015071875199E-003   6.3745721210597156E-002
   9.6955716804089653E-003  -2.9743234500613936E-003   6.3839936831541044E-002
   9.2678839827153858E-003  -2.8409856780830522E-003   6.4148689780350682E-002
   5.4770827467722711E-003  -1.6472955863710698E-003   6.5311089091336247E-002
   5.2628316378331100E-003  -1.5929633310657193E-003   6.5001090494260227E-002
   5.0485805288939447E-003  -1.5317183639169431E-003   6.4903427746827100E-002
   4.8343294199547672E-003  -1.4635606849244887E-003   6.5018100849036947E-002
   4.6200783110156105E-003  -1.3884902940886346E-003   6.5345109800889672E-002
  -6.1443164696695085E-006   2.9587304141098780E-005   6.6368073359753199E-002
  -9.1603148773718168E-006   2.9993187329879767E-005   6.6081488197380522E-002
  -1.2176313285070656E-005   3.5864779353730891E-005   6.6005037406427713E-002
  -1.5192311692773831E-005   4.7202080212287861E-005   6.6138720986894897E-002
  -1.8208310100471803E-005   6.4005089905949664E-005   6.6482538938782032E-002
   1.8592052477866078E-002  -5.7459764460719986E-003   6.1578877091332473E-002
   1.7850723114867684E-002  -5.4902365549920895E-003   6.1429688138325500E-002
   1.7109393751869248E-002  -5.2340156711471464E-003   6.1440889109993735E-002
   1.6368064388870847E-002  -4.9773137945377036E-003   6.1612480006337206E-002
   1.5626735025872418E-002  -4.7201309251634349E-003   6.1944460827356052E-002
   1.3925208704998887E-002  -4.2934810620776087E-003   6.2893278877164949E-002
   1.3349980105372153E-002  -4.0998403594793287E-003   6.2756692500367389E-002
   1.2774751505745412E-002  -3.9119352757868431E-003   6.2791917725637914E-002
   1.2199522906118653E-002  -3.7297658110005752E-003   6.2998954552976508E-002
   1.1624294306491936E-002  -3.5533319651197548E-003   6.3377802982383102E-002
   9.2678839827153858E-003  -2.8409856780830522E-003   6.4148689780350682E-002
   8.8701778238530898E-003  -2.7094441639668732E-003   6.4018489368092152E-002
   8.4724716649908008E-003  -2.5898548804268590E-003   6.4071522235294401E-002
   8.0747655061285065E-003  -2.4822178274633878E-003   6.4307788381957498E-002
   7.6770593472662088E-003  -2.3865330050760747E-003   6.4727287808081402E-002
   4.6200783110156105E-003  -1.3884902940886346E-003   6.5345109800889672E-002
   4.4113162703105259E-003  -1.3190479684543205E-003   6.5215078741499649E-002
   4.2025542296054413E-003  -1.2677744850667708E-003   6.5279702638963127E-002
   3.9937921889003549E-003  -1.2346698439263410E-003   6.5538981493280343E-002
   3.7850301481952720E-003  -1.2197340450323946E-003   6.5992915304451033E-002
  -1.8208310100471803E-005   6.4005089905949664E-005   6.6482538938782032E-002
  -2.6604555255577145E-005   7.1348227058287694E-005   6.6346460620589909E-002
  -3.5000800410675548E-005   5.4305910293372950E-005   6.6416458936644218E-002
  -4.3397045565779155E-005   1.2878139610858486E-005   6.6692533886944738E-002
  -5.1793290720879293E-005  -5.2935084988769976E-005   6.7174685471491802E-002
   1.5626735025872418E-002  -4.7201309251634349E-003   6.1944460827356052E-002
   1.4587347156043678E-002  -4.6030560233518703E-003   6.1436388279486664E-002
   1.3547959286214925E-002  -4.7666780494302063E-003   6.1124239877559716E-002
   1.2508571416386199E-002  -5.2109970033989150E-003   6.1008015621575096E-002
   1.1469183546557460E-002  -5.9360128852570249E-003   6.1087715511533469E-002
   1.1624294306491936E-002  -3.5533319651197548E-003   6.3377802982383102E-002
   1.0796282568914503E-002  -3.4483974305773157E-003   6.2731408215146806E-002
   9.9682708313370769E-003  -3.4807258998060531E-003   6.2311841566470683E-002
   9.1402590937596610E-003  -3.6503173728057656E-003   6.2119103036354650E-002
   8.3122473561822452E-003  -3.9571718495758912E-003   6.2153192624798459E-002
   7.6770593472662088E-003  -2.3865330050760747E-003   6.4727287808081402E-002
   7.0913277145576922E-003  -2.2937388378030388E-003   6.4086004745597253E-002
   6.5055960818491861E-003  -2.1947737501817333E-003   6.3702453774290846E-002
   5.9198644491406799E-003  -2.0896377422123941E-003   6.3576634894161987E-002
   5.3341328164321772E-003  -1.9783308138948685E-003   6.3708548105211094E-002
   3.7850301481952720E-003  -1.2197340450323946E-003   6.5992915304451033E-002
   3.4724825929732580E-003  -1.1390802450286786E-003   6.5500177870838061E-002
   3.1599350377512379E-003  -9.0882160055749672E-004   6.5296076501020567E-002
   2.8473874825292161E-003  -5.2895811161924461E-004   6.5380611194998384E-002
   2.5348399273071968E-003   5.1022178615411917E-007   6.5753781952771206E-002
  -5.1793290720879293E-005  -5.2935084988769976E-005   6.7174685471491802E-002
  -6.0252795838822149E-005   1.5578347745792698E-005   6.6973927590869120E-002
  -6.8712300956765004E-005   3.7713054906686472E-004   6.7092709746659457E-002
  -7.7171806074706126E-005   1.0317215189739638E-003   6.7531031938862549E-002
  -8.5631311192643778E-005   1.9793512574672878E-003   6.8288894167478631E-002
   4.5505300002527532E-007   0.0000000000000000        2.8446284124999131E-002
   1.3495058355343648E-007   6.3561089177523178E-008   3.3407482330157411E-002
  -1.8515183291775185E-007   2.4936054378137118E-007   3.8376527469876680E-002
  -5.0525424938839807E-007   5.5739836381414609E-007   4.3353419544156953E-002
  -8.2535666585991166E-007   9.8767454927064374E-007   4.8338158552998237E-002
  -6.7998476511214375E-003   0.0000000000000000        2.8510240984142253E-002
  -6.8318163896446717E-003   1.4646500926024288E-004   3.3545158194580794E-002
  -6.8637851281679067E-003   3.3003748428142056E-004   3.8508931198244806E-002
  -6.8957538666911383E-003   5.5071742506353043E-004   4.3401559995134308E-002
  -6.9277226052143741E-003   8.0850483160659330E-004   4.8223044585249265E-002
  -1.3505550631358054E-002   0.0000000000000000        2.8702106677758681E-002
  -1.3648159147323577E-002   2.9286645743130521E-004   3.3847728120872993E-002
  -1.3790767663289098E-002   6.5982560801905541E-004   3.8843214215877268E-002
  -1.3933376179254619E-002   1.1008774517632528E-003   4.3688564962771480E-002
  -1.4075984695220142E-002   1.6160219886638956E-003   4.8383780361555641E-002
  -2.0116653887709824E-002   0.0000000000000000        2.9021881205848418E-002
  -2.0448893322453161E-002   4.3926790560236862E-004   3.4315192109034012E-002
  -2.0781132757196497E-002   9.8961373175669156E-004   3.9379376522774054E-002
  -2.1113372191939827E-002   1.6510374784629704E-003   4.4214434447068504E-002
  -2.1445611626683160E-002   2.4235391457212135E-003   4.8820365881917363E-002
  -2.6633157420176752E-002   0.0000000000000000        2.9469564568411460E-002
  -2.7234018915033423E-002   5.8566935377343202E-004   3.4947550159063853E-002
  -2.7834880409890090E-002   1.3194018554943277E-003   4.0117418118935155E-002
  -2.8435741904746764E-002   2.2011975051626914E-003   4.4979168448025353E-002
  -2.9036603399603431E-002   3.2310563027785170E-003   4.9532801146334446E-002
  -8.2535666585991166E-007   9.8767454927064374E-007   4.8338158552998237E-002
  -6.4201024410669508E-007   1.3584236809114497E-006   5.1507678153194382E-002
  -4.5866382235282797E-007   1.4878803394448911E-006   5.4541033926137621E-002
  -2.7531740059885245E-007   1.3760445248837071E-006   5.7438225871827946E-002
  -9.1970978846611651E-008   1.0229162372421552E-006   6.0199253990265295E-002
  -6.9277226052143741E-003   8.0850483160659330E-004   4.8223044585249265E-002
  -7.0342574563138317E-003   1.0633883835312954E-003   5.1179066739984520E-002
  -7.1407923074132901E-003   1.2753567604583827E-003   5.4057816326930276E-002
  -7.2473271585127459E-003   1.4444099623878561E-003   5.6859293346086554E-002
  -7.3538620096122061E-003   1.5705479893197150E-003   5.9583497797453283E-002
  -1.4075984695220142E-002   1.6160219886638956E-003   4.8383780361555641E-002
  -1.4230346484377387E-002   2.1254183433816925E-003   5.1083631188305487E-002
  -1.4384708273534635E-002   2.5492256405773486E-003   5.3765100706729241E-002
  -1.4539070062691879E-002   2.8874438802508353E-003   5.6428188916826917E-002
  -1.4693431851849126E-002   3.1400730624021878E-003   5.9072895818598523E-002
  -2.1445611626683160E-002   2.4235391457212135E-003   4.8820365881917363E-002
  -2.1588909094434772E-002   3.1874483032320899E-003   5.1221371498157267E-002
  -2.1732206562186378E-002   3.8230945206962864E-003   5.3662887065534487E-002
  -2.1875504029937994E-002   4.3304777981138251E-003   5.6144912584049071E-002
  -2.2018801497689602E-002   4.7095981354846744E-003   5.8667448053700971E-002
  -2.9036603399603431E-002   3.2310563027785170E-003   4.9532801146334446E-002
  -2.9109945286485986E-002   4.2494782630824769E-003   5.1592287669539855E-002
  -2.9183287173368540E-002   5.0969634008152459E-003   5.3751175403346022E-002
  -2.9256629060251092E-002   5.7735117159767885E-003   5.6009464347752967E-002
  -2.9329970947133646E-002   6.2791232085671403E-003   5.8367154502760678E-002
  -9.1970978846611651E-008   1.0229162372421552E-006   6.0199253990265295E-002
  -2.5142419080364728E-006   1.4617187836483969E-006   6.1091598105783004E-002
  -4.9365128372280687E-006   3.7256754712340634E-006   6.2124399462750092E-002
  -7.3587837664196645E-006   7.8147863000659415E-006   6.3297658061166537E-002
  -9.7810546956095257E-006   1.3729051270019998E-005   6.4611373901032401E-002
  -7.3538620096122061E-003   1.5705479893197150E-003   5.9583497797453283E-002
  -7.2289718907562646E-003   1.6678718432554425E-003   6.0470453249276440E-002
  -7.1040817719003214E-003   1.7504825261965562E-003   6.1471576239220505E-002
  -6.9791916530443851E-003   1.8183800381430595E-003   6.2586866767285407E-002
  -6.8543015341884402E-003   1.8715643790949144E-003   6.3816324833471230E-002
  -1.4693431851849126E-002   3.1400730624021878E-003   5.9072895818598523E-002
  -1.4467519046536566E-002   3.3342819677272661E-003   5.9937924281591365E-002
  -1.4241606241224005E-002   3.4972393769218905E-003   6.0890830579376533E-002
  -1.4015693435911447E-002   3.6289452899861082E-003   6.1931614711954082E-002
  -1.3789780630598887E-002   3.7293997069198573E-003   6.3060276679323957E-002
  -2.2018801497689602E-002   4.7095981354846744E-003   5.8667448053700971E-002
  -2.1718155709248933E-002   5.0006920921990680E-003   5.9494011202727660E-002
  -2.1417509920808264E-002   5.2439962276472256E-003   6.0382162483218149E-002
  -2.1116864132367599E-002   5.4395105418291291E-003   6.1331901895172548E-002
  -2.0816218343926923E-002   5.5872350347447898E-003   6.2343229438590740E-002
  -2.9329970947133646E-002   6.2791232085671403E-003   5.8367154502760678E-002
  -2.8980881878893382E-002   6.6671022166708907E-003   5.9138714012685382E-002
  -2.8631792810653117E-002   6.9907530783725347E-003   5.9945571950745416E-002
  -2.8282703742412849E-002   7.2500757936721540E-003   6.0787728316940792E-002
  -2.7933614674172581E-002   7.4450703625696946E-003   6.1665183111271532E-002
  -9.7810546956095257E-006   1.3729051270019998E-005   6.4611373901032401E-002
  -1.4286699408058018E-005   1.9916866532049271E-005   6.4811164420666478E-002
  -1.8792344120504775E-005   2.4826628236811893E-005   6.5135188281703171E-002
  -2.3297988832952400E-005   2.8458336384327813E-005   6.5583445484142411E-002
  -2.7803633545400025E-005   3.0811990974738412E-005   6.6155936027984169E-002
  -6.8543015341884402E-003   1.8715643790949144E-003   6.3816324833471230E-002
  -6.7208382805750266E-003   1.9054567238443662E-003   6.3926317855627218E-002
  -6.5873750269616130E-003   1.9154782471836329E-003   6.4188015333032422E-002
  -6.4539117733481994E-003   1.9016289491126034E-003   6.4601417265686772E-002
  -6.3204485197347858E-003   1.8639088296313333E-003   6.5166523653590311E-002
  -1.3789780630598887E-002   3.7293997069198573E-003   6.3060276679323957E-002
  -1.3490877364813029E-002   3.7909965811568219E-003   6.3057879436148948E-002
  -1.3191974099027176E-002   3.8061298661304834E-003   6.3234657762069685E-002
  -1.2893070833241316E-002   3.7747995618408517E-003   6.3590611657086127E-002
  -1.2594167567455464E-002   3.6970056682879976E-003   6.4125741121198315E-002
  -2.0816218343926923E-002   5.5872350347447898E-003   6.2343229438590740E-002
  -2.0324403952122063E-002   5.6765364384692082E-003   6.2205849162231631E-002
  -1.9832589560317186E-002   5.6967814850772914E-003   6.2275115568814869E-002
  -1.9340775168512316E-002   5.6479701745691556E-003   6.2551028658340307E-002
  -1.8848960776707450E-002   5.5301025069446688E-003   6.3033588430808113E-002
  -2.7933614674172581E-002   7.4450703625696946E-003   6.1665183111271532E-002
  -2.7221418042502124E-002   7.5620762957816223E-003   6.1370227033875291E-002
  -2.6509221410831656E-002   7.5874331040241480E-003   6.1309388753267954E-002
  -2.5797024779161196E-002   7.5211407872973601E-003   6.1482668269449418E-002
  -2.5084828147490728E-002   7.3631993456012845E-003   6.1890065582419884E-002
  -2.7803633545400025E-005   3.0811990974738412E-005   6.6155936027984169E-002
  -2.2388804276466528E-005   3.2021418906444388E-005   6.5898454151956637E-002
  -1.6973975007534767E-005   3.2220447077992154E-005   6.5847983081908992E-002
  -1.1559145738601270E-005   3.1409075489619367E-005   6.6004522817841249E-002
  -6.1443164696695085E-006   2.9587304141098780E-005   6.6368073359753199E-002
  -6.3204485197347858E-003   1.8639088296313333E-003   6.5166523653590311E-002
  -6.1120074063889425E-003   1.8137578129539950E-003   6.4922982407757499E-002
  -5.9035662930431113E-003   1.7626158232948580E-003   6.4878482924098618E-002
  -5.6951251796972776E-003   1.7104828606539120E-003   6.5033025202613726E-002
  -5.4866840663514438E-003   1.6573589250310494E-003   6.5386609243302668E-002
  -1.2594167567455464E-002   3.6970056682879976E-003   6.4125741121198315E-002
  -1.2190669213838688E-002   3.5954942070017190E-003   6.3896159932338464E-002
  -1.1787170860221902E-002   3.4930111995117481E-003   6.3857651461846646E-002
  -1.1383672506605113E-002   3.3895566458182038E-003   6.4010215709722790E-002
  -1.0980174152988333E-002   3.2851305459210278E-003   6.4353852675966869E-002
  -1.8848960776707450E-002   5.5301025069446688E-003   6.3033588430808113E-002
  -1.8258374226625670E-002   5.3772306010493008E-003   6.2817986725699562E-002
  -1.7667787676543898E-002   5.2234065757285984E-003   6.2785488695152963E-002
  -1.7077201126462133E-002   5.0686304309825788E-003   6.2936094339168330E-002
  -1.6486614576380353E-002   4.9129021668111034E-003   6.3269803657745829E-002
  -2.5084828147490728E-002   7.3631993456012845E-003   6.1890065582419884E-002
  -2.4315122444749919E-002   7.1589669950970075E-003   6.1688462787840737E-002
  -2.3545416742009113E-002   6.9538019519454833E-003   6.1661994624017599E-002
  -2.2775711039268298E-002   6.7477042161468385E-003   6.1810661090950618E-002
  -2.2006005336527485E-002   6.5406737877010124E-003   6.2134462188639550E-002
  -6.1443164696695085E-006   2.9587304141098780E-005   6.6368073359753199E-002
  -9.1603148773718168E-006   2.9993187329879767E-005   6.6081488197380522E-002
  -1.2176313285070656E-005   3.5864779353730891E-005   6.6005037406427713E-002
  -1.5192311692773831E-005   4.7202080212287861E-005   6.6138720986894897E-002
  -1.8208310100471803E-005   6.4005089905949664E-005   6.6482538938782032E-002
  -5.4866840663514438E-003   1.6573589250310494E-003   6.5386609243302668E-002
  -5.2780587877123116E-003   1.6029099433619715E-003   6.5090483944663727E-002
  -5.0694335090731863E-003   1.5468018425823238E-003   6.5007506828698380E-002
  -4.8608082304340498E-003   1.4890346226919815E-003   6.5137677895406865E-002
  -4.6521829517949288E-003   1.4296082836912083E-003   6.5480997144788888E-002
  -1.0980174152988333E-002   3.2851305459210278E-003   6.4353852675966869E-002
  -1.0556893786048708E-002   3.1758266993940354E-003   6.4041062413116259E-002
  -1.0133613419109089E-002   3.0577389058109236E-003   6.3944434144193069E-002
  -9.7103330521694647E-003   2.9308671651717324E-003   6.4063967869197158E-002
  -9.2870526852298456E-003   2.7952114774764392E-003   6.4399663588128514E-002
  -1.6486614576380353E-002   4.9129021668111034E-003   6.3269803657745829E-002
  -1.5845665309886570E-002   4.7487434554261687E-003   6.2933223602738161E-002
  -1.5204716043392789E-002   4.5686759690394367E-003   6.2815819352911501E-002
  -1.4563766776898997E-002   4.3726997076513991E-003   6.2917590908265764E-002
  -1.3922817510405224E-002   4.1608146712617672E-003   6.3238538268801103E-002
  -2.2006005336527485E-002   6.5406737877010124E-003   6.2134462188639550E-002
  -2.1144373359225869E-002   6.3216602114581910E-003   6.1766967513529364E-002
  -2.0282741381924277E-002   6.0796130322681441E-003   6.1621662454853704E-002
  -1.9421109404622678E-002   5.8145322501311283E-003   6.1698547012612709E-002
  -1.8559477427321065E-002   5.5264178650469287E-003   6.1997621186806517E-002
  -1.8208310100471803E-005   6.4005089905949664E-005   6.6482538938782032E-002
  -2.6604555255577145E-005   7.1348227058287694E-005   6.6346460620589909E-002
  -3.5000800410675548E-005   5.4305910293372950E-005   6.6416458936644218E-002
  -4.3397045565779155E-005   1.2878139610858486E-005   6.6692533886944738E-002
  -5.1793290720879293E-005  -5.2935084988769976E-005   6.7174685471491802E-002
  -4.6521829517949288E-003   1.4296082836912083E-003   6.5480997144788888E-002
  -4.4584464947613426E-003   1.3626704341316020E-003   6.5321205124836468E-002
  -4.2647100377277633E-003   1.2823686825649411E-003   6.5359601875015022E-002
  -4.0709735806941805E-003   1.1887030289912705E-003   6.5596187395324607E-002
  -3.8772371236606047E-003   1.0816734734106492E-003   6.6030961685765110E-002
  -9.2870526852298456E-003   2.7952114774764392E-003   6.4399663588128514E-002
  -8.8990713901229458E-003   2.6539926412048886E-003   6.4227179418326105E-002
  -8.5110900950160304E-003   2.5104314548365647E-003   6.4244996154539380E-002
  -8.1231087999091307E-003   2.3645279183716825E-003   6.4453113796768241E-002
  -7.7351275048022292E-003   2.2162820318100962E-003   6.4851532345012800E-002
  -1.3922817510405224E-002   4.1608146712617672E-003   6.3238538268801103E-002
  -1.3348479241340357E-002   3.9453148482781891E-003   6.3064383501059043E-002
  -1.2774140972275496E-002   3.7384942271082716E-003   6.3072641775217292E-002
  -1.2199802703210630E-002   3.5403528077520945E-003   6.3263313091275794E-002
  -1.1625464434145765E-002   3.3508905902094183E-003   6.3636397449234550E-002
  -1.8559477427321065E-002   5.5264178650469287E-003   6.1997621186806517E-002
  -1.7806670048413617E-002   5.2366370553514618E-003   6.1832817373035087E-002
  -1.7053862669506144E-002   4.9665569993797981E-003   6.1842538737048758E-002
  -1.6301055290598679E-002   4.7161776971325169E-003   6.2026785278847377E-002
  -1.5548247911691217E-002   4.4854991486090179E-003   6.2385556998430791E-002
  -5.1793290720879293E-005  -5.2935084988769976E-005   6.7174685471491802E-002
  -6.0252795838822149E-005   1.5578347745792698E-005   6.6973927590869120E-002
  -6.8712300956765004E-005   3.7713054906686472E-004   6.7092709746659457E-002
  -7.7171806074706126E-005   1.0317215189739638E-003   6.7531031938862549E-002
  -8.5631311192643778E-005   1.9793512574672878E-003   6.8288894167478631E-002
  -3.8772371236606047E-003   1.0816734734106492E-003   6.6030961685765110E-002
  -3.5805628700913538E-003   1.0501182253304375E-003   6.6012026622012193E-002
  -3.2838886165220873E-003   1.1828754942588421E-003   6.6283819039220815E-002
  -2.9872143629528442E-003   1.4799452801953668E-003   6.6846338937390865E-002
  -2.6905401093835560E-003   1.9413275831402510E-003   6.7699586316522620E-002
  -7.7351275048022292E-003   2.2162820318100962E-003   6.4851532345012800E-002
  -7.1621320479971374E-003   2.0846581029153599E-003   6.4885693846551587E-002
  -6.5891365911920387E-003   1.9886204394509790E-003   6.5181770273600503E-002
  -6.0161411343869417E-003   1.9281690414169345E-003   6.5739761626159618E-002
  -5.4431456775818760E-003   1.9033039088133252E-003   6.6559667904228903E-002
  -1.1625464434145765E-002   3.3508905902094183E-003   6.3636397449234550E-002
  -1.0804960329556183E-002   3.1191979805000880E-003   6.3594929264487260E-002
  -9.9844562249665880E-003   2.7943653846430362E-003   6.3786563449798730E-002
  -9.1639521203769839E-003   2.3763928026385864E-003   6.4211300005169114E-002
  -8.3434480157874129E-003   1.8652802344862884E-003   6.4869138930598161E-002
  -1.5548247911691217E-002   4.4854991486090179E-003   6.2385556998430791E-002
  -1.4509047714768485E-002   4.1537378580849271E-003   6.2139732875819254E-002
  -1.3469847517845759E-002   3.6001103298351073E-003   6.2098198567815205E-002
  -1.2430647320923062E-002   2.8246165638599087E-003   6.2260954074418520E-002
  -1.1391447124000295E-002   1.8272565601593627E-003   6.2627999395629574E-002
  -2.6633157420176752E-002   0.0000000000000000        2.9469564568411460E-002
  -2.7234018915033423E-002   5.8566935377343202E-004   3.4947550159063853E-002
  -2.7834880409890090E-002   1.3194018554943277E-003   4.0117418118935155E-002
  -2.8435741904746764E-002   2.2011975051626914E-003   4.4979168448025353E-002
  -2.9036603399603431E-002   3.2310563027785170E-003   4.9532801146334446E-002
  -3.3392504287329733E-002   0.0000000000000000        3.0179659848556622E-002
  -3.4236243225648041E-002   9.6021434285511152E-004   3.5268292369609731E-002
  -3.5079982163966357E-002   2.0237518104392060E-003   4.0179287634520673E-002
  -3.5923721102284666E-002   3.1906124027522775E-003   4.4912645643289437E-002
  -3.6767460040602974E-002   4.4607961197943328E-003   4.9468366395916008E-002
  -4.0732137547739675E-002   0.0000000000000000        3.1286670129392700E-002
  -4.1688273554880709E-002   1.3347593319367897E-003   3.5941209557628050E-002
  -4.2644409562021750E-002   2.7281017653840783E-003   4.0548592104360147E-002
  -4.3600545569162777E-002   4.1800273003418618E-003   4.5108817769588971E-002
  -4.4556681576303804E-002   5.6905359368101451E-003   4.9621886553314544E-002
  -4.8652057201406584E-002   0.0000000000000000        3.2790595410919700E-002
  -4.9590109902731418E-002   1.7093043210184699E-003   3.6966301723118808E-002
  -5.0528162604056251E-002   3.4324517203289497E-003   4.1225331528453577E-002
  -5.1466215305381091E-002   5.1694421979314471E-003   4.5567684826923992E-002
  -5.2404268006705931E-002   6.9202757538259592E-003   4.9993361618530061E-002
  -5.7152263248330455E-002   0.0000000000000000        3.4691435693137623E-002
  -5.7941752269200175E-002   2.0838493101001474E-003   3.8343568866081999E-002
  -5.8731241290069895E-002   4.1368016752738289E-003   4.2209505906800948E-002
  -5.9520730310939601E-002   6.1588570955210323E-003   4.6289246815294477E-002
  -6.0310219331809314E-002   8.1500155708417697E-003   5.0582791591562579E-002
  -2.9036603399603431E-002   3.2310563027785170E-003   4.9532801146334446E-002
  -2.9109945286485986E-002   4.2494782630824769E-003   5.1592287669539855E-002
  -2.9183287173368540E-002   5.0969634008152459E-003   5.3751175403346022E-002
  -2.9256629060251092E-002   5.7735117159767885E-003   5.6009464347752967E-002
  -2.9329970947133646E-002   6.2791232085671403E-003   5.8367154502760678E-002
  -3.6767460040602974E-002   4.4607961197943328E-003   4.9468366395916008E-002
  -3.6780413767419910E-002   5.6942545423038634E-003   5.1256619705702347E-002
  -3.6793367494236846E-002   6.7509392510193963E-003   5.3066248125019144E-002
  -3.6806321221053817E-002   7.6308502459408890E-003   5.4897251653866407E-002
  -3.6819274947870753E-002   8.3339875270683969E-003   5.6749630292244092E-002
  -4.4556681576303804E-002   5.6905359368101451E-003   4.9621886553314544E-002
  -4.4587273244125453E-002   7.1390308215252638E-003   5.1133069758459028E-002
  -4.4617864911947108E-002   8.4049151012235528E-003   5.2587601972063643E-002
  -4.4648456579768757E-002   9.4881887759050033E-003   5.3985483194128381E-002
  -4.4679048247590412E-002   1.0388851845569636E-002   5.5326713424653270E-002
  -5.2404268006705931E-002   6.9202757538259592E-003   4.9993361618530061E-002
  -5.2530523716602592E-002   8.5838071007466529E-003   5.1221637827809856E-002
  -5.2656779426499274E-002   1.0058890951427686E-002   5.2315236944479468E-002
  -5.2783035136395963E-002   1.1345527305869116E-002   5.3274158968538904E-002
  -5.2909290846292631E-002   1.2443716164070891E-002   5.4098403899988143E-002
  -6.0310219331809314E-002   8.1500155708417697E-003   5.0582791591562579E-002
  -6.0610165184851350E-002   1.0028583379968051E-002   5.1522323913754872E-002
  -6.0910111037893379E-002   1.1712866801631850E-002   5.2249153042266676E-002
  -6.1210056890935394E-002   1.3202865835833209E-002   5.2763278977097990E-002
  -6.1510002743977409E-002   1.4498580482572118E-002   5.3064701718248744E-002
  -2.9329970947133646E-002   6.2791232085671403E-003   5.8367154502760678E-002
  -2.8980881878893382E-002   6.6671022166708907E-003   5.9138714012685382E-002
  -2.8631792810653117E-002   6.9907530783725347E-003   5.9945571950745416E-002
  -2.8282703742412849E-002   7.2500757936721540E-003   6.0787728316940792E-002
  -2.7933614674172581E-002   7.4450703625696946E-003   6.1665183111271532E-002
  -3.6819274947870753E-002   8.3339875270683969E-003   5.6749630292244092E-002
  -3.6382758990893826E-002   8.8760345192330919E-003   5.7097981458520727E-002
  -3.5946243033916900E-002   9.2726746472662335E-003   5.7585887974135344E-002
  -3.5509727076939987E-002   9.5239079111677262E-003   5.8213349839087929E-002
  -3.5073211119963067E-002   9.6297343109376099E-003   5.8980367053378474E-002
  -4.4679048247590412E-002   1.0388851845569636E-002   5.5326713424653270E-002
  -4.4050848480674198E-002   1.1084966821795290E-002   5.5170777529552295E-002
  -4.3422648713757984E-002   1.1554596216159820E-002   5.5258653904991926E-002
  -4.2794448946841784E-002   1.1797740028663269E-002   5.5590342550972165E-002
  -4.2166249179925577E-002   1.1814398259305525E-002   5.6165843467492989E-002
  -5.2909290846292631E-002   1.2443716164070891E-002   5.4098403899988143E-002
  -5.1985150348234505E-002   1.3293899124357517E-002   5.3357102225780037E-002
  -5.1061009850176371E-002   1.3836517785053442E-002   5.2963869743315184E-002
  -5.0136869352118259E-002   1.4071572146158758E-002   5.2918706452593535E-002
  -4.9212728854060139E-002   1.3999062207673441E-002   5.3221612353615187E-002
  -6.1510002743977409E-002   1.4498580482572118E-002   5.3064701718248744E-002
  -6.0185664593574738E-002   1.5502831426919689E-002   5.1656955547203981E-002
  -5.8861326443172074E-002   1.6118439353947103E-002   5.0701535489105116E-002
  -5.7536988292769403E-002   1.6345404263654363E-002   5.0198441543952060E-002
  -5.6212650142366719E-002   1.6183726156041328E-002   5.0147673711744889E-002
  -2.7933614674172581E-002   7.4450703625696946E-003   6.1665183111271532E-002
  -2.7221418042502124E-002   7.5620762957816223E-003   6.1370227033875291E-002
  -2.6509221410831656E-002   7.5874331040241480E-003   6.1309388753267954E-002
  -2.5797024779161196E-002   7.5211407872973601E-003   6.1482668269449418E-002
  -2.5084828147490728E-002   7.3631993456012845E-003   6.1890065582419884E-002
  -3.5073211119963067E-002   9.6297343109376099E-003   5.8980367053378474E-002
  -3.4136321877029537E-002   9.6303046098577330E-003   5.8644166945015709E-002
  -3.3199432634096013E-002   9.5657695712098104E-003   5.8523234262390159E-002
  -3.2262543391162489E-002   9.4361291949938298E-003   5.8617569005501850E-002
  -3.1325654148228965E-002   9.2413834812097584E-003   5.8927171174350826E-002
  -4.2166249179925577E-002   1.1814398259305525E-002   5.6165843467492989E-002
  -4.1023517696780622E-002   1.1698532923933871E-002   5.5814943115564959E-002
  -3.9880786213635701E-002   1.1544106038395421E-002   5.5660459818322489E-002
  -3.8738054730490752E-002   1.1351117602690190E-002   5.5702393575765667E-002
  -3.7595323247345810E-002   1.1119567616818191E-002   5.5940744387894377E-002
  -4.9212728854060139E-002   1.3999062207673441E-002   5.3221612353615187E-002
  -4.7883005501755400E-002   1.3766761238010038E-002   5.2882555545523083E-002
  -4.6553282149450682E-002   1.3522442505581085E-002   5.2721065421065000E-002
  -4.5223558797145971E-002   1.3266106010386577E-002   5.2737141980240848E-002
  -4.3893835444841225E-002   1.2997751752426616E-002   5.2930785223050621E-002
  -5.6212650142366719E-002   1.6183726156041328E-002   5.0147673711744889E-002
  -5.4714785291953852E-002   1.5834989552086148E-002   4.9847004234890094E-002
  -5.3216920441540999E-002   1.5500778972766707E-002   4.9705051070617581E-002
  -5.1719055591128146E-002   1.5181094418082967E-002   4.9721814218927476E-002
  -5.0221190740715252E-002   1.4875935888035069E-002   4.9897293679819571E-002
  -2.5084828147490728E-002   7.3631993456012845E-003   6.1890065582419884E-002
  -2.4315122444749919E-002   7.1589669950970075E-003   6.1688462787840737E-002
  -2.3545416742009113E-002   6.9538019519454833E-003   6.1661994624017599E-002
  -2.2775711039268298E-002   6.7477042161468385E-003   6.1810661090950618E-002
  -2.2006005336527485E-002   6.5406737877010124E-003   6.2134462188639550E-002
  -3.1325654148228965E-002   9.2413834812097584E-003   5.8927171174350826E-002
  -3.0375087943484723E-002   9.0061138534252433E-003   5.8694013561100364E-002
  -2.9424521738740481E-002   8.7549017352077513E-003   5.8647442321100703E-002
  -2.8473955533996238E-002   8.4877471265573344E-003   5.8787457454351905E-002
  -2.7523389329251999E-002   8.2046500274741418E-003   5.9114058960853894E-002
  -3.7595323247345810E-002   1.1119567616818191E-002   5.5940744387894377E-002
  -3.6452444798103376E-002   1.0853260711753472E-002   5.5661022158186954E-002
  -3.5309566348860968E-002   1.0556001518470071E-002   5.5579338044225074E-002
  -3.4166687899618534E-002   1.0227790036967912E-002   5.5695692046008709E-002
  -3.3023809450376113E-002   9.8686262672471325E-003   5.6010084163537935E-002
  -4.3893835444841225E-002   1.2997751752426616E-002   5.2930785223050621E-002
  -4.2547193008605891E-002   1.2700407570081621E-002   5.2589488579100410E-002
  -4.1200550572370570E-002   1.2357101301732338E-002   5.2457681793390463E-002
  -3.9853908136135215E-002   1.1967832947378394E-002   5.2535364865920843E-002
  -3.8507265699899901E-002   1.1532602507020193E-002   5.2822537796691403E-002
  -5.0221190740715252E-002   1.4875935888035069E-002   4.9897293679819571E-002
  -4.8659332574992248E-002   1.4547554428409951E-002   4.9479412823840802E-002
  -4.7097474409269251E-002   1.4158201084994666E-002   4.9282473568597038E-002
  -4.5535616243546226E-002   1.3707875857788933E-002   4.9306475914088398E-002
  -4.3973758077823236E-002   1.3196578746793197E-002   4.9551419860314694E-002
  -2.2006005336527485E-002   6.5406737877010124E-003   6.2134462188639550E-002
  -2.1144373359225869E-002   6.3216602114581910E-003   6.1766967513529364E-002
  -2.0282741381924277E-002   6.0796130322681441E-003   6.1621662454853704E-002
  -1.9421109404622678E-002   5.8145322501311283E-003   6.1698547012612709E-002
  -1.8559477427321065E-002   5.5264178650469287E-003   6.1997621186806517E-002
  -2.7523389329251999E-002   8.2046500274741418E-003   5.9114058960853894E-002
  -2.6443302970439807E-002   7.9069291972433398E-003   5.8741623635015394E-002
  -2.5363216611627611E-002   7.5959033951505592E-003   5.8583907455763418E-002
  -2.4283130252815425E-002   7.2715726211959510E-003   5.8640910423097992E-002
  -2.3203043894003204E-002   6.9339368753792985E-003   5.8912632537019033E-002
  -3.3023809450376113E-002   9.8686262672471325E-003   5.6010084163537935E-002
  -3.1732739179901479E-002   9.4921981830285995E-003   5.5642436818056314E-002
  -3.0441668909426869E-002   9.1121937580330853E-003   5.5482038149312990E-002
  -2.9150598638952238E-002   8.7286129922606627E-003   5.5528888157308075E-002
  -2.7859528368477625E-002   8.3414558857114462E-003   5.5782986842041485E-002
  -3.8507265699899901E-002   1.1532602507020193E-002   5.2822537796691403E-002
  -3.7012681987610957E-002   1.1077467168813804E-002   5.2469407062651775E-002
  -3.5518098275322013E-002   1.0628484120915584E-002   5.2316054535502310E-002
  -3.4023514563033111E-002   1.0185653363325541E-002   5.2362480215243229E-002
  -3.2528930850744167E-002   9.7489748960437606E-003   5.2608684101874220E-002
  -4.3973758077823236E-002   1.3196578746793197E-002   4.9551419860314694E-002
  -4.2283131393568138E-002   1.2662736154599036E-002   4.9222534368802084E-002
  -4.0592504709313103E-002   1.2144774483797985E-002   4.9085956614331516E-002
  -3.8901878025058026E-002   1.1642693734390187E-002   4.9141686596903045E-002
  -3.7211251340802970E-002   1.1156493906375908E-002   4.9389724316516670E-002
  -1.8559477427321065E-002   5.5264178650469287E-003   6.1997621186806517E-002
  -1.7806670048413617E-002   5.2366370553514618E-003   6.1832817373035087E-002
  -1.7053862669506144E-002   4.9665569993797981E-003   6.1842538737048758E-002
  -1.6301055290598679E-002   4.7161776971325169E-003   6.2026785278847377E-002
  -1.5548247911691217E-002   4.4854991486090179E-003   6.2385556998430791E-002
  -2.3203043894003204E-002   6.9339368753792985E-003   5.8912632537019033E-002
  -2.2274736038650135E-002   6.5933795616280599E-003   5.8749467308974845E-002
  -2.1346428183297038E-002   6.2602840838701657E-003   5.8762777856036993E-002
  -2.0418120327943969E-002   5.9346504421050675E-003   5.8952564178205498E-002
  -1.9489812472590871E-002   5.6164786363331332E-003   5.9318826275480352E-002
  -2.7859528368477625E-002   8.3414558857114462E-003   5.5782986842041485E-002
  -2.6753769439357450E-002   7.9501220679048384E-003   5.5609221281993443E-002
  -2.5648010510237285E-002   7.5540111683602071E-003   5.5613882094373103E-002
  -2.4542251581117096E-002   7.1531231870777309E-003   5.5796969279180611E-002
  -2.3436492651996946E-002   6.7474581240572207E-003   5.6158482836415877E-002
  -3.2528930850744167E-002   9.7489748960437606E-003   5.2608684101874220E-002
  -3.1243770250535489E-002   9.3068645741815823E-003   5.2412079292091011E-002
  -2.9958609650326835E-002   8.8477382528503838E-003   5.2395851452057211E-002
  -2.8673449050118184E-002   8.3715959320502277E-003   5.2560000581772640E-002
  -2.7388288449909533E-002   7.8784376117813221E-003   5.2904526681237282E-002
  -3.7211251340802970E-002   1.1156493906375908E-002   4.9389724316516670E-002
  -3.5744738472184373E-002   1.0663607080458215E-002   4.9158041339267600E-002
  -3.4278225603565748E-002   1.0141465337340588E-002   4.9108685929089346E-002
  -3.2811712734947152E-002   9.5900686770229934E-003   4.9241658085981604E-002
  -3.1345199866328541E-002   9.0094170995054790E-003   4.9556957809944679E-002
  -1.5548247911691217E-002   4.4854991486090179E-003   6.2385556998430791E-002
  -1.4509047714768485E-002   4.1537378580849271E-003   6.2139732875819254E-002
  -1.3469847517845759E-002   3.6001103298351073E-003   6.2098198567815205E-002
  -1.2430647320923062E-002   2.8246165638599087E-003   6.2260954074418520E-002
  -1.1391447124000295E-002   1.8272565601593627E-003   6.2627999395629574E-002
  -1.9489812472590871E-002   5.6164786363331332E-003   5.9318826275480352E-002
  -1.8242305048493036E-002   5.2356803769616211E-003   5.8894613456471040E-002
  -1.6994797624395253E-002   4.7221673743976372E-003   5.8682725277204528E-002
  -1.5747290200297422E-002   4.0759396286416290E-003   5.8683161737680456E-002
  -1.4499782776199635E-002   3.2969971396934472E-003   5.8895922837899350E-002
  -2.3436492651996946E-002   6.7474581240572207E-003   5.6158482836415877E-002
  -2.1972643175588873E-002   6.3176228958382596E-003   5.5645032815541992E-002
  -2.0508793699180763E-002   5.8442244189601603E-003   5.5351942259546226E-002
  -1.9044944222772739E-002   5.3272626934233198E-003   5.5279211168428238E-002
  -1.7581094746364583E-002   4.7667377192274207E-003   5.5426839542188133E-002
  -2.7388288449909533E-002   7.8784376117813221E-003   5.2904526681237282E-002
  -2.5700062096055895E-002   7.3995654147148149E-003   5.2390990953032249E-002
  -2.4011835742202333E-002   6.9662814635227978E-003   5.2105849514840374E-002
  -2.2323609388348688E-002   6.5785857582049698E-003   5.2049102366661784E-002
  -2.0635383034495129E-002   6.2364782987614498E-003   5.2220749508495978E-002
  -3.1345199866328541E-002   9.0094170995054790E-003   4.9556957809944679E-002
  -2.9424561809894223E-002   8.4815079335916477E-003   4.9132487868941810E-002
  -2.7503923753459884E-002   8.0883385080851161E-003   4.8944447043087119E-002
  -2.5583285697025625E-002   7.8299088229866511E-003   4.8992835332380927E-002
  -2.3662647640591228E-002   7.7062188782954788E-003   4.9277652736823052E-002
  -5.7152263248330455E-002   0.0000000000000000        3.4691435693137623E-002
  -5.7941752269200175E-002   2.0838493101001474E-003   3.8343568866081999E-002
  -5.8731241290069895E-002   4.1368016752738289E-003   4.2209505906800948E-002
  -5.9520730310939601E-002   6.1588570955210323E-003   4.6289246815294477E-002
  -6.0310219331809314E-002   8.1500155708417697E-003   5.0582791591562579E-002
  -6.5820660298461731E-002   0.0000000000000000        3.7212492565512720E-002
  -6.6625464080525720E-002   2.9140061703286455E-003   4.0835153232009008E-002
  -6.7430267862589696E-002   5.7703927569409770E-003   4.4213380508342184E-002
  -6.8235071644653686E-002   8.5691597598369831E-003   4.7347174394512241E-002
  -6.9039875426717690E-002   1.1310307179016675E-002   5.0236534890519186E-002
  -7.4245152961750854E-002   0.0000000000000000        4.0577067617511231E-002
  -7.5523508762946806E-002   3.7441630305571445E-003   4.4143533138769592E-002
  -7.6801864564142744E-002   7.4039838386081285E-003   4.7007328011927155E-002
  -7.8080220365338696E-002   1.0979462424152941E-002   4.9168452236983899E-002
  -7.9358576166534620E-002   1.4470598787191596E-002   5.0626905813939839E-002
  -8.2425741238197806E-002   0.0000000000000000        4.4785160849133178E-002
  -8.4635886316463418E-002   4.5743198907856417E-003   4.8268708586363757E-002
  -8.6846031394728990E-002   9.0375749202752757E-003   5.0591348417555845E-002
  -8.9056176472994603E-002   1.3389765088468899E-002   5.1753080342709437E-002
  -9.1266321551260202E-002   1.7630890395366514E-002   5.1753904361824525E-002
  -9.0362425127802598E-002   0.0000000000000000        4.9836772260378533E-002
  -9.3962596741075544E-002   5.4044767510141398E-003   5.3210679574791496E-002
  -9.7562768354348489E-002   1.0671166001942430E-002   5.4965441725228277E-002
 -0.10116293996762143        1.5800067752784849E-002   5.5101058711688869E-002
 -0.10476311158089437        2.0791182003541422E-002   5.3617530534173272E-002
  -6.0310219331809314E-002   8.1500155708417697E-003   5.0582791591562579E-002
  -6.0610165184851350E-002   1.0028583379968051E-002   5.1522323913754872E-002
  -6.0910111037893379E-002   1.1712866801631850E-002   5.2249153042266676E-002
  -6.1210056890935394E-002   1.3202865835833209E-002   5.2763278977097990E-002
  -6.1510002743977409E-002   1.4498580482572118E-002   5.3064701718248744E-002
  -6.9039875426717690E-002   1.1310307179016675E-002   5.0236534890519186E-002
  -6.9314689775342234E-002   1.3754399484008396E-002   4.9459469749839793E-002
  -6.9589504123966792E-002   1.5662001144340420E-002   4.8945370811675840E-002
  -6.9864318472591350E-002   1.7033112160012801E-002   4.8694238076027324E-002
  -7.0139132821215908E-002   1.7867732531025526E-002   4.8706071542894247E-002
  -7.9358576166534620E-002   1.4470598787191596E-002   5.0626905813939839E-002
  -7.9132589614545779E-002   1.7480215588048735E-002   4.7791036953191542E-002
  -7.8906603062556924E-002   1.9611135487048993E-002   4.5693803691154625E-002
  -7.8680616510568069E-002   2.0863358484192390E-002   4.4335206027829088E-002
  -7.8454629958579228E-002   2.1236884579478914E-002   4.3715243963214953E-002
  -9.1266321551260202E-002   1.7630890395366514E-002   5.1753904361824525E-002
  -9.0063864702461999E-002   2.1206031692089067E-002   4.6517025523810138E-002
  -8.8861407853663796E-002   2.3560269829757577E-002   4.2494451680703038E-002
  -8.7658951004865565E-002   2.4693604808371974E-002   3.9686182832503254E-002
  -8.6456494156067390E-002   2.4606036627932298E-002   3.8092218979210828E-002
 -0.10476311158089437        2.0791182003541422E-002   5.3617530534173272E-002
 -0.10210851503909087        2.4931847796129426E-002   4.5637435461695505E-002
  -9.9453918497287366E-002   2.7509404172466147E-002   3.9347314780321059E-002
  -9.6799321955483880E-002   2.8523851132551563E-002   3.4747168490049850E-002
  -9.4144725413680380E-002   2.7975188676385709E-002   3.1836996590881933E-002
  -6.1510002743977409E-002   1.4498580482572118E-002   5.3064701718248744E-002
  -6.0185664593574738E-002   1.5502831426919689E-002   5.1656955547203981E-002
  -5.8861326443172074E-002   1.6118439353947103E-002   5.0701535489105116E-002
  -5.7536988292769403E-002   1.6345404263654363E-002   5.0198441543952060E-002
  -5.6212650142366719E-002   1.6183726156041328E-002   5.0147673711744889E-002
  -7.0139132821215908E-002   1.7867732531025526E-002   4.8706071542894247E-002
  -6.8409086347462983E-002   1.8322513259832529E-002   4.7259424693593052E-002
  -6.6679039873710086E-002   1.8554105348887757E-002   4.6171868378046467E-002
  -6.4948993399957175E-002   1.8562508798191286E-002   4.5443402596254456E-002
  -6.3218946926204236E-002   1.8347723607743074E-002   4.5074027348217083E-002
  -7.8454629958579228E-002   2.1236884579478914E-002   4.3715243963214953E-002
  -7.6412110740667338E-002   2.1142195092745342E-002   4.2395150813225757E-002
  -7.4369591522755463E-002   2.0989771343828456E-002   4.1340912617799916E-002
  -7.2327072304843573E-002   2.0779613332728281E-002   4.0552529376937388E-002
  -7.0284553086931739E-002   2.0511721059444779E-002   4.0030001090638201E-002
  -8.6456494156067390E-002   2.4606036627932298E-002   3.8092218979210828E-002
  -8.4194737773187811E-002   2.3961876925658189E-002   3.7064133906102074E-002
  -8.1932981390308190E-002   2.3425437338769117E-002   3.6208668208365387E-002
  -7.9671225007428612E-002   2.2996717867265253E-002   3.5525821886000834E-002
  -7.7409468624549033E-002   2.2675718511146477E-002   3.5015594939008354E-002
  -9.4144725413680380E-002   2.7975188676385709E-002   3.1836996590881933E-002
  -9.1756967445024332E-002   2.6781558758570981E-002   3.1266373972222102E-002
  -8.9369209476368297E-002   2.5861103333709799E-002   3.0775135149743026E-002
  -8.6981451507712276E-002   2.5213822401802255E-002   3.0363280123444747E-002
  -8.4593693539056242E-002   2.4839715962848202E-002   3.0030808893327376E-002
  -5.6212650142366719E-002   1.6183726156041328E-002   5.0147673711744889E-002
  -5.4714785291953852E-002   1.5834989552086148E-002   4.9847004234890094E-002
  -5.3216920441540999E-002   1.5500778972766707E-002   4.9705051070617581E-002
  -5.1719055591128146E-002   1.5181094418082967E-002   4.9721814218927476E-002
  -5.0221190740715252E-002   1.4875935888035069E-002   4.9897293679819571E-002
  -6.3218946926204236E-002   1.8347723607743074E-002   4.5074027348217083E-002
  -6.1546233778694316E-002   1.8007523921200211E-002   4.4723623315086239E-002
  -5.9873520631184361E-002   1.7639683882219797E-002   4.4564199563567289E-002
  -5.8200807483674441E-002   1.7244203490801992E-002   4.4595756093660156E-002
  -5.6528094336164500E-002   1.6821082746946631E-002   4.4818292905364834E-002
  -7.0284553086931739E-002   2.0511721059444779E-002   4.0030001090638201E-002
  -6.8404727673295196E-002   2.0180058290314259E-002   3.9587696124158175E-002
  -6.6524902259658625E-002   1.9778588791672942E-002   3.9368635408319454E-002
  -6.4645076846022054E-002   1.9307312563520945E-002   3.9372818943122084E-002
  -6.2765251432385524E-002   1.8766229605858123E-002   3.9600246728566067E-002
  -7.7409468624549033E-002   2.2675718511146477E-002   3.5015594939008354E-002
  -7.5290266975756345E-002   2.2352592659428343E-002   3.4439222662105709E-002
  -7.3171065326963700E-002   2.1917493701126060E-002   3.4118358604874027E-002
  -7.1051863678171040E-002   2.1370421636239881E-002   3.4053002767313163E-002
  -6.8932662029378367E-002   2.0711376464769608E-002   3.4243155149423249E-002
  -8.4593693539056242E-002   2.4839715962848202E-002   3.0030808893327376E-002
  -8.2202851686077952E-002   2.4525127028542357E-002   2.9278202928928937E-002
  -7.9812009833099634E-002   2.4056398610579170E-002   2.8813369153231100E-002
  -7.7421167980121330E-002   2.3433530708958872E-002   2.8636307566233525E-002
  -7.5030326127143027E-002   2.2656523323681177E-002   2.8747018167936345E-002
  -5.0221190740715252E-002   1.4875935888035069E-002   4.9897293679819571E-002
  -4.8659332574992248E-002   1.4547554428409951E-002   4.9479412823840802E-002
  -4.7097474409269251E-002   1.4158201084994666E-002   4.9282473568597038E-002
  -4.5535616243546226E-002   1.3707875857788933E-002   4.9306475914088398E-002
  -4.3973758077823236E-002   1.3196578746793197E-002   4.9551419860314694E-002
  -5.6528094336164500E-002   1.6821082746946631E-002   4.4818292905364834E-002
  -5.4753490238518457E-002   1.6367670069835832E-002   4.4415005180870548E-002
  -5.2978886140872414E-002   1.5881313878651888E-002   4.4216267719487230E-002
  -5.1204282043226405E-002   1.5362014173394738E-002   4.4222080521215026E-002
  -4.9429677945580328E-002   1.4809770954064327E-002   4.4432443586053721E-002
  -6.2765251432385524E-002   1.8766229605858123E-002   3.9600246728566067E-002
  -6.0794292740440514E-002   1.8187785711261818E-002   3.9239580505273229E-002
  -5.8823334048495414E-002   1.7604426672309274E-002   3.9067073207467412E-002
  -5.6852375356550390E-002   1.7016152489000486E-002   3.9082724835148575E-002
  -5.4881416664605304E-002   1.6422963161335430E-002   3.9286535388316765E-002
  -6.8932662029378367E-002   2.0711376464769608E-002   3.4243155149423249E-002
  -6.6781740080758337E-002   2.0007901352687780E-002   3.3953138797048872E-002
  -6.4630818132138307E-002   1.9327539465966603E-002   3.3834890032537410E-002
  -6.2479896183518256E-002   1.8670290804606179E-002   3.3888408855889000E-002
  -6.0328974234898254E-002   1.8036155368606602E-002   3.4113695267103408E-002
  -7.5030326127143027E-002   2.2656523323681177E-002   2.8747018167936345E-002
  -7.2715832259472007E-002   2.1828016994113797E-002   2.8555680056197325E-002
  -7.0401338391801002E-002   2.1050652259623964E-002   2.8519718194697313E-002
  -6.8086844524129969E-002   2.0324429120211991E-002   2.8639132583436214E-002
  -6.5772350656458950E-002   1.9649347575877663E-002   2.8913923222414151E-002
  -4.3973758077823236E-002   1.3196578746793197E-002   4.9551419860314694E-002
  -4.2283131393568138E-002   1.2662736154599036E-002   4.9222534368802084E-002
  -4.0592504709313103E-002   1.2144774483797985E-002   4.9085956614331516E-002
  -3.8901878025058026E-002   1.1642693734390187E-002   4.9141686596903045E-002
  -3.7211251340802970E-002   1.1156493906375908E-002   4.9389724316516670E-002
  -4.9429677945580328E-002   1.4809770954064327E-002   4.4432443586053721E-002
  -4.7546128565896427E-002   1.4243926855860137E-002   4.4119165540519575E-002
  -4.5662579186212505E-002   1.3683824513981840E-002   4.3999425148801050E-002
  -4.3779029806528563E-002   1.3129463928429029E-002   4.4073222410898151E-002
  -4.1895480426844614E-002   1.2580845099202154E-002   4.4340557326810970E-002
  -5.4881416664605304E-002   1.6422963161335430E-002   3.9286535388316765E-002
  -5.2803714672718965E-002   1.5825117557121363E-002   3.8978725623693394E-002
  -5.0726012680832565E-002   1.5222874544165467E-002   3.8865683429659327E-002
  -4.8648310688946171E-002   1.4616234122467870E-002   3.8947408806214459E-002
  -4.6570608697059833E-002   1.4005196292028482E-002   3.9223901753358853E-002
  -6.0328974234898254E-002   1.8036155368606602E-002   3.4113695267103408E-002
  -5.8055889714035809E-002   1.7406308258382637E-002   3.3801214618323479E-002
  -5.5782805193173392E-002   1.6761924574349319E-002   3.3684731456906397E-002
  -5.3509720672310981E-002   1.6103004316506655E-002   3.3764245782852163E-002
  -5.1236636151448599E-002   1.5429547484854769E-002   3.4039757596160652E-002
  -6.5772350656458950E-002   1.9649347575877663E-002   2.8913923222414151E-002
  -6.3302653689846916E-002   1.8987498959643717E-002   2.8586632524410016E-002
  -6.0832956723234896E-002   1.8300974604532880E-002   2.8456569230542267E-002
  -5.8363259756622883E-002   1.7589774510545397E-002   2.8523733340811014E-002
  -5.5893562790010870E-002   1.6853898677681001E-002   2.8788124855216035E-002
  -3.7211251340802970E-002   1.1156493906375908E-002   4.9389724316516670E-002
  -3.5744738472184373E-002   1.0663607080458215E-002   4.9158041339267600E-002
  -3.4278225603565748E-002   1.0141465337340588E-002   4.9108685929089346E-002
  -3.2811712734947152E-002   9.5900686770229934E-003   4.9241658085981604E-002
  -3.1345199866328541E-002   9.0094170995054790E-003   4.9556957809944679E-002
  -4.1895480426844614E-002   1.2580845099202154E-002   4.4340557326810970E-002
  -4.0252509514948027E-002   1.2025587439877972E-002   4.4087968474735506E-002
  -3.8609538603051399E-002   1.1451310364032935E-002   4.4005968142145441E-002
  -3.6966567691154792E-002   1.0858013871667495E-002   4.4094556329040607E-002
  -3.5323596779258198E-002   1.0245697962781353E-002   4.4353733035421283E-002
  -4.6570608697059833E-002   1.4005196292028482E-002   3.9223901753358853E-002
  -4.4762918789470495E-002   1.3387567799297562E-002   3.8960642527136283E-002
  -4.2955228881881205E-002   1.2761155390725407E-002   3.8856232772813845E-002
  -4.1147538974291874E-002   1.2125959066311889E-002   3.8910672490391325E-002
  -3.9339849066702626E-002   1.1481978826057310E-002   3.9123961679869049E-002
  -5.1236636151448599E-002   1.5429547484854769E-002   3.4039757596160652E-002
  -4.9275966295751900E-002   1.4749548158717235E-002   3.3776063496470353E-002
  -4.7315296440055193E-002   1.4071000417417732E-002   3.3659479821094740E-002
  -4.5354626584358501E-002   1.3393904260956558E-002   3.3690006570033897E-002
  -4.3393956728661788E-002   1.2718259689333392E-002   3.3867643743287656E-002
  -5.5893562790010870E-002   1.6853898677681001E-002   2.8788124855216035E-002
  -5.3791652033792076E-002   1.6111528518136853E-002   2.8534231382737307E-002
  -5.1689741277573295E-002   1.5380845444110267E-002   2.8415709286987972E-002
  -4.9587830521354466E-002   1.4661849455600767E-002   2.8432558567968128E-002
  -4.7485919765135720E-002   1.3954540552609251E-002   2.8584779225677703E-002
  -3.1345199866328541E-002   9.0094170995054790E-003   4.9556957809944679E-002
  -2.9424561809894223E-002   8.4815079335916477E-003   4.9132487868941810E-002
  -2.7503923753459884E-002   8.0883385080851161E-003   4.8944447043087119E-002
  -2.5583285697025625E-002   7.8299088229866511E-003   4.8992835332380927E-002
  -2.3662647640591228E-002   7.7062188782954788E-003   4.9277652736823052E-002
  -3.5323596779258198E-002   1.0245697962781353E-002   4.4353733035421283E-002
  -3.3177883610870096E-002   9.6563322242402827E-003   4.3979883465518121E-002
  -3.1032170442482000E-002   9.1318862429098230E-003   4.3819755004374156E-002
  -2.8886457274093894E-002   8.6723600187898174E-003   4.3873347651989497E-002
  -2.6740744105705844E-002   8.2777535518809842E-003   4.4140661408363813E-002
  -3.9339849066702626E-002   1.1481978826057310E-002   3.9123961679869049E-002
  -3.6991768792749888E-002   1.0831156514888890E-002   3.8730912497868683E-002
  -3.4643688518797164E-002   1.0175433977734190E-002   3.8528876418238343E-002
  -3.2295608244844461E-002   9.5148112145933706E-003   3.8517853440978134E-002
  -2.9947527970891660E-002   8.8492882254662675E-003   3.8697843566087964E-002
  -4.3393956728661788E-002   1.2718259689333392E-002   3.3867643743287656E-002
  -4.0866217355533571E-002   1.2005980805537567E-002   3.3385574965993439E-002
  -3.8338477982405347E-002   1.1218981712558616E-002   3.3071811284680071E-002
  -3.5810738609277068E-002   1.0357262410396785E-002   3.2926352699347482E-002
  -3.3282999236148893E-002   9.4208228990516063E-003   3.2949199209996061E-002
  -4.7485919765135720E-002   1.3954540552609251E-002   2.8584779225677703E-002
  -4.4801229299221146E-002   1.3180805096186077E-002   2.7943870869892529E-002
  -4.2116538833306572E-002   1.2262529447383097E-002   2.7448559603699074E-002
  -3.9431848367391970E-002   1.1199713606200076E-002   2.7098845427097368E-002
  -3.6747157901477312E-002   9.9923575726370562E-003   2.6894728340087548E-002
  -9.0362425127802598E-002   0.0000000000000000        4.9836772260378533E-002
  -9.3962596741075544E-002   5.4044767510141398E-003   5.3210679574791496E-002
  -9.7562768354348489E-002   1.0671166001942430E-002   5.4965441725228277E-002
 -0.10116293996762143        1.5800067752784849E-002   5.5101058711688869E-002
 -0.10476311158089437        2.0791182003541422E-002   5.3617530534173272E-002
 -0.10329376675376725        0.0000000000000000        5.8664843628870610E-002
 -0.10683138986453712        1.0884458560172866E-002   5.2120017324403828E-002
 -0.11036901297530696        1.9172289768837249E-002   4.7319433188919388E-002
 -0.11390663608607682        2.4863493625993171E-002   4.4263091222417283E-002
 -0.11744425919684670        2.7958070131640630E-002   4.2950991424897562E-002
 -0.12645832823929379        0.0000000000000000        7.4202316732232723E-002
 -0.12657001551460204        1.6364440369331591E-002   5.5279916957463558E-002
 -0.12668170278991023        2.7673413535732074E-002   4.1465146684635273E-002
 -0.12679339006521848        3.3926919499201486E-002   3.2758005913747910E-002
 -0.12690507734052672        3.5124958259739811E-002   2.9158494644801435E-002
 -0.15985610958438218        0.0000000000000000        9.6449191570464859E-002
 -0.15317847369127024        2.1844422178490301E-002   6.2690378473970715E-002
 -0.14650083779815831        3.6174537302626909E-002   3.7402582212375975E-002
 -0.13982320190504635        4.2990345372409824E-002   2.0585802785680701E-002
 -0.13314556601193445        4.2291846387839019E-002   1.2240040193884876E-002
 -0.20348711078903245        0.0000000000000000       0.12540546814356704     
 -0.18665676439454179        2.7324403987649033E-002   7.4351401873925277E-002
 -0.16982641800005113        4.4675661069521727E-002   3.5131739772141492E-002
 -0.15299607160556050        5.2053771245618129E-002   7.7464818382157047E-003
 -0.13616572521106984        4.9458734515938199E-002  -7.8043719278520773E-003
 -0.10476311158089437        2.0791182003541422E-002   5.3617530534173272E-002
 -0.10210851503909087        2.4931847796129426E-002   4.5637435461695505E-002
  -9.9453918497287366E-002   2.7509404172466147E-002   3.9347314780321059E-002
  -9.6799321955483880E-002   2.8523851132551563E-002   3.4747168490049850E-002
  -9.4144725413680380E-002   2.7975188676385709E-002   3.1836996590881933E-002
 -0.11744425919684670        2.7958070131640630E-002   4.2950991424897562E-002
 -0.11348779916738620        2.9430170301826031E-002   3.6697397553412357E-002
 -0.10953133913792575        3.0253945152595777E-002   3.1357556266137870E-002
 -0.10557487910846527        3.0429394683949840E-002   2.6931467563074032E-002
 -0.10161841907900479        2.9956518895888275E-002   2.3419131444220864E-002
 -0.12690507734052672        3.5124958259739811E-002   2.9158494644801435E-002
 -0.12242297563030183        3.3928492807522588E-002   2.5546186071144412E-002
 -0.11794087392007699        3.2998486132725401E-002   2.2071408274805481E-002
 -0.11345877220985218        3.2334938235348151E-002   1.8734161255784674E-002
 -0.10897667049962731        3.1937849115390882E-002   1.5534445014081948E-002
 -0.13314556601193445        4.2291846387839019E-002   1.2240040193884876E-002
 -0.12891404442783777        3.8426815313219162E-002   1.2183801014891695E-002
 -0.12468252284374115        3.5743027112854965E-002   1.1488870806324011E-002
 -0.12045100125964445        3.4240481786746400E-002   1.0155249568181793E-002
 -0.11621947967554783        3.3919179334893509E-002   8.1829373004651523E-003
 -0.13616572521106984        4.9458734515938199E-002  -7.8043719278520773E-003
 -0.13296100555999396        4.2925137818915798E-002  -3.3897576153457884E-003
 -0.12975628590891811        3.8487568092984661E-002  -3.9005613930667704E-004
 -0.12655156625784228        3.6146025338144705E-002   1.1947325002655065E-003
 -0.12334684660676640        3.5900509554396082E-002   1.3646083033704570E-003
  -9.4144725413680380E-002   2.7975188676385709E-002   3.1836996590881933E-002
  -9.1756967445024332E-002   2.6781558758570981E-002   3.1266373972222102E-002
  -8.9369209476368297E-002   2.5861103333709799E-002   3.0775135149743026E-002
  -8.6981451507712276E-002   2.5213822401802255E-002   3.0363280123444747E-002
  -8.4593693539056242E-002   2.4839715962848202E-002   3.0030808893327376E-002
 -0.10161841907900479        2.9956518895888275E-002   2.3419131444220864E-002
  -9.9137023660860718E-002   2.9185407039179889E-002   2.3140718561107967E-002
  -9.6655628242716632E-002   2.8466148364593512E-002   2.2970196780790396E-002
  -9.4174232824572546E-002   2.7798742872129072E-002   2.2907566103268141E-002
  -9.1692837406428446E-002   2.7183190561786641E-002   2.2952826528541109E-002
 -0.10897667049962731        3.1937849115390882E-002   1.5534445014081948E-002
 -0.10637313032538066        3.1589255319788866E-002   1.5326920555684480E-002
 -0.10376959015113403        3.1071193395477186E-002   1.5255794506696743E-002
 -0.10116604997688738        3.0383663342455958E-002   1.5321066867118814E-002
  -9.8562509802640794E-002   2.9526665160725121E-002   1.5522737636950730E-002
 -0.11621947967554783        3.3919179334893509E-002   8.1829373004651523E-003
 -0.11346528743858414        3.3993103600397784E-002   7.8249799559515099E-003
 -0.11071109520162049        3.3676238426360902E-002   7.6319283274620371E-003
 -0.10795690296465683        3.2968583812782851E-002   7.6037824149968580E-003
 -0.10520271072769316        3.1870139759663539E-002   7.7405422185559802E-003
 -0.12334684660676640        3.5900509554396082E-002   1.3646083033704570E-003
 -0.12041349500047124        3.6396951881006737E-002   6.3489676190901789E-004
 -0.11748014339417605        3.6281283457244552E-002   9.8598243086341075E-005
 -0.11454679178788085        3.5553504283109709E-002  -2.4428725309763415E-004
 -0.11161344018158570        3.4213614358602040E-002  -3.9375972664279502E-004
  -8.4593693539056242E-002   2.4839715962848202E-002   3.0030808893327376E-002
  -8.2202851686077952E-002   2.4525127028542357E-002   2.9278202928928937E-002
  -7.9812009833099634E-002   2.4056398610579170E-002   2.8813369153231100E-002
  -7.7421167980121330E-002   2.3433530708958872E-002   2.8636307566233525E-002
  -7.5030326127143027E-002   2.2656523323681177E-002   2.8747018167936345E-002
  -9.1692837406428446E-002   2.7183190561786641E-002   2.2952826528541109E-002
  -8.9042701056530754E-002   2.6567133482895730E-002   2.2297713242083447E-002
  -8.6392564706633104E-002   2.5898213684785835E-002   2.1873416760764229E-002
  -8.3742428356735440E-002   2.5176431167456798E-002   2.1679937084583215E-002
  -8.1092292006837763E-002   2.4401785930908887E-002   2.1717274213540610E-002
  -9.8562509802640794E-002   2.9526665160725121E-002   1.5522737636950730E-002
  -9.5710034339385769E-002   2.8609139937249166E-002   1.5066393792872064E-002
  -9.2857558876130813E-002   2.7740028758992393E-002   1.4783911370369666E-002
  -9.0005083412875830E-002   2.6919331625954807E-002   1.4675290369443551E-002
  -8.7152607949620819E-002   2.6147048538136569E-002   1.4740530790093673E-002
 -0.10520271072769316        3.1870139759663539E-002   7.7405422185559802E-003
 -0.10220485153464297        3.0651146391602487E-002   7.5842445812947541E-003
  -9.9206992341592776E-002   2.9581843833199034E-002   7.5448529820474021E-003
  -9.6209133148542583E-002   2.8662232084452802E-002   7.6223674208144403E-003
  -9.3211273955492363E-002   2.7892311145364293E-002   7.8167878975956388E-003
 -0.11161344018158570        3.4213614358602040E-002  -3.9375972664279502E-004
 -0.10852715264230234        3.2693152845955920E-002  -1.4873439264892485E-004
 -0.10544086510301898        3.1423658907405505E-002   1.5624159579741281E-004
 -0.10235457756373562        3.0405132542950908E-002   5.2116823869588491E-004
  -9.9268290024452255E-002   2.9637573752591906E-002   9.4604553604621389E-004
  -7.5030326127143027E-002   2.2656523323681177E-002   2.8747018167936345E-002
  -7.2715832259472007E-002   2.1828016994113797E-002   2.8555680056197325E-002
  -7.0401338391801002E-002   2.1050652259623964E-002   2.8519718194697313E-002
  -6.8086844524129969E-002   2.0324429120211991E-002   2.8639132583436214E-002
  -6.5772350656458950E-002   1.9649347575877663E-002   2.8913923222414151E-002
  -8.1092292006837763E-002   2.4401785930908887E-002   2.1717274213540610E-002
  -7.8622128722863727E-002   2.3607060605361843E-002   2.1559801272926685E-002
  -7.6151965438889677E-002   2.2825037821035975E-002   2.1558290914679729E-002
  -7.3681802154915654E-002   2.2055717577931046E-002   2.1712743138799936E-002
  -7.1211638870941535E-002   2.1299099876047056E-002   2.2023157945287281E-002
  -8.7152607949620819E-002   2.6147048538136569E-002   1.4740530790093673E-002
  -8.4526188917215667E-002   2.5386104216610056E-002   1.4578483966747949E-002
  -8.1899769884810458E-002   2.4599423382447819E-002   1.4572986057897627E-002
  -7.9273350852405264E-002   2.3787006035650014E-002   1.4724037063542285E-002
  -7.6646931820000097E-002   2.2948852176216561E-002   1.5031636983682484E-002
  -9.3211273955492363E-002   2.7892311145364293E-002   7.8167878975956388E-003
  -9.0428012842527897E-002   2.7165147827858269E-002   7.6117281376616771E-003
  -8.7644751729563444E-002   2.6373808943859912E-002   7.5638036243510631E-003
  -8.4861490616598964E-002   2.5518294493369023E-002   7.6730143576636094E-003
  -8.2078229503634539E-002   2.4598604476386038E-002   7.9393603375996491E-003
  -9.9268290024452255E-002   2.9637573752591906E-002   9.4604553604621389E-004
  -9.6327600498800403E-002   2.8944191439106204E-002   6.5953378566729892E-004
  -9.3386910973148496E-002   2.8148194505271867E-002   5.3074361403956938E-004
  -9.0446221447496616E-002   2.7249582951087876E-002   5.5967502116354567E-004
  -8.7505531921844737E-002   2.6248356776555459E-002   7.4632800703883229E-004
  -6.5772350656458950E-002   1.9649347575877663E-002   2.8913923222414151E-002
  -6.3302653689846916E-002   1.8987498959643717E-002   2.8586632524410016E-002
  -6.0832956723234896E-002   1.8300974604532880E-002   2.8456569230542267E-002
  -5.8363259756622883E-002   1.7589774510545397E-002   2.8523733340811014E-002
  -5.5893562790010870E-002   1.6853898677681001E-002   2.8788124855216035E-002
  -7.1211638870941535E-002   2.1299099876047056E-002   2.2023157945287281E-002
  -6.8545130641345514E-002   2.0546871781004089E-002   2.1685146838346908E-002
  -6.5878622411749438E-002   1.9790720358421970E-002   2.1543530853238305E-002
  -6.3212114182153389E-002   1.9030645608300832E-002   2.1598309989961310E-002
  -6.0545605952557327E-002   1.8266647530640612E-002   2.1849484248515960E-002
  -7.6646931820000097E-002   2.2948852176216561E-002   1.5031636983682484E-002
  -7.3784444609724692E-002   2.2106244602364558E-002   1.4703657879143656E-002
  -7.0921957399449356E-002   2.1280466112311068E-002   1.4571241614131807E-002
  -6.8059470189173979E-002   2.0471516706056438E-002   1.4634388188647009E-002
  -6.5196982978898560E-002   1.9679396383600362E-002   1.4893097602689004E-002
  -8.2078229503634539E-002   2.4598604476386038E-002   7.9393603375996491E-003
  -7.9020595594984491E-002   2.3665617423724729E-002   7.6421656468002100E-003
  -7.5962961686334513E-002   2.2770211866200051E-002   7.5397015132229236E-003
  -7.2905327777684562E-002   2.1912387803811845E-002   7.6319679368679729E-003
  -6.9847693869034527E-002   2.1092145236560098E-002   7.9189649177351003E-003
  -8.7505531921844737E-002   2.6248356776555459E-002   7.4632800703883229E-004
  -8.4253583597124926E-002   2.5224990245085455E-002   5.0067014131671694E-004
  -8.1001635272405059E-002   2.4259957620089201E-002   4.4891055051175799E-004
  -7.7749686947685193E-002   2.3353258901567184E-002   5.9104923462432665E-004
  -7.4497738622965382E-002   2.2504894089519611E-002   9.2708619365444722E-004
  -5.5893562790010870E-002   1.6853898677681001E-002   2.8788124855216035E-002
  -5.3791652033792076E-002   1.6111528518136853E-002   2.8534231382737307E-002
  -5.1689741277573295E-002   1.5380845444110267E-002   2.8415709286987972E-002
  -4.9587830521354466E-002   1.4661849455600767E-002   2.8432558567968128E-002
  -4.7485919765135720E-002   1.3954540552609251E-002   2.8584779225677703E-002
  -6.0545605952557327E-002   1.8266647530640612E-002   2.1849484248515960E-002
  -5.8300785430307922E-002   1.7497880554400880E-002   2.1606831609492394E-002
  -5.6055964908058510E-002   1.6723499108541040E-002   2.1514627125800684E-002
  -5.3811144385809140E-002   1.5943503193061190E-002   2.1572870797440594E-002
  -5.1566323863559693E-002   1.5157892807961260E-002   2.1781562624412554E-002
  -6.5196982978898560E-002   1.9679396383600362E-002   1.4893097602689004E-002
  -6.2794175912016220E-002   1.8884232590664768E-002   1.4644384241983222E-002
  -6.0391368845133783E-002   1.8066152772971820E-002   1.4561195815211377E-002
  -5.7988561778251388E-002   1.7225156930521505E-002   1.4643532322373639E-002
  -5.5585754711369006E-002   1.6361245063313545E-002   1.4891393763470345E-002
  -6.9847693869034527E-002   2.1092145236560098E-002   7.9189649177351003E-003
  -6.7271823478916776E-002   2.0270584626928531E-002   7.6468892802092035E-003
  -6.4695953088799010E-002   1.9408806437402875E-002   7.5554153552202710E-003
  -6.2120082698681266E-002   1.8506810667981429E-002   7.6445431427676026E-003
  -5.9544212308563486E-002   1.7564597318665581E-002   7.9142726428514595E-003
  -7.4497738622965382E-002   2.2504894089519611E-002   9.2708619365444722E-004
  -7.1733728131009866E-002   2.1656936663192738E-002   6.1434672417132186E-004
  -6.8969717639054351E-002   2.0751460101833485E-002   4.9728574582710849E-004
  -6.6205707147098891E-002   1.9788464405442074E-002   5.7590325862186958E-004
  -6.3441696655143320E-002   1.8767949574017617E-002   8.5019926255558431E-004
  -4.7485919765135720E-002   1.3954540552609251E-002   2.8584779225677703E-002
  -4.4801229299221146E-002   1.3180805096186077E-002   2.7943870869892529E-002
  -4.2116538833306572E-002   1.2262529447383097E-002   2.7448559603699074E-002
  -3.9431848367391970E-002   1.1199713606200076E-002   2.7098845427097368E-002
  -3.6747157901477312E-002   9.9923575726370562E-003   2.6894728340087548E-002
  -5.1566323863559693E-002   1.5157892807961260E-002   2.1781562624412554E-002
  -4.8721874452634442E-002   1.4355276063387351E-002   2.1129320153806669E-002
  -4.5877425041709247E-002   1.3524261069484914E-002   2.0650998483630334E-002
  -4.3032975630784016E-002   1.2664847826254214E-002   2.0346597613883452E-002
  -4.0188526219858800E-002   1.1777036333695201E-002   2.0216117544566203E-002
  -5.5585754711369006E-002   1.6361245063313545E-002   1.4891393763470345E-002
  -5.2553222644595311E-002   1.5529747030588487E-002   1.4343959121095609E-002
  -4.9520690577821713E-002   1.4785992691586786E-002   1.3998768989988086E-002
  -4.6488158511048115E-002   1.4129982046308324E-002   1.3855823370147735E-002
  -4.3455626444274420E-002   1.3561715094753457E-002   1.3915122261574597E-002
  -5.9544212308563486E-002   1.7564597318665581E-002   7.9142726428514595E-003
  -5.6295273875103843E-002   1.6704217997789692E-002   7.5877877717593668E-003
  -5.3046335441644193E-002   1.6047724313688741E-002   7.4918711227722860E-003
  -4.9797397008184523E-002   1.5595116266362615E-002   7.6265226958899379E-003
  -4.6548458574724935E-002   1.5346393855811491E-002   7.9917424911126467E-003
  -6.3441696655143320E-002   1.8767949574017617E-002   8.5019926255558431E-004
  -5.9948028144159893E-002   1.7878688964990785E-002   8.6080610579797323E-004
  -5.6454359633176410E-002   1.7309455935790197E-002   1.1303048819831796E-003
  -5.2960691122193065E-002   1.7060250486416670E-002   1.6586955911103429E-003
  -4.9467022611209499E-002   1.7131072616869858E-002   2.4459782331811564E-003
 </DataArray>
 </PointData>
 </Piece>
 <Piece  NumberOfPoints="          1600 "  NumberOfCells="         1024 ">
 <Points>
 <DataArray  type="Float64" NumberOfComponents="3"  format="ascii" >
  0.50000000000000000        0.0000000000000000        0.0000000000000000     
  0.53125000000000000        0.0000000000000000        0.0000000000000000     
  0.56250000000000000        0.0000000000000000        0.0000000000000000     
  0.59375000000000000        0.0000000000000000        0.0000000000000000     
  0.62500000000000000        0.0000000000000000        0.0000000000000000     
  0.50000000000000000        3.1250000000000000E-002   0.0000000000000000     
  0.53125000000000000        3.1250000000000000E-002   0.0000000000000000     
  0.56250000000000000        3.1250000000000000E-002   0.0000000000000000     
  0.59375000000000000        3.1250000000000000E-002   0.0000000000000000     
  0.62500000000000000        3.1250000000000000E-002   0.0000000000000000     
  0.50000000000000000        6.2500000000000000E-002   0.0000000000000000     
  0.53125000000000000        6.2500000000000000E-002   0.0000000000000000     
  0.56250000000000000        6.2500000000000000E-002   0.0000000000000000     
  0.59375000000000000        6.2500000000000000E-002   0.0000000000000000     
  0.62500000000000000        6.2500000000000000E-002   0.0000000000000000     
  0.50000000000000000        9.3750000000000000E-002   0.0000000000000000     
  0.53125000000000000        9.3750000000000000E-002   0.0000000000000000     
  0.56250000000000000        9.3750000000000000E-002   0.0000000000000000     
  0.59375000000000000        9.3750000000000000E-002   0.0000000000000000     
  0.62500000000000000        9.3750000000000000E-002   0.0000000000000000     
  0.50000000000000000       0.12500000000000000        0.0000000000000000     
  0.53125000000000000       0.12500000000000000        0.0000000000000000     
  0.56250000000000000       0.12500000000000000        0.0000000000000000     
  0.59375000000000000       0.12500000000000000        0.0000000000000000     
  0.62500000000000000       0.12500000000000000        0.0000000000000000     
  0.62500000000000000        0.0000000000000000        0.0000000000000000     
  0.65625000000000000        0.0000000000000000        0.0000000000000000     
  0.68750000000000000        0.0000000000000000        0.0000000000000000     
  0.71875000000000000        0.0000000000000000        0.0000000000000000     
  0.75000000000000000        0.0000000000000000        0.0000000000000000     
  0.62500000000000000        3.1250000000000000E-002   0.0000000000000000     
  0.65625000000000000        3.1250000000000000E-002   0.0000000000000000     
  0.68750000000000000        3.1250000000000000E-002   0.0000000000000000     
  0.71875000000000000        3.1250000000000000E-002   0.0000000000000000     
  0.75000000000000000        3.1250000000000000E-002   0.0000000000000000     
  0.62500000000000000        6.2500000000000000E-002   0.0000000000000000     
  0.65625000000000000        6.2500000000000000E-002   0.0000000000000000     
  0.68750000000000000        6.2500000000000000E-002   0.0000000000000000     
  0.71875000000000000        6.2500000000000000E-002   0.0000000000000000     
  0.75000000000000000        6.2500000000000000E-002   0.0000000000000000     
  0.62500000000000000        9.3750000000000000E-002   0.0000000000000000     
  0.65625000000000000        9.3750000000000000E-002   0.0000000000000000     
  0.68750000000000000        9.3750000000000000E-002   0.0000000000000000     
  0.71875000000000000        9.3750000000000000E-002   0.0000000000000000     
  0.75000000000000000        9.3750000000000000E-002   0.0000000000000000     
  0.62500000000000000       0.12500000000000000        0.0000000000000000     
  0.65625000000000000       0.12500000000000000        0.0000000000000000     
  0.68750000000000000       0.12500000000000000        0.0000000000000000     
  0.71875000000000000       0.12500000000000000        0.0000000000000000     
  0.75000000000000000       0.12500000000000000        0.0000000000000000     
  0.75000000000000000        0.0000000000000000        0.0000000000000000     
  0.78125000000000000        0.0000000000000000        0.0000000000000000     
  0.81250000000000000        0.0000000000000000        0.0000000000000000     
  0.84375000000000000        0.0000000000000000        0.0000000000000000     
  0.87500000000000000        0.0000000000000000        0.0000000000000000     
  0.75000000000000000        3.1250000000000000E-002   0.0000000000000000     
  0.78125000000000000        3.1250000000000000E-002   0.0000000000000000     
  0.81250000000000000        3.1250000000000000E-002   0.0000000000000000     
  0.84375000000000000        3.1250000000000000E-002   0.0000000000000000     
  0.87500000000000000        3.1250000000000000E-002   0.0000000000000000     
  0.75000000000000000        6.2500000000000000E-002   0.0000000000000000     
  0.78125000000000000        6.2500000000000000E-002   0.0000000000000000     
  0.81250000000000000        6.2500000000000000E-002   0.0000000000000000     
  0.84375000000000000        6.2500000000000000E-002   0.0000000000000000     
  0.87500000000000000        6.2500000000000000E-002   0.0000000000000000     
  0.75000000000000000        9.3750000000000000E-002   0.0000000000000000     
  0.78125000000000000        9.3750000000000000E-002   0.0000000000000000     
  0.81250000000000000        9.3750000000000000E-002   0.0000000000000000     
  0.84375000000000000        9.3750000000000000E-002   0.0000000000000000     
  0.87500000000000000        9.3750000000000000E-002   0.0000000000000000     
  0.75000000000000000       0.12500000000000000        0.0000000000000000     
  0.78125000000000000       0.12500000000000000        0.0000000000000000     
  0.81250000000000000       0.12500000000000000        0.0000000000000000     
  0.84375000000000000       0.12500000000000000        0.0000000000000000     
  0.87500000000000000       0.12500000000000000        0.0000000000000000     
  0.87500000000000000        0.0000000000000000        0.0000000000000000     
  0.90625000000000000        0.0000000000000000        0.0000000000000000     
  0.93750000000000000        0.0000000000000000        0.0000000000000000     
  0.96875000000000000        0.0000000000000000        0.0000000000000000     
   1.0000000000000000        0.0000000000000000        0.0000000000000000     
  0.87500000000000000        3.1250000000000000E-002   0.0000000000000000     
  0.90625000000000000        3.1250000000000000E-002   0.0000000000000000     
  0.93750000000000000        3.1250000000000000E-002   0.0000000000000000     
  0.96875000000000000        3.1250000000000000E-002   0.0000000000000000     
   1.0000000000000000        3.1250000000000000E-002   0.0000000000000000     
  0.87500000000000000        6.2500000000000000E-002   0.0000000000000000     
  0.90625000000000000        6.2500000000000000E-002   0.0000000000000000     
  0.93750000000000000        6.2500000000000000E-002   0.0000000000000000     
  0.96875000000000000        6.2500000000000000E-002   0.0000000000000000     
   1.0000000000000000        6.2500000000000000E-002   0.0000000000000000     
  0.87500000000000000        9.3750000000000000E-002   0.0000000000000000     
  0.90625000000000000        9.3750000000000000E-002   0.0000000000000000     
  0.93750000000000000        9.3750000000000000E-002   0.0000000000000000     
  0.96875000000000000        9.3750000000000000E-002   0.0000000000000000     
   1.0000000000000000        9.3750000000000000E-002   0.0000000000000000     
  0.87500000000000000       0.12500000000000000        0.0000000000000000     
  0.90625000000000000       0.12500000000000000        0.0000000000000000     
  0.93750000000000000       0.12500000000000000        0.0000000000000000     
  0.96875000000000000       0.12500000000000000        0.0000000000000000     
   1.0000000000000000       0.12500000000000000        0.0000000000000000     
   1.0000000000000000        0.0000000000000000        0.0000000000000000     
   1.0312500000000000        0.0000000000000000        0.0000000000000000     
   1.0625000000000000        0.0000000000000000        0.0000000000000000     
   1.0937500000000000        0.0000000000000000        0.0000000000000000     
   1.1250000000000000        0.0000000000000000        0.0000000000000000     
   1.0000000000000000        3.1250000000000000E-002   0.0000000000000000     
   1.0312500000000000        3.1250000000000000E-002   0.0000000000000000     
   1.0625000000000000        3.1250000000000000E-002   0.0000000000000000     
   1.0937500000000000        3.1250000000000000E-002   0.0000000000000000     
   1.1250000000000000        3.1250000000000000E-002   0.0000000000000000     
   1.0000000000000000        6.2500000000000000E-002   0.0000000000000000     
   1.0312500000000000        6.2500000000000000E-002   0.0000000000000000     
   1.0625000000000000        6.2500000000000000E-002   0.0000000000000000     
   1.0937500000000000        6.2500000000000000E-002   0.0000000000000000     
   1.1250000000000000        6.2500000000000000E-002   0.0000000000000000     
   1.0000000000000000        9.3750000000000000E-002   0.0000000000000000     
   1.0312500000000000        9.3750000000000000E-002   0.0000000000000000     
   1.0625000000000000        9.3750000000000000E-002   0.0000000000000000     
   1.0937500000000000        9.3750000000000000E-002   0.0000000000000000     
   1.1250000000000000        9.3750000000000000E-002   0.0000000000000000     
   1.0000000000000000       0.12500000000000000        0.0000000000000000     
   1.0312500000000000       0.12500000000000000        0.0000000000000000     
   1.0625000000000000       0.12500000000000000        0.0000000000000000     
   1.0937500000000000       0.12500000000000000        0.0000000000000000     
   1.1250000000000000       0.12500000000000000        0.0000000000000000     
   1.1250000000000000        0.0000000000000000        0.0000000000000000     
   1.1562500000000000        0.0000000000000000        0.0000000000000000     
   1.1875000000000000        0.0000000000000000        0.0000000000000000     
   1.2187500000000000        0.0000000000000000        0.0000000000000000     
   1.2500000000000000        0.0000000000000000        0.0000000000000000     
   1.1250000000000000        3.1250000000000000E-002   0.0000000000000000     
   1.1562500000000000        3.1250000000000000E-002   0.0000000000000000     
   1.1875000000000000        3.1250000000000000E-002   0.0000000000000000     
   1.2187500000000000        3.1250000000000000E-002   0.0000000000000000     
   1.2500000000000000        3.1250000000000000E-002   0.0000000000000000     
   1.1250000000000000        6.2500000000000000E-002   0.0000000000000000     
   1.1562500000000000        6.2500000000000000E-002   0.0000000000000000     
   1.1875000000000000        6.2500000000000000E-002   0.0000000000000000     
   1.2187500000000000        6.2500000000000000E-002   0.0000000000000000     
   1.2500000000000000        6.2500000000000000E-002   0.0000000000000000     
   1.1250000000000000        9.3750000000000000E-002   0.0000000000000000     
   1.1562500000000000        9.3750000000000000E-002   0.0000000000000000     
   1.1875000000000000        9.3750000000000000E-002   0.0000000000000000     
   1.2187500000000000        9.3750000000000000E-002   0.0000000000000000     
   1.2500000000000000        9.3750000000000000E-002   0.0000000000000000     
   1.1250000000000000       0.12500000000000000        0.0000000000000000     
   1.1562500000000000       0.12500000000000000        0.0000000000000000     
   1.1875000000000000       0.12500000000000000        0.0000000000000000     
   1.2187500000000000       0.12500000000000000        0.0000000000000000     
   1.2500000000000000       0.12500000000000000        0.0000000000000000     
   1.2500000000000000        0.0000000000000000        0.0000000000000000     
   1.2812500000000000        0.0000000000000000        0.0000000000000000     
   1.3125000000000000        0.0000000000000000        0.0000000000000000     
   1.3437500000000000        0.0000000000000000        0.0000000000000000     
   1.3750000000000000        0.0000000000000000        0.0000000000000000     
   1.2500000000000000        3.1250000000000000E-002   0.0000000000000000     
   1.2812500000000000        3.1250000000000000E-002   0.0000000000000000     
   1.3125000000000000        3.1250000000000000E-002   0.0000000000000000     
   1.3437500000000000        3.1250000000000000E-002   0.0000000000000000     
   1.3750000000000000        3.1250000000000000E-002   0.0000000000000000     
   1.2500000000000000        6.2500000000000000E-002   0.0000000000000000     
   1.2812500000000000        6.2500000000000000E-002   0.0000000000000000     
   1.3125000000000000        6.2500000000000000E-002   0.0000000000000000     
   1.3437500000000000        6.2500000000000000E-002   0.0000000000000000     
   1.3750000000000000        6.2500000000000000E-002   0.0000000000000000     
   1.2500000000000000        9.3750000000000000E-002   0.0000000000000000     
   1.2812500000000000        9.3750000000000000E-002   0.0000000000000000     
   1.3125000000000000        9.3750000000000000E-002   0.0000000000000000     
   1.3437500000000000        9.3750000000000000E-002   0.0000000000000000     
   1.3750000000000000        9.3750000000000000E-002   0.0000000000000000     
   1.2500000000000000       0.12500000000000000        0.0000000000000000     
   1.2812500000000000       0.12500000000000000        0.0000000000000000     
   1.3125000000000000       0.12500000000000000        0.0000000000000000     
   1.3437500000000000       0.12500000000000000        0.0000000000000000     
   1.3750000000000000       0.12500000000000000        0.0000000000000000     
   1.3750000000000000        0.0000000000000000        0.0000000000000000     
   1.4062500000000000        0.0000000000000000        0.0000000000000000     
   1.4375000000000000        0.0000000000000000        0.0000000000000000     
   1.4687500000000000        0.0000000000000000        0.0000000000000000     
   1.5000000000000000        0.0000000000000000        0.0000000000000000     
   1.3750000000000000        3.1250000000000000E-002   0.0000000000000000     
   1.4062500000000000        3.1250000000000000E-002   0.0000000000000000     
   1.4375000000000000        3.1250000000000000E-002   0.0000000000000000     
   1.4687500000000000        3.1250000000000000E-002   0.0000000000000000     
   1.5000000000000000        3.1250000000000000E-002   0.0000000000000000     
   1.3750000000000000        6.2500000000000000E-002   0.0000000000000000     
   1.4062500000000000        6.2500000000000000E-002   0.0000000000000000     
   1.4375000000000000        6.2500000000000000E-002   0.0000000000000000     
   1.4687500000000000        6.2500000000000000E-002   0.0000000000000000     
   1.5000000000000000        6.2500000000000000E-002   0.0000000000000000     
   1.3750000000000000        9.3750000000000000E-002   0.0000000000000000     
   1.4062500000000000        9.3750000000000000E-002   0.0000000000000000     
   1.4375000000000000        9.3750000000000000E-002   0.0000000000000000     
   1.4687500000000000        9.3750000000000000E-002   0.0000000000000000     
   1.5000000000000000        9.3750000000000000E-002   0.0000000000000000     
   1.3750000000000000       0.12500000000000000        0.0000000000000000     
   1.4062500000000000       0.12500000000000000        0.0000000000000000     
   1.4375000000000000       0.12500000000000000        0.0000000000000000     
   1.4687500000000000       0.12500000000000000        0.0000000000000000     
   1.5000000000000000       0.12500000000000000        0.0000000000000000     
  0.50000000000000000       0.12500000000000000        0.0000000000000000     
  0.53125000000000000       0.12500000000000000        0.0000000000000000     
  0.56250000000000000       0.12500000000000000        0.0000000000000000     
  0.59375000000000000       0.12500000000000000        0.0000000000000000     
  0.62500000000000000       0.12500000000000000        0.0000000000000000     
  0.50000000000000000       0.15625000000000000        0.0000000000000000     
  0.53125000000000000       0.15625000000000000        0.0000000000000000     
  0.56250000000000000       0.15625000000000000        0.0000000000000000     
  0.59375000000000000       0.15625000000000000        0.0000000000000000     
  0.62500000000000000       0.15625000000000000        0.0000000000000000     
  0.50000000000000000       0.18750000000000000        0.0000000000000000     
  0.53125000000000000       0.18750000000000000        0.0000000000000000     
  0.56250000000000000       0.18750000000000000        0.0000000000000000     
  0.59375000000000000       0.18750000000000000        0.0000000000000000     
  0.62500000000000000       0.18750000000000000        0.0000000000000000     
  0.50000000000000000       0.21875000000000000        0.0000000000000000     
  0.53125000000000000       0.21875000000000000        0.0000000000000000     
  0.56250000000000000       0.21875000000000000        0.0000000000000000     
  0.59375000000000000       0.21875000000000000        0.0000000000000000     
  0.62500000000000000       0.21875000000000000        0.0000000000000000     
  0.50000000000000000       0.25000000000000000        0.0000000000000000     
  0.53125000000000000       0.25000000000000000        0.0000000000000000     
  0.56250000000000000       0.25000000000000000        0.0000000000000000     
  0.59375000000000000       0.25000000000000000        0.0000000000000000     
  0.62500000000000000       0.25000000000000000        0.0000000000000000     
  0.62500000000000000       0.12500000000000000        0.0000000000000000     
  0.65625000000000000       0.12500000000000000        0.0000000000000000     
  0.68750000000000000       0.12500000000000000        0.0000000000000000     
  0.71875000000000000       0.12500000000000000        0.0000000000000000     
  0.75000000000000000       0.12500000000000000        0.0000000000000000     
  0.62500000000000000       0.15625000000000000        0.0000000000000000     
  0.65625000000000000       0.15625000000000000        0.0000000000000000     
  0.68750000000000000       0.15625000000000000        0.0000000000000000     
  0.71875000000000000       0.15625000000000000        0.0000000000000000     
  0.75000000000000000       0.15625000000000000        0.0000000000000000     
  0.62500000000000000       0.18750000000000000        0.0000000000000000     
  0.65625000000000000       0.18750000000000000        0.0000000000000000     
  0.68750000000000000       0.18750000000000000        0.0000000000000000     
  0.71875000000000000       0.18750000000000000        0.0000000000000000     
  0.75000000000000000       0.18750000000000000        0.0000000000000000     
  0.62500000000000000       0.21875000000000000        0.0000000000000000     
  0.65625000000000000       0.21875000000000000        0.0000000000000000     
  0.68750000000000000       0.21875000000000000        0.0000000000000000     
  0.71875000000000000       0.21875000000000000        0.0000000000000000     
  0.75000000000000000       0.21875000000000000        0.0000000000000000     
  0.62500000000000000       0.25000000000000000        0.0000000000000000     
  0.65625000000000000       0.25000000000000000        0.0000000000000000     
  0.68750000000000000       0.25000000000000000        0.0000000000000000     
  0.71875000000000000       0.25000000000000000        0.0000000000000000     
  0.75000000000000000       0.25000000000000000        0.0000000000000000     
  0.75000000000000000       0.12500000000000000        0.0000000000000000     
  0.78125000000000000       0.12500000000000000        0.0000000000000000     
  0.81250000000000000       0.12500000000000000        0.0000000000000000     
  0.84375000000000000       0.12500000000000000        0.0000000000000000     
  0.87500000000000000       0.12500000000000000        0.0000000000000000     
  0.75000000000000000       0.15625000000000000        0.0000000000000000     
  0.78125000000000000       0.15625000000000000        0.0000000000000000     
  0.81250000000000000       0.15625000000000000        0.0000000000000000     
  0.84375000000000000       0.15625000000000000        0.0000000000000000     
  0.87500000000000000       0.15625000000000000        0.0000000000000000     
  0.75000000000000000       0.18750000000000000        0.0000000000000000     
  0.78125000000000000       0.18750000000000000        0.0000000000000000     
  0.81250000000000000       0.18750000000000000        0.0000000000000000     
  0.84375000000000000       0.18750000000000000        0.0000000000000000     
  0.87500000000000000       0.18750000000000000        0.0000000000000000     
  0.75000000000000000       0.21875000000000000        0.0000000000000000     
  0.78125000000000000       0.21875000000000000        0.0000000000000000     
  0.81250000000000000       0.21875000000000000        0.0000000000000000     
  0.84375000000000000       0.21875000000000000        0.0000000000000000     
  0.87500000000000000       0.21875000000000000        0.0000000000000000     
  0.75000000000000000       0.25000000000000000        0.0000000000000000     
  0.78125000000000000       0.25000000000000000        0.0000000000000000     
  0.81250000000000000       0.25000000000000000        0.0000000000000000     
  0.84375000000000000       0.25000000000000000        0.0000000000000000     
  0.87500000000000000       0.25000000000000000        0.0000000000000000     
  0.87500000000000000       0.12500000000000000        0.0000000000000000     
  0.90625000000000000       0.12500000000000000        0.0000000000000000     
  0.93750000000000000       0.12500000000000000        0.0000000000000000     
  0.96875000000000000       0.12500000000000000        0.0000000000000000     
   1.0000000000000000       0.12500000000000000        0.0000000000000000     
  0.87500000000000000       0.15625000000000000        0.0000000000000000     
  0.90625000000000000       0.15625000000000000        0.0000000000000000     
  0.93750000000000000       0.15625000000000000        0.0000000000000000     
  0.96875000000000000       0.15625000000000000        0.0000000000000000     
   1.0000000000000000       0.15625000000000000        0.0000000000000000     
  0.87500000000000000       0.18750000000000000        0.0000000000000000     
  0.90625000000000000       0.18750000000000000        0.0000000000000000     
  0.93750000000000000       0.18750000000000000        0.0000000000000000     
  0.96875000000000000       0.18750000000000000        0.0000000000000000     
   1.0000000000000000       0.18750000000000000        0.0000000000000000     
  0.87500000000000000       0.21875000000000000        0.0000000000000000     
  0.90625000000000000       0.21875000000000000        0.0000000000000000     
  0.93750000000000000       0.21875000000000000        0.0000000000000000     
  0.96875000000000000       0.21875000000000000        0.0000000000000000     
   1.0000000000000000       0.21875000000000000        0.0000000000000000     
  0.87500000000000000       0.25000000000000000        0.0000000000000000     
  0.90625000000000000       0.25000000000000000        0.0000000000000000     
  0.93750000000000000       0.25000000000000000        0.0000000000000000     
  0.96875000000000000       0.25000000000000000        0.0000000000000000     
   1.0000000000000000       0.25000000000000000        0.0000000000000000     
   1.0000000000000000       0.12500000000000000        0.0000000000000000     
   1.0312500000000000       0.12500000000000000        0.0000000000000000     
   1.0625000000000000       0.12500000000000000        0.0000000000000000     
   1.0937500000000000       0.12500000000000000        0.0000000000000000     
   1.1250000000000000       0.12500000000000000        0.0000000000000000     
   1.0000000000000000       0.15625000000000000        0.0000000000000000     
   1.0312500000000000       0.15625000000000000        0.0000000000000000     
   1.0625000000000000       0.15625000000000000        0.0000000000000000     
   1.0937500000000000       0.15625000000000000        0.0000000000000000     
   1.1250000000000000       0.15625000000000000        0.0000000000000000     
   1.0000000000000000       0.18750000000000000        0.0000000000000000     
   1.0312500000000000       0.18750000000000000        0.0000000000000000     
   1.0625000000000000       0.18750000000000000        0.0000000000000000     
   1.0937500000000000       0.18750000000000000        0.0000000000000000     
   1.1250000000000000       0.18750000000000000        0.0000000000000000     
   1.0000000000000000       0.21875000000000000        0.0000000000000000     
   1.0312500000000000       0.21875000000000000        0.0000000000000000     
   1.0625000000000000       0.21875000000000000        0.0000000000000000     
   1.0937500000000000       0.21875000000000000        0.0000000000000000     
   1.1250000000000000       0.21875000000000000        0.0000000000000000     
   1.0000000000000000       0.25000000000000000        0.0000000000000000     
   1.0312500000000000       0.25000000000000000        0.0000000000000000     
   1.0625000000000000       0.25000000000000000        0.0000000000000000     
   1.0937500000000000       0.25000000000000000        0.0000000000000000     
   1.1250000000000000       0.25000000000000000        0.0000000000000000     
   1.1250000000000000       0.12500000000000000        0.0000000000000000     
   1.1562500000000000       0.12500000000000000        0.0000000000000000     
   1.1875000000000000       0.12500000000000000        0.0000000000000000     
   1.2187500000000000       0.12500000000000000        0.0000000000000000     
   1.2500000000000000       0.12500000000000000        0.0000000000000000     
   1.1250000000000000       0.15625000000000000        0.0000000000000000     
   1.1562500000000000       0.15625000000000000        0.0000000000000000     
   1.1875000000000000       0.15625000000000000        0.0000000000000000     
   1.2187500000000000       0.15625000000000000        0.0000000000000000     
   1.2500000000000000       0.15625000000000000        0.0000000000000000     
   1.1250000000000000       0.18750000000000000        0.0000000000000000     
   1.1562500000000000       0.18750000000000000        0.0000000000000000     
   1.1875000000000000       0.18750000000000000        0.0000000000000000     
   1.2187500000000000       0.18750000000000000        0.0000000000000000     
   1.2500000000000000       0.18750000000000000        0.0000000000000000     
   1.1250000000000000       0.21875000000000000        0.0000000000000000     
   1.1562500000000000       0.21875000000000000        0.0000000000000000     
   1.1875000000000000       0.21875000000000000        0.0000000000000000     
   1.2187500000000000       0.21875000000000000        0.0000000000000000     
   1.2500000000000000       0.21875000000000000        0.0000000000000000     
   1.1250000000000000       0.25000000000000000        0.0000000000000000     
   1.1562500000000000       0.25000000000000000        0.0000000000000000     
   1.1875000000000000       0.25000000000000000        0.0000000000000000     
   1.2187500000000000       0.25000000000000000        0.0000000000000000     
   1.2500000000000000       0.25000000000000000        0.0000000000000000     
   1.2500000000000000       0.12500000000000000        0.0000000000000000     
   1.2812500000000000       0.12500000000000000        0.0000000000000000     
   1.3125000000000000       0.12500000000000000        0.0000000000000000     
   1.3437500000000000       0.12500000000000000        0.0000000000000000     
   1.3750000000000000       0.12500000000000000        0.0000000000000000     
   1.2500000000000000       0.15625000000000000        0.0000000000000000     
   1.2812500000000000       0.15625000000000000        0.0000000000000000     
   1.3125000000000000       0.15625000000000000        0.0000000000000000     
   1.3437500000000000       0.15625000000000000        0.0000000000000000     
   1.3750000000000000       0.15625000000000000        0.0000000000000000     
   1.2500000000000000       0.18750000000000000        0.0000000000000000     
   1.2812500000000000       0.18750000000000000        0.0000000000000000     
   1.3125000000000000       0.18750000000000000        0.0000000000000000     
   1.3437500000000000       0.18750000000000000        0.0000000000000000     
   1.3750000000000000       0.18750000000000000        0.0000000000000000     
   1.2500000000000000       0.21875000000000000        0.0000000000000000     
   1.2812500000000000       0.21875000000000000        0.0000000000000000     
   1.3125000000000000       0.21875000000000000        0.0000000000000000     
   1.3437500000000000       0.21875000000000000        0.0000000000000000     
   1.3750000000000000       0.21875000000000000        0.0000000000000000     
   1.2500000000000000       0.25000000000000000        0.0000000000000000     
   1.2812500000000000       0.25000000000000000        0.0000000000000000     
   1.3125000000000000       0.25000000000000000        0.0000000000000000     
   1.3437500000000000       0.25000000000000000        0.0000000000000000     
   1.3750000000000000       0.25000000000000000        0.0000000000000000     
   1.3750000000000000       0.12500000000000000        0.0000000000000000     
   1.4062500000000000       0.12500000000000000        0.0000000000000000     
   1.4375000000000000       0.12500000000000000        0.0000000000000000     
   1.4687500000000000       0.12500000000000000        0.0000000000000000     
   1.5000000000000000       0.12500000000000000        0.0000000000000000     
   1.3750000000000000       0.15625000000000000        0.0000000000000000     
   1.4062500000000000       0.15625000000000000        0.0000000000000000     
   1.4375000000000000       0.15625000000000000        0.0000000000000000     
   1.4687500000000000       0.15625000000000000        0.0000000000000000     
   1.5000000000000000       0.15625000000000000        0.0000000000000000     
   1.3750000000000000       0.18750000000000000        0.0000000000000000     
   1.4062500000000000       0.18750000000000000        0.0000000000000000     
   1.4375000000000000       0.18750000000000000        0.0000000000000000     
   1.4687500000000000       0.18750000000000000        0.0000000000000000     
   1.5000000000000000       0.18750000000000000        0.0000000000000000     
   1.3750000000000000       0.21875000000000000        0.0000000000000000     
   1.4062500000000000       0.21875000000000000        0.0000000000000000     
   1.4375000000000000       0.21875000000000000        0.0000000000000000     
   1.4687500000000000       0.21875000000000000        0.0000000000000000     
   1.5000000000000000       0.21875000000000000        0.0000000000000000     
   1.3750000000000000       0.25000000000000000        0.0000000000000000     
   1.4062500000000000       0.25000000000000000        0.0000000000000000     
   1.4375000000000000       0.25000000000000000        0.0000000000000000     
   1.4687500000000000       0.25000000000000000        0.0000000000000000     
   1.5000000000000000       0.25000000000000000        0.0000000000000000     
  0.50000000000000000       0.25000000000000000        0.0000000000000000     
  0.53125000000000000       0.25000000000000000        0.0000000000000000     
  0.56250000000000000       0.25000000000000000        0.0000000000000000     
  0.59375000000000000       0.25000000000000000        0.0000000000000000     
  0.62500000000000000       0.25000000000000000        0.0000000000000000     
  0.50000000000000000       0.28125000000000000        0.0000000000000000     
  0.53125000000000000       0.28125000000000000        0.0000000000000000     
  0.56250000000000000       0.28125000000000000        0.0000000000000000     
  0.59375000000000000       0.28125000000000000        0.0000000000000000     
  0.62500000000000000       0.28125000000000000        0.0000000000000000     
  0.50000000000000000       0.31250000000000000        0.0000000000000000     
  0.53125000000000000       0.31250000000000000        0.0000000000000000     
  0.56250000000000000       0.31250000000000000        0.0000000000000000     
  0.59375000000000000       0.31250000000000000        0.0000000000000000     
  0.62500000000000000       0.31250000000000000        0.0000000000000000     
  0.50000000000000000       0.34375000000000000        0.0000000000000000     
  0.53125000000000000       0.34375000000000000        0.0000000000000000     
  0.56250000000000000       0.34375000000000000        0.0000000000000000     
  0.59375000000000000       0.34375000000000000        0.0000000000000000     
  0.62500000000000000       0.34375000000000000        0.0000000000000000     
  0.50000000000000000       0.37500000000000000        0.0000000000000000     
  0.53125000000000000       0.37500000000000000        0.0000000000000000     
  0.56250000000000000       0.37500000000000000        0.0000000000000000     
  0.59375000000000000       0.37500000000000000        0.0000000000000000     
  0.62500000000000000       0.37500000000000000        0.0000000000000000     
  0.62500000000000000       0.25000000000000000        0.0000000000000000     
  0.65625000000000000       0.25000000000000000        0.0000000000000000     
  0.68750000000000000       0.25000000000000000        0.0000000000000000     
  0.71875000000000000       0.25000000000000000        0.0000000000000000     
  0.75000000000000000       0.25000000000000000        0.0000000000000000     
  0.62500000000000000       0.28125000000000000        0.0000000000000000     
  0.65625000000000000       0.28125000000000000        0.0000000000000000     
  0.68750000000000000       0.28125000000000000        0.0000000000000000     
  0.71875000000000000       0.28125000000000000        0.0000000000000000     
  0.75000000000000000       0.28125000000000000        0.0000000000000000     
  0.62500000000000000       0.31250000000000000        0.0000000000000000     
  0.65625000000000000       0.31250000000000000        0.0000000000000000     
  0.68750000000000000       0.31250000000000000        0.0000000000000000     
  0.71875000000000000       0.31250000000000000        0.0000000000000000     
  0.75000000000000000       0.31250000000000000        0.0000000000000000     
  0.62500000000000000       0.34375000000000000        0.0000000000000000     
  0.65625000000000000       0.34375000000000000        0.0000000000000000     
  0.68750000000000000       0.34375000000000000        0.0000000000000000     
  0.71875000000000000       0.34375000000000000        0.0000000000000000     
  0.75000000000000000       0.34375000000000000        0.0000000000000000     
  0.62500000000000000       0.37500000000000000        0.0000000000000000     
  0.65625000000000000       0.37500000000000000        0.0000000000000000     
  0.68750000000000000       0.37500000000000000        0.0000000000000000     
  0.71875000000000000       0.37500000000000000        0.0000000000000000     
  0.75000000000000000       0.37500000000000000        0.0000000000000000     
  0.75000000000000000       0.25000000000000000        0.0000000000000000     
  0.78125000000000000       0.25000000000000000        0.0000000000000000     
  0.81250000000000000       0.25000000000000000        0.0000000000000000     
  0.84375000000000000       0.25000000000000000        0.0000000000000000     
  0.87500000000000000       0.25000000000000000        0.0000000000000000     
  0.75000000000000000       0.28125000000000000        0.0000000000000000     
  0.78125000000000000       0.28125000000000000        0.0000000000000000     
  0.81250000000000000       0.28125000000000000        0.0000000000000000     
  0.84375000000000000       0.28125000000000000        0.0000000000000000     
  0.87500000000000000       0.28125000000000000        0.0000000000000000     
  0.75000000000000000       0.31250000000000000        0.0000000000000000     
  0.78125000000000000       0.31250000000000000        0.0000000000000000     
  0.81250000000000000       0.31250000000000000        0.0000000000000000     
  0.84375000000000000       0.31250000000000000        0.0000000000000000     
  0.87500000000000000       0.31250000000000000        0.0000000000000000     
  0.75000000000000000       0.34375000000000000        0.0000000000000000     
  0.78125000000000000       0.34375000000000000        0.0000000000000000     
  0.81250000000000000       0.34375000000000000        0.0000000000000000     
  0.84375000000000000       0.34375000000000000        0.0000000000000000     
  0.87500000000000000       0.34375000000000000        0.0000000000000000     
  0.75000000000000000       0.37500000000000000        0.0000000000000000     
  0.78125000000000000       0.37500000000000000        0.0000000000000000     
  0.81250000000000000       0.37500000000000000        0.0000000000000000     
  0.84375000000000000       0.37500000000000000        0.0000000000000000     
  0.87500000000000000       0.37500000000000000        0.0000000000000000     
  0.87500000000000000       0.25000000000000000        0.0000000000000000     
  0.90625000000000000       0.25000000000000000        0.0000000000000000     
  0.93750000000000000       0.25000000000000000        0.0000000000000000     
  0.96875000000000000       0.25000000000000000        0.0000000000000000     
   1.0000000000000000       0.25000000000000000        0.0000000000000000     
  0.87500000000000000       0.28125000000000000        0.0000000000000000     
  0.90625000000000000       0.28125000000000000        0.0000000000000000     
  0.93750000000000000       0.28125000000000000        0.0000000000000000     
  0.96875000000000000       0.28125000000000000        0.0000000000000000     
   1.0000000000000000       0.28125000000000000        0.0000000000000000     
  0.87500000000000000       0.31250000000000000        0.0000000000000000     
  0.90625000000000000       0.31250000000000000        0.0000000000000000     
  0.93750000000000000       0.31250000000000000        0.0000000000000000     
  0.96875000000000000       0.31250000000000000        0.0000000000000000     
   1.0000000000000000       0.31250000000000000        0.0000000000000000     
  0.87500000000000000       0.34375000000000000        0.0000000000000000     
  0.90625000000000000       0.34375000000000000        0.0000000000000000     
  0.93750000000000000       0.34375000000000000        0.0000000000000000     
  0.96875000000000000       0.34375000000000000        0.0000000000000000     
   1.0000000000000000       0.34375000000000000        0.0000000000000000     
  0.87500000000000000       0.37500000000000000        0.0000000000000000     
  0.90625000000000000       0.37500000000000000        0.0000000000000000     
  0.93750000000000000       0.37500000000000000        0.0000000000000000     
  0.96875000000000000       0.37500000000000000        0.0000000000000000     
   1.0000000000000000       0.37500000000000000        0.0000000000000000     
   1.0000000000000000       0.25000000000000000        0.0000000000000000     
   1.0312500000000000       0.25000000000000000        0.0000000000000000     
   1.0625000000000000       0.25000000000000000        0.0000000000000000     
   1.0937500000000000       0.25000000000000000        0.0000000000000000     
   1.1250000000000000       0.25000000000000000        0.0000000000000000     
   1.0000000000000000       0.28125000000000000        0.0000000000000000     
   1.0312500000000000       0.28125000000000000        0.0000000000000000     
   1.0625000000000000       0.28125000000000000        0.0000000000000000     
   1.0937500000000000       0.28125000000000000        0.0000000000000000     
   1.1250000000000000       0.28125000000000000        0.0000000000000000     
   1.0000000000000000       0.31250000000000000        0.0000000000000000     
   1.0312500000000000       0.31250000000000000        0.0000000000000000     
   1.0625000000000000       0.31250000000000000        0.0000000000000000     
   1.0937500000000000       0.31250000000000000        0.0000000000000000     
   1.1250000000000000       0.31250000000000000        0.0000000000000000     
   1.0000000000000000       0.34375000000000000        0.0000000000000000     
   1.0312500000000000       0.34375000000000000        0.0000000000000000     
   1.0625000000000000       0.34375000000000000        0.0000000000000000     
   1.0937500000000000       0.34375000000000000        0.0000000000000000     
   1.1250000000000000       0.34375000000000000        0.0000000000000000     
   1.0000000000000000       0.37500000000000000        0.0000000000000000     
   1.0312500000000000       0.37500000000000000        0.0000000000000000     
   1.0625000000000000       0.37500000000000000        0.0000000000000000     
   1.0937500000000000       0.37500000000000000        0.0000000000000000     
   1.1250000000000000       0.37500000000000000        0.0000000000000000     
   1.1250000000000000       0.25000000000000000        0.0000000000000000     
   1.1562500000000000       0.25000000000000000        0.0000000000000000     
   1.1875000000000000       0.25000000000000000        0.0000000000000000     
   1.2187500000000000       0.25000000000000000        0.0000000000000000     
   1.2500000000000000       0.25000000000000000        0.0000000000000000     
   1.1250000000000000       0.28125000000000000        0.0000000000000000     
   1.1562500000000000       0.28125000000000000        0.0000000000000000     
   1.1875000000000000       0.28125000000000000        0.0000000000000000     
   1.2187500000000000       0.28125000000000000        0.0000000000000000     
   1.2500000000000000       0.28125000000000000        0.0000000000000000     
   1.1250000000000000       0.31250000000000000        0.0000000000000000     
   1.1562500000000000       0.31250000000000000        0.0000000000000000     
   1.1875000000000000       0.31250000000000000        0.0000000000000000     
   1.2187500000000000       0.31250000000000000        0.0000000000000000     
   1.2500000000000000       0.31250000000000000        0.0000000000000000     
   1.1250000000000000       0.34375000000000000        0.0000000000000000     
   1.1562500000000000       0.34375000000000000        0.0000000000000000     
   1.1875000000000000       0.34375000000000000        0.0000000000000000     
   1.2187500000000000       0.34375000000000000        0.0000000000000000     
   1.2500000000000000       0.34375000000000000        0.0000000000000000     
   1.1250000000000000       0.37500000000000000        0.0000000000000000     
   1.1562500000000000       0.37500000000000000        0.0000000000000000     
   1.1875000000000000       0.37500000000000000        0.0000000000000000     
   1.2187500000000000       0.37500000000000000        0.0000000000000000     
   1.2500000000000000       0.37500000000000000        0.0000000000000000     
   1.2500000000000000       0.25000000000000000        0.0000000000000000     
   1.2812500000000000       0.25000000000000000        0.0000000000000000     
   1.3125000000000000       0.25000000000000000        0.0000000000000000     
   1.3437500000000000       0.25000000000000000        0.0000000000000000     
   1.3750000000000000       0.25000000000000000        0.0000000000000000     
   1.2500000000000000       0.28125000000000000        0.0000000000000000     
   1.2812500000000000       0.28125000000000000        0.0000000000000000     
   1.3125000000000000       0.28125000000000000        0.0000000000000000     
   1.3437500000000000       0.28125000000000000        0.0000000000000000     
   1.3750000000000000       0.28125000000000000        0.0000000000000000     
   1.2500000000000000       0.31250000000000000        0.0000000000000000     
   1.2812500000000000       0.31250000000000000        0.0000000000000000     
   1.3125000000000000       0.31250000000000000        0.0000000000000000     
   1.3437500000000000       0.31250000000000000        0.0000000000000000     
   1.3750000000000000       0.31250000000000000        0.0000000000000000     
   1.2500000000000000       0.34375000000000000        0.0000000000000000     
   1.2812500000000000       0.34375000000000000        0.0000000000000000     
   1.3125000000000000       0.34375000000000000        0.0000000000000000     
   1.3437500000000000       0.34375000000000000        0.0000000000000000     
   1.3750000000000000       0.34375000000000000        0.0000000000000000     
   1.2500000000000000       0.37500000000000000        0.0000000000000000     
   1.2812500000000000       0.37500000000000000        0.0000000000000000     
   1.3125000000000000       0.37500000000000000        0.0000000000000000     
   1.3437500000000000       0.37500000000000000        0.0000000000000000     
   1.3750000000000000       0.37500000000000000        0.0000000000000000     
   1.3750000000000000       0.25000000000000000        0.0000000000000000     
   1.4062500000000000       0.25000000000000000        0.0000000000000000     
   1.4375000000000000       0.25000000000000000        0.0000000000000000     
   1.4687500000000000       0.25000000000000000        0.0000000000000000     
   1.5000000000000000       0.25000000000000000        0.0000000000000000     
   1.3750000000000000       0.28125000000000000        0.0000000000000000     
   1.4062500000000000       0.28125000000000000        0.0000000000000000     
   1.4375000000000000       0.28125000000000000        0.0000000000000000     
   1.4687500000000000       0.28125000000000000        0.0000000000000000     
   1.5000000000000000       0.28125000000000000        0.0000000000000000     
   1.3750000000000000       0.31250000000000000        0.0000000000000000     
   1.4062500000000000       0.31250000000000000        0.0000000000000000     
   1.4375000000000000       0.31250000000000000        0.0000000000000000     
   1.4687500000000000       0.31250000000000000        0.0000000000000000     
   1.5000000000000000       0.31250000000000000        0.0000000000000000     
   1.3750000000000000       0.34375000000000000        0.0000000000000000     
   1.4062500000000000       0.34375000000000000        0.0000000000000000     
   1.4375000000000000       0.34375000000000000        0.0000000000000000     
   1.4687500000000000       0.34375000000000000        0.0000000000000000     
   1.5000000000000000       0.34375000000000000        0.0000000000000000     
   1.3750000000000000       0.37500000000000000        0.0000000000000000     
   1.4062500000000000       0.37500000000000000        0.0000000000000000     
   1.4375000000000000       0.37500000000000000        0.0000000000000000     
   1.4687500000000000       0.37500000000000000        0.0000000000000000     
   1.5000000000000000       0.37500000000000000        0.0000000000000000     
  0.50000000000000000       0.37500000000000000        0.0000000000000000     
  0.53125000000000000       0.37500000000000000        0.0000000000000000     
  0.56250000000000000       0.37500000000000000        0.0000000000000000     
  0.59375000000000000       0.37500000000000000        0.0000000000000000     
  0.62500000000000000       0.37500000000000000        0.0000000000000000     
  0.50000000000000000       0.40625000000000000        0.0000000000000000     
  0.53125000000000000       0.40625000000000000        0.0000000000000000     
  0.56250000000000000       0.40625000000000000        0.0000000000000000     
  0.59375000000000000       0.40625000000000000        0.0000000000000000     
  0.62500000000000000       0.40625000000000000        0.0000000000000000     
  0.50000000000000000       0.43750000000000000        0.0000000000000000     
  0.53125000000000000       0.43750000000000000        0.0000000000000000     
  0.56250000000000000       0.43750000000000000        0.0000000000000000     
  0.59375000000000000       0.43750000000000000        0.0000000000000000     
  0.62500000000000000       0.43750000000000000        0.0000000000000000     
  0.50000000000000000       0.46875000000000000        0.0000000000000000     
  0.53125000000000000       0.46875000000000000        0.0000000000000000     
  0.56250000000000000       0.46875000000000000        0.0000000000000000     
  0.59375000000000000       0.46875000000000000        0.0000000000000000     
  0.62500000000000000       0.46875000000000000        0.0000000000000000     
  0.50000000000000000       0.50000000000000000        0.0000000000000000     
  0.53125000000000000       0.50000000000000000        0.0000000000000000     
  0.56250000000000000       0.50000000000000000        0.0000000000000000     
  0.59375000000000000       0.50000000000000000        0.0000000000000000     
  0.62500000000000000       0.50000000000000000        0.0000000000000000     
  0.62500000000000000       0.37500000000000000        0.0000000000000000     
  0.65625000000000000       0.37500000000000000        0.0000000000000000     
  0.68750000000000000       0.37500000000000000        0.0000000000000000     
  0.71875000000000000       0.37500000000000000        0.0000000000000000     
  0.75000000000000000       0.37500000000000000        0.0000000000000000     
  0.62500000000000000       0.40625000000000000        0.0000000000000000     
  0.65625000000000000       0.40625000000000000        0.0000000000000000     
  0.68750000000000000       0.40625000000000000        0.0000000000000000     
  0.71875000000000000       0.40625000000000000        0.0000000000000000     
  0.75000000000000000       0.40625000000000000        0.0000000000000000     
  0.62500000000000000       0.43750000000000000        0.0000000000000000     
  0.65625000000000000       0.43750000000000000        0.0000000000000000     
  0.68750000000000000       0.43750000000000000        0.0000000000000000     
  0.71875000000000000       0.43750000000000000        0.0000000000000000     
  0.75000000000000000       0.43750000000000000        0.0000000000000000     
  0.62500000000000000       0.46875000000000000        0.0000000000000000     
  0.65625000000000000       0.46875000000000000        0.0000000000000000     
  0.68750000000000000       0.46875000000000000        0.0000000000000000     
  0.71875000000000000       0.46875000000000000        0.0000000000000000     
  0.75000000000000000       0.46875000000000000        0.0000000000000000     
  0.62500000000000000       0.50000000000000000        0.0000000000000000     
  0.65625000000000000       0.50000000000000000        0.0000000000000000     
  0.68750000000000000       0.50000000000000000        0.0000000000000000     
  0.71875000000000000       0.50000000000000000        0.0000000000000000     
  0.75000000000000000       0.50000000000000000        0.0000000000000000     
  0.75000000000000000       0.37500000000000000        0.0000000000000000     
  0.78125000000000000       0.37500000000000000        0.0000000000000000     
  0.81250000000000000       0.37500000000000000        0.0000000000000000     
  0.84375000000000000       0.37500000000000000        0.0000000000000000     
  0.87500000000000000       0.37500000000000000        0.0000000000000000     
  0.75000000000000000       0.40625000000000000        0.0000000000000000     
  0.78125000000000000       0.40625000000000000        0.0000000000000000     
  0.81250000000000000       0.40625000000000000        0.0000000000000000     
  0.84375000000000000       0.40625000000000000        0.0000000000000000     
  0.87500000000000000       0.40625000000000000        0.0000000000000000     
  0.75000000000000000       0.43750000000000000        0.0000000000000000     
  0.78125000000000000       0.43750000000000000        0.0000000000000000     
  0.81250000000000000       0.43750000000000000        0.0000000000000000     
  0.84375000000000000       0.43750000000000000        0.0000000000000000     
  0.87500000000000000       0.43750000000000000        0.0000000000000000     
  0.75000000000000000       0.46875000000000000        0.0000000000000000     
  0.78125000000000000       0.46875000000000000        0.0000000000000000     
  0.81250000000000000       0.46875000000000000        0.0000000000000000     
  0.84375000000000000       0.46875000000000000        0.0000000000000000     
  0.87500000000000000       0.46875000000000000        0.0000000000000000     
  0.75000000000000000       0.50000000000000000        0.0000000000000000     
  0.78125000000000000       0.50000000000000000        0.0000000000000000     
  0.81250000000000000       0.50000000000000000        0.0000000000000000     
  0.84375000000000000       0.50000000000000000        0.0000000000000000     
  0.87500000000000000       0.50000000000000000        0.0000000000000000     
  0.87500000000000000       0.37500000000000000        0.0000000000000000     
  0.90625000000000000       0.37500000000000000        0.0000000000000000     
  0.93750000000000000       0.37500000000000000        0.0000000000000000     
  0.96875000000000000       0.37500000000000000        0.0000000000000000     
   1.0000000000000000       0.37500000000000000        0.0000000000000000     
  0.87500000000000000       0.40625000000000000        0.0000000000000000     
  0.90625000000000000       0.40625000000000000        0.0000000000000000     
  0.93750000000000000       0.40625000000000000        0.0000000000000000     
  0.96875000000000000       0.40625000000000000        0.0000000000000000     
   1.0000000000000000       0.40625000000000000        0.0000000000000000     
  0.87500000000000000       0.43750000000000000        0.0000000000000000     
  0.90625000000000000       0.43750000000000000        0.0000000000000000     
  0.93750000000000000       0.43750000000000000        0.0000000000000000     
  0.96875000000000000       0.43750000000000000        0.0000000000000000     
   1.0000000000000000       0.43750000000000000        0.0000000000000000     
  0.87500000000000000       0.46875000000000000        0.0000000000000000     
  0.90625000000000000       0.46875000000000000        0.0000000000000000     
  0.93750000000000000       0.46875000000000000        0.0000000000000000     
  0.96875000000000000       0.46875000000000000        0.0000000000000000     
   1.0000000000000000       0.46875000000000000        0.0000000000000000     
  0.87500000000000000       0.50000000000000000        0.0000000000000000     
  0.90625000000000000       0.50000000000000000        0.0000000000000000     
  0.93750000000000000       0.50000000000000000        0.0000000000000000     
  0.96875000000000000       0.50000000000000000        0.0000000000000000     
   1.0000000000000000       0.50000000000000000        0.0000000000000000     
   1.0000000000000000       0.37500000000000000        0.0000000000000000     
   1.0312500000000000       0.37500000000000000        0.0000000000000000     
   1.0625000000000000       0.37500000000000000        0.0000000000000000     
   1.0937500000000000       0.37500000000000000        0.0000000000000000     
   1.1250000000000000       0.37500000000000000        0.0000000000000000     
   1.0000000000000000       0.40625000000000000        0.0000000000000000     
   1.0312500000000000       0.40625000000000000        0.0000000000000000     
   1.0625000000000000       0.40625000000000000        0.0000000000000000     
   1.0937500000000000       0.40625000000000000        0.0000000000000000     
   1.1250000000000000       0.40625000000000000        0.0000000000000000     
   1.0000000000000000       0.43750000000000000        0.0000000000000000     
   1.0312500000000000       0.43750000000000000        0.0000000000000000     
   1.0625000000000000       0.43750000000000000        0.0000000000000000     
   1.0937500000000000       0.43750000000000000        0.0000000000000000     
   1.1250000000000000       0.43750000000000000        0.0000000000000000     
   1.0000000000000000       0.46875000000000000        0.0000000000000000     
   1.0312500000000000       0.46875000000000000        0.0000000000000000     
   1.0625000000000000       0.46875000000000000        0.0000000000000000     
   1.0937500000000000       0.46875000000000000        0.0000000000000000     
   1.1250000000000000       0.46875000000000000        0.0000000000000000     
   1.0000000000000000       0.50000000000000000        0.0000000000000000     
   1.0312500000000000       0.50000000000000000        0.0000000000000000     
   1.0625000000000000       0.50000000000000000        0.0000000000000000     
   1.0937500000000000       0.50000000000000000        0.0000000000000000     
   1.1250000000000000       0.50000000000000000        0.0000000000000000     
   1.1250000000000000       0.37500000000000000        0.0000000000000000     
   1.1562500000000000       0.37500000000000000        0.0000000000000000     
   1.1875000000000000       0.37500000000000000        0.0000000000000000     
   1.2187500000000000       0.37500000000000000        0.0000000000000000     
   1.2500000000000000       0.37500000000000000        0.0000000000000000     
   1.1250000000000000       0.40625000000000000        0.0000000000000000     
   1.1562500000000000       0.40625000000000000        0.0000000000000000     
   1.1875000000000000       0.40625000000000000        0.0000000000000000     
   1.2187500000000000       0.40625000000000000        0.0000000000000000     
   1.2500000000000000       0.40625000000000000        0.0000000000000000     
   1.1250000000000000       0.43750000000000000        0.0000000000000000     
   1.1562500000000000       0.43750000000000000        0.0000000000000000     
   1.1875000000000000       0.43750000000000000        0.0000000000000000     
   1.2187500000000000       0.43750000000000000        0.0000000000000000     
   1.2500000000000000       0.43750000000000000        0.0000000000000000     
   1.1250000000000000       0.46875000000000000        0.0000000000000000     
   1.1562500000000000       0.46875000000000000        0.0000000000000000     
   1.1875000000000000       0.46875000000000000        0.0000000000000000     
   1.2187500000000000       0.46875000000000000        0.0000000000000000     
   1.2500000000000000       0.46875000000000000        0.0000000000000000     
   1.1250000000000000       0.50000000000000000        0.0000000000000000     
   1.1562500000000000       0.50000000000000000        0.0000000000000000     
   1.1875000000000000       0.50000000000000000        0.0000000000000000     
   1.2187500000000000       0.50000000000000000        0.0000000000000000     
   1.2500000000000000       0.50000000000000000        0.0000000000000000     
   1.2500000000000000       0.37500000000000000        0.0000000000000000     
   1.2812500000000000       0.37500000000000000        0.0000000000000000     
   1.3125000000000000       0.37500000000000000        0.0000000000000000     
   1.3437500000000000       0.37500000000000000        0.0000000000000000     
   1.3750000000000000       0.37500000000000000        0.0000000000000000     
   1.2500000000000000       0.40625000000000000        0.0000000000000000     
   1.2812500000000000       0.40625000000000000        0.0000000000000000     
   1.3125000000000000       0.40625000000000000        0.0000000000000000     
   1.3437500000000000       0.40625000000000000        0.0000000000000000     
   1.3750000000000000       0.40625000000000000        0.0000000000000000     
   1.2500000000000000       0.43750000000000000        0.0000000000000000     
   1.2812500000000000       0.43750000000000000        0.0000000000000000     
   1.3125000000000000       0.43750000000000000        0.0000000000000000     
   1.3437500000000000       0.43750000000000000        0.0000000000000000     
   1.3750000000000000       0.43750000000000000        0.0000000000000000     
   1.2500000000000000       0.46875000000000000        0.0000000000000000     
   1.2812500000000000       0.46875000000000000        0.0000000000000000     
   1.3125000000000000       0.46875000000000000        0.0000000000000000     
   1.3437500000000000       0.46875000000000000        0.0000000000000000     
   1.3750000000000000       0.46875000000000000        0.0000000000000000     
   1.2500000000000000       0.50000000000000000        0.0000000000000000     
   1.2812500000000000       0.50000000000000000        0.0000000000000000     
   1.3125000000000000       0.50000000000000000        0.0000000000000000     
   1.3437500000000000       0.50000000000000000        0.0000000000000000     
   1.3750000000000000       0.50000000000000000        0.0000000000000000     
   1.3750000000000000       0.37500000000000000        0.0000000000000000     
   1.4062500000000000       0.37500000000000000        0.0000000000000000     
   1.4375000000000000       0.37500000000000000        0.0000000000000000     
   1.4687500000000000       0.37500000000000000        0.0000000000000000     
   1.5000000000000000       0.37500000000000000        0.0000000000000000     
   1.3750000000000000       0.40625000000000000        0.0000000000000000     
   1.4062500000000000       0.40625000000000000        0.0000000000000000     
   1.4375000000000000       0.40625000000000000        0.0000000000000000     
   1.4687500000000000       0.40625000000000000        0.0000000000000000     
   1.5000000000000000       0.40625000000000000        0.0000000000000000     
   1.3750000000000000       0.43750000000000000        0.0000000000000000     
   1.4062500000000000       0.43750000000000000        0.0000000000000000     
   1.4375000000000000       0.43750000000000000        0.0000000000000000     
   1.4687500000000000       0.43750000000000000        0.0000000000000000     
   1.5000000000000000       0.43750000000000000        0.0000000000000000     
   1.3750000000000000       0.46875000000000000        0.0000000000000000     
   1.4062500000000000       0.46875000000000000        0.0000000000000000     
   1.4375000000000000       0.46875000000000000        0.0000000000000000     
   1.4687500000000000       0.46875000000000000        0.0000000000000000     
   1.5000000000000000       0.46875000000000000        0.0000000000000000     
   1.3750000000000000       0.50000000000000000        0.0000000000000000     
   1.4062500000000000       0.50000000000000000        0.0000000000000000     
   1.4375000000000000       0.50000000000000000        0.0000000000000000     
   1.4687500000000000       0.50000000000000000        0.0000000000000000     
   1.5000000000000000       0.50000000000000000        0.0000000000000000     
  0.50000000000000000       0.50000000000000000        0.0000000000000000     
  0.53125000000000000       0.50000000000000000        0.0000000000000000     
  0.56250000000000000       0.50000000000000000        0.0000000000000000     
  0.59375000000000000       0.50000000000000000        0.0000000000000000     
  0.62500000000000000       0.50000000000000000        0.0000000000000000     
  0.50000000000000000       0.53125000000000000        0.0000000000000000     
  0.53125000000000000       0.53125000000000000        0.0000000000000000     
  0.56250000000000000       0.53125000000000000        0.0000000000000000     
  0.59375000000000000       0.53125000000000000        0.0000000000000000     
  0.62500000000000000       0.53125000000000000        0.0000000000000000     
  0.50000000000000000       0.56250000000000000        0.0000000000000000     
  0.53125000000000000       0.56250000000000000        0.0000000000000000     
  0.56250000000000000       0.56250000000000000        0.0000000000000000     
  0.59375000000000000       0.56250000000000000        0.0000000000000000     
  0.62500000000000000       0.56250000000000000        0.0000000000000000     
  0.50000000000000000       0.59375000000000000        0.0000000000000000     
  0.53125000000000000       0.59375000000000000        0.0000000000000000     
  0.56250000000000000       0.59375000000000000        0.0000000000000000     
  0.59375000000000000       0.59375000000000000        0.0000000000000000     
  0.62500000000000000       0.59375000000000000        0.0000000000000000     
  0.50000000000000000       0.62500000000000000        0.0000000000000000     
  0.53125000000000000       0.62500000000000000        0.0000000000000000     
  0.56250000000000000       0.62500000000000000        0.0000000000000000     
  0.59375000000000000       0.62500000000000000        0.0000000000000000     
  0.62500000000000000       0.62500000000000000        0.0000000000000000     
  0.62500000000000000       0.50000000000000000        0.0000000000000000     
  0.65625000000000000       0.50000000000000000        0.0000000000000000     
  0.68750000000000000       0.50000000000000000        0.0000000000000000     
  0.71875000000000000       0.50000000000000000        0.0000000000000000     
  0.75000000000000000       0.50000000000000000        0.0000000000000000     
  0.62500000000000000       0.53125000000000000        0.0000000000000000     
  0.65625000000000000       0.53125000000000000        0.0000000000000000     
  0.68750000000000000       0.53125000000000000        0.0000000000000000     
  0.71875000000000000       0.53125000000000000        0.0000000000000000     
  0.75000000000000000       0.53125000000000000        0.0000000000000000     
  0.62500000000000000       0.56250000000000000        0.0000000000000000     
  0.65625000000000000       0.56250000000000000        0.0000000000000000     
  0.68750000000000000       0.56250000000000000        0.0000000000000000     
  0.71875000000000000       0.56250000000000000        0.0000000000000000     
  0.75000000000000000       0.56250000000000000        0.0000000000000000     
  0.62500000000000000       0.59375000000000000        0.0000000000000000     
  0.65625000000000000       0.59375000000000000        0.0000000000000000     
  0.68750000000000000       0.59375000000000000        0.0000000000000000     
  0.71875000000000000       0.59375000000000000        0.0000000000000000     
  0.75000000000000000       0.59375000000000000        0.0000000000000000     
  0.62500000000000000       0.62500000000000000        0.0000000000000000     
  0.65625000000000000       0.62500000000000000        0.0000000000000000     
  0.68750000000000000       0.62500000000000000        0.0000000000000000     
  0.71875000000000000       0.62500000000000000        0.0000000000000000     
  0.75000000000000000       0.62500000000000000        0.0000000000000000     
  0.75000000000000000       0.50000000000000000        0.0000000000000000     
  0.78125000000000000       0.50000000000000000        0.0000000000000000     
  0.81250000000000000       0.50000000000000000        0.0000000000000000     
  0.84375000000000000       0.50000000000000000        0.0000000000000000     
  0.87500000000000000       0.50000000000000000        0.0000000000000000     
  0.75000000000000000       0.53125000000000000        0.0000000000000000     
  0.78125000000000000       0.53125000000000000        0.0000000000000000     
  0.81250000000000000       0.53125000000000000        0.0000000000000000     
  0.84375000000000000       0.53125000000000000        0.0000000000000000     
  0.87500000000000000       0.53125000000000000        0.0000000000000000     
  0.75000000000000000       0.56250000000000000        0.0000000000000000     
  0.78125000000000000       0.56250000000000000        0.0000000000000000     
  0.81250000000000000       0.56250000000000000        0.0000000000000000     
  0.84375000000000000       0.56250000000000000        0.0000000000000000     
  0.87500000000000000       0.56250000000000000        0.0000000000000000     
  0.75000000000000000       0.59375000000000000        0.0000000000000000     
  0.78125000000000000       0.59375000000000000        0.0000000000000000     
  0.81250000000000000       0.59375000000000000        0.0000000000000000     
  0.84375000000000000       0.59375000000000000        0.0000000000000000     
  0.87500000000000000       0.59375000000000000        0.0000000000000000     
  0.75000000000000000       0.62500000000000000        0.0000000000000000     
  0.78125000000000000       0.62500000000000000        0.0000000000000000     
  0.81250000000000000       0.62500000000000000        0.0000000000000000     
  0.84375000000000000       0.62500000000000000        0.0000000000000000     
  0.87500000000000000       0.62500000000000000        0.0000000000000000     
  0.87500000000000000       0.50000000000000000        0.0000000000000000     
  0.90625000000000000       0.50000000000000000        0.0000000000000000     
  0.93750000000000000       0.50000000000000000        0.0000000000000000     
  0.96875000000000000       0.50000000000000000        0.0000000000000000     
   1.0000000000000000       0.50000000000000000        0.0000000000000000     
  0.87500000000000000       0.53125000000000000        0.0000000000000000     
  0.90625000000000000       0.53125000000000000        0.0000000000000000     
  0.93750000000000000       0.53125000000000000        0.0000000000000000     
  0.96875000000000000       0.53125000000000000        0.0000000000000000     
   1.0000000000000000       0.53125000000000000        0.0000000000000000     
  0.87500000000000000       0.56250000000000000        0.0000000000000000     
  0.90625000000000000       0.56250000000000000        0.0000000000000000     
  0.93750000000000000       0.56250000000000000        0.0000000000000000     
  0.96875000000000000       0.56250000000000000        0.0000000000000000     
   1.0000000000000000       0.56250000000000000        0.0000000000000000     
  0.87500000000000000       0.59375000000000000        0.0000000000000000     
  0.90625000000000000       0.59375000000000000        0.0000000000000000     
  0.93750000000000000       0.59375000000000000        0.0000000000000000     
  0.96875000000000000       0.59375000000000000        0.0000000000000000     
   1.0000000000000000       0.59375000000000000        0.0000000000000000     
  0.87500000000000000       0.62500000000000000        0.0000000000000000     
  0.90625000000000000       0.62500000000000000        0.0000000000000000     
  0.93750000000000000       0.62500000000000000        0.0000000000000000     
  0.96875000000000000       0.62500000000000000        0.0000000000000000     
   1.0000000000000000       0.62500000000000000        0.0000000000000000     
   1.0000000000000000       0.50000000000000000        0.0000000000000000     
   1.0312500000000000       0.50000000000000000        0.0000000000000000     
   1.0625000000000000       0.50000000000000000        0.0000000000000000     
   1.0937500000000000       0.50000000000000000        0.0000000000000000     
   1.1250000000000000       0.50000000000000000        0.0000000000000000     
   1.0000000000000000       0.53125000000000000        0.0000000000000000     
   1.0312500000000000       0.53125000000000000        0.0000000000000000     
   1.0625000000000000       0.53125000000000000        0.0000000000000000     
   1.0937500000000000       0.53125000000000000        0.0000000000000000     
   1.1250000000000000       0.53125000000000000        0.0000000000000000     
   1.0000000000000000       0.56250000000000000        0.0000000000000000     
   1.0312500000000000       0.56250000000000000        0.0000000000000000     
   1.0625000000000000       0.56250000000000000        0.0000000000000000     
   1.0937500000000000       0.56250000000000000        0.0000000000000000     
   1.1250000000000000       0.56250000000000000        0.0000000000000000     
   1.0000000000000000       0.59375000000000000        0.0000000000000000     
   1.0312500000000000       0.59375000000000000        0.0000000000000000     
   1.0625000000000000       0.59375000000000000        0.0000000000000000     
   1.0937500000000000       0.59375000000000000        0.0000000000000000     
   1.1250000000000000       0.59375000000000000        0.0000000000000000     
   1.0000000000000000       0.62500000000000000        0.0000000000000000     
   1.0312500000000000       0.62500000000000000        0.0000000000000000     
   1.0625000000000000       0.62500000000000000        0.0000000000000000     
   1.0937500000000000       0.62500000000000000        0.0000000000000000     
   1.1250000000000000       0.62500000000000000        0.0000000000000000     
   1.1250000000000000       0.50000000000000000        0.0000000000000000     
   1.1562500000000000       0.50000000000000000        0.0000000000000000     
   1.1875000000000000       0.50000000000000000        0.0000000000000000     
   1.2187500000000000       0.50000000000000000        0.0000000000000000     
   1.2500000000000000       0.50000000000000000        0.0000000000000000     
   1.1250000000000000       0.53125000000000000        0.0000000000000000     
   1.1562500000000000       0.53125000000000000        0.0000000000000000     
   1.1875000000000000       0.53125000000000000        0.0000000000000000     
   1.2187500000000000       0.53125000000000000        0.0000000000000000     
   1.2500000000000000       0.53125000000000000        0.0000000000000000     
   1.1250000000000000       0.56250000000000000        0.0000000000000000     
   1.1562500000000000       0.56250000000000000        0.0000000000000000     
   1.1875000000000000       0.56250000000000000        0.0000000000000000     
   1.2187500000000000       0.56250000000000000        0.0000000000000000     
   1.2500000000000000       0.56250000000000000        0.0000000000000000     
   1.1250000000000000       0.59375000000000000        0.0000000000000000     
   1.1562500000000000       0.59375000000000000        0.0000000000000000     
   1.1875000000000000       0.59375000000000000        0.0000000000000000     
   1.2187500000000000       0.59375000000000000        0.0000000000000000     
   1.2500000000000000       0.59375000000000000        0.0000000000000000     
   1.1250000000000000       0.62500000000000000        0.0000000000000000     
   1.1562500000000000       0.62500000000000000        0.0000000000000000     
   1.1875000000000000       0.62500000000000000        0.0000000000000000     
   1.2187500000000000       0.62500000000000000        0.0000000000000000     
   1.2500000000000000       0.62500000000000000        0.0000000000000000     
   1.2500000000000000       0.50000000000000000        0.0000000000000000     
   1.2812500000000000       0.50000000000000000        0.0000000000000000     
   1.3125000000000000       0.50000000000000000        0.0000000000000000     
   1.3437500000000000       0.50000000000000000        0.0000000000000000     
   1.3750000000000000       0.50000000000000000        0.0000000000000000     
   1.2500000000000000       0.53125000000000000        0.0000000000000000     
   1.2812500000000000       0.53125000000000000        0.0000000000000000     
   1.3125000000000000       0.53125000000000000        0.0000000000000000     
   1.3437500000000000       0.53125000000000000        0.0000000000000000     
   1.3750000000000000       0.53125000000000000        0.0000000000000000     
   1.2500000000000000       0.56250000000000000        0.0000000000000000     
   1.2812500000000000       0.56250000000000000        0.0000000000000000     
   1.3125000000000000       0.56250000000000000        0.0000000000000000     
   1.3437500000000000       0.56250000000000000        0.0000000000000000     
   1.3750000000000000       0.56250000000000000        0.0000000000000000     
   1.2500000000000000       0.59375000000000000        0.0000000000000000     
   1.2812500000000000       0.59375000000000000        0.0000000000000000     
   1.3125000000000000       0.59375000000000000        0.0000000000000000     
   1.3437500000000000       0.59375000000000000        0.0000000000000000     
   1.3750000000000000       0.59375000000000000        0.0000000000000000     
   1.2500000000000000       0.62500000000000000        0.0000000000000000     
   1.2812500000000000       0.62500000000000000        0.0000000000000000     
   1.3125000000000000       0.62500000000000000        0.0000000000000000     
   1.3437500000000000       0.62500000000000000        0.0000000000000000     
   1.3750000000000000       0.62500000000000000        0.0000000000000000     
   1.3750000000000000       0.50000000000000000        0.0000000000000000     
   1.4062500000000000       0.50000000000000000        0.0000000000000000     
   1.4375000000000000       0.50000000000000000        0.0000000000000000     
   1.4687500000000000       0.50000000000000000        0.0000000000000000     
   1.5000000000000000       0.50000000000000000        0.0000000000000000     
   1.3750000000000000       0.53125000000000000        0.0000000000000000     
   1.4062500000000000       0.53125000000000000        0.0000000000000000     
   1.4375000000000000       0.53125000000000000        0.0000000000000000     
   1.4687500000000000       0.53125000000000000        0.0000000000000000     
   1.5000000000000000       0.53125000000000000        0.0000000000000000     
   1.3750000000000000       0.56250000000000000        0.0000000000000000     
   1.4062500000000000       0.56250000000000000        0.0000000000000000     
   1.4375000000000000       0.56250000000000000        0.0000000000000000     
   1.4687500000000000       0.56250000000000000        0.0000000000000000     
   1.5000000000000000       0.56250000000000000        0.0000000000000000     
   1.3750000000000000       0.59375000000000000        0.0000000000000000     
   1.4062500000000000       0.59375000000000000        0.0000000000000000     
   1.4375000000000000       0.59375000000000000        0.0000000000000000     
   1.4687500000000000       0.59375000000000000        0.0000000000000000     
   1.5000000000000000       0.59375000000000000        0.0000000000000000     
   1.3750000000000000       0.62500000000000000        0.0000000000000000     
   1.4062500000000000       0.62500000000000000        0.0000000000000000     
   1.4375000000000000       0.62500000000000000        0.0000000000000000     
   1.4687500000000000       0.62500000000000000        0.0000000000000000     
   1.5000000000000000       0.62500000000000000        0.0000000000000000     
  0.50000000000000000       0.62500000000000000        0.0000000000000000     
  0.53125000000000000       0.62500000000000000        0.0000000000000000     
  0.56250000000000000       0.62500000000000000        0.0000000000000000     
  0.59375000000000000       0.62500000000000000        0.0000000000000000     
  0.62500000000000000       0.62500000000000000        0.0000000000000000     
  0.50000000000000000       0.65625000000000000        0.0000000000000000     
  0.53125000000000000       0.65625000000000000        0.0000000000000000     
  0.56250000000000000       0.65625000000000000        0.0000000000000000     
  0.59375000000000000       0.65625000000000000        0.0000000000000000     
  0.62500000000000000       0.65625000000000000        0.0000000000000000     
  0.50000000000000000       0.68750000000000000        0.0000000000000000     
  0.53125000000000000       0.68750000000000000        0.0000000000000000     
  0.56250000000000000       0.68750000000000000        0.0000000000000000     
  0.59375000000000000       0.68750000000000000        0.0000000000000000     
  0.62500000000000000       0.68750000000000000        0.0000000000000000     
  0.50000000000000000       0.71875000000000000        0.0000000000000000     
  0.53125000000000000       0.71875000000000000        0.0000000000000000     
  0.56250000000000000       0.71875000000000000        0.0000000000000000     
  0.59375000000000000       0.71875000000000000        0.0000000000000000     
  0.62500000000000000       0.71875000000000000        0.0000000000000000     
  0.50000000000000000       0.75000000000000000        0.0000000000000000     
  0.53125000000000000       0.75000000000000000        0.0000000000000000     
  0.56250000000000000       0.75000000000000000        0.0000000000000000     
  0.59375000000000000       0.75000000000000000        0.0000000000000000     
  0.62500000000000000       0.75000000000000000        0.0000000000000000     
  0.62500000000000000       0.62500000000000000        0.0000000000000000     
  0.65625000000000000       0.62500000000000000        0.0000000000000000     
  0.68750000000000000       0.62500000000000000        0.0000000000000000     
  0.71875000000000000       0.62500000000000000        0.0000000000000000     
  0.75000000000000000       0.62500000000000000        0.0000000000000000     
  0.62500000000000000       0.65625000000000000        0.0000000000000000     
  0.65625000000000000       0.65625000000000000        0.0000000000000000     
  0.68750000000000000       0.65625000000000000        0.0000000000000000     
  0.71875000000000000       0.65625000000000000        0.0000000000000000     
  0.75000000000000000       0.65625000000000000        0.0000000000000000     
  0.62500000000000000       0.68750000000000000        0.0000000000000000     
  0.65625000000000000       0.68750000000000000        0.0000000000000000     
  0.68750000000000000       0.68750000000000000        0.0000000000000000     
  0.71875000000000000       0.68750000000000000        0.0000000000000000     
  0.75000000000000000       0.68750000000000000        0.0000000000000000     
  0.62500000000000000       0.71875000000000000        0.0000000000000000     
  0.65625000000000000       0.71875000000000000        0.0000000000000000     
  0.68750000000000000       0.71875000000000000        0.0000000000000000     
  0.71875000000000000       0.71875000000000000        0.0000000000000000     
  0.75000000000000000       0.71875000000000000        0.0000000000000000     
  0.62500000000000000       0.75000000000000000        0.0000000000000000     
  0.65625000000000000       0.75000000000000000        0.0000000000000000     
  0.68750000000000000       0.75000000000000000        0.0000000000000000     
  0.71875000000000000       0.75000000000000000        0.0000000000000000     
  0.75000000000000000       0.75000000000000000        0.0000000000000000     
  0.75000000000000000       0.62500000000000000        0.0000000000000000     
  0.78125000000000000       0.62500000000000000        0.0000000000000000     
  0.81250000000000000       0.62500000000000000        0.0000000000000000     
  0.84375000000000000       0.62500000000000000        0.0000000000000000     
  0.87500000000000000       0.62500000000000000        0.0000000000000000     
  0.75000000000000000       0.65625000000000000        0.0000000000000000     
  0.78125000000000000       0.65625000000000000        0.0000000000000000     
  0.81250000000000000       0.65625000000000000        0.0000000000000000     
  0.84375000000000000       0.65625000000000000        0.0000000000000000     
  0.87500000000000000       0.65625000000000000        0.0000000000000000     
  0.75000000000000000       0.68750000000000000        0.0000000000000000     
  0.78125000000000000       0.68750000000000000        0.0000000000000000     
  0.81250000000000000       0.68750000000000000        0.0000000000000000     
  0.84375000000000000       0.68750000000000000        0.0000000000000000     
  0.87500000000000000       0.68750000000000000        0.0000000000000000     
  0.75000000000000000       0.71875000000000000        0.0000000000000000     
  0.78125000000000000       0.71875000000000000        0.0000000000000000     
  0.81250000000000000       0.71875000000000000        0.0000000000000000     
  0.84375000000000000       0.71875000000000000        0.0000000000000000     
  0.87500000000000000       0.71875000000000000        0.0000000000000000     
  0.75000000000000000       0.75000000000000000        0.0000000000000000     
  0.78125000000000000       0.75000000000000000        0.0000000000000000     
  0.81250000000000000       0.75000000000000000        0.0000000000000000     
  0.84375000000000000       0.75000000000000000        0.0000000000000000     
  0.87500000000000000       0.75000000000000000        0.0000000000000000     
  0.87500000000000000       0.62500000000000000        0.0000000000000000     
  0.90625000000000000       0.62500000000000000        0.0000000000000000     
  0.93750000000000000       0.62500000000000000        0.0000000000000000     
  0.96875000000000000       0.62500000000000000        0.0000000000000000     
   1.0000000000000000       0.62500000000000000        0.0000000000000000     
  0.87500000000000000       0.65625000000000000        0.0000000000000000     
  0.90625000000000000       0.65625000000000000        0.0000000000000000     
  0.93750000000000000       0.65625000000000000        0.0000000000000000     
  0.96875000000000000       0.65625000000000000        0.0000000000000000     
   1.0000000000000000       0.65625000000000000        0.0000000000000000     
  0.87500000000000000       0.68750000000000000        0.0000000000000000     
  0.90625000000000000       0.68750000000000000        0.0000000000000000     
  0.93750000000000000       0.68750000000000000        0.0000000000000000     
  0.96875000000000000       0.68750000000000000        0.0000000000000000     
   1.0000000000000000       0.68750000000000000        0.0000000000000000     
  0.87500000000000000       0.71875000000000000        0.0000000000000000     
  0.90625000000000000       0.71875000000000000        0.0000000000000000     
  0.93750000000000000       0.71875000000000000        0.0000000000000000     
  0.96875000000000000       0.71875000000000000        0.0000000000000000     
   1.0000000000000000       0.71875000000000000        0.0000000000000000     
  0.87500000000000000       0.75000000000000000        0.0000000000000000     
  0.90625000000000000       0.75000000000000000        0.0000000000000000     
  0.93750000000000000       0.75000000000000000        0.0000000000000000     
  0.96875000000000000       0.75000000000000000        0.0000000000000000     
   1.0000000000000000       0.75000000000000000        0.0000000000000000     
   1.0000000000000000       0.62500000000000000        0.0000000000000000     
   1.0312500000000000       0.62500000000000000        0.0000000000000000     
   1.0625000000000000       0.62500000000000000        0.0000000000000000     
   1.0937500000000000       0.62500000000000000        0.0000000000000000     
   1.1250000000000000       0.62500000000000000        0.0000000000000000     
   1.0000000000000000       0.65625000000000000        0.0000000000000000     
   1.0312500000000000       0.65625000000000000        0.0000000000000000     
   1.0625000000000000       0.65625000000000000        0.0000000000000000     
   1.0937500000000000       0.65625000000000000        0.0000000000000000     
   1.1250000000000000       0.65625000000000000        0.0000000000000000     
   1.0000000000000000       0.68750000000000000        0.0000000000000000     
   1.0312500000000000       0.68750000000000000        0.0000000000000000     
   1.0625000000000000       0.68750000000000000        0.0000000000000000     
   1.0937500000000000       0.68750000000000000        0.0000000000000000     
   1.1250000000000000       0.68750000000000000        0.0000000000000000     
   1.0000000000000000       0.71875000000000000        0.0000000000000000     
   1.0312500000000000       0.71875000000000000        0.0000000000000000     
   1.0625000000000000       0.71875000000000000        0.0000000000000000     
   1.0937500000000000       0.71875000000000000        0.0000000000000000     
   1.1250000000000000       0.71875000000000000        0.0000000000000000     
   1.0000000000000000       0.75000000000000000        0.0000000000000000     
   1.0312500000000000       0.75000000000000000        0.0000000000000000     
   1.0625000000000000       0.75000000000000000        0.0000000000000000     
   1.0937500000000000       0.75000000000000000        0.0000000000000000     
   1.1250000000000000       0.75000000000000000        0.0000000000000000     
   1.1250000000000000       0.62500000000000000        0.0000000000000000     
   1.1562500000000000       0.62500000000000000        0.0000000000000000     
   1.1875000000000000       0.62500000000000000        0.0000000000000000     
   1.2187500000000000       0.62500000000000000        0.0000000000000000     
   1.2500000000000000       0.62500000000000000        0.0000000000000000     
   1.1250000000000000       0.65625000000000000        0.0000000000000000     
   1.1562500000000000       0.65625000000000000        0.0000000000000000     
   1.1875000000000000       0.65625000000000000        0.0000000000000000     
   1.2187500000000000       0.65625000000000000        0.0000000000000000     
   1.2500000000000000       0.65625000000000000        0.0000000000000000     
   1.1250000000000000       0.68750000000000000        0.0000000000000000     
   1.1562500000000000       0.68750000000000000        0.0000000000000000     
   1.1875000000000000       0.68750000000000000        0.0000000000000000     
   1.2187500000000000       0.68750000000000000        0.0000000000000000     
   1.2500000000000000       0.68750000000000000        0.0000000000000000     
   1.1250000000000000       0.71875000000000000        0.0000000000000000     
   1.1562500000000000       0.71875000000000000        0.0000000000000000     
   1.1875000000000000       0.71875000000000000        0.0000000000000000     
   1.2187500000000000       0.71875000000000000        0.0000000000000000     
   1.2500000000000000       0.71875000000000000        0.0000000000000000     
   1.1250000000000000       0.75000000000000000        0.0000000000000000     
   1.1562500000000000       0.75000000000000000        0.0000000000000000     
   1.1875000000000000       0.75000000000000000        0.0000000000000000     
   1.2187500000000000       0.75000000000000000        0.0000000000000000     
   1.2500000000000000       0.75000000000000000        0.0000000000000000     
   1.2500000000000000       0.62500000000000000        0.0000000000000000     
   1.2812500000000000       0.62500000000000000        0.0000000000000000     
   1.3125000000000000       0.62500000000000000        0.0000000000000000     
   1.3437500000000000       0.62500000000000000        0.0000000000000000     
   1.3750000000000000       0.62500000000000000        0.0000000000000000     
   1.2500000000000000       0.65625000000000000        0.0000000000000000     
   1.2812500000000000       0.65625000000000000        0.0000000000000000     
   1.3125000000000000       0.65625000000000000        0.0000000000000000     
   1.3437500000000000       0.65625000000000000        0.0000000000000000     
   1.3750000000000000       0.65625000000000000        0.0000000000000000     
   1.2500000000000000       0.68750000000000000        0.0000000000000000     
   1.2812500000000000       0.68750000000000000        0.0000000000000000     
   1.3125000000000000       0.68750000000000000        0.0000000000000000     
   1.3437500000000000       0.68750000000000000        0.0000000000000000     
   1.3750000000000000       0.68750000000000000        0.0000000000000000     
   1.2500000000000000       0.71875000000000000        0.0000000000000000     
   1.2812500000000000       0.71875000000000000        0.0000000000000000     
   1.3125000000000000       0.71875000000000000        0.0000000000000000     
   1.3437500000000000       0.71875000000000000        0.0000000000000000     
   1.3750000000000000       0.71875000000000000        0.0000000000000000     
   1.2500000000000000       0.75000000000000000        0.0000000000000000     
   1.2812500000000000       0.75000000000000000        0.0000000000000000     
   1.3125000000000000       0.75000000000000000        0.0000000000000000     
   1.3437500000000000       0.75000000000000000        0.0000000000000000     
   1.3750000000000000       0.75000000000000000        0.0000000000000000     
   1.3750000000000000       0.62500000000000000        0.0000000000000000     
   1.4062500000000000       0.62500000000000000        0.0000000000000000     
   1.4375000000000000       0.62500000000000000        0.0000000000000000     
   1.4687500000000000       0.62500000000000000        0.0000000000000000     
   1.5000000000000000       0.62500000000000000        0.0000000000000000     
   1.3750000000000000       0.65625000000000000        0.0000000000000000     
   1.4062500000000000       0.65625000000000000        0.0000000000000000     
   1.4375000000000000       0.65625000000000000        0.0000000000000000     
   1.4687500000000000       0.65625000000000000        0.0000000000000000     
   1.5000000000000000       0.65625000000000000        0.0000000000000000     
   1.3750000000000000       0.68750000000000000        0.0000000000000000     
   1.4062500000000000       0.68750000000000000        0.0000000000000000     
   1.4375000000000000       0.68750000000000000        0.0000000000000000     
   1.4687500000000000       0.68750000000000000        0.0000000000000000     
   1.5000000000000000       0.68750000000000000        0.0000000000000000     
   1.3750000000000000       0.71875000000000000        0.0000000000000000     
   1.4062500000000000       0.71875000000000000        0.0000000000000000     
   1.4375000000000000       0.71875000000000000        0.0000000000000000     
   1.4687500000000000       0.71875000000000000        0.0000000000000000     
   1.5000000000000000       0.71875000000000000        0.0000000000000000     
   1.3750000000000000       0.75000000000000000        0.0000000000000000     
   1.4062500000000000       0.75000000000000000        0.0000000000000000     
   1.4375000000000000       0.75000000000000000        0.0000000000000000     
   1.4687500000000000       0.75000000000000000        0.0000000000000000     
   1.5000000000000000       0.75000000000000000        0.0000000000000000     
  0.50000000000000000       0.75000000000000000        0.0000000000000000     
  0.53125000000000000       0.75000000000000000        0.0000000000000000     
  0.56250000000000000       0.75000000000000000        0.0000000000000000     
  0.59375000000000000       0.75000000000000000        0.0000000000000000     
  0.62500000000000000       0.75000000000000000        0.0000000000000000     
  0.50000000000000000       0.78125000000000000        0.0000000000000000     
  0.53125000000000000       0.78125000000000000        0.0000000000000000     
  0.56250000000000000       0.78125000000000000        0.0000000000000000     
  0.59375000000000000       0.78125000000000000        0.0000000000000000     
  0.62500000000000000       0.78125000000000000        0.0000000000000000     
  0.50000000000000000       0.81250000000000000        0.0000000000000000     
  0.53125000000000000       0.81250000000000000        0.0000000000000000     
  0.56250000000000000       0.81250000000000000        0.0000000000000000     
  0.59375000000000000       0.81250000000000000        0.0000000000000000     
  0.62500000000000000       0.81250000000000000        0.0000000000000000     
  0.50000000000000000       0.84375000000000000        0.0000000000000000     
  0.53125000000000000       0.84375000000000000        0.0000000000000000     
  0.56250000000000000       0.84375000000000000        0.0000000000000000     
  0.59375000000000000       0.84375000000000000        0.0000000000000000     
  0.62500000000000000       0.84375000000000000        0.0000000000000000     
  0.50000000000000000       0.87500000000000000        0.0000000000000000     
  0.53125000000000000       0.87500000000000000        0.0000000000000000     
  0.56250000000000000       0.87500000000000000        0.0000000000000000     
  0.59375000000000000       0.87500000000000000        0.0000000000000000     
  0.62500000000000000       0.87500000000000000        0.0000000000000000     
  0.62500000000000000       0.75000000000000000        0.0000000000000000     
  0.65625000000000000       0.75000000000000000        0.0000000000000000     
  0.68750000000000000       0.75000000000000000        0.0000000000000000     
  0.71875000000000000       0.75000000000000000        0.0000000000000000     
  0.75000000000000000       0.75000000000000000        0.0000000000000000     
  0.62500000000000000       0.78125000000000000        0.0000000000000000     
  0.65625000000000000       0.78125000000000000        0.0000000000000000     
  0.68750000000000000       0.78125000000000000        0.0000000000000000     
  0.71875000000000000       0.78125000000000000        0.0000000000000000     
  0.75000000000000000       0.78125000000000000        0.0000000000000000     
  0.62500000000000000       0.81250000000000000        0.0000000000000000     
  0.65625000000000000       0.81250000000000000        0.0000000000000000     
  0.68750000000000000       0.81250000000000000        0.0000000000000000     
  0.71875000000000000       0.81250000000000000        0.0000000000000000     
  0.75000000000000000       0.81250000000000000        0.0000000000000000     
  0.62500000000000000       0.84375000000000000        0.0000000000000000     
  0.65625000000000000       0.84375000000000000        0.0000000000000000     
  0.68750000000000000       0.84375000000000000        0.0000000000000000     
  0.71875000000000000       0.84375000000000000        0.0000000000000000     
  0.75000000000000000       0.84375000000000000        0.0000000000000000     
  0.62500000000000000       0.87500000000000000        0.0000000000000000     
  0.65625000000000000       0.87500000000000000        0.0000000000000000     
  0.68750000000000000       0.87500000000000000        0.0000000000000000     
  0.71875000000000000       0.87500000000000000        0.0000000000000000     
  0.75000000000000000       0.87500000000000000        0.0000000000000000     
  0.75000000000000000       0.75000000000000000        0.0000000000000000     
  0.78125000000000000       0.75000000000000000        0.0000000000000000     
  0.81250000000000000       0.75000000000000000        0.0000000000000000     
  0.84375000000000000       0.75000000000000000        0.0000000000000000     
  0.87500000000000000       0.75000000000000000        0.0000000000000000     
  0.75000000000000000       0.78125000000000000        0.0000000000000000     
  0.78125000000000000       0.78125000000000000        0.0000000000000000     
  0.81250000000000000       0.78125000000000000        0.0000000000000000     
  0.84375000000000000       0.78125000000000000        0.0000000000000000     
  0.87500000000000000       0.78125000000000000        0.0000000000000000     
  0.75000000000000000       0.81250000000000000        0.0000000000000000     
  0.78125000000000000       0.81250000000000000        0.0000000000000000     
  0.81250000000000000       0.81250000000000000        0.0000000000000000     
  0.84375000000000000       0.81250000000000000        0.0000000000000000     
  0.87500000000000000       0.81250000000000000        0.0000000000000000     
  0.75000000000000000       0.84375000000000000        0.0000000000000000     
  0.78125000000000000       0.84375000000000000        0.0000000000000000     
  0.81250000000000000       0.84375000000000000        0.0000000000000000     
  0.84375000000000000       0.84375000000000000        0.0000000000000000     
  0.87500000000000000       0.84375000000000000        0.0000000000000000     
  0.75000000000000000       0.87500000000000000        0.0000000000000000     
  0.78125000000000000       0.87500000000000000        0.0000000000000000     
  0.81250000000000000       0.87500000000000000        0.0000000000000000     
  0.84375000000000000       0.87500000000000000        0.0000000000000000     
  0.87500000000000000       0.87500000000000000        0.0000000000000000     
  0.87500000000000000       0.75000000000000000        0.0000000000000000     
  0.90625000000000000       0.75000000000000000        0.0000000000000000     
  0.93750000000000000       0.75000000000000000        0.0000000000000000     
  0.96875000000000000       0.75000000000000000        0.0000000000000000     
   1.0000000000000000       0.75000000000000000        0.0000000000000000     
  0.87500000000000000       0.78125000000000000        0.0000000000000000     
  0.90625000000000000       0.78125000000000000        0.0000000000000000     
  0.93750000000000000       0.78125000000000000        0.0000000000000000     
  0.96875000000000000       0.78125000000000000        0.0000000000000000     
   1.0000000000000000       0.78125000000000000        0.0000000000000000     
  0.87500000000000000       0.81250000000000000        0.0000000000000000     
  0.90625000000000000       0.81250000000000000        0.0000000000000000     
  0.93750000000000000       0.81250000000000000        0.0000000000000000     
  0.96875000000000000       0.81250000000000000        0.0000000000000000     
   1.0000000000000000       0.81250000000000000        0.0000000000000000     
  0.87500000000000000       0.84375000000000000        0.0000000000000000     
  0.90625000000000000       0.84375000000000000        0.0000000000000000     
  0.93750000000000000       0.84375000000000000        0.0000000000000000     
  0.96875000000000000       0.84375000000000000        0.0000000000000000     
   1.0000000000000000       0.84375000000000000        0.0000000000000000     
  0.87500000000000000       0.87500000000000000        0.0000000000000000     
  0.90625000000000000       0.87500000000000000        0.0000000000000000     
  0.93750000000000000       0.87500000000000000        0.0000000000000000     
  0.96875000000000000       0.87500000000000000        0.0000000000000000     
   1.0000000000000000       0.87500000000000000        0.0000000000000000     
   1.0000000000000000       0.75000000000000000        0.0000000000000000     
   1.0312500000000000       0.75000000000000000        0.0000000000000000     
   1.0625000000000000       0.75000000000000000        0.0000000000000000     
   1.0937500000000000       0.75000000000000000        0.0000000000000000     
   1.1250000000000000       0.75000000000000000        0.0000000000000000     
   1.0000000000000000       0.78125000000000000        0.0000000000000000     
   1.0312500000000000       0.78125000000000000        0.0000000000000000     
   1.0625000000000000       0.78125000000000000        0.0000000000000000     
   1.0937500000000000       0.78125000000000000        0.0000000000000000     
   1.1250000000000000       0.78125000000000000        0.0000000000000000     
   1.0000000000000000       0.81250000000000000        0.0000000000000000     
   1.0312500000000000       0.81250000000000000        0.0000000000000000     
   1.0625000000000000       0.81250000000000000        0.0000000000000000     
   1.0937500000000000       0.81250000000000000        0.0000000000000000     
   1.1250000000000000       0.81250000000000000        0.0000000000000000     
   1.0000000000000000       0.84375000000000000        0.0000000000000000     
   1.0312500000000000       0.84375000000000000        0.0000000000000000     
   1.0625000000000000       0.84375000000000000        0.0000000000000000     
   1.0937500000000000       0.84375000000000000        0.0000000000000000     
   1.1250000000000000       0.84375000000000000        0.0000000000000000     
   1.0000000000000000       0.87500000000000000        0.0000000000000000     
   1.0312500000000000       0.87500000000000000        0.0000000000000000     
   1.0625000000000000       0.87500000000000000        0.0000000000000000     
   1.0937500000000000       0.87500000000000000        0.0000000000000000     
   1.1250000000000000       0.87500000000000000        0.0000000000000000     
   1.1250000000000000       0.75000000000000000        0.0000000000000000     
   1.1562500000000000       0.75000000000000000        0.0000000000000000     
   1.1875000000000000       0.75000000000000000        0.0000000000000000     
   1.2187500000000000       0.75000000000000000        0.0000000000000000     
   1.2500000000000000       0.75000000000000000        0.0000000000000000     
   1.1250000000000000       0.78125000000000000        0.0000000000000000     
   1.1562500000000000       0.78125000000000000        0.0000000000000000     
   1.1875000000000000       0.78125000000000000        0.0000000000000000     
   1.2187500000000000       0.78125000000000000        0.0000000000000000     
   1.2500000000000000       0.78125000000000000        0.0000000000000000     
   1.1250000000000000       0.81250000000000000        0.0000000000000000     
   1.1562500000000000       0.81250000000000000        0.0000000000000000     
   1.1875000000000000       0.81250000000000000        0.0000000000000000     
   1.2187500000000000       0.81250000000000000        0.0000000000000000     
   1.2500000000000000       0.81250000000000000        0.0000000000000000     
   1.1250000000000000       0.84375000000000000        0.0000000000000000     
   1.1562500000000000       0.84375000000000000        0.0000000000000000     
   1.1875000000000000       0.84375000000000000        0.0000000000000000     
   1.2187500000000000       0.84375000000000000        0.0000000000000000     
   1.2500000000000000       0.84375000000000000        0.0000000000000000     
   1.1250000000000000       0.87500000000000000        0.0000000000000000     
   1.1562500000000000       0.87500000000000000        0.0000000000000000     
   1.1875000000000000       0.87500000000000000        0.0000000000000000     
   1.2187500000000000       0.87500000000000000        0.0000000000000000     
   1.2500000000000000       0.87500000000000000        0.0000000000000000     
   1.2500000000000000       0.75000000000000000        0.0000000000000000     
   1.2812500000000000       0.75000000000000000        0.0000000000000000     
   1.3125000000000000       0.75000000000000000        0.0000000000000000     
   1.3437500000000000       0.75000000000000000        0.0000000000000000     
   1.3750000000000000       0.75000000000000000        0.0000000000000000     
   1.2500000000000000       0.78125000000000000        0.0000000000000000     
   1.2812500000000000       0.78125000000000000        0.0000000000000000     
   1.3125000000000000       0.78125000000000000        0.0000000000000000     
   1.3437500000000000       0.78125000000000000        0.0000000000000000     
   1.3750000000000000       0.78125000000000000        0.0000000000000000     
   1.2500000000000000       0.81250000000000000        0.0000000000000000     
   1.2812500000000000       0.81250000000000000        0.0000000000000000     
   1.3125000000000000       0.81250000000000000        0.0000000000000000     
   1.3437500000000000       0.81250000000000000        0.0000000000000000     
   1.3750000000000000       0.81250000000000000        0.0000000000000000     
   1.2500000000000000       0.84375000000000000        0.0000000000000000     
   1.2812500000000000       0.84375000000000000        0.0000000000000000     
   1.3125000000000000       0.84375000000000000        0.0000000000000000     
   1.3437500000000000       0.84375000000000000        0.0000000000000000     
   1.3750000000000000       0.84375000000000000        0.0000000000000000     
   1.2500000000000000       0.87500000000000000        0.0000000000000000     
   1.2812500000000000       0.87500000000000000        0.0000000000000000     
   1.3125000000000000       0.87500000000000000        0.0000000000000000     
   1.3437500000000000       0.87500000000000000        0.0000000000000000     
   1.3750000000000000       0.87500000000000000        0.0000000000000000     
   1.3750000000000000       0.75000000000000000        0.0000000000000000     
   1.4062500000000000       0.75000000000000000        0.0000000000000000     
   1.4375000000000000       0.75000000000000000        0.0000000000000000     
   1.4687500000000000       0.75000000000000000        0.0000000000000000     
   1.5000000000000000       0.75000000000000000        0.0000000000000000     
   1.3750000000000000       0.78125000000000000        0.0000000000000000     
   1.4062500000000000       0.78125000000000000        0.0000000000000000     
   1.4375000000000000       0.78125000000000000        0.0000000000000000     
   1.4687500000000000       0.78125000000000000        0.0000000000000000     
   1.5000000000000000       0.78125000000000000        0.0000000000000000     
   1.3750000000000000       0.81250000000000000        0.0000000000000000     
   1.4062500000000000       0.81250000000000000        0.0000000000000000     
   1.4375000000000000       0.81250000000000000        0.0000000000000000     
   1.4687500000000000       0.81250000000000000        0.0000000000000000     
   1.5000000000000000       0.81250000000000000        0.0000000000000000     
   1.3750000000000000       0.84375000000000000        0.0000000000000000     
   1.4062500000000000       0.84375000000000000        0.0000000000000000     
   1.4375000000000000       0.84375000000000000        0.0000000000000000     
   1.4687500000000000       0.84375000000000000        0.0000000000000000     
   1.5000000000000000       0.84375000000000000        0.0000000000000000     
   1.3750000000000000       0.87500000000000000        0.0000000000000000     
   1.4062500000000000       0.87500000000000000        0.0000000000000000     
   1.4375000000000000       0.87500000000000000        0.0000000000000000     
   1.4687500000000000       0.87500000000000000        0.0000000000000000     
   1.5000000000000000       0.87500000000000000        0.0000000000000000     
  0.50000000000000000       0.87500000000000000        0.0000000000000000     
  0.53125000000000000       0.87500000000000000        0.0000000000000000     
  0.56250000000000000       0.87500000000000000        0.0000000000000000     
  0.59375000000000000       0.87500000000000000        0.0000000000000000     
  0.62500000000000000       0.87500000000000000        0.0000000000000000     
  0.50000000000000000       0.90625000000000000        0.0000000000000000     
  0.53125000000000000       0.90625000000000000        0.0000000000000000     
  0.56250000000000000       0.90625000000000000        0.0000000000000000     
  0.59375000000000000       0.90625000000000000        0.0000000000000000     
  0.62500000000000000       0.90625000000000000        0.0000000000000000     
  0.50000000000000000       0.93750000000000000        0.0000000000000000     
  0.53125000000000000       0.93750000000000000        0.0000000000000000     
  0.56250000000000000       0.93750000000000000        0.0000000000000000     
  0.59375000000000000       0.93750000000000000        0.0000000000000000     
  0.62500000000000000       0.93750000000000000        0.0000000000000000     
  0.50000000000000000       0.96875000000000000        0.0000000000000000     
  0.53125000000000000       0.96875000000000000        0.0000000000000000     
  0.56250000000000000       0.96875000000000000        0.0000000000000000     
  0.59375000000000000       0.96875000000000000        0.0000000000000000     
  0.62500000000000000       0.96875000000000000        0.0000000000000000     
  0.50000000000000000        1.0000000000000000        0.0000000000000000     
  0.53125000000000000        1.0000000000000000        0.0000000000000000     
  0.56250000000000000        1.0000000000000000        0.0000000000000000     
  0.59375000000000000        1.0000000000000000        0.0000000000000000     
  0.62500000000000000        1.0000000000000000        0.0000000000000000     
  0.62500000000000000       0.87500000000000000        0.0000000000000000     
  0.65625000000000000       0.87500000000000000        0.0000000000000000     
  0.68750000000000000       0.87500000000000000        0.0000000000000000     
  0.71875000000000000       0.87500000000000000        0.0000000000000000     
  0.75000000000000000       0.87500000000000000        0.0000000000000000     
  0.62500000000000000       0.90625000000000000        0.0000000000000000     
  0.65625000000000000       0.90625000000000000        0.0000000000000000     
  0.68750000000000000       0.90625000000000000        0.0000000000000000     
  0.71875000000000000       0.90625000000000000        0.0000000000000000     
  0.75000000000000000       0.90625000000000000        0.0000000000000000     
  0.62500000000000000       0.93750000000000000        0.0000000000000000     
  0.65625000000000000       0.93750000000000000        0.0000000000000000     
  0.68750000000000000       0.93750000000000000        0.0000000000000000     
  0.71875000000000000       0.93750000000000000        0.0000000000000000     
  0.75000000000000000       0.93750000000000000        0.0000000000000000     
  0.62500000000000000       0.96875000000000000        0.0000000000000000     
  0.65625000000000000       0.96875000000000000        0.0000000000000000     
  0.68750000000000000       0.96875000000000000        0.0000000000000000     
  0.71875000000000000       0.96875000000000000        0.0000000000000000     
  0.75000000000000000       0.96875000000000000        0.0000000000000000     
  0.62500000000000000        1.0000000000000000        0.0000000000000000     
  0.65625000000000000        1.0000000000000000        0.0000000000000000     
  0.68750000000000000        1.0000000000000000        0.0000000000000000     
  0.71875000000000000        1.0000000000000000        0.0000000000000000     
  0.75000000000000000        1.0000000000000000        0.0000000000000000     
  0.75000000000000000       0.87500000000000000        0.0000000000000000     
  0.78125000000000000       0.87500000000000000        0.0000000000000000     
  0.81250000000000000       0.87500000000000000        0.0000000000000000     
  0.84375000000000000       0.87500000000000000        0.0000000000000000     
  0.87500000000000000       0.87500000000000000        0.0000000000000000     
  0.75000000000000000       0.90625000000000000        0.0000000000000000     
  0.78125000000000000       0.90625000000000000        0.0000000000000000     
  0.81250000000000000       0.90625000000000000        0.0000000000000000     
  0.84375000000000000       0.90625000000000000        0.0000000000000000     
  0.87500000000000000       0.90625000000000000        0.0000000000000000     
  0.75000000000000000       0.93750000000000000        0.0000000000000000     
  0.78125000000000000       0.93750000000000000        0.0000000000000000     
  0.81250000000000000       0.93750000000000000        0.0000000000000000     
  0.84375000000000000       0.93750000000000000        0.0000000000000000     
  0.87500000000000000       0.93750000000000000        0.0000000000000000     
  0.75000000000000000       0.96875000000000000        0.0000000000000000     
  0.78125000000000000       0.96875000000000000        0.0000000000000000     
  0.81250000000000000       0.96875000000000000        0.0000000000000000     
  0.84375000000000000       0.96875000000000000        0.0000000000000000     
  0.87500000000000000       0.96875000000000000        0.0000000000000000     
  0.75000000000000000        1.0000000000000000        0.0000000000000000     
  0.78125000000000000        1.0000000000000000        0.0000000000000000     
  0.81250000000000000        1.0000000000000000        0.0000000000000000     
  0.84375000000000000        1.0000000000000000        0.0000000000000000     
  0.87500000000000000        1.0000000000000000        0.0000000000000000     
  0.87500000000000000       0.87500000000000000        0.0000000000000000     
  0.90625000000000000       0.87500000000000000        0.0000000000000000     
  0.93750000000000000       0.87500000000000000        0.0000000000000000     
  0.96875000000000000       0.87500000000000000        0.0000000000000000     
   1.0000000000000000       0.87500000000000000        0.0000000000000000     
  0.87500000000000000       0.90625000000000000        0.0000000000000000     
  0.90625000000000000       0.90625000000000000        0.0000000000000000     
  0.93750000000000000       0.90625000000000000        0.0000000000000000     
  0.96875000000000000       0.90625000000000000        0.0000000000000000     
   1.0000000000000000       0.90625000000000000        0.0000000000000000     
  0.87500000000000000       0.93750000000000000        0.0000000000000000     
  0.90625000000000000       0.93750000000000000        0.0000000000000000     
  0.93750000000000000       0.93750000000000000        0.0000000000000000     
  0.96875000000000000       0.93750000000000000        0.0000000000000000     
   1.0000000000000000       0.93750000000000000        0.0000000000000000     
  0.87500000000000000       0.96875000000000000        0.0000000000000000     
  0.90625000000000000       0.96875000000000000        0.0000000000000000     
  0.93750000000000000       0.96875000000000000        0.0000000000000000     
  0.96875000000000000       0.96875000000000000        0.0000000000000000     
   1.0000000000000000       0.96875000000000000        0.0000000000000000     
  0.87500000000000000        1.0000000000000000        0.0000000000000000     
  0.90625000000000000        1.0000000000000000        0.0000000000000000     
  0.93750000000000000        1.0000000000000000        0.0000000000000000     
  0.96875000000000000        1.0000000000000000        0.0000000000000000     
   1.0000000000000000        1.0000000000000000        0.0000000000000000     
   1.0000000000000000       0.87500000000000000        0.0000000000000000     
   1.0312500000000000       0.87500000000000000        0.0000000000000000     
   1.0625000000000000       0.87500000000000000        0.0000000000000000     
   1.0937500000000000       0.87500000000000000        0.0000000000000000     
   1.1250000000000000       0.87500000000000000        0.0000000000000000     
   1.0000000000000000       0.90625000000000000        0.0000000000000000     
   1.0312500000000000       0.90625000000000000        0.0000000000000000     
   1.0625000000000000       0.90625000000000000        0.0000000000000000     
   1.0937500000000000       0.90625000000000000        0.0000000000000000     
   1.1250000000000000       0.90625000000000000        0.0000000000000000     
   1.0000000000000000       0.93750000000000000        0.0000000000000000     
   1.0312500000000000       0.93750000000000000        0.0000000000000000     
   1.0625000000000000       0.93750000000000000        0.0000000000000000     
   1.0937500000000000       0.93750000000000000        0.0000000000000000     
   1.1250000000000000       0.93750000000000000        0.0000000000000000     
   1.0000000000000000       0.96875000000000000        0.0000000000000000     
   1.0312500000000000       0.96875000000000000        0.0000000000000000     
   1.0625000000000000       0.96875000000000000        0.0000000000000000     
   1.0937500000000000       0.96875000000000000        0.0000000000000000     
   1.1250000000000000       0.96875000000000000        0.0000000000000000     
   1.0000000000000000        1.0000000000000000        0.0000000000000000     
   1.0312500000000000        1.0000000000000000        0.0000000000000000     
   1.0625000000000000        1.0000000000000000        0.0000000000000000     
   1.0937500000000000        1.0000000000000000        0.0000000000000000     
   1.1250000000000000        1.0000000000000000        0.0000000000000000     
   1.1250000000000000       0.87500000000000000        0.0000000000000000     
   1.1562500000000000       0.87500000000000000        0.0000000000000000     
   1.1875000000000000       0.87500000000000000        0.0000000000000000     
   1.2187500000000000       0.87500000000000000        0.0000000000000000     
   1.2500000000000000       0.87500000000000000        0.0000000000000000     
   1.1250000000000000       0.90625000000000000        0.0000000000000000     
   1.1562500000000000       0.90625000000000000        0.0000000000000000     
   1.1875000000000000       0.90625000000000000        0.0000000000000000     
   1.2187500000000000       0.90625000000000000        0.0000000000000000     
   1.2500000000000000       0.90625000000000000        0.0000000000000000     
   1.1250000000000000       0.93750000000000000        0.0000000000000000     
   1.1562500000000000       0.93750000000000000        0.0000000000000000     
   1.1875000000000000       0.93750000000000000        0.0000000000000000     
   1.2187500000000000       0.93750000000000000        0.0000000000000000     
   1.2500000000000000       0.93750000000000000        0.0000000000000000     
   1.1250000000000000       0.96875000000000000        0.0000000000000000     
   1.1562500000000000       0.96875000000000000        0.0000000000000000     
   1.1875000000000000       0.96875000000000000        0.0000000000000000     
   1.2187500000000000       0.96875000000000000        0.0000000000000000     
   1.2500000000000000       0.96875000000000000        0.0000000000000000     
   1.1250000000000000        1.0000000000000000        0.0000000000000000     
   1.1562500000000000        1.0000000000000000        0.0000000000000000     
   1.1875000000000000        1.0000000000000000        0.0000000000000000     
   1.2187500000000000        1.0000000000000000        0.0000000000000000     
   1.2500000000000000        1.0000000000000000        0.0000000000000000     
   1.2500000000000000       0.87500000000000000        0.0000000000000000     
   1.2812500000000000       0.87500000000000000        0.0000000000000000     
   1.3125000000000000       0.87500000000000000        0.0000000000000000     
   1.3437500000000000       0.87500000000000000        0.0000000000000000     
   1.3750000000000000       0.87500000000000000        0.0000000000000000     
   1.2500000000000000       0.90625000000000000        0.0000000000000000     
   1.2812500000000000       0.90625000000000000        0.0000000000000000     
   1.3125000000000000       0.90625000000000000        0.0000000000000000     
   1.3437500000000000       0.90625000000000000        0.0000000000000000     
   1.3750000000000000       0.90625000000000000        0.0000000000000000     
   1.2500000000000000       0.93750000000000000        0.0000000000000000     
   1.2812500000000000       0.93750000000000000        0.0000000000000000     
   1.3125000000000000       0.93750000000000000        0.0000000000000000     
   1.3437500000000000       0.93750000000000000        0.0000000000000000     
   1.3750000000000000       0.93750000000000000        0.0000000000000000     
   1.2500000000000000       0.96875000000000000        0.0000000000000000     
   1.2812500000000000       0.96875000000000000        0.0000000000000000     
   1.3125000000000000       0.96875000000000000        0.0000000000000000     
   1.3437500000000000       0.96875000000000000        0.0000000000000000     
   1.3750000000000000       0.96875000000000000        0.0000000000000000     
   1.2500000000000000        1.0000000000000000        0.0000000000000000     
   1.2812500000000000        1.0000000000000000        0.0000000000000000     
   1.3125000000000000        1.0000000000000000        0.0000000000000000     
   1.3437500000000000        1.0000000000000000        0.0000000000000000     
   1.3750000000000000        1.0000000000000000        0.0000000000000000     
   1.3750000000000000       0.87500000000000000        0.0000000000000000     
   1.4062500000000000       0.87500000000000000        0.0000000000000000     
   1.4375000000000000       0.87500000000000000        0.0000000000000000     
   1.4687500000000000       0.87500000000000000        0.0000000000000000     
   1.5000000000000000       0.87500000000000000        0.0000000000000000     
   1.3750000000000000       0.90625000000000000        0.0000000000000000     
   1.4062500000000000       0.90625000000000000        0.0000000000000000     
   1.4375000000000000       0.90625000000000000        0.0000000000000000     
   1.4687500000000000       0.90625000000000000        0.0000000000000000     
   1.5000000000000000       0.90625000000000000        0.0000000000000000     
   1.3750000000000000       0.93750000000000000        0.0000000000000000     
   1.4062500000000000       0.93750000000000000        0.0000000000000000     
   1.4375000000000000       0.93750000000000000        0.0000000000000000     
   1.4687500000000000       0.93750000000000000        0.0000000000000000     
   1.5000000000000000       0.93750000000000000        0.0000000000000000     
   1.3750000000000000       0.96875000000000000        0.0000000000000000     
   1.4062500000000000       0.96875000000000000        0.0000000000000000     
   1.4375000000000000       0.96875000000000000        0.0000000000000000     
   1.4687500000000000       0.96875000000000000        0.0000000000000000     
   1.5000000000000000       0.96875000000000000        0.0000000000000000     
   1.3750000000000000        1.0000000000000000        0.0000000000000000     
   1.4062500000000000        1.0000000000000000        0.0000000000000000     
   1.4375000000000000        1.0000000000000000        0.0000000000000000     
   1.4687500000000000        1.0000000000000000        0.0000000000000000     
   1.5000000000000000        1.0000000000000000        0.0000000000000000     
 </DataArray>
 </Points>
 <Cells>
 <DataArray  type="Int32"  Name="connectivity"  format="ascii">
           0           1           6           5
           1           2           7           6
           2           3           8           7
           3           4           9           8
           5           6          11          10
           6           7          12          11
           7           8          13          12
           8           9          14          13
          10          11          16          15
          11          12          17          16
          12          13          18          17
          13          14          19          18
          15          16          21          20
          16          17          22          21
          17          18          23          22
          18          19          24          23
          25          26          31          30
          26          27          32          31
          27          28          33          32
          28          29          34          33
          30          31          36          35
          31          32          37          36
          32          33          38          37
          33          34          39          38
          35          36          41          40
          36          37          42          41
          37          38          43          42
          38          39          44          43
          40          41          46          45
          41          42          47          46
          42          43          48          47
          43          44          49          48
          50          51          56          55
          51          52          57          56
          52          53          58          57
          53          54          59          58
          55          56          61          60
          56          57          62          61
          57          58          63          62
          58          59          64          63
          60          61          66          65
          61          62          67          66
          62          63          68          67
          63          64          69          68
          65          66          71          70
          66          67          72          71
          67          68          73          72
          68          69          74          73
          75          76          81          80
          76          77          82          81
          77          78          83          82
          78          79          84          83
          80          81          86          85
          81          82          87          86
          82          83          88          87
          83          84          89          88
          85          86          91          90
          86          87          92          91
          87          88          93          92
          88          89          94          93
          90          91          96          95
          91          92          97          96
          92          93          98          97
          93          94          99          98
         100         101         106         105
         101         102         107         106
         102         103         108         107
         103         104         109         108
         105         106         111         110
         106         107         112         111
         107         108         113         112
         108         109         114         113
         110         111         116         115
         111         112         117         116
         112         113         118         117
         113         114         119         118
         115         116         121         120
         116         117         122         121
         117         118         123         122
         118         119         124         123
         125         126         131         130
         126         127         132         131
         127         128         133         132
         128         129         134         133
         130         131         136         135
         131         132         137         136
         132         133         138         137
         133         134         139         138
         135         136         141         140
         136         137         142         141
         137         138         143         142
         138         139         144         143
         140         141         146         145
         141         142         147         146
         142         143         148         147
         143         144         149         148
         150         151         156         155
         151         152         157         156
         152         153         158         157
         153         154         159         158
         155         156         161         160
         156         157         162         161
         157         158         163         162
         158         159         164         163
         160         161         166         165
         161         162         167         166
         162         163         168         167
         163         164         169         168
         165         166         171         170
         166         167         172         171
         167         168         173         172
         168         169         174         173
         175         176         181         180
         176         177         182         181
         177         178         183         182
         178         179         184         183
         180         181         186         185
         181         182         187         186
         182         183         188         187
         183         184         189         188
         185         186         191         190
         186         187         192         191
         187         188         193         192
         188         189         194         193
         190         191         196         195
         191         192         197         196
         192         193         198         197
         193         194         199         198
         200         201         206         205
         201         202         207         206
         202         203         208         207
         203         204         209         208
         205         206         211         210
         206         207         212         211
         207         208         213         212
         208         209         214         213
         210         211         216         215
         211         212         217         216
         212         213         218         217
         213         214         219         218
         215         216         221         220
         216         217         222         221
         217         218         223         222
         218         219         224         223
         225         226         231         230
         226         227         232         231
         227         228         233         232
         228         229         234         233
         230         231         236         235
         231         232         237         236
         232         233         238         237
         233         234         239         238
         235         236         241         240
         236         237         242         241
         237         238         243         242
         238         239         244         243
         240         241         246         245
         241         242         247         246
         242         243         248         247
         243         244         249         248
         250         251         256         255
         251         252         257         256
         252         253         258         257
         253         254         259         258
         255         256         261         260
         256         257         262         261
         257         258         263         262
         258         259         264         263
         260         261         266         265
         261         262         267         266
         262         263         268         267
         263         264         269         268
         265         266         271         270
         266         267         272         271
         267         268         273         272
         268         269         274         273
         275         276         281         280
         276         277         282         281
         277         278         283         282
         278         279         284         283
         280         281         286         285
         281         282         287         286
         282         283         288         287
         283         284         289         288
         285         286         291         290
         286         287         292         291
         287         288         293         292
         288         289         294         293
         290         291         296         295
         291         292         297         296
         292         293         298         297
         293         294         299         298
         300         301         306         305
         301         302         307         306
         302         303         308         307
         303         304         309         308
         305         306         311         310
         306         307         312         311
         307         308         313         312
         308         309         314         313
         310         311         316         315
         311         312         317         316
         312         313         318         317
         313         314         319         318
         315         316         321         320
         316         317         322         321
         317         318         323         322
         318         319         324         323
         325         326         331         330
         326         327         332         331
         327         328         333         332
         328         329         334         333
         330         331         336         335
         331         332         337         336
         332         333         338         337
         333         334         339         338
         335         336         341         340
         336         337         342         341
         337         338         343         342
         338         339         344         343
         340         341         346         345
         341         342         347         346
         342         343         348         347
         343         344         349         348
         350         351         356         355
         351         352         357         356
         352         353         358         357
         353         354         359         358
         355         356         361         360
         356         357         362         361
         357         358         363         362
         358         359         364         363
         360         361         366         365
         361         362         367         366
         362         363         368         367
         363         364         369         368
         365         366         371         370
         366         367         372         371
         367         368         373         372
         368         369         374         373
         375         376         381         380
         376         377         382         381
         377         378         383         382
         378         379         384         383
         380         381         386         385
         381         382         387         386
         382         383         388         387
         383         384         389         388
         385         386         391         390
         386         387         392         391
         387         388         393         392
         388         389         394         393
         390         391         396         395
         391         392         397         396
         392         393         398         397
         393         394         399         398
         400         401         406         405
         401         402         407         406
         402         403         408         407
         403         404         409         408
         405         406         411         410
         406         407         412         411
         407         408         413         412
         408         409         414         413
         410         411         416         415
         411         412         417         416
         412         413         418         417
         413         414         419         418
         415         416         421         420
         416         417         422         421
         417         418         423         422
         418         419         424         423
         425         426         431         430
         426         427         432         431
         427         428         433         432
         428         429         434         433
         430         431         436         435
         431         432         437         436
         432         433         438         437
         433         434         439         438
         435         436         441         440
         436         437         442         441
         437         438         443         442
         438         439         444         443
         440         441         446         445
         441         442         447         446
         442         443         448         447
         443         444         449         448
         450         451         456         455
         451         452         457         456
         452         453         458         457
         453         454         459         458
         455         456         461         460
         456         457         462         461
         457         458         463         462
         458         459         464         463
         460         461         466         465
         461         462         467         466
         462         463         468         467
         463         464         469         468
         465         466         471         470
         466         467         472         471
         467         468         473         472
         468         469         474         473
         475         476         481         480
         476         477         482         481
         477         478         483         482
         478         479         484         483
         480         481         486         485
         481         482         487         486
         482         483         488         487
         483         484         489         488
         485         486         491         490
         486         487         492         491
         487         488         493         492
         488         489         494         493
         490         491         496         495
         491         492         497         496
         492         493         498         497
         493         494         499         498
         500         501         506         505
         501         502         507         506
         502         503         508         507
         503         504         509         508
         505         506         511         510
         506         507         512         511
         507         508         513         512
         508         509         514         513
         510         511         516         515
         511         512         517         516
         512         513         518         517
         513         514         519         518
         515         516         521         520
         516         517         522         521
         517         518         523         522
         518         519         524         523
         525         526         531         530
         526         527         532         531
         527         528         533         532
         528         529         534         533
         530         531         536         535
         531         532         537         536
         532         533         538         537
         533         534         539         538
         535         536         541         540
         536         537         542         541
         537         538         543         542
         538         539         544         543
         540         541         546         545
         541         542         547         546
         542         543         548         547
         543         544         549         548
         550         551         556         555
         551         552         557         556
         552         553         558         557
         553         554         559         558
         555         556         561         560
         556         557         562         561
         557         558         563         562
         558         559         564         563
         560         561         566         565
         561         562         567         566
         562         563         568         567
         563         564         569         568
         565         566         571         570
         566         567         572         571
         567         568         573         572
         568         569         574         573
         575         576         581         580
         576         577         582         581
         577         578         583         582
         578         579         584         583
         580         581         586         585
         581         582         587         586
         582         583         588         587
         583         584         589         588
         585         586         591         590
         586         587         592         591
         587         588         593         592
         588         589         594         593
         590         591         596         595
         591         592         597         596
         592         593         598         597
         593         594         599         598
         600         601         606         605
         601         602         607         606
         602         603         608         607
         603         604         609         608
         605         606         611         610
         606         607         612         611
         607         608         613         612
         608         609         614         613
         610         611         616         615
         611         612         617         616
         612         613         618         617
         613         614         619         618
         615         616         621         620
         616         617         622         621
         617         618         623         622
         618         619         624         623
         625         626         631         630
         626         627         632         631
         627         628         633         632
         628         629         634         633
         630         631         636         635
         631         632         637         636
         632         633         638         637
         633         634         639         638
         635         636         641         640
         636         637         642         641
         637         638         643         642
         638         639         644         643
         640         641         646         645
         641         642         647         646
         642         643         648         647
         643         644         649         648
         650         651         656         655
         651         652         657         656
         652         653         658         657
         653         654         659         658
         655         656         661         660
         656         657         662         661
         657         658         663         662
         658         659         664         663
         660         661         666         665
         661         662         667         666
         662         663         668         667
         663         664         669         668
         665         666         671         670
         666         667         672         671
         667         668         673         672
         668         669         674         673
         675         676         681         680
         676         677         682         681
         677         678         683         682
         678         679         684         683
         680         681         686         685
         681         682         687         686
         682         683         688         687
         683         684         689         688
         685         686         691         690
         686         687         692         691
         687         688         693         692
         688         689         694         693
         690         691         696         695
         691         692         697         696
         692         693         698         697
         693         694         699         698
         700         701         706         705
         701         702         707         706
         702         703         708         707
         703         704         709         708
         705         706         711         710
         706         707         712         711
         707         708         713         712
         708         709         714         713
         710         711         716         715
         711         712         717         716
         712         713         718         717
         713         714         719         718
         715         716         721         720
         716         717         722         721
         717         718         723         722
         718         719         724         723
         725         726         731         730
         726         727         732         731
         727         728         733         732
         728         729         734         733
         730         731         736         735
         731         732         737         736
         732         733         738         737
         733         734         739         738
         735         736         741         740
         736         737         742         741
         737         738         743         742
         738         739         744         743
         740         741         746         745
         741         742         747         746
         742         743         748         747
         743         744         749         748
         750         751         756         755
         751         752         757         756
         752         753         758         757
         753         754         759         758
         755         756         761         760
         756         757         762         761
         757         758         763         762
         758         759         764         763
         760         761         766         765
         761         762         767         766
         762         763         768         767
         763         764         769         768
         765         766         771         770
         766         767         772         771
         767         768         773         772
         768         769         774         773
         775         776         781         780
         776         777         782         781
         777         778         783         782
         778         779         784         783
         780         781         786         785
         781         782         787         786
         782         783         788         787
         783         784         789         788
         785         786         791         790
         786         787         792         791
         787         788         793         792
         788         789         794         793
         790         791         796         795
         791         792         797         796
         792         793         798         797
         793         794         799         798
         800         801         806         805
         801         802         807         806
         802         803         808         807
         803         804         809         808
         805         806         811         810
         806         807         812         811
         807         808         813         812
         808         809         814         813
         810         811         816         815
         811         812         817         816
         812         813         818         817
         813         814         819         818
         815         816         821         820
         816         817         822         821
         817         818         823         822
         818         819         824         823
         825         826         831         830
         826         827         832         831
         827         828         833         832
         828         829         834         833
         830         831         836         835
         831         832         837         836
         832         833         838         837
         833         834         839         838
         835         836         841         840
         836         837         842         841
         837         838         843         842
         838         839         844         843
         840         841         846         845
         841         842         847         846
         842         843         848         847
         843         844         849         848
         850         851         856         855
         851         852         857         856
         852         853         858         857
         853         854         859         858
         855         856         861         860
         856         857         862         861
         857         858         863         862
         858         859         864         863
         860         861         866         865
         861         862         867         866
         862         863         868         867
         863         864         869         868
         865         866         871         870
         866         867         872         871
         867         868         873         872
         868         869         874         873
         875         876         881         880
         876         877         882         881
         877         878         883         882
         878         879         884         883
         880         881         886         885
         881         882         887         886
         882         883         888         887
         883         884         889         888
         885         886         891         890
         886         887         892         891
         887         888         893         892
         888         889         894         893
         890         891         896         895
         891         892         897         896
         892         893         898         897
         893         894         899         898
         900         901         906         905
         901         902         907         906
         902         903         908         907
         903         904         909         908
         905         906         911         910
         906         907         912         911
         907         908         913         912
         908         909         914         913
         910         911         916         915
         911         912         917         916
         912         913         918         917
         913         914         919         918
         915         916         921         920
         916         917         922         921
         917         918         923         922
         918         919         924         923
         925         926         931         930
         926         927         932         931
         927         928         933         932
         928         929         934         933
         930         931         936         935
         931         932         937         936
         932         933         938         937
         933         934         939         938
         935         936         941         940
         936         937         942         941
         937         938         943         942
         938         939         944         943
         940         941         946         945
         941         942         947         946
         942         943         948         947
         943         944         949         948
         950         951         956         955
         951         952         957         956
         952         953         958         957
         953         954         959         958
         955         956         961         960
         956         957         962         961
         957         958         963         962
         958         959         964         963
         960         961         966         965
         961         962         967         966
         962         963         968         967
         963         964         969         968
         965         966         971         970
         966         967         972         971
         967         968         973         972
         968         969         974         973
         975         976         981         980
         976         977         982         981
         977         978         983         982
         978         979         984         983
         980         981         986         985
         981         982         987         986
         982         983         988         987
         983         984         989         988
         985         986         991         990
         986         987         992         991
         987         988         993         992
         988         989         994         993
         990         991         996         995
         991         992         997         996
         992         993         998         997
         993         994         999         998
        1000        1001        1006        1005
        1001        1002        1007        1006
        1002        1003        1008        1007
        1003        1004        1009        1008
        1005        1006        1011        1010
        1006        1007        1012        1011
        1007        1008        1013        1012
        1008        1009        1014        1013
        1010        1011        1016        1015
        1011        1012        1017        1016
        1012        1013        1018        1017
        1013        1014        1019        1018
        1015        1016        1021        1020
        1016        1017        1022        1021
        1017        1018        1023        1022
        1018        1019        1024        1023
        1025        1026        1031        1030
        1026        1027        1032        1031
        1027        1028        1033        1032
        1028        1029        1034        1033
        1030        1031        1036        1035
        1031        1032        1037        1036
        1032        1033        1038        1037
        1033        1034        1039        1038
        1035        1036        1041        1040
        1036        1037        1042        1041
        1037        1038        1043        1042
        1038        1039        1044        1043
        1040        1041        1046        1045
        1041        1042        1047        1046
        1042        1043        1048        1047
        1043        1044        1049        1048
        1050        1051        1056        1055
        1051        1052        1057        1056
        1052        1053        1058        1057
        1053        1054        1059        1058
        1055        1056        1061        1060
        1056        1057        1062        1061
        1057        1058        1063        1062
        1058        1059        1064        1063
        1060        1061        1066        1065
        1061        1062        1067        1066
        1062        1063        1068        1067
        1063        1064        1069        1068
        1065        1066        1071        1070
        1066        1067        1072        1071
        1067        1068        1073        1072
        1068        1069        1074        1073
        1075        1076        1081        1080
        1076        1077        1082        1081
        1077        1078        1083        1082
        1078        1079        1084        1083
        1080        1081        1086        1085
        1081        1082        1087        1086
        1082        1083        1088        1087
        1083        1084        1089        1088
        1085        1086        1091        1090
        1086        1087        1092        1091
        1087        1088        1093        1092
        1088        1089        1094        1093
        1090        1091        1096        1095
        1091        1092        1097        1096
        1092        1093        1098        1097
        1093        1094        1099        1098
        1100        1101        1106        1105
        1101        1102        1107        1106
        1102        1103        1108        1107
        1103        1104        1109        1108
        1105        1106        1111        1110
        1106        1107        1112        1111
        1107        1108        1113        1112
        1108        1109        1114        1113
        1110        1111        1116        1115
        1111        1112        1117        1116
        1112        1113        1118        1117
        1113        1114        1119        1118
        1115        1116        1121        1120
        1116        1117        1122        1121
        1117        1118        1123        1122
        1118        1119        1124        1123
        1125        1126        1131        1130
        1126        1127        1132        1131
        1127        1128        1133        1132
        1128        1129        1134        1133
        1130        1131        1136        1135
        1131        1132        1137        1136
        1132        1133        1138        1137
        1133        1134        1139        1138
        1135        1136        1141        1140
        1136        1137        1142        1141
        1137        1138        1143        1142
        1138        1139        1144        1143
        1140        1141        1146        1145
        1141        1142        1147        1146
        1142        1143        1148        1147
        1143        1144        1149        1148
        1150        1151        1156        1155
        1151        1152        1157        1156
        1152        1153        1158        1157
        1153        1154        1159        1158
        1155        1156        1161        1160
        1156        1157        1162        1161
        1157        1158        1163        1162
        1158        1159        1164        1163
        1160        1161        1166        1165
        1161        1162        1167        1166
        1162        1163        1168        1167
        1163        1164        1169        1168
        1165        1166        1171        1170
        1166        1167        1172        1171
        1167        1168        1173        1172
        1168        1169        1174        1173
        1175        1176        1181        1180
        1176        1177        1182        1181
        1177        1178        1183        1182
        1178        1179        1184        1183
        1180        1181        1186        1185
        1181        1182        1187        1186
        1182        1183        1188        1187
        1183        1184        1189        1188
        1185        1186        1191        1190
        1186        1187        1192        1191
        1187        1188        1193        1192
        1188        1189        1194        1193
        1190        1191        1196        1195
        1191        1192        1197        1196
        1192        1193        1198        1197
        1193        1194        1199        1198
        1200        1201        1206        1205
        1201        1202        1207        1206
        1202        1203        1208        1207
        1203        1204        1209        1208
        1205        1206        1211        1210
        1206        1207        1212        1211
        1207        1208        1213        1212
        1208        1209        1214        1213
        1210        1211        1216        1215
        1211        1212        1217        1216
        1212        1213        1218        1217
        1213        1214        1219        1218
        1215        1216        1221        1220
        1216        1217        1222        1221
        1217        1218        1223        1222
        1218        1219        1224        1223
        1225        1226        1231        1230
        1226        1227        1232        1231
        1227        1228        1233        1232
        1228        1229        1234        1233
        1230        1231        1236        1235
        1231        1232        1237        1236
        1232        1233        1238        1237
        1233        1234        1239        1238
        1235        1236        1241        1240
        1236        1237        1242        1241
        1237        1238        1243        1242
        1238        1239        1244        1243
        1240        1241        1246        1245
        1241        1242        1247        1246
        1242        1243        1248        1247
        1243        1244        1249        1248
        1250        1251        1256        1255
        1251        1252        1257        1256
        1252        1253        1258        1257
        1253        1254        1259        1258
        1255        1256        1261        1260
        1256        1257        1262        1261
        1257        1258        1263        1262
        1258        1259        1264        1263
        1260        1261        1266        1265
        1261        1262        1267        1266
        1262        1263        1268        1267
        1263        1264        1269        1268
        1265        1266        1271        1270
        1266        1267        1272        1271
        1267        1268        1273        1272
        1268        1269        1274        1273
        1275        1276        1281        1280
        1276        1277        1282        1281
        1277        1278        1283        1282
        1278        1279        1284        1283
        1280        1281        1286        1285
        1281        1282        1287        1286
        1282        1283        1288        1287
        1283        1284        1289        1288
        1285        1286        1291        1290
        1286        1287        1292        1291
        1287        1288        1293        1292
        1288        1289        1294        1293
        1290        1291        1296        1295
        1291        1292        1297        1296
        1292        1293        1298        1297
        1293        1294        1299        1298
        1300        1301        1306        1305
        1301        1302        1307        1306
        1302        1303        1308        1307
        1303        1304        1309        1308
        1305        1306        1311        1310
        1306        1307        1312        1311
        1307        1308        1313        1312
        1308        1309        1314        1313
        1310        1311        1316        1315
        1311        1312        1317        1316
        1312        1313        1318        1317
        1313        1314        1319        1318
        1315        1316        1321        1320
        1316        1317        1322        1321
        1317        1318        1323        1322
        1318        1319        1324        1323
        1325        1326        1331        1330
        1326        1327        1332        1331
        1327        1328        1333        1332
        1328        1329        1334        1333
        1330        1331        1336        1335
        1331        1332        1337        1336
        1332        1333        1338        1337
        1333        1334        1339        1338
        1335        1336        1341        1340
        1336        1337        1342        1341
        1337        1338        1343        1342
        1338        1339        1344        1343
        1340        1341        1346        1345
        1341        1342        1347        1346
        1342        1343        1348        1347
        1343        1344        1349        1348
        1350        1351        1356        1355
        1351        1352        1357        1356
        1352        1353        1358        1357
        1353        1354        1359        1358
        1355        1356        1361        1360
        1356        1357        1362        1361
        1357        1358        1363        1362
        1358        1359        1364        1363
        1360        1361        1366        1365
        1361        1362        1367        1366
        1362        1363        1368        1367
        1363        1364        1369        1368
        1365        1366        1371        1370
        1366        1367        1372        1371
        1367        1368        1373        1372
        1368        1369        1374        1373
        1375        1376        1381        1380
        1376        1377        1382        1381
        1377        1378        1383        1382
        1378        1379        1384        1383
        1380        1381        1386        1385
        1381        1382        1387        1386
        1382        1383        1388        1387
        1383        1384        1389        1388
        1385        1386        1391        1390
        1386        1387        1392        1391
        1387        1388        1393        1392
        1388        1389        1394        1393
        1390        1391        1396        1395
        1391        1392        1397        1396
        1392        1393        1398        1397
        1393        1394        1399        1398
        1400        1401        1406        1405
        1401        1402        1407        1406
        1402        1403        1408        1407
        1403        1404        1409        1408
        1405        1406        1411        1410
        1406        1407        1412        1411
        1407        1408        1413        1412
        1408        1409        1414        1413
        1410        1411        1416        1415
        1411        1412        1417        1416
        1412        1413        1418        1417
        1413        1414        1419        1418
        1415        1416        1421        1420
        1416        1417        1422        1421
        1417        1418        1423        1422
        1418        1419        1424        1423
        1425        1426        1431        1430
        1426        1427        1432        1431
        1427        1428        1433        1432
        1428        1429        1434        1433
        1430        1431        1436        1435
        1431        1432        1437        1436
        1432        1433        1438        1437
        1433        1434        1439        1438
        1435        1436        1441        1440
        1436        1437        1442        1441
        1437        1438        1443        1442
        1438        1439        1444        1443
        1440        1441        1446        1445
        1441        1442        1447        1446
        1442        1443        1448        1447
        1443        1444        1449        1448
        1450        1451        1456        1455
        1451        1452        1457        1456
        1452        1453        1458        1457
        1453        1454        1459        1458
        1455        1456        1461        1460
        1456        1457        1462        1461
        1457        1458        1463        1462
        1458        1459        1464        1463
        1460        1461        1466        1465
        1461        1462        1467        1466
        1462        1463        1468        1467
        1463        1464        1469        1468
        1465        1466        1471        1470
        1466        1467        1472        1471
        1467        1468        1473        1472
        1468        1469        1474        1473
        1475        1476        1481        1480
        1476        1477        1482        1481
        1477        1478        1483        1482
        1478        1479        1484        1483
        1480        1481        1486        1485
        1481        1482        1487        1486
        1482        1483        1488        1487
        1483        1484        1489        1488
        1485        1486        1491        1490
        1486        1487        1492        1491
        1487        1488        1493        1492
        1488        1489        1494        1493
        1490        1491        1496        1495
        1491        1492        1497        1496
        1492        1493        1498        1497
        1493        1494        1499        1498
        1500        1501        1506        1505
        1501        1502        1507        1506
        1502        1503        1508        1507
        1503        1504        1509        1508
        1505        1506        1511        1510
        1506        1507        1512        1511
        1507        1508        1513        1512
        1508        1509        1514        1513
        1510        1511        1516        1515
        1511        1512        1517        1516
        1512        1513        1518        1517
        1513        1514        1519        1518
        1515        1516        1521        1520
        1516        1517        1522        1521
        1517        1518        1523        1522
        1518        1519        1524        1523
        1525        1526        1531        1530
        1526        1527        1532        1531
        1527        1528        1533        1532
        1528        1529        1534        1533
        1530        1531        1536        1535
        1531        1532        1537        1536
        1532        1533        1538        1537
        1533        1534        1539        1538
        1535        1536        1541        1540
        1536        1537        1542        1541
        1537        1538        1543        1542
        1538        1539        1544        1543
        1540        1541        1546        1545
        1541        1542        1547        1546
        1542        1543        1548        1547
        1543        1544        1549        1548
        1550        1551        1556        1555
        1551        1552        1557        1556
        1552        1553        1558        1557
        1553        1554        1559        1558
        1555        1556        1561        1560
        1556        1557        1562        1561
        1557        1558        1563        1562
        1558        1559        1564        1563
        1560        1561        1566        1565
        1561        1562        1567        1566
        1562        1563        1568        1567
        1563        1564        1569        1568
        1565        1566        1571        1570
        1566        1567        1572        1571
        1567        1568        1573        1572
        1568        1569        1574        1573
        1575        1576        1581        1580
        1576        1577        1582        1581
        1577        1578        1583        1582
        1578        1579        1584        1583
        1580        1581        1586        1585
        1581        1582        1587        1586
        1582        1583        1588        1587
        1583        1584        1589        1588
        1585        1586        1591        1590
        1586        1587        1592        1591
        1587        1588        1593        1592
        1588        1589        1594        1593
        1590        1591        1596        1595
        1591        1592        1597        1596
        1592        1593        1598        1597
        1593        1594        1599        1598
 </DataArray>
 <DataArray  type="Int32"  Name="offsets"  format="ascii"> 
           4
           8
          12
          16
          20
          24
          28
          32
          36
          40
          44
          48
          52
          56
          60
          64
          68
          72
          76
          80
          84
          88
          92
          96
         100
         104
         108
         112
         116
         120
         124
         128
         132
         136
         140
         144
         148
         152
         156
         160
         164
         168
         172
         176
         180
         184
         188
         192
         196
         200
         204
         208
         212
         216
         220
         224
         228
         232
         236
         240
         244
         248
         252
         256
         260
         264
         268
         272
         276
         280
         284
         288
         292
         296
         300
         304
         308
         312
         316
         320
         324
         328
         332
         336
         340
         344
         348
         352
         356
         360
         364
         368
         372
         376
         380
         384
         388
         392
         396
         400
         404
         408
         412
         416
         420
         424
         428
         432
         436
         440
         444
         448
         452
         456
         460
         464
         468
         472
         476
         480
         484
         488
         492
         496
         500
         504
         508
         512
         516
         520
         524
         528
         532
         536
         540
         544
         548
         552
         556
         560
         564
         568
         572
         576
         580
         584
         588
         592
         596
         600
         604
         608
         612
         616
         620
         624
         628
         632
         636
         640
         644
         648
         652
         656
         660
         664
         668
         672
         676
         680
         684
         688
         692
         696
         700
         704
         708
         712
         716
         720
         724
         728
         732
         736
         740
         744
         748
         752
         756
         760
         764
         768
         772
         776
         780
         784
         788
         792
         796
         800
         804
         808
         812
         816
         820
         824
         828
         832
         836
         840
         844
         848
         852
         856
         860
         864
         868
         872
         876
         880
         884
         888
         892
         896
         900
         904
         908
         912
         916
         920
         924
         928
         932
         936
         940
         944
         948
         952
         956
         960
         964
         968
         972
         976
         980
         984
         988
         992
         996
        1000
        1004
        1008
        1012
        1016
        1020
        1024
        1028
        1032
        1036
        1040
        1044
        1048
        1052
        1056
        1060
        1064
        1068
        1072
        1076
        1080
        1084
        1088
        1092
        1096
        1100
        1104
        1108
        1112
        1116
        1120
        1124
        1128
        1132
        1136
        1140
        1144
        1148
        1152
        1156
        1160
        1164
        1168
        1172
        1176
        1180
        1184
        1188
        1192
        1196
        1200
        1204
        1208
        1212
        1216
        1220
        1224
        1228
        1232
        1236
        1240
        1244
        1248
        1252
        1256
        1260
        1264
        1268
        1272
        1276
        1280
        1284
        1288
        1292
        1296
        1300
        1304
        1308
        1312
        1316
        1320
        1324
        1328
        1332
        1336
        1340
        1344
        1348
        1352
        1356
        1360
        1364
        1368
        1372
        1376
        1380
        1384
        1388
        1392
        1396
        1400
        1404
        1408
        1412
        1416
        1420
        1424
        1428
        1432
        1436
        1440
        1444
        1448
        1452
        1456
        1460
        1464
        1468
        1472
        1476
        1480
        1484
        1488
        1492
        1496
        1500
        1504
        1508
        1512
        1516
        1520
        1524
        1528
        1532
        1536
        1540
        1544
        1548
        1552
        1556
        1560
        1564
        1568
        1572
        1576
        1580
        1584
        1588
        1592
        1596
        1600
        1604
        1608
        1612
        1616
        1620
        1624
        1628
        1632
        1636
        1640
        1644
        1648
        1652
        1656
        1660
        1664
        1668
        1672
        1676
        1680
        1684
        1688
        1692
        1696
        1700
        1704
        1708
        1712
        1716
        1720
        1724
        1728
        1732
        1736
        1740
        1744
        1748
        1752
        1756
        1760
        1764
        1768
        1772
        1776
        1780
        1784
        1788
        1792
        1796
        1800
        1804
        1808
        1812
        1816
        1820
        1824
        1828
        1832
        1836
        1840
        1844
        1848
        1852
        1856
        1860
        1864
        1868
        1872
        1876
        1880
        1884
        1888
        1892
        1896
        1900
        1904
        1908
        1912
        1916
        1920
        1924
        1928
        1932
        1936
        1940
        1944
        1948
        1952
        1956
        1960
        1964
        1968
        1972
        1976
        1980
        1984
        1988
        1992
        1996
        2000
        2004
        2008
        2012
        2016
        2020
        2024
        2028
        2032
        2036
        2040
        2044
        2048
        2052
        2056
        2060
        2064
        2068
        2072
        2076
        2080
        2084
        2088
        2092
        2096
        2100
        2104
        2108
        2112
        2116
        2120
        2124
        2128
        2132
        2136
        2140
        2144
        2148
        2152
        2156
        2160
        2164
        2168
        2172
        2176
        2180
        2184
        2188
        2192
        2196
        2200
        2204
        2208
        2212
        2216
        2220
        2224
        2228
        2232
        2236
        2240
        2244
        2248
        2252
        2256
        2260
        2264
        2268
        2272
        2276
        2280
        2284
        2288
        2292
        2296
        2300
        2304
        2308
        2312
        2316
        2320
        2324
        2328
        2332
        2336
        2340
        2344
        2348
        2352
        2356
        2360
        2364
        2368
        2372
        2376
        2380
        2384
        2388
        2392
        2396
        2400
        2404
        2408
        2412
        2416
        2420
        2424
        2428
        2432
        2436
        2440
        2444
        2448
        2452
        2456
        2460
        2464
        2468
        2472
        2476
        2480
        2484
        2488
        2492
        2496
        2500
        2504
        2508
        2512
        2516
        2520
        2524
        2528
        2532
        2536
        2540
        2544
        2548
        2552
        2556
        2560
        2564
        2568
        2572
        2576
        2580
        2584
        2588
        2592
        2596
        2600
        2604
        2608
        2612
        2616
        2620
        2624
        2628
        2632
        2636
        2640
        2644
        2648
        2652
        2656
        2660
        2664
        2668
        2672
        2676
        2680
        2684
        2688
        2692
        2696
        2700
        2704
        2708
        2712
        2716
        2720
        2724
        2728
        2732
        2736
        2740
        2744
        2748
        2752
        2756
        2760
        2764
        2768
        2772
        2776
        2780
        2784
        2788
        2792
        2796
        2800
        2804
        2808
        2812
        2816
        2820
        2824
        2828
        2832
        2836
        2840
        2844
        2848
        2852
        2856
        2860
        2864
        2868
        2872
        2876
        2880
        2884
        2888
        2892
        2896
        2900
        2904
        2908
        2912
        2916
        2920
        2924
        2928
        2932
        2936
        2940
        2944
        2948
        2952
        2956
        2960
        2964
        2968
        2972
        2976
        2980
        2984
        2988
        2992
        2996
        3000
        3004
        3008
        3012
        3016
        3020
        3024
        3028
        3032
        3036
        3040
        3044
        3048
        3052
        3056
        3060
        3064
        3068
        3072
        3076
        3080
        3084
        3088
        3092
        3096
        3100
        3104
        3108
        3112
        3116
        3120
        3124
        3128
        3132
        3136
        3140
        3144
        3148
        3152
        3156
        3160
        3164
        3168
        3172
        3176
        3180
        3184
        3188
        3192
        3196
        3200
        3204
        3208
        3212
        3216
        3220
        3224
        3228
        3232
        3236
        3240
        3244
        3248
        3252
        3256
        3260
        3264
        3268
        3272
        3276
        3280
        3284
        3288
        3292
        3296
        3300
        3304
        3308
        3312
        3316
        3320
        3324
        3328
        3332
        3336
        3340
        3344
        3348
        3352
        3356
        3360
        3364
        3368
        3372
        3376
        3380
        3384
        3388
        3392
        3396
        3400
        3404
        3408
        3412
        3416
        3420
        3424
        3428
        3432
        3436
        3440
        3444
        3448
        3452
        3456
        3460
        3464
        3468
        3472
        3476
        3480
        3484
        3488
        3492
        3496
        3500
        3504
        3508
        3512
        3516
        3520
        3524
        3528
        3532
        3536
        3540
        3544
        3548
        3552
        3556
        3560
        3564
        3568
        3572
        3576
        3580
        3584
        3588
        3592
        3596
        3600
        3604
        3608
        3612
        3616
        3620
        3624
        3628
        3632
        3636
        3640
        3644
        3648
        3652
        3656
        3660
        3664
        3668
        3672
        3676
        3680
        3684
        3688
        3692
        3696
        3700
        3704
        3708
        3712
        3716
        3720
        3724
        3728
        3732
        3736
        3740
        3744
        3748
        3752
        3756
        3760
        3764
        3768
        3772
        3776
        3780
        3784
        3788
        3792
        3796
        3800
        3804
        3808
        3812
        3816
        3820
        3824
        3828
        3832
        3836
        3840
        3844
        3848
        3852
        3856
        3860
        3864
        3868
        3872
        3876
        3880
        3884
        3888
        3892
        3896
        3900
        3904
        3908
        3912
        3916
        3920
        3924
        3928
        3932
        3936
        3940
        3944
        3948
        3952
        3956
        3960
        3964
        3968
        3972
        3976
        3980
        3984
        3988
        3992
        3996
        4000
        4004
        4008
        4012
        4016
        4020
        4024
        4028
        4032
        4036
        4040
        4044
        4048
        4052
        4056
        4060
        4064
        4068
        4072
        4076
        4080
        4084
        4088
        4092
        4096
 </DataArray>
 <DataArray  type="UInt8"  Name="types"  format="ascii">
 9
 9
 9
 9
 9
 9
 9
 9
 9
 9
 9
 9
 9
 9
 9
 9
 9
 9
 9
 9
 9
 9
 9
 9
 9
 9
 9
 9
 9
 9
 9
 9
 9
 9
 9
 9
 9
 9
 9
 9
 9
 9
 9
 9
 9
 9
 9
 9
 9
 9
 9
 9
 9
 9
 9
 9
 9
 9
 9
 9
 9
 9
 9
 9
 9
 9
 9
 9
 9
 9
 9
 9
 9
 9
 9
 9
 9
 9
 9
 9
 9
 9
 9
 9
 9
 9
 9
 9
 9
 9
 9
 9
 9
 9
 9
 9
 9
 9
 9
 9
 9
 9
 9
 9
 9
 9
 9
 9
 9
 9
 9
 9
 9
 9
 9
 9
 9
 9
 9
 9
 9
 9
 9
 9
 9
 9
 9
 9
 9
 9
 9
 9
 9
 9
 9
 9
 9
 9
 9
 9
 9
 9
 9
 9
 9
 9
 9
 9
 9
 9
 9
 9
 9
 9
 9
 9
 9
 9
 9
 9
 9
 9
 9
 9
 9
 9
 9
 9
 9
 9
 9
 9
 9
 9
 9
 9
 9
 9
 9
 9
 9
 9
 9
 9
 9
 9
 9
 9
 9
 9
 9
 9
 9
 9
 9
 9
 9
 9
 9
 9
 9
 9
 9
 9
 9
 9
 9
 9
 9
 9
 9
 9
 9
 9
 9
 9
 9
 9
 9
 9
 9
 9
 9
 9
 9
 9
 9
 9
 9
 9
 9
 9
 9
 9
 9
 9
 9
 9
 9
 9
 9
 9
 9
 9
 9
 9
 9
 9
 9
 9
 9
 9
 9
 9
 9
 9
 9
 9
 9
 9
 9
 9
 9
 9
 9
 9
 9
 9
 9
 9
 9
 9
 9
 9
 9
 9
 9
 9
 9
 9
 9
 9
 9
 9
 9
 9
 9
 9
 9
 9
 9
 9
 9
 9
 9
 9
 9
 9
 9
 9
 9
 9
 9
 9
 9
 9
 9
 9
 9
 9
 9
 9
 9
 9
 9
 9
 9
 9
 9
 9
 9
 9
 9
 9
 9
 9
 9
 9
 9
 9
 9
 9
 9
 9
 9
 9
 9
 9
 9
 9
 9
 9
 9
 9
 9
 9
 9
 9
 9
 9
 9
 9
 9
 9
 9
 9
 9
 9
 9
 9
 9
 9
 9
 9
 9
 9
 9
 9
 9
 9
 9
 9
 9
 9
 9
 9
 9
 9
 9
 9
 9
 9
 9
 9
 9
 9
 9
 9
 9
 9
 9
 9
 9
 9
 9
 9
 9
 9
 9
 9
 9
 9
 9
 9
 9
 9
 9
 9
 9
 9
 9
 9
 9
 9
 9
 9
 9
 9
 9
 9
 9
 9
 9
 9
 9
 9
 9
 9
 9
 9
 9
 9
 9
 9
 9
 9
 9
 9
 9
 9
 9
 9
 9
 9
 9
 9
 9
 9
 9
 9
 9
 9
 9
 9
 9
 9
 9
 9
 9
 9
 9
 9
 9
 9
 9
 9
 9
 9
 9
 9
 9
 9
 9
 9
 9
 9
 9
 9
 9
 9
 9
 9
 9
 9
 9
 9
 9
 9
 9
 9
 9
 9
 9
 9
 9
 9
 9
 9
 9
 9
 9
 9
 9
 9
 9
 9
 9
 9
 9
 9
 9
 9
 9
 9
 9
 9
 9
 9
 9
 9
 9
 9
 9
 9
 9
 9
 9
 9
 9
 9
 9
 9
 9
 9
 9
 9
 9
 9
 9
 9
 9
 9
 9
 9
 9
 9
 9
 9
 9
 9
 9
 9
 9
 9
 9
 9
 9
 9
 9
 9
 9
 9
 9
 9
 9
 9
 9
 9
 9
 9
 9
 9
 9
 9
 9
 9
 9
 9
 9
 9
 9
 9
 9
 9
 9
 9
 9
 9
 9
 9
 9
 9
 9
 9
 9
 9
 9
 9
 9
 9
 9
 9
 9
 9
 9
 9
 9
 9
 9
 9
 9
 9
 9
 9
 9
 9
 9
 9
 9
 9
 9
 9
 9
 9
 9
 9
 9
 9
 9
 9
 9
 9
 9
 9
 9
 9
 9
 9
 9
 9
 9
 9
 9
 9
 9
 9
 9
 9
 9
 9
 9
 9
 9
 9
 9
 9
 9
 9
 9
 9
 9
 9
 9
 9
 9
 9
 9
 9
 9
 9
 9
 9
 9
 9
 9
 9
 9
 9
 9
 9
 9
 9
 9
 9
 9
 9
 9
 9
 9
 9
 9
 9
 9
 9
 9
 9
 9
 9
 9
 9
 9
 9
 9
 9
 9
 9
 9
 9
 9
 9
 9
 9
 9
 9
 9
 9
 9
 9
 9
 9
 9
 9
 9
 9
 9
 9
 9
 9
 9
 9
 9
 9
 9
 9
 9
 9
 9
 9
 9
 9
 9
 9
 9
 9
 9
 9
 9
 9
 9
 9
 9
 9
 9
 9
 9
 9
 9
 9
 9
 9
 9
 9
 9
 9
 9
 9
 9
 9
 9
 9
 9
 9
 9
 9
 9
 9
 9
 9
 9
 9
 9
 9
 9
 9
 9
 9
 9
 9
 9
 9
 9
 9
 9
 9
 9
 9
 9
 9
 9
 9
 9
 9
 9
 9
 9
 9
 9
 9
 9
 9
 9
 9
 9
 9
 9
 9
 9
 9
 9
 9
 9
 9
 9
 9
 9
 9
 9
 9
 9
 9
 9
 9
 9
 9
 9
 9
 9
 9
 9
 9
 9
 9
 9
 9
 9
 9
 9
 9
 9
 9
 9
 9
 9
 9
 9
 9
 9
 9
 9
 9
 9
 9
 9
 9
 9
 9
 9
 9
 9
 9
 9
 9
 9
 9
 9
 9
 9
 9
 9
 9
 9
 9
 9
 9
 9
 9
 9
 9
 9
 9
 9
 9
 9
 9
 9
 9
 9
 9
 9
 9
 9
 9
 9
 9
 9
 9
 9
 9
 9
 9
 9
 9
 9
 9
 9
 9
 9
 9
 9
 9
 9
 9
 9
 9
 9
 9
 9
 9
 9
 9
 9
 9
 9
 9
 9
 9
 9
 9
 9
 9
 9
 9
 9
 9
 9
 9
 9
 9
 9
 9
 9
 9
 9
 9
 9
 9
 9
 9
 9
 9
 9
 9
 9
 9
 9
 9
 9
 9
 9
 9
 9
 9
 9
 9
 9
 9
 9
 9
 9
 9
 9
 9
 9
 9
 9
 9
 9
 9
 9
 9
 9
 9
 9
 9
 9
 9
 9
 9
 9
 9
 9
 9
 9
 9
 9
 9
 9
 9
 9
 9
 9
 9
 9
 9
 9
 9
 9
 9
 9
 9
 9
 9
 9
 9
 </DataArray>
 </Cells> 
 <PointData>
 <DataArray  type="Float64" Name="disp" NumberOfComponents="3" format="ascii">
   6.5432089561343276E-002   6.2896125853530230E-002   0.0000000000000000     
   6.8468148726085865E-002   6.8240768440448601E-002   0.0000000000000000     
   7.1409358761558211E-002   7.3776486702657490E-002   0.0000000000000000     
   7.4255719667760317E-002   7.9503280640156895E-002   0.0000000000000000     
   7.7007231444692237E-002   8.5421150252946790E-002   0.0000000000000000     
   6.0096456125290215E-002   6.1873900778778995E-002   0.0000000000000000     
   6.2979633668473742E-002   6.7283814809082049E-002   0.0000000000000000     
   6.5767554877335307E-002   7.2875838656507375E-002   0.0000000000000000     
   6.8460219751874940E-002   7.8649972321054945E-002   0.0000000000000000     
   7.1057628292092639E-002   8.4606215802724788E-002   0.0000000000000000     
   5.5042622753744164E-002   6.0970523758089368E-002   0.0000000000000000     
   5.7755636460259892E-002   6.6426573207357273E-002   0.0000000000000000     
   6.0375589464852636E-002   7.2059606155969902E-002   0.0000000000000000     
   6.2902481767522375E-002   7.7869622603927255E-002   0.0000000000000000     
   6.5336313368269117E-002   8.3856622551229332E-002   0.0000000000000000     
   5.0270589446705101E-002   6.0185994791461327E-002   0.0000000000000000     
   5.2796157101444349E-002   6.5669043635274246E-002   0.0000000000000000     
   5.5233462524110197E-002   7.1327789201045086E-002   0.0000000000000000     
   5.7582505714702623E-002   7.7162231488773783E-002   0.0000000000000000     
   5.9843286673221661E-002   8.3172370498460393E-002   0.0000000000000000     
   4.5780356204173048E-002   5.9520313878894893E-002   0.0000000000000000     
   4.8101195592027086E-002   6.5011226092833010E-002   0.0000000000000000     
   5.0341174055107976E-002   7.0680387791732885E-002   0.0000000000000000     
   5.2500291593415710E-002   7.6527798975594558E-002   0.0000000000000000     
   5.4578548206950288E-002   8.2553459644417987E-002   0.0000000000000000     
   7.7007231444692237E-002   8.5421150252946790E-002   0.0000000000000000     
   7.9667955925231820E-002   9.1514000397108067E-002   0.0000000000000000     
   8.2241954942257056E-002   9.7765735928721564E-002   0.0000000000000000     
   8.4729228495767944E-002  0.10417635684778725        0.0000000000000000     
   8.7129776585764457E-002  0.11074586315430521        0.0000000000000000     
   7.1057628292092639E-002   8.4606215802724788E-002   0.0000000000000000     
   7.3565333670229924E-002   9.0732189195025209E-002   0.0000000000000000     
   7.5988889058528353E-002   9.7015512591464542E-002   0.0000000000000000     
   7.8328294456987899E-002  0.10345618599204277        0.0000000000000000     
   8.0583549865608589E-002  0.11005420939675990        0.0000000000000000     
   6.5336313368269117E-002   8.3856622551229332E-002   0.0000000000000000     
   6.7683580659934420E-002   9.0010529483196711E-002   0.0000000000000000     
   6.9950780035359816E-002   9.6321266885149970E-002   0.0000000000000000     
   7.2137911494545293E-002  0.10278883475708914        0.0000000000000000     
   7.4244975037490904E-002  0.10941323309901418        0.0000000000000000     
   5.9843286673221661E-002   8.3172370498460393E-002   0.0000000000000000     
   6.2022696894345274E-002   8.9349021261622516E-002   0.0000000000000000     
   6.4127627872751419E-002   9.5682998809777847E-002   0.0000000000000000     
   6.6158079608440126E-002  0.10217430314292635        0.0000000000000000     
   6.8114052101411388E-002  0.10882293426106802        0.0000000000000000     
   5.4578548206950288E-002   8.2553459644417987E-002   0.0000000000000000     
   5.6582682373462520E-002   8.8747664530302695E-002   0.0000000000000000     
   5.8519432570703217E-002   9.5100708365348174E-002   0.0000000000000000     
   6.0388798798672379E-002  0.10161259114955444        0.0000000000000000     
   6.2190781057370005E-002  0.10828331288292145        0.0000000000000000     
   8.7129776585764457E-002  0.11074586315430521        0.0000000000000000     
   8.9436051670876676E-002  0.11746112928816295        0.0000000000000000     
   9.1640506209734685E-002  0.12430902968924809        0.0000000000000000     
   9.3743140202338482E-002  0.13128956435756062        0.0000000000000000     
   9.5743953648688068E-002  0.13840273329310052        0.0000000000000000     
   8.0583549865608589E-002  0.11005420939675990        0.0000000000000000     
   8.2748900111064505E-002  0.11679739635399790        0.0000000000000000     
   8.4818590020029699E-002  0.12367356041213881        0.0000000000000000     
   8.6792619592504172E-002  0.13068270157118256        0.0000000000000000     
   8.8670988828487951E-002  0.13782481983112915        0.0000000000000000     
   7.4244975037490904E-002  0.10941323309901418        0.0000000000000000     
   7.6267256587716492E-002  0.11618262890228311        0.0000000000000000     
   7.8200042068741912E-002  0.12308518915825400        0.0000000000000000     
   8.0043331480567206E-002  0.13012091386692681        0.0000000000000000     
   8.1797124823192319E-002  0.13728980302830154        0.0000000000000000     
   6.8114052101411388E-002  0.10882293426106802        0.0000000000000000     
   6.9991121100832637E-002  0.11561682693301858        0.0000000000000000     
   7.1784862355871365E-002  0.12254391592759367        0.0000000000000000     
   7.3495275866527543E-002  0.12960420124479338        0.0000000000000000     
   7.5122361632801227E-002  0.13679768288461761        0.0000000000000000     
   6.2190781057370005E-002  0.10828331288292145        0.0000000000000000     
   6.3920493650412941E-002  0.11509999044620425        0.0000000000000000     
   6.5573050881418016E-002  0.12204974072015787        0.0000000000000000     
   6.7148452750385251E-002  0.12913256370478227        0.0000000000000000     
   6.8646699257314620E-002  0.13634845940007748        0.0000000000000000     
   9.5743953648688068E-002  0.13840273329310052        0.0000000000000000     
   9.7648763076037093E-002  0.14563724678941167        0.0000000000000000     
   9.9463385011639288E-002  0.15298181514003795        0.0000000000000000     
  0.10118781945549460       0.16043643834497931        0.0000000000000000     
  0.10282206640760305       0.16800111640423582        0.0000000000000000     
   8.8670988828487951E-002  0.13782481983112915        0.0000000000000000     
   9.0459090238883849E-002  0.14508814220084548        0.0000000000000000     
   9.2162316334594804E-002  0.15246089568919838        0.0000000000000000     
   9.3780667115620775E-002  0.15994308029618781        0.0000000000000000     
   9.5314142581961803E-002  0.16753469602181378        0.0000000000000000     
   8.1797124823192319E-002  0.13728980302830154        0.0000000000000000     
   8.3466214161585867E-002  0.14457981871240916        0.0000000000000000     
   8.5055391560716398E-002  0.15197892298928062        0.0000000000000000     
   8.6564657020583899E-002  0.15948711585891595        0.0000000000000000     
   8.7994010541188369E-002  0.16710439732131513        0.0000000000000000     
   7.5122361632801227E-002  0.13679768288461761        0.0000000000000000     
   7.6670134844143117E-002  0.14411227632410270        0.0000000000000000     
   7.8142610690004013E-002  0.15153589704028475        0.0000000000000000     
   7.9539789170383887E-002  0.15906854503316378        0.0000000000000000     
   8.0861670285282780E-002  0.16671022030273980        0.0000000000000000     
   6.8646699257314620E-002  0.13634845940007748        0.0000000000000000     
   7.0070852286555602E-002  0.14368551503592608        0.0000000000000000     
   7.1423973722457679E-002  0.15113181784221069        0.0000000000000000     
   7.2706063565020823E-002  0.15868736781893128        0.0000000000000000     
   7.3917121814245063E-002  0.16635216496608785        0.0000000000000000     
  0.10282206640760305       0.16800111640423582        0.0000000000000000     
  0.10436834297919778       0.17566570091640102        0.0000000000000000     
  0.10582886628151199       0.18342004348006855        0.0000000000000000     
  0.10720363631454563       0.19126414409523845        0.0000000000000000     
  0.10849265307829871       0.19919800276191074        0.0000000000000000     
   9.5314142581961803E-002  0.16753469602181378        0.0000000000000000     
   9.6763060138927548E-002  0.17522599740509209        0.0000000000000000     
   9.8127737191827796E-002  0.18300723898503857        0.0000000000000000     
   9.9408173740662506E-002  0.19087842076165318        0.0000000000000000     
  0.10060436978543173       0.19883954273493587        0.0000000000000000     
   8.7994010541188369E-002  0.16710439732131513        0.0000000000000000     
   8.9342456134843748E-002  0.17482122708231529        0.0000000000000000     
   9.0608997813863890E-002  0.18262806484775362        0.0000000000000000     
   9.1793635578248850E-002  0.19052491061763005        0.0000000000000000     
   9.2896369427998601E-002  0.19851176439194462        0.0000000000000000     
   8.0861670285282780E-002  0.16671022030273980        0.0000000000000000     
   8.2106530966946381E-002  0.17445138994807055        0.0000000000000000     
   8.3272648147620323E-002  0.18228252106821366        0.0000000000000000     
   8.4360021827304621E-002  0.19020361366316910        0.0000000000000000     
   8.5368652005999288E-002  0.19821466773293706        0.0000000000000000     
   7.3917121814245063E-002  0.16635216496608785        0.0000000000000000     
   7.5055284635235434E-002  0.17411648600235788        0.0000000000000000     
   7.6118688193097028E-002  0.18197060764641876        0.0000000000000000     
   7.7107332487829833E-002  0.18991452989827046        0.0000000000000000     
   7.8021217519433847E-002  0.19794825275791303        0.0000000000000000     
  0.10849265307829871       0.19919800276191074        0.0000000000000000     
  0.10970108768311757       0.20721756478719067        0.0000000000000000     
  0.11083411123934855       0.21531877547818346        0.0000000000000000     
  0.11189172374699161       0.22350163483488922        0.0000000000000000     
  0.11287392520604680       0.23176614285730790        0.0000000000000000     
  0.10060436978543173       0.19883954273493587        0.0000000000000000     
  0.10172182940323846       0.20688442522138101        0.0000000000000000     
  0.10276605667118575       0.21500688853748290        0.0000000000000000     
  0.10373705158927359       0.22320693268324154        0.0000000000000000     
  0.10463481415750198       0.23148455765865683        0.0000000000000000     
   9.2896369427998601E-002  0.19851176439194462        0.0000000000000000     
   9.3922079900581060E-002  0.20658120519054823        0.0000000000000000     
   9.4875647533464169E-002  0.21472581203329172        0.0000000000000000     
   9.5757072326647971E-002  0.22294558492017510        0.0000000000000000     
   9.6566354280132424E-002  0.23124052385119842        0.0000000000000000     
   8.5368652005999288E-002  0.19821466773293706        0.0000000000000000     
   8.6301839175145362E-002  0.20630790469469232        0.0000000000000000     
   8.7162883826183882E-002  0.21447554596560994        0.0000000000000000     
   8.7951785959114792E-002  0.22271759154569007        0.0000000000000000     
   8.8668545573938148E-002  0.23103404143493259        0.0000000000000000     
   7.8021217519433847E-002  0.19794825275791303        0.0000000000000000     
   7.8861107226931390E-002  0.20606452373381315        0.0000000000000000     
   7.9627765549344781E-002  0.21425609033443757        0.0000000000000000     
   8.0321192486674048E-002  0.22252295255978630        0.0000000000000000     
   8.0941388038919163E-002  0.23086511040985930        0.0000000000000000     
  0.11287392520604680       0.23176614285730790        0.0000000000000000     
  0.11380886960556907       0.24012894908085086        0.0000000000000000     
  0.11472471093461344       0.24860670304092941        0.0000000000000000     
  0.11562144919317989       0.25719940473754360        0.0000000000000000     
  0.11649908438126844       0.26590705417069349        0.0000000000000000     
  0.10463481415750198       0.23148455765865683        0.0000000000000000     
  0.10546437070516032       0.23986322720136291        0.0000000000000000     
  0.10623074756153805       0.24836640504899371        0.0000000000000000     
  0.10693394472663514       0.25699409120154926        0.0000000000000000     
  0.10757396220045162       0.26574628565902952        0.0000000000000000     
   9.6566354280132424E-002  0.23124052385119842        0.0000000000000000     
   9.7294350028764659E-002  0.23963702617341578        0.0000000000000000     
   9.7931916207391792E-002  0.24816148923388151        0.0000000000000000     
   9.8479052816013851E-002  0.25681391303259549        0.0000000000000000     
   9.8935759854630823E-002  0.26559429756955788        0.0000000000000000     
   8.8668545573938148E-002  0.23103404143493259        0.0000000000000000     
   8.9298807576382089E-002  0.23945034599700946        0.0000000000000000     
   8.9828216872174724E-002  0.24799195559559276        0.0000000000000000     
   9.0256773461316039E-002  0.25665887023068240        0.0000000000000000     
   9.0584477343806050E-002  0.26545108990227845        0.0000000000000000     
   8.0941388038919163E-002  0.23086511040985930        0.0000000000000000     
   8.1477743348012596E-002  0.23930318667214392        0.0000000000000000     
   8.1919649555886750E-002  0.24785780413412750        0.0000000000000000     
   8.2267106662541681E-002  0.25652896279580994        0.0000000000000000     
   8.2520114667977318E-002  0.26531666265719139        0.0000000000000000     
  0.11649908438126844       0.26590705417069349        0.0000000000000000     
  0.11729801345033056       0.27489416117452697        0.0000000000000000     
  0.11795863335181779       0.28432523558319223        0.0000000000000000     
  0.11848094408573009       0.29420027739668903        0.0000000000000000     
  0.11886494565206751       0.30451928661501759        0.0000000000000000     
  0.10757396220045162       0.26574628565902952        0.0000000000000000     
  0.10813184773282625       0.27475510479588683        0.0000000000000000     
  0.10858864907359791       0.28415266498657349        0.0000000000000000     
  0.10894436622276660       0.29393896623108956        0.0000000000000000     
  0.10919899918033227       0.30411400852943493        0.0000000000000000     
   9.8935759854630823E-002  0.26559429756955788        0.0000000000000000     
   9.9313063871119961E-002  0.27460094095964538        0.0000000000000000     
   9.9621991413358535E-002  0.28393214131773487        0.0000000000000000     
   9.9862542481346572E-002  0.29358789864382639        0.0000000000000000     
  0.10003471707508402       0.30356821293792002        0.0000000000000000     
   9.0584477343806050E-002  0.26545108990227845        0.0000000000000000     
   9.0841661865211643E-002  0.27443166966580262        0.0000000000000000     
   9.1058660371099623E-002  0.28366366457667630        0.0000000000000000     
   9.1235472861470018E-002  0.29314707463489964        0.0000000000000000     
   9.1372099336322815E-002  0.30288189984047265        0.0000000000000000     
   8.2520114667977318E-002  0.26531666265719139        0.0000000000000000     
   8.2717641715101306E-002  0.27424729091435845        0.0000000000000000     
   8.2898655946821193E-002  0.28334723476339774        0.0000000000000000     
   8.3063157363136977E-002  0.29261649420430924        0.0000000000000000     
   8.3211145964048661E-002  0.30205506923709291        0.0000000000000000     
   4.5780356204173048E-002   5.9520313878894893E-002   0.0000000000000000     
   4.8101195592027086E-002   6.5011226092833010E-002   0.0000000000000000     
   5.0341174055107976E-002   7.0680387791732885E-002   0.0000000000000000     
   5.2500291593415710E-002   7.6527798975594558E-002   0.0000000000000000     
   5.4578548206950288E-002   8.2553459644417987E-002   0.0000000000000000     
   4.1468382698780538E-002   5.8919060976744431E-002   0.0000000000000000     
   4.3581513133782696E-002   6.4413446777627698E-002   0.0000000000000000     
   4.5621819962482671E-002   7.0089376810468826E-002   0.0000000000000000     
   4.7589303184880451E-002   7.5946851075267829E-002   0.0000000000000000     
   4.9483962800976028E-002   8.1985869572024708E-002   0.0000000000000000     
   3.7231128603160121E-002   5.8327816041364292E-002   0.0000000000000000     
   3.9147870928485748E-002   6.3836031887252467E-002   0.0000000000000000     
   4.0998496150870929E-002   6.9526731139688339E-002   0.0000000000000000     
   4.2783004270315665E-002   7.5399913798671905E-002   0.0000000000000000     
   4.4501395286819949E-002   8.1455579864203154E-002   0.0000000000000000     
   3.3068593917311803E-002   5.7746579072754489E-002   0.0000000000000000     
   3.4800268976136244E-002   6.3278981421707334E-002   0.0000000000000000     
   3.6471202620272772E-002   6.8992450779391423E-002   0.0000000000000000     
   3.8081394849721360E-002   7.4886987145806758E-002   0.0000000000000000     
   3.9630845664482030E-002   8.0962590520953337E-002   0.0000000000000000     
   2.8980778641235567E-002   5.7175350070915010E-002   0.0000000000000000     
   3.0538707276734189E-002   6.2742295380992283E-002   0.0000000000000000     
   3.2039939370688178E-002   6.8486535729578094E-002   0.0000000000000000     
   3.3484474923097543E-002   7.4408071116672400E-002   0.0000000000000000     
   3.4872313933962271E-002   8.0506901542275217E-002   0.0000000000000000     
   5.4578548206950288E-002   8.2553459644417987E-002   0.0000000000000000     
   5.6582682373462520E-002   8.8747664530302695E-002   0.0000000000000000     
   5.8519432570703217E-002   9.5100708365348174E-002   0.0000000000000000     
   6.0388798798672379E-002  0.10161259114955444        0.0000000000000000     
   6.2190781057370005E-002  0.10828331288292145        0.0000000000000000     
   4.9483962800976028E-002   8.1985869572024708E-002   0.0000000000000000     
   5.1312140716084295E-002   8.8195872807764128E-002   0.0000000000000000     
   5.3080178835520096E-002   9.4566301289510685E-002   0.0000000000000000     
   5.4788077159283431E-002  0.10109715501726445        0.0000000000000000     
   5.6435835687374307E-002  0.10778843399102538        0.0000000000000000     
   4.4501395286819949E-002   8.1455579864203154E-002   0.0000000000000000     
   4.6159675541008728E-002   8.7683059612533726E-002   0.0000000000000000     
   4.7763851373506958E-002   9.4071683319915167E-002   0.0000000000000000     
   4.9313922784314637E-002  0.10062145098634750        0.0000000000000000     
   5.0809889773431781E-002  0.10733236261183075        0.0000000000000000     
   3.9630845664482030E-002   8.0962590520953337E-002   0.0000000000000000     
   4.1125286848235826E-002   8.7209224944611474E-002   0.0000000000000000     
   4.2570450184663829E-002   9.3616854456561566E-002   0.0000000000000000     
   4.3966335673766017E-002  0.10018547905680358        0.0000000000000000     
   4.5312943315542420E-002  0.10691509874533756        0.0000000000000000     
   3.4872313933962271E-002   8.0506901542275217E-002   0.0000000000000000     
   3.6208974637765581E-002   8.6774368803997429E-002   0.0000000000000000     
   3.7499975268990682E-002   9.3201814699449922E-002   0.0000000000000000     
   3.8745315827637565E-002   9.9789239228632712E-002   0.0000000000000000     
   3.9944996313706231E-002  0.10653664239154574        0.0000000000000000     
   6.2190781057370005E-002  0.10828331288292145        0.0000000000000000     
   6.3920493650412941E-002  0.11509999044620425        0.0000000000000000     
   6.5573050881418016E-002  0.12204974072015787        0.0000000000000000     
   6.7148452750385251E-002  0.12913256370478227        0.0000000000000000     
   6.8646699257314620E-002  0.13634845940007748        0.0000000000000000     
   5.6435835687374307E-002  0.10778843399102538        0.0000000000000000     
   5.8017998892267261E-002  0.11462639965565581        0.0000000000000000     
   5.9529111246436853E-002  0.12159731345601810        0.0000000000000000     
   6.0969172749883067E-002  0.12870117539211220        0.0000000000000000     
   6.2338183402605926E-002  0.13593798546393818        0.0000000000000000     
   5.0809889773431781E-002  0.10733236261183075        0.0000000000000000     
   5.2246261482205465E-002  0.11419033477518889        0.0000000000000000     
   5.3617547051982822E-002  0.12118128405524595        0.0000000000000000     
   5.4923746482763845E-002  0.12830521045200191        0.0000000000000000     
   5.6164859774548541E-002  0.13556211396545678        0.0000000000000000     
   4.5312943315542420E-002  0.10691509874533756        0.0000000000000000     
   4.6605281420227539E-002  0.11379179580480345        0.0000000000000000     
   4.7838358298055925E-002  0.12080165251784140        0.0000000000000000     
   4.9012173949027557E-002  0.12794466888445138        0.0000000000000000     
   5.0126728373142450E-002  0.13522084490463337        0.0000000000000000     
   3.9944996313706231E-002  0.10653664239154574        0.0000000000000000     
   4.1095058706333495E-002  0.11343078274449954        0.0000000000000000     
   4.2191544984656160E-002  0.12045841884380450        0.0000000000000000     
   4.3234455148674217E-002  0.12761955068946063        0.0000000000000000     
   4.4223789198387681E-002  0.13491417828146790        0.0000000000000000     
   6.8646699257314620E-002  0.13634845940007748        0.0000000000000000     
   7.0070852286555602E-002  0.14368551503592608        0.0000000000000000     
   7.1423973722457679E-002  0.15113181784221069        0.0000000000000000     
   7.2706063565020823E-002  0.15868736781893128        0.0000000000000000     
   7.3917121814245063E-002  0.16635216496608785        0.0000000000000000     
   6.2338183402605926E-002  0.13593798546393818        0.0000000000000000     
   6.3638296594412835E-002  0.14329608678091277        0.0000000000000000     
   6.4871665715111215E-002  0.15076382245245279        0.0000000000000000     
   6.6038290764701038E-002  0.15834119247855824        0.0000000000000000     
   6.7138171743182345E-002  0.16602819685922909        0.0000000000000000     
   5.6164859774548541E-002  0.13556211396545678        0.0000000000000000     
   5.7342397873304266E-002  0.14294054349209612        0.0000000000000000     
   5.8457871724998389E-002  0.15042904792840528        0.0000000000000000     
   5.9511281329630919E-002  0.15802762727438438        0.0000000000000000     
   6.0502626687201848E-002  0.16573628153003334        0.0000000000000000     
   5.0126728373142450E-002  0.13522084490463337        0.0000000000000000     
   5.1183156123229913E-002  0.14261888516947610        0.0000000000000000     
   5.2182591752119256E-002  0.15012749427006819        0.0000000000000000     
   5.3125035259810466E-002  0.15774667220640970        0.0000000000000000     
   5.4010486646303549E-002  0.16547641897850063        0.0000000000000000     
   4.4223789198387681E-002  0.13491417828146790        0.0000000000000000     
   4.5160571344189784E-002  0.14233111181305275        0.0000000000000000     
   4.6045825796473788E-002  0.14985916147744155        0.0000000000000000     
   4.6879552555239679E-002  0.15749832727463425        0.0000000000000000     
   4.7661751620487469E-002  0.16524860920463089        0.0000000000000000     
   7.3917121814245063E-002  0.16635216496608785        0.0000000000000000     
   7.5055284635235434E-002  0.17411648600235788        0.0000000000000000     
   7.6118688193097028E-002  0.18197060764641876        0.0000000000000000     
   7.7107332487829833E-002  0.18991452989827046        0.0000000000000000     
   7.8021217519433847E-002  0.19794825275791303        0.0000000000000000     
   6.7138171743182345E-002  0.16602819685922909        0.0000000000000000     
   6.8169536479210716E-002  0.17381479992685309        0.0000000000000000     
   6.9130612801441699E-002  0.18169096601381785        0.0000000000000000     
   7.0021400709875337E-002  0.18965669512012348        0.0000000000000000     
   7.0841900204511615E-002  0.19771198724576988        0.0000000000000000     
   6.0502626687201848E-002  0.16573628153003334        0.0000000000000000     
   6.1430105838371954E-002  0.17354461640323199        0.0000000000000000     
   6.2291916823802015E-002  0.18144223760186012        0.0000000000000000     
   6.3088059643492025E-002  0.18942914512591774        0.0000000000000000     
   6.3818534297442012E-002  0.19750533897540484        0.0000000000000000     
   5.4010486646303549E-002  0.16547641897850063        0.0000000000000000     
   5.4836992712719163E-002  0.17330593543149461        0.0000000000000000     
   5.5602600260177944E-002  0.18122442241054554        0.0000000000000000     
   5.6307309288679892E-002  0.18923187991565329        0.0000000000000000     
   5.6951119798225008E-002  0.19732830794681794        0.0000000000000000     
   4.7661751620487469E-002  0.16524860920463089        0.0000000000000000     
   4.8390197102252348E-002  0.17309875701164096        0.0000000000000000     
   4.9062663110569497E-002  0.18103752043987403        0.0000000000000000     
   4.9679149645438930E-002  0.18906489948933008        0.0000000000000000     
   5.0239656706860626E-002  0.19718089416000908        0.0000000000000000     
   7.8021217519433847E-002  0.19794825275791303        0.0000000000000000     
   7.8861107226931390E-002  0.20606452373381315        0.0000000000000000     
   7.9627765549344781E-002  0.21425609033443757        0.0000000000000000     
   8.0321192486674048E-002  0.22252295255978630        0.0000000000000000     
   8.0941388038919163E-002  0.23086511040985930        0.0000000000000000     
   7.0841900204511615E-002  0.19771198724576988        0.0000000000000000     
   7.1590423337483056E-002  0.20585023970296215        0.0000000000000000     
   7.2265282160922178E-002  0.21406484980390530        0.0000000000000000     
   7.2866476674828998E-002  0.22235581754859951        0.0000000000000000     
   7.3394006879203499E-002  0.23072314293704457        0.0000000000000000     
   6.3818534297442012E-002  0.19750533897540484        0.0000000000000000     
   6.4480326788344297E-002  0.20566422999719053        0.0000000000000000     
   6.5070423118891260E-002  0.21389922903814404        0.0000000000000000     
   6.5588823289082873E-002  0.22221033609826524        0.0000000000000000     
   6.6035527298919164E-002  0.23059755117755429        0.0000000000000000     
   5.6951119798225008E-002  0.19732830794681794        0.0000000000000000     
   5.7530817579515114E-002  0.20550649461649836        0.0000000000000000     
   5.8043188423252012E-002  0.21375922803715358        0.0000000000000000     
   5.8488232329435709E-002  0.22208650820878365        0.0000000000000000     
   5.8865949298066191E-002  0.23048833513138847        0.0000000000000000     
   5.0239656706860626E-002  0.19718089416000908        0.0000000000000000     
   5.0741895710995508E-002  0.20537703356088557        0.0000000000000000     
   5.1183578074004456E-002  0.21364484680093412        0.0000000000000000     
   5.1564703795887470E-002  0.22198433388015459        0.0000000000000000     
   5.1885272876644566E-002  0.23039549479854710        0.0000000000000000     
   8.0941388038919163E-002  0.23086511040985930        0.0000000000000000     
   8.1477743348012596E-002  0.23930318667214392        0.0000000000000000     
   8.1919649555886750E-002  0.24785780413412750        0.0000000000000000     
   8.2267106662541681E-002  0.25652896279580994        0.0000000000000000     
   8.2520114667977318E-002  0.26531666265719139        0.0000000000000000     
   7.3394006879203499E-002  0.23072314293704457        0.0000000000000000     
   7.3844599796808366E-002  0.23918055994286255        0.0000000000000000     
   7.4214982450406308E-002  0.24774180253967540        0.0000000000000000     
   7.4505154839997298E-002  0.25640687072748314        0.0000000000000000     
   7.4715116965581349E-002  0.26517576450628572        0.0000000000000000     
   6.6035527298919164E-002  0.23059755117755429        0.0000000000000000     
   6.6412819375921625E-002  0.23906747755320870        0.0000000000000000     
   6.6722983747611736E-002  0.24762671850242621        0.0000000000000000     
   6.6966020413989469E-002  0.25627527402520672        0.0000000000000000     
   6.7141929375054851E-002  0.26501314412155030        0.0000000000000000     
   5.8865949298066191E-002  0.23048833513138847        0.0000000000000000     
   5.9182402085352331E-002  0.23896393950318248        0.0000000000000000     
   5.9443653447502985E-002  0.24751255202237987        0.0000000000000000     
   5.9649703384518152E-002  0.25613417268898087        0.0000000000000000     
   5.9800551896397845E-002  0.26482880150298532        0.0000000000000000     
   5.1885272876644566E-002  0.23039549479854710        0.0000000000000000     
   5.2153347925100513E-002  0.23886994579278367        0.0000000000000000     
   5.2376991550080125E-002  0.24739930309953648        0.0000000000000000     
   5.2556203751583389E-002  0.25598356671880551        0.0000000000000000     
   5.2690984529610310E-002  0.26462273665059072        0.0000000000000000     
   8.2520114667977318E-002  0.26531666265719139        0.0000000000000000     
   8.2717641715101306E-002  0.27424729091435845        0.0000000000000000     
   8.2898655946821193E-002  0.28334723476339774        0.0000000000000000     
   8.3063157363136977E-002  0.29261649420430924        0.0000000000000000     
   8.3211145964048661E-002  0.30205506923709291        0.0000000000000000     
   7.4715116965581349E-002  0.26517576450628572        0.0000000000000000     
   7.4885802863562292E-002  0.27404210991100680        0.0000000000000000     
   7.5058146570343959E-002  0.28299953297657038        0.0000000000000000     
   7.5232148085926362E-002  0.29204803370297616        0.0000000000000000     
   7.5407807410309474E-002  0.30118761209022432        0.0000000000000000     
   6.7141929375054851E-002  0.26501314412155030        0.0000000000000000     
   6.7290944753367915E-002  0.27381043186144166        0.0000000000000000     
   6.7453300671488664E-002  0.28263724031486537        0.0000000000000000     
   6.7628997129417112E-002  0.29149356948182154        0.0000000000000000     
   6.7818034127153259E-002  0.30037941936231016        0.0000000000000000     
   5.9800551896397845E-002  0.26482880150298532        0.0000000000000000     
   5.9933067384518174E-002  0.27355225676566280        0.0000000000000000     
   6.0084118250255315E-002  0.28226035677828287        0.0000000000000000     
   6.0253704493609256E-002  0.29095310154084542        0.0000000000000000     
   6.0441826114579995E-002  0.29963049105335043        0.0000000000000000     
   5.2690984529610310E-002  0.26462273665059072        0.0000000000000000     
   5.2812170757013069E-002  0.27326758462367035        0.0000000000000000     
   5.2950599306643899E-002  0.28186888236682262        0.0000000000000000     
   5.3106270178502765E-002  0.29042662988004758        0.0000000000000000     
   5.3279183372589696E-002  0.29894082716334519        0.0000000000000000     
   2.8980778641235567E-002   5.7175350070915010E-002   0.0000000000000000     
   3.0538707276734189E-002   6.2742295380992283E-002   0.0000000000000000     
   3.2039939370688178E-002   6.8486535729578094E-002   0.0000000000000000     
   3.3484474923097543E-002   7.4408071116672400E-002   0.0000000000000000     
   3.4872313933962271E-002   8.0506901542275217E-002   0.0000000000000000     
   2.5005106815488714E-002   5.6662236274391084E-002   0.0000000000000000     
   2.6388051580919270E-002   6.2260494891734949E-002   0.0000000000000000     
   2.7718859449496636E-002   6.8032894865413543E-002   0.0000000000000000     
   2.8997530421220823E-002   7.3979436195426934E-002   0.0000000000000000     
   3.0224064496091829E-002   8.0100118881775040E-002   0.0000000000000000     
   2.1179002480628532E-002   5.6255344921727957E-002   0.0000000000000000     
   2.2373167639331178E-002   6.1868101080562912E-002   0.0000000000000000     
   2.3522115904077604E-002   6.7655437062063076E-002   0.0000000000000000     
   2.4625847274867822E-002   7.3617352866228447E-002   0.0000000000000000     
   2.5684361751701822E-002   7.9753848493059026E-002   0.0000000000000000     
   1.7502465636655015E-002   5.5954676012925607E-002   0.0000000000000000     
   1.8494055451969912E-002   6.1565113947476192E-002   0.0000000000000000     
   1.9449708734431088E-002   6.7354162319526636E-002   0.0000000000000000     
   2.0369425484038535E-002   7.3321821129076981E-002   0.0000000000000000     
   2.1253205700792265E-002   7.9468090376127204E-002   0.0000000000000000     
   1.3975496283568168E-002   5.5760229547984042E-002   0.0000000000000000     
   1.4750715018835483E-002   6.1351533492474755E-002   0.0000000000000000     
   1.5501637940557082E-002   6.7129070637804253E-002   0.0000000000000000     
   1.6228265048732971E-002   7.3092840983972521E-002   0.0000000000000000     
   1.6930596343363146E-002   7.9242844530979545E-002   0.0000000000000000     
   3.4872313933962271E-002   8.0506901542275217E-002   0.0000000000000000     
   3.6208974637765581E-002   8.6774368803997429E-002   0.0000000000000000     
   3.7499975268990682E-002   9.3201814699449922E-002   0.0000000000000000     
   3.8745315827637565E-002   9.9789239228632712E-002   0.0000000000000000     
   3.9944996313706231E-002  0.10653664239154574        0.0000000000000000     
   3.0224064496091829E-002   8.0100118881775040E-002   0.0000000000000000     
   3.1403475140198603E-002   8.6387266549236272E-002   0.0000000000000000     
   3.2540775819630101E-002   9.2833202822588917E-002   0.0000000000000000     
   3.3635966534386323E-002   9.9437927701833032E-002   0.0000000000000000     
   3.4689047284467284E-002  0.10620144118696857        0.0000000000000000     
   2.5684361751701822E-002   7.9753848493059026E-002   0.0000000000000000     
   2.6701524586135478E-002   8.6056693538872686E-002   0.0000000000000000     
   2.7681201029724673E-002   9.2517657599987244E-002   0.0000000000000000     
   2.8623391082469394E-002   9.9136740676402740E-002   0.0000000000000000     
   2.9528094744369651E-002  0.10591394276811912        0.0000000000000000     
   2.1253205700792265E-002   7.9468090376127204E-002   0.0000000000000000     
   2.2103122975576227E-002   8.5782649772906727E-002   0.0000000000000000     
   2.2921250899274388E-002   9.2255179031644929E-002   0.0000000000000000     
   2.3707589471886756E-002   9.8885678152341824E-002   0.0000000000000000     
   2.4462138693413328E-002  0.10567414713499741        0.0000000000000000     
   1.6930596343363146E-002   7.9242844530979545E-002   0.0000000000000000     
   1.7608270308520833E-002   8.5565135251338353E-002   0.0000000000000000     
   1.8260925428279253E-002   9.2045767117561919E-002   0.0000000000000000     
   1.8888561702638414E-002   9.8684740129650311E-002   0.0000000000000000     
   1.9491179131598306E-002  0.10548205428760346        0.0000000000000000     
   3.9944996313706231E-002  0.10653664239154574        0.0000000000000000     
   4.1095058706333495E-002  0.11343078274449954        0.0000000000000000     
   4.2191544984656160E-002  0.12045841884380450        0.0000000000000000     
   4.3234455148674217E-002  0.12761955068946063        0.0000000000000000     
   4.4223789198387681E-002  0.13491417828146790        0.0000000000000000     
   3.4689047284467284E-002  0.10620144118696857        0.0000000000000000     
   3.5697185134620002E-002  0.11311130290130242        0.0000000000000000     
   3.6657547149591518E-002  0.12015507246814137        0.0000000000000000     
   3.7570133329381805E-002  0.12733274988748550        0.0000000000000000     
   3.8434943673990897E-002  0.13464433515933477        0.0000000000000000     
   2.9528094744369651E-002  0.10591394276811912        0.0000000000000000     
   3.0393252499183742E-002  0.11283736358223734        0.0000000000000000     
   3.1216804830669961E-002  0.11989510282585826        0.0000000000000000     
   3.1998751738828310E-002  0.12708716049898194        0.0000000000000000     
   3.2739093223658797E-002  0.13441353660160837        0.0000000000000000     
   2.4462138693413328E-002  0.10567414713499741        0.0000000000000000     
   2.5183260800024705E-002  0.11260896478730434        0.0000000000000000     
   2.5869318027891511E-002  0.11967850991695517        0.0000000000000000     
   2.6520310377013735E-002  0.12688278252394997        0.0000000000000000     
   2.7136237847391387E-002  0.13422178260828874        0.0000000000000000     
   1.9491179131598306E-002  0.10548205428760346        0.0000000000000000     
   2.0067210037142902E-002  0.11242610651650338        0.0000000000000000     
   2.0615086741256155E-002  0.11950529374143208        0.0000000000000000     
   2.1134809243938076E-002  0.12671961596238954        0.0000000000000000     
   2.1626377545188657E-002  0.13406907317937578        0.0000000000000000     
   4.4223789198387681E-002  0.13491417828146790        0.0000000000000000     
   4.5160571344189784E-002  0.14233111181305275        0.0000000000000000     
   4.6045825796473788E-002  0.14985916147744155        0.0000000000000000     
   4.6879552555239679E-002  0.15749832727463425        0.0000000000000000     
   4.7661751620487469E-002  0.16524860920463089        0.0000000000000000     
   3.8434943673990897E-002  0.13464433515933477        0.0000000000000000     
   3.9252987489470752E-002  0.14207867911533506        0.0000000000000000     
   4.0025274081873341E-002  0.14962463258713216        0.0000000000000000     
   4.0751803451198658E-002  0.15728219557472611        0.0000000000000000     
   4.1432575597446716E-002  0.16505136807811693        0.0000000000000000     
   3.2739093223658797E-002  0.13441353660160837        0.0000000000000000     
   3.3438748512359694E-002  0.14186304276883194        0.0000000000000000     
   3.4098636832129256E-002  0.14942449063574692        0.0000000000000000     
   3.4718758182967498E-002  0.15709788020235341        0.0000000000000000     
   3.5299112564874419E-002  0.16488321146865140        0.0000000000000000     
   2.7136237847391387E-002  0.13422178260828874        0.0000000000000000     
   2.7717854412856607E-002  0.14168420277354338        0.0000000000000000     
   2.8265914047241544E-002  0.14925873562328582        0.0000000000000000     
   2.8780416750546205E-002  0.15694538115751619        0.0000000000000000     
   2.9261362522770579E-002  0.16474413937623433        0.0000000000000000     
   2.1626377545188657E-002  0.13406907317937578        0.0000000000000000     
   2.2090305190961501E-002  0.14154215912946938        0.0000000000000000     
   2.2527105727210207E-002  0.14912736754974890        0.0000000000000000     
   2.2936779153934776E-002  0.15682469844021435        0.0000000000000000     
   2.3319325471135199E-002  0.16463415180086574        0.0000000000000000     
   4.7661751620487469E-002  0.16524860920463089        0.0000000000000000     
   4.8390197102252348E-002  0.17309875701164096        0.0000000000000000     
   4.9062663110569497E-002  0.18103752043987403        0.0000000000000000     
   4.9679149645438930E-002  0.18906489948933008        0.0000000000000000     
   5.0239656706860626E-002  0.19718089416000908        0.0000000000000000     
   4.1432575597446716E-002  0.16505136807811693        0.0000000000000000     
   4.2065145183282304E-002  0.17292047899415897        0.0000000000000000     
   4.2647066871370237E-002  0.18087785721970651        0.0000000000000000     
   4.3178340661710495E-002  0.18892350275475964        0.0000000000000000     
   4.3658966554303090E-002  0.19705741559931836        0.0000000000000000     
   3.5299112564874419E-002  0.16488321146865140        0.0000000000000000     
   3.5837263132119879E-002  0.17276849922953630        0.0000000000000000     
   3.6330773038973731E-002  0.18074175827990369        0.0000000000000000     
   3.6779642285435982E-002  0.18880298861975345        0.0000000000000000     
   3.7183870871506639E-002  0.19695219024908567        0.0000000000000000     
   2.9261362522770579E-002  0.16474413937623433        0.0000000000000000     
   2.9706550948765047E-002  0.17264281771777321        0.0000000000000000     
   3.0113781613379988E-002  0.18062922362046557        0.0000000000000000     
   3.0483054516615399E-002  0.18870335708431155        0.0000000000000000     
   3.0814369658471279E-002  0.19686521810931101        0.0000000000000000     
   2.3319325471135199E-002  0.16463415180086574        0.0000000000000000     
   2.3673008633217831E-002  0.17254343445886949        0.0000000000000000     
   2.3996092594589003E-002  0.18054025324139222        0.0000000000000000     
   2.4288577355248728E-002  0.18862460814843385        0.0000000000000000     
   2.4550462915196997E-002  0.19679649917999434        0.0000000000000000     
   5.0239656706860626E-002  0.19718089416000908        0.0000000000000000     
   5.0741895710995508E-002  0.20537703356088557        0.0000000000000000     
   5.1183578074004456E-002  0.21364484680093412        0.0000000000000000     
   5.1564703795887470E-002  0.22198433388015459        0.0000000000000000     
   5.1885272876644566E-002  0.23039549479854710        0.0000000000000000     
   4.3658966554303090E-002  0.19705741559931836        0.0000000000000000     
   4.4087960613449578E-002  0.20526953372834011        0.0000000000000000     
   4.4464338903451521E-002  0.21354979511678232        0.0000000000000000     
   4.4788101424308911E-002  0.22189819976464506        0.0000000000000000     
   4.5059248176021763E-002  0.23031474767192828        0.0000000000000000     
   3.7183870871506639E-002  0.19695219024908567        0.0000000000000000     
   3.7543411717541449E-002  0.20517768201684977        0.0000000000000000     
   3.7858217743896146E-002  0.21346778277199521        0.0000000000000000     
   3.8128288950570757E-002  0.22182249251452199        0.0000000000000000     
   3.8353625337565277E-002  0.23024181124443019        0.0000000000000000     
   3.0814369658471279E-002  0.19686521810931101        0.0000000000000000     
   3.1108249023271098E-002  0.20510147842641455        0.0000000000000000     
   3.1365214595338343E-002  0.21339880976657269        0.0000000000000000     
   3.1585266374673009E-002  0.22175721212978544        0.0000000000000000     
   3.1768404361275086E-002  0.23017668551605283        0.0000000000000000     
   2.4550462915196997E-002  0.19679649917999434        0.0000000000000000     
   2.4782472530638540E-002  0.20504092295703441        0.0000000000000000     
   2.4985329457778094E-002  0.21334287610051478        0.0000000000000000     
   2.5159033696615655E-002  0.22170235861043538        0.0000000000000000     
   2.5303585247151220E-002  0.23011937048679620        0.0000000000000000     
   5.1885272876644566E-002  0.23039549479854710        0.0000000000000000     
   5.2153347925100513E-002  0.23886994579278367        0.0000000000000000     
   5.2376991550080125E-002  0.24739930309953648        0.0000000000000000     
   5.2556203751583389E-002  0.25598356671880551        0.0000000000000000     
   5.2690984529610310E-002  0.26462273665059072        0.0000000000000000     
   4.5059248176021763E-002  0.23031474767192828        0.0000000000000000     
   4.5286563430277683E-002  0.23878405498683397        0.0000000000000000     
   4.5478831458764281E-002  0.24729073785756411        0.0000000000000000     
   4.5636052261481576E-002  0.25583479628411865        0.0000000000000000     
   4.5758225838429548E-002  0.26441623026649769        0.0000000000000000     
   3.8353625337565277E-002  0.23024181124443019        0.0000000000000000     
   3.8542955135995351E-002  0.23870482565015480        0.0000000000000000     
   3.8705006576976640E-002  0.24719062242013093        0.0000000000000000     
   3.8839779660509152E-002  0.25569920155435855        0.0000000000000000     
   3.8947274386592880E-002  0.26423056305283754        0.0000000000000000     
   3.1768404361275086E-002  0.23017668551605283        0.0000000000000000     
   3.1922523042253514E-002  0.23863225778274622        0.0000000000000000     
   3.2055516904717189E-002  0.24709895678723692        0.0000000000000000     
   3.2167385948666118E-002  0.25557678252952498        0.0000000000000000     
   3.2258130174100300E-002  0.26406573500961028        0.0000000000000000     
   2.5303585247151220E-002  0.23011937048679620        0.0000000000000000     
   2.5425267149052182E-002  0.23856635138460816        0.0000000000000000     
   2.5530362441985935E-002  0.24701574095888212        0.0000000000000000     
   2.5618871125952476E-002  0.25546753920961807        0.0000000000000000     
   2.5690793200951800E-002  0.26392174613681596        0.0000000000000000     
   5.2690984529610310E-002  0.26462273665059072        0.0000000000000000     
   5.2812170757013069E-002  0.27326758462367035        0.0000000000000000     
   5.2950599306643899E-002  0.28186888236682262        0.0000000000000000     
   5.3106270178502765E-002  0.29042662988004758        0.0000000000000000     
   5.3279183372589696E-002  0.29894082716334519        0.0000000000000000     
   4.5758225838429548E-002  0.26441623026649769        0.0000000000000000     
   4.5869500808037825E-002  0.27298512265220509        0.0000000000000000     
   4.5994025788736029E-002  0.28149155628874473        0.0000000000000000     
   4.6131800780524146E-002  0.28993553117611653        0.0000000000000000     
   4.6282825783402183E-002  0.29831704731432068        0.0000000000000000     
   3.8947274386592880E-002  0.26423056305283754        0.0000000000000000     
   3.9046303474777659E-002  0.27273357806800780        0.0000000000000000     
   3.9155679644613327E-002  0.28115711775230878        0.0000000000000000     
   3.9275402896099869E-002  0.28950118210574061        0.0000000000000000     
   3.9405473229237299E-002  0.29776577112830310        0.0000000000000000     
   3.2258130174100300E-002  0.26406573500961028        0.0000000000000000     
   3.2342578757232579E-002  0.27251295087107852        0.0000000000000000     
   3.2435560874275793E-002  0.28086556675751490        0.0000000000000000     
   3.2537076525229948E-002  0.28912358266891958        0.0000000000000000     
   3.2647125710095037E-002  0.29728699860529251        0.0000000000000000     
   2.5690793200951800E-002  0.26392174613681596        0.0000000000000000     
   2.5758326655402571E-002  0.27232324106141720        0.0000000000000000     
   2.5833669477723427E-002  0.28061690330436306        0.0000000000000000     
   2.5916821667914373E-002  0.28880273286565367        0.0000000000000000     
   2.6007783225975401E-002  0.29688072974528890        0.0000000000000000     
   1.3975496283568168E-002   5.5760229547984042E-002   0.0000000000000000     
   1.4750715018835483E-002   6.1351533492474755E-002   0.0000000000000000     
   1.5501637940557082E-002   6.7129070637804253E-002   0.0000000000000000     
   1.6228265048732971E-002   7.3092840983972521E-002   0.0000000000000000     
   1.6930596343363146E-002   7.9242844530979545E-002   0.0000000000000000     
   1.0515609919391780E-002   5.5628660201198096E-002   0.0000000000000000     
   1.1074375105121315E-002   6.1199749009708870E-002   0.0000000000000000     
   1.1620061262518137E-002   6.6964100983472927E-002   0.0000000000000000     
   1.2152668391582246E-002   7.2921716122490252E-002   0.0000000000000000     
   1.2672196492313641E-002   7.9072594426760845E-002   0.0000000000000000     
   7.0403220421496491E-003   5.5516622646862600E-002   0.0000000000000000     
   7.3962644760208517E-003   6.1082149793328738E-002   0.0000000000000000     
   7.7471364403767966E-003   6.6843192323109646E-002   0.0000000000000000     
   8.0929379352174830E-003   7.2799750236205357E-002   0.0000000000000000     
   8.4336689605429126E-003   7.8951823532615859E-002   0.0000000000000000     
   3.5496326518417746E-003   5.5424116884977566E-002   0.0000000000000000     
   3.7163831315340928E-003   6.0998735843334331E-002   0.0000000000000000     
   3.8828634741330621E-003   6.6766344656714424E-002   0.0000000000000000     
   4.0490736796386859E-003   7.2726943325117865E-002   0.0000000000000000     
   4.2150137480509607E-003   7.8880531848544613E-002   0.0000000000000000     
   4.3541748468155315E-005   5.5351142915542988E-002   0.0000000000000000     
   3.4731071661035697E-005   6.0949507159725677E-002   0.0000000000000000     
   2.7242363786934734E-005   6.6733557984287262E-002   0.0000000000000000     
   2.1075624845851314E-005   7.2703295389227734E-002   0.0000000000000000     
   1.6230854837786819E-005   7.8858719374547082E-002   0.0000000000000000     
   1.6930596343363146E-002   7.9242844530979545E-002   0.0000000000000000     
   1.7608270308520833E-002   8.5565135251338353E-002   0.0000000000000000     
   1.8260925428279253E-002   9.2045767117561919E-002   0.0000000000000000     
   1.8888561702638414E-002   9.8684740129650311E-002   0.0000000000000000     
   1.9491179131598306E-002  0.10548205428760346        0.0000000000000000     
   1.2672196492313641E-002   7.9072594426760845E-002   0.0000000000000000     
   1.3176223364005956E-002   8.5399610003254120E-002   0.0000000000000000     
   1.3662326805952819E-002   9.1885636958939504E-002   0.0000000000000000     
   1.4130506818154236E-002   9.8530675293817011E-002   0.0000000000000000     
   1.4580763400610203E-002  0.10533472500788663        0.0000000000000000     
   8.4336689605429126E-003   7.8951823532615859E-002   0.0000000000000000     
   8.7662389210682434E-003   8.5281534057740541E-002   0.0000000000000000     
   9.0875572215086409E-003   9.1771003656978836E-002   0.0000000000000000     
   9.3976238618641034E-003   9.8420232330330745E-002   0.0000000000000000     
   9.6964388421346276E-003  0.10522922007779628        0.0000000000000000     
   4.2150137480509607E-003   7.8880531848544613E-002   0.0000000000000000     
   4.3783169797077005E-003   8.5210907414797657E-002   0.0000000000000000     
   4.5366166749467177E-003   9.1701867211679958E-002   0.0000000000000000     
   4.6899128337680104E-003   9.8353411239191557E-002   0.0000000000000000     
   4.8382054561715787E-003  0.10516553949733243        0.0000000000000000     
   1.6230854837786819E-005   7.8858719374547082E-002   0.0000000000000000     
   1.2457539924323573E-005   8.5187730074425441E-002   0.0000000000000000     
   9.5051662670479114E-006   9.1678227623042882E-002   0.0000000000000000     
   7.3737338659588859E-006   9.8330212020399446E-002   0.0000000000000000     
   6.0632427210560898E-006  0.10514368326649508        0.0000000000000000     
   1.9491179131598306E-002  0.10548205428760346        0.0000000000000000     
   2.0067210037142902E-002  0.11242610651650338        0.0000000000000000     
   2.0615086741256155E-002  0.11950529374143208        0.0000000000000000     
   2.1134809243938076E-002  0.12671961596238954        0.0000000000000000     
   2.1626377545188657E-002  0.13406907317937578        0.0000000000000000     
   1.4580763400610203E-002  0.10533472500788663        0.0000000000000000     
   1.5011525952082031E-002  0.11228600381486369        0.0000000000000000     
   1.5421223871331022E-002  0.11937272942846355        0.0000000000000000     
   1.5809857158357182E-002  0.12659490184868619        0.0000000000000000     
   1.6177425813160506E-002  0.13395252107553163        0.0000000000000000     
   9.6964388421346276E-003  0.10522922007779628        0.0000000000000000     
   9.9826342863858081E-003  0.11218587172741437        0.0000000000000000     
   1.0254842318683234E-002  0.11927809210722409        0.0000000000000000     
   1.0513062939026907E-002  0.12650588121722539        0.0000000000000000     
   1.0757296147416825E-002  0.13386923905741829        0.0000000000000000     
   4.8382054561715787E-003  0.10516553949733243        0.0000000000000000     
   4.9805350400542363E-003  0.11212571025415551        0.0000000000000000     
   5.1159420833127960E-003  0.11922138177771377        0.0000000000000000     
   5.2444265859472551E-003  0.12645255406800718        0.0000000000000000     
   5.3659885479576145E-003  0.13381922712503574        0.0000000000000000     
   6.0632427210560898E-006  0.10514368326649508        0.0000000000000000     
   5.2282130873133360E-006  0.11210551939508705        0.0000000000000000     
   4.5231652197016189E-006  0.11920259843993253        0.0000000000000000     
   3.9480991182224020E-006  0.12643492040103155        0.0000000000000000     
   3.5030147828743301E-006  0.13380248527838404        0.0000000000000000     
   2.1626377545188657E-002  0.13406907317937578        0.0000000000000000     
   2.2090305190961501E-002  0.14154215912946938        0.0000000000000000     
   2.2527105727210207E-002  0.14912736754974890        0.0000000000000000     
   2.2936779153934776E-002  0.15682469844021435        0.0000000000000000     
   2.3319325471135199E-002  0.16463415180086574        0.0000000000000000     
   1.6177425813160506E-002  0.13395252107553163        0.0000000000000000     
   1.6524198433700798E-002  0.14143390658276125        0.0000000000000000     
   1.6850443617937860E-002  0.14902737784413647        0.0000000000000000     
   1.7156161365871687E-002  0.15673293485965725        0.0000000000000000     
   1.7441351677502277E-002  0.16455057762932365        0.0000000000000000     
   1.0757296147416825E-002  0.13386923905741829        0.0000000000000000     
   1.0987631728100919E-002  0.14135643987957028        0.0000000000000000     
   1.1204159465327115E-002  0.14895575793544896        0.0000000000000000     
   1.1406879359095415E-002  0.15666719322505426        0.0000000000000000     
   1.1595791409405819E-002  0.16449074574838621        0.0000000000000000     
   5.3659885479576145E-003  0.13381922712503574        0.0000000000000000     
   5.4806050741618602E-003  0.14130975901989648        0.0000000000000000     
   5.5882532693779779E-003  0.14891250782368637        0.0000000000000000     
   5.6889331336059650E-003  0.15662747353640530        0.0000000000000000     
   5.7826446668458233E-003  0.16445465615805341        0.0000000000000000     
   3.5030147828743301E-006  0.13380248527838404        0.0000000000000000     
   3.1184718836264457E-006  0.14129386400373983        0.0000000000000000     
   2.7250300904465988E-006  0.14889762750884863        0.0000000000000000     
   2.3226894033341659E-006  0.15661377579371039        0.0000000000000000     
   1.9114498222890658E-006  0.16444230885832517        0.0000000000000000     
   2.3319325471135199E-002  0.16463415180086574        0.0000000000000000     
   2.3673008633217831E-002  0.17254343445886949        0.0000000000000000     
   2.3996092594589003E-002  0.18054025324139222        0.0000000000000000     
   2.4288577355248728E-002  0.18862460814843385        0.0000000000000000     
   2.4550462915196997E-002  0.19679649917999434        0.0000000000000000     
   1.7441351677502277E-002  0.16455057762932365        0.0000000000000000     
   1.7704825102294760E-002  0.17246795333642950        0.0000000000000000     
   1.7945392189714242E-002  0.18047270916426869        0.0000000000000000     
   1.8163052939760730E-002  0.18856484511284113        0.0000000000000000     
   1.8357807352434218E-002  0.19674436118214697        0.0000000000000000     
   1.1595791409405819E-002  0.16449074574838621        0.0000000000000000     
   1.1770189272812388E-002  0.17241397823405730        0.0000000000000000     
   1.1929366605869162E-002  0.18042445341068000        0.0000000000000000     
   1.2073323408576158E-002  0.18852217127825427        0.0000000000000000     
   1.2202059680933365E-002  0.19670713183678012        0.0000000000000000     
   5.7826446668458233E-003  0.16445465615805341        0.0000000000000000     
   5.8691011447707083E-003  0.17238150915175288        0.0000000000000000     
   5.9480158430537710E-003  0.18039548598062616        0.0000000000000000     
   6.0193887616950123E-003  0.18849658664467309        0.0000000000000000     
   6.0832199006944296E-003  0.19668481114389386        0.0000000000000000     
   1.9114498222890658E-006  0.16444230885832517        0.0000000000000000     
   1.5607181697262218E-006  0.17237054608951632        0.0000000000000000     
   1.3399012680609911E-006  0.18038580687410716        0.0000000000000000     
   1.2489991172919641E-006  0.18848809121209778        0.0000000000000000     
   1.2880117174190325E-006  0.19667739910348808        0.0000000000000000     
   2.4550462915196997E-002  0.19679649917999434        0.0000000000000000     
   2.4782472530638540E-002  0.20504092295703441        0.0000000000000000     
   2.4985329457778094E-002  0.21334287610051478        0.0000000000000000     
   2.5159033696615655E-002  0.22170235861043538        0.0000000000000000     
   2.5303585247151220E-002  0.23011937048679620        0.0000000000000000     
   1.8357807352434218E-002  0.19674436118214697        0.0000000000000000     
   1.8530341314967849E-002  0.20499478301744545        0.0000000000000000     
   1.8681340714594749E-002  0.21329963626399590        0.0000000000000000     
   1.8810805551314921E-002  0.22165892092179840        0.0000000000000000     
   1.8918735825128360E-002  0.23007263699085284        0.0000000000000000     
   1.2202059680933365E-002  0.19670713183678012        0.0000000000000000     
   1.2316114451583093E-002  0.20496182601638357        0.0000000000000000     
   1.2416026749167643E-002  0.21326874474719060        0.0000000000000000     
   1.2501796573687024E-002  0.22162788802920111        0.0000000000000000     
   1.2573423925141226E-002  0.23003925586241517        0.0000000000000000     
   6.0832199006944296E-003  0.19668481114389386        0.0000000000000000     
   6.1397919404842759E-003  0.20494205195384890        0.0000000000000000     
   6.1893875614967868E-003  0.21325020155009877        0.0000000000000000     
   6.2320067637319657E-003  0.22160925993264360        0.0000000000000000     
   6.2676495471898127E-003  0.23001922710148331        0.0000000000000000     
   1.2880117174190325E-006  0.19667739910348808        0.0000000000000000     
   1.3737816713938877E-006  0.20493546082984126        0.0000000000000000     
   1.4231515821706061E-006  0.21324400667272050        0.0000000000000000     
   1.4361214497458810E-006  0.22160303663212583        0.0000000000000000     
   1.4126912741205255E-006  0.23001255070805721        0.0000000000000000     
   2.5303585247151220E-002  0.23011937048679620        0.0000000000000000     
   2.5425267149052182E-002  0.23856635138460816        0.0000000000000000     
   2.5530362441985935E-002  0.24701574095888212        0.0000000000000000     
   2.5618871125952476E-002  0.25546753920961807        0.0000000000000000     
   2.5690793200951800E-002  0.26392174613681596        0.0000000000000000     
   1.8918735825128360E-002  0.23007263699085284        0.0000000000000000     
   1.9009523201321307E-002  0.23851160080981620        0.0000000000000000     
   1.9087559345179996E-002  0.24694662871734541        0.0000000000000000     
   1.9152844256704424E-002  0.25537772071344039        0.0000000000000000     
   1.9205377935894590E-002  0.26380487679810127        0.0000000000000000     
   1.2573423925141226E-002  0.23003925586241517        0.0000000000000000     
   1.2633626943990853E-002  0.23847250041244566        0.0000000000000000     
   1.2685123770696499E-002  0.24689727384490548        0.0000000000000000     
   1.2727914405258171E-002  0.25531357615979455        0.0000000000000000     
   1.2761998847675862E-002  0.26372140735711302        0.0000000000000000     
   6.2676495471898127E-003  0.23001922710148331        0.0000000000000000     
   6.2975783770608104E-003  0.23844905019249668        0.0000000000000000     
   6.3230557185354449E-003  0.24686767634156245        0.0000000000000000     
   6.3440815716137135E-003  0.25527510554868066        0.0000000000000000     
   6.3606559362956181E-003  0.26367133781385121        0.0000000000000000     
   1.4126912741205255E-006  0.23001255070805721        0.0000000000000000     
   1.3775005311851812E-006  0.23844125014996917        0.0000000000000000     
   1.3551886968287546E-006  0.24685783620731630        0.0000000000000000     
   1.3457557710521133E-006  0.25526230888009849        0.0000000000000000     
   1.3492017538548236E-006  0.26365466816831590        0.0000000000000000     
   2.5690793200951800E-002  0.26392174613681596        0.0000000000000000     
   2.5758326655402571E-002  0.27232324106141720        0.0000000000000000     
   2.5833669477723427E-002  0.28061690330436306        0.0000000000000000     
   2.5916821667914373E-002  0.28880273286565367        0.0000000000000000     
   2.6007783225975401E-002  0.29688072974528890        0.0000000000000000     
   1.9205377935894590E-002  0.26380487679810127        0.0000000000000000     
   1.9255129085921436E-002  0.27217077384202121        0.0000000000000000     
   1.9312066409955891E-002  0.28041808871589363        0.0000000000000000     
   1.9376189907997960E-002  0.28854682141971844        0.0000000000000000     
   1.9447499580047638E-002  0.29655697195349562        0.0000000000000000     
   1.2761998847675862E-002  0.26372140735711302        0.0000000000000000     
   1.2794567965422962E-002  0.27206187441588803        0.0000000000000000     
   1.2832812625972849E-002  0.28027608431514689        0.0000000000000000     
   1.2876732829325525E-002  0.28836403705488955        0.0000000000000000     
   1.2926328575480995E-002  0.29632573263511608        0.0000000000000000     
   6.3606559362956181E-003  0.26367133781385121        0.0000000000000000     
   6.3766432939071490E-003  0.27199654278301755        0.0000000000000000     
   6.3959081257743029E-003  0.28019089010212278        0.0000000000000000     
   6.4184504318970763E-003  0.28825437977116702        0.0000000000000000     
   6.4442702122754700E-003  0.29618701179015028        0.0000000000000000     
   1.3492017538548236E-006  0.26365466816831590        0.0000000000000000     
   1.3550713739993517E-006  0.27197477894340977        0.0000000000000000     
   1.3529093602498987E-006  0.28016250607682142        0.0000000000000000     
   1.3427157126051636E-006  0.28821784956855095        0.0000000000000000     
   1.3244904310677486E-006  0.29614080941859833        0.0000000000000000     
   4.3541748468155315E-005   5.5351142915542988E-002   0.0000000000000000     
   3.4731071661035697E-005   6.0949507159725677E-002   0.0000000000000000     
   2.7242363786934734E-005   6.6733557984287262E-002   0.0000000000000000     
   2.1075624845851314E-005   7.2703295389227734E-002   0.0000000000000000     
   1.6230854837786819E-005   7.8858719374547082E-002   0.0000000000000000     
  -3.4712860885294477E-003   5.5329754046825851E-002   0.0000000000000000     
  -3.6540789346945586E-003   6.0951774756403940E-002   0.0000000000000000     
  -3.8341518511406138E-003   6.6751868344528426E-002   0.0000000000000000     
  -4.0115048378676138E-003   7.2730034811199329E-002   0.0000000000000000     
  -4.1861378948755568E-003   7.8886274156416636E-002   0.0000000000000000     
  -6.9881862797092709E-003   5.5392003587093140E-002   0.0000000000000000     
  -7.3554341186289323E-003   6.1022849647270228E-002   0.0000000000000000     
  -7.7157441311286106E-003   6.6828311776138169E-002   0.0000000000000000     
  -8.0691163172083059E-003   7.2808389973696958E-002   0.0000000000000000     
  -8.4155506768680156E-003   7.8963084239946607E-002   0.0000000000000000     
  -1.0507158825071319E-002   5.5537891536344856E-002   0.0000000000000000     
  -1.1069334480142086E-002   6.1162731832324561E-002   0.0000000000000000     
  -1.1617534476177057E-002   6.6962888279116478E-002   0.0000000000000000     
  -1.2151758813176225E-002   7.2938360876720634E-002   0.0000000000000000     
  -1.2672007491139590E-002   7.9089149625136967E-002   0.0000000000000000     
  -1.4028203724615586E-002   5.5767417894581006E-002   0.0000000000000000     
  -1.4795780019234022E-002   6.1371421311566962E-002   0.0000000000000000     
  -1.5539522886285951E-002   6.7155597853463408E-002   0.0000000000000000     
  -1.6259432325771369E-002   7.3119947520270331E-002   0.0000000000000000     
  -1.6955508337690283E-002   7.9264470311987759E-002   0.0000000000000000     
   1.6230854837786819E-005   7.8858719374547082E-002   0.0000000000000000     
   1.2457539924323573E-005   8.5187730074425441E-002   0.0000000000000000     
   9.5051662670479114E-006   9.1678227623042882E-002   0.0000000000000000     
   7.3737338659588859E-006   9.8330212020399446E-002   0.0000000000000000     
   6.0632427210560898E-006  0.10514368326649508        0.0000000000000000     
  -4.1861378948755568E-003   7.8886274156416636E-002   0.0000000000000000     
  -4.3561717449288970E-003   8.5212618981044361E-002   0.0000000000000000     
  -4.5197271107920850E-003   9.1701101885946573E-002   0.0000000000000000     
  -4.6768039924651207E-003   9.8351722871123246E-002   0.0000000000000000     
  -4.8274023899480059E-003  0.10516448193657436        0.0000000000000000     
  -8.4155506768680156E-003   7.8963084239946607E-002   0.0000000000000000     
  -8.7524032214989726E-003   8.5286191079075008E-002   0.0000000000000000     
  -9.0770299624923969E-003   9.1771506995270105E-002   0.0000000000000000     
  -9.3894308998482973E-003   9.8419031988531913E-002   0.0000000000000000     
  -9.6896060335666719E-003  0.10522876605886040        0.0000000000000000     
  -1.2672007491139590E-002   7.9089149625136967E-002   0.0000000000000000     
  -1.3176236889785900E-002   8.5408446368517327E-002   0.0000000000000000     
  -1.3662403388833897E-002   9.1889442951013478E-002   0.0000000000000000     
  -1.4130506988283578E-002   9.8532139372625449E-002   0.0000000000000000     
  -1.4580547688134944E-002  0.10533653563335320        0.0000000000000000     
  -1.6955508337690283E-002   7.9264470311987759E-002   0.0000000000000000     
  -1.7627672749789682E-002   8.5579384849371318E-002   0.0000000000000000     
  -1.8275847389816573E-002   9.2054909753176678E-002   0.0000000000000000     
  -1.8900032257770951E-002   9.8691045023403839E-002   0.0000000000000000     
  -1.9500227353652821E-002  0.10548779066005277        0.0000000000000000     
   6.0632427210560898E-006  0.10514368326649508        0.0000000000000000     
   5.2282130873133360E-006  0.11210551939508705        0.0000000000000000     
   4.5231652197016189E-006  0.11920259843993253        0.0000000000000000     
   3.9480991182224020E-006  0.12643492040103155        0.0000000000000000     
   3.5030147828743301E-006  0.13380248527838404        0.0000000000000000     
  -4.8274023899480059E-003  0.10516448193657436        0.0000000000000000     
  -4.9711847225751109E-003  0.11212578545219726        0.0000000000000000     
  -5.1078134096808111E-003  0.11922203978788919        0.0000000000000000     
  -5.2372884512651057E-003  0.12645324494365018        0.0000000000000000     
  -5.3596098473279920E-003  0.13381940091948027        0.0000000000000000     
  -9.6896060335666719E-003  0.10522876605886040        0.0000000000000000     
  -9.9766022949931872E-003  0.11218699472747437        0.0000000000000000     
  -1.0249466615473511E-002  0.11928000351559254        0.0000000000000000     
  -1.0508198995007642E-002  0.12650779242321494        0.0000000000000000     
  -1.0752799433595582E-002  0.13387036145034162        0.0000000000000000     
  -1.4580547688134944E-002  0.10533653563335320        0.0000000000000000     
  -1.5011024504166911E-002  0.11228914722091839        0.0000000000000000     
  -1.5420436452158390E-002  0.11937648962304259        0.0000000000000000     
  -1.5808783532109384E-002  0.12659856283972581        0.0000000000000000     
  -1.6176065744019894E-002  0.13395536687096807        0.0000000000000000     
  -1.9500227353652821E-002  0.10548779066005277        0.0000000000000000     
  -2.0074451350096282E-002  0.11243224293252935        0.0000000000000000     
  -2.0620722919735459E-002  0.11951149811023931        0.0000000000000000     
  -2.1139042062570342E-002  0.12672555619318276        0.0000000000000000     
  -2.1629408778600930E-002  0.13407441718135960        0.0000000000000000     
   3.5030147828743301E-006  0.13380248527838404        0.0000000000000000     
   3.1184718836264457E-006  0.14129386400373983        0.0000000000000000     
   2.7250300904465988E-006  0.14889762750884863        0.0000000000000000     
   2.3226894033341659E-006  0.15661377579371039        0.0000000000000000     
   1.9114498222890658E-006  0.16444230885832517        0.0000000000000000     
  -5.3596098473279920E-003  0.13381940091948027        0.0000000000000000     
  -5.4748803386908624E-003  0.14130928834538475        0.0000000000000000     
  -5.5832026661751036E-003  0.14891168785136888        0.0000000000000000     
  -5.6845768297807192E-003  0.15662659943743265        0.0000000000000000     
  -5.7790028295077048E-003  0.16445402310357612        0.0000000000000000     
  -1.0752799433595582E-002  0.13387036145034162        0.0000000000000000     
  -1.0983443617518683E-002  0.14135656555911563        0.0000000000000000     
  -1.1200307233058300E-002  0.14895525971168019        0.0000000000000000     
  -1.1403390280214431E-002  0.15666644390803519        0.0000000000000000     
  -1.1592692758987076E-002  0.16449011814818071        0.0000000000000000     
  -1.6176065744019894E-002  0.13395536687096807        0.0000000000000000     
  -1.6522571364599840E-002  0.14143569564493255        0.0000000000000000     
  -1.6848588670559137E-002  0.14902834308978252        0.0000000000000000     
  -1.7154117661897804E-002  0.15673330920551798        0.0000000000000000     
  -1.7439158338615826E-002  0.16455059399213889        0.0000000000000000     
  -2.1629408778600930E-002  0.13407441718135960        0.0000000000000000     
  -2.2092263579934327E-002  0.14154667860283546        0.0000000000000000     
  -2.2528046978677628E-002  0.14913093798567598        0.0000000000000000     
  -2.2936758974830836E-002  0.15682719532988101        0.0000000000000000     
  -2.3318399568393957E-002  0.16463545063545071        0.0000000000000000     
   1.9114498222890658E-006  0.16444230885832517        0.0000000000000000     
   1.5607181697262218E-006  0.17237054608951632        0.0000000000000000     
   1.3399012680609911E-006  0.18038580687410716        0.0000000000000000     
   1.2489991172919641E-006  0.18848809121209778        0.0000000000000000     
   1.2880117174190325E-006  0.19667739910348808        0.0000000000000000     
  -5.7790028295077048E-003  0.16445402310357612        0.0000000000000000     
  -5.8660690418358835E-003  0.17238120909167992        0.0000000000000000     
  -5.9453638432450809E-003  0.18039540764362488        0.0000000000000000     
  -6.0168872337352927E-003  0.18849661875941090        0.0000000000000000     
  -6.0806392133065197E-003  0.19668484243903808        0.0000000000000000     
  -1.1592692758987076E-002  0.16449011814818071        0.0000000000000000     
  -1.1767425170091451E-002  0.17241361820257611        0.0000000000000000     
  -1.1926798014242769E-002  0.18042427984168097        0.0000000000000000     
  -1.2070811291441033E-002  0.18852210306549533        0.0000000000000000     
  -1.2199465001686238E-002  0.19670708787401908        0.0000000000000000     
  -1.7439158338615826E-002  0.16455059399213889        0.0000000000000000     
  -1.7702507666596971E-002  0.17246777342220487        0.0000000000000000     
  -1.7942962611725007E-002  0.18047242346827552        0.0000000000000000     
  -1.8160523173999923E-002  0.18856454413035098        0.0000000000000000     
  -1.8355189353421730E-002  0.19674413540843105        0.0000000000000000     
  -2.3318399568393957E-002  0.16463545063545071        0.0000000000000000     
  -2.3671316531352453E-002  0.17254367475056617        0.0000000000000000     
  -2.3993857635691791E-002  0.18053983852340857        0.0000000000000000     
  -2.4286022881411972E-002  0.18862394195397786        0.0000000000000000     
  -2.4547812268512999E-002  0.19679598504227408        0.0000000000000000     
   1.2880117174190325E-006  0.19667739910348808        0.0000000000000000     
   1.3737816713938877E-006  0.20493546082984126        0.0000000000000000     
   1.4231515821706061E-006  0.21324400667272050        0.0000000000000000     
   1.4361214497458810E-006  0.22160303663212583        0.0000000000000000     
   1.4126912741205255E-006  0.23001255070805721        0.0000000000000000     
  -6.0806392133065197E-003  0.19668484243903808        0.0000000000000000     
  -6.1370510466314705E-003  0.20494203943957140        0.0000000000000000     
  -6.1865539983828547E-003  0.21325017051807593        0.0000000000000000     
  -6.2291480685606627E-003  0.22160923567455165        0.0000000000000000     
  -6.2648332571649040E-003  0.23001923490899853        0.0000000000000000     
  -1.2199465001686238E-002  0.19670708787401908        0.0000000000000000     
  -1.2313393566200250E-002  0.20496177457824977        0.0000000000000000     
  -1.2413231406204935E-002  0.21326870348918503        0.0000000000000000     
  -1.2498978521700293E-002  0.22162787460682476        0.0000000000000000     
  -1.2570634912686320E-002  0.23003928793116901        0.0000000000000000     
  -1.8355189353421730E-002  0.19674413540843105        0.0000000000000000     
  -1.8527653777034941E-002  0.20499466624587651        0.0000000000000000     
  -1.8678609071884074E-002  0.21329960558604791        0.0000000000000000     
  -1.8808055237969142E-002  0.22165895342894532        0.0000000000000000     
  -1.8915992275290127E-002  0.23007270977456859        0.0000000000000000     
  -2.4547812268512999E-002  0.19679598504227408        0.0000000000000000     
  -2.4779831679135542E-002  0.20504071444245153        0.0000000000000000     
  -2.4982686995420274E-002  0.21334287680866459        0.0000000000000000     
  -2.5156378217367204E-002  0.22170247214091318        0.0000000000000000     
  -2.5300905344976324E-002  0.23011950043919732        0.0000000000000000     
   1.4126912741205255E-006  0.23001255070805721        0.0000000000000000     
   1.3775005311851812E-006  0.23844125014996917        0.0000000000000000     
   1.3551886968287546E-006  0.24685783620731630        0.0000000000000000     
   1.3457557710521133E-006  0.25526230888009849        0.0000000000000000     
   1.3492017538548236E-006  0.26365466816831590        0.0000000000000000     
  -6.2648332571649040E-003  0.23001923490899853        0.0000000000000000     
  -6.2948266922313208E-003  0.23844909456846636        0.0000000000000000     
  -6.3203455017956569E-003  0.24686774100000480        0.0000000000000000     
  -6.3413896858579106E-003  0.25527517420361373        0.0000000000000000     
  -6.3579592444180846E-003  0.26367139417929331        0.0000000000000000     
  -1.2570634912686320E-002  0.23003928793116901        0.0000000000000000     
  -1.2630885207860003E-002  0.23847257773159147        0.0000000000000000     
  -1.2682414035918320E-002  0.24689737827746569        0.0000000000000000     
  -1.2725221396861270E-002  0.25531368956879180        0.0000000000000000     
  -1.2759307290688852E-002  0.26372151160556967        0.0000000000000000     
  -1.8915992275290127E-002  0.23007270977456859        0.0000000000000000     
  -1.9006798046354866E-002  0.23851169963934435        0.0000000000000000     
  -1.9084850413671164E-002  0.24694674803969904        0.0000000000000000     
  -1.9150149377239026E-002  0.25537785497563259        0.0000000000000000     
  -1.9202694937058458E-002  0.26380502044714510        0.0000000000000000     
  -2.5300905344976324E-002  0.23011950043919732        0.0000000000000000     
  -2.5422565207715898E-002  0.23856646029172512        0.0000000000000000     
  -2.5527654635054187E-002  0.24701585028670478        0.0000000000000000     
  -2.5616173626991184E-002  0.25546767042413621        0.0000000000000000     
  -2.5688122183526892E-002  0.26392192070401954        0.0000000000000000     
   1.3492017538548236E-006  0.26365466816831590        0.0000000000000000     
   1.3550713739993517E-006  0.27197477894340977        0.0000000000000000     
   1.3529093602498987E-006  0.28016250607682142        0.0000000000000000     
   1.3427157126051636E-006  0.28821784956855095        0.0000000000000000     
   1.3244904310677486E-006  0.29614080941859833        0.0000000000000000     
  -6.3579592444180846E-003  0.26367139417929331        0.0000000000000000     
  -6.3739376241129589E-003  0.27199658701592316        0.0000000000000000     
  -6.3932082715793138E-003  0.28019093880238288        0.0000000000000000     
  -6.4157711868171536E-003  0.28825444953867280        0.0000000000000000     
  -6.4416263698264756E-003  0.29618711922479268        0.0000000000000000     
  -1.2759307290688852E-002  0.26372151160556967        0.0000000000000000     
  -1.2791875714490192E-002  0.27206197111941605        0.0000000000000000     
  -1.2830130665354397E-002  0.28027619484194760        0.0000000000000000     
  -1.2874072143281474E-002  0.28836418277316422        0.0000000000000000     
  -1.2923700148271419E-002  0.29632593491306602        0.0000000000000000     
  -1.9202694937058458E-002  0.26380502044714510        0.0000000000000000     
  -1.9252459199757700E-002  0.27217093125388864        0.0000000000000000     
  -1.9309414271965000E-002  0.28041827419551540        0.0000000000000000     
  -1.9373560153680351E-002  0.28854704927202529        0.0000000000000000     
  -1.9444896844903761E-002  0.29655725648341830        0.0000000000000000     
  -2.5688122183526892E-002  0.26392192070401954        0.0000000000000000     
  -2.5755688079915486E-002  0.27232346741934083        0.0000000000000000     
  -2.5831059091411118E-002  0.28061717686308618        0.0000000000000000     
  -2.5914235218013788E-002  0.28880304903525583        0.0000000000000000     
  -2.6005216459723507E-002  0.29688108393584955        0.0000000000000000     
  -1.4028203724615586E-002   5.5767417894581006E-002   0.0000000000000000     
  -1.4795780019234022E-002   6.1371421311566962E-002   0.0000000000000000     
  -1.5539522886285951E-002   6.7155597853463408E-002   0.0000000000000000     
  -1.6259432325771369E-002   7.3119947520270331E-002   0.0000000000000000     
  -1.6955508337690283E-002   7.9264470311987759E-002   0.0000000000000000     
  -1.7603106363426019E-002   5.6058896410354650E-002   0.0000000000000000     
  -1.8577959431296982E-002   6.1638666106489770E-002   0.0000000000000000     
  -1.9518542677324949E-002   6.7403937321890497E-002   0.0000000000000000     
  -2.0424856101509910E-002   7.3354710056556804E-002   0.0000000000000000     
  -2.1296899703851863E-002   7.9490984310488746E-002   0.0000000000000000     
  -2.1283652126586550E-002   5.6390640832218841E-002   0.0000000000000000     
  -2.2459061411723224E-002   6.1954214238585339E-002   0.0000000000000000     
  -2.3591427165163707E-002   6.7705403507109310E-002   0.0000000000000000     
  -2.4680749386908007E-002   7.3644208637790753E-002   0.0000000000000000     
  -2.5727028076956118E-002   7.9770629630629683E-002   0.0000000000000000     
  -2.5069841014097184E-002   5.6762651160173615E-002   0.0000000000000000     
  -2.6439085960512736E-002   6.2318065707853684E-002   0.0000000000000000     
  -2.7758176349802231E-002   6.8059996409119874E-002   0.0000000000000000     
  -2.9027112181965662E-002   7.3988443263972206E-002   0.0000000000000000     
  -3.0245893457003042E-002   8.0103406272410610E-002   0.0000000000000000     
  -2.8961673025957924E-002   5.7174927394218929E-002   0.0000000000000000     
  -3.0518033077665523E-002   6.2730220514294804E-002   0.0000000000000000     
  -3.2018790231240511E-002   6.8467716027922190E-002   0.0000000000000000     
  -3.3463944486682884E-002   7.4387413935101079E-002   0.0000000000000000     
  -3.4853495843992638E-002   8.0489314235831472E-002   0.0000000000000000     
  -1.6955508337690283E-002   7.9264470311987759E-002   0.0000000000000000     
  -1.7627672749789682E-002   8.5579384849371318E-002   0.0000000000000000     
  -1.8275847389816573E-002   9.2054909753176678E-002   0.0000000000000000     
  -1.8900032257770951E-002   9.8691045023403839E-002   0.0000000000000000     
  -1.9500227353652821E-002  0.10548779066005277        0.0000000000000000     
  -2.1296899703851863E-002   7.9490984310488746E-002   0.0000000000000000     
  -2.2136888327558005E-002   8.5799733581323451E-002   0.0000000000000000     
  -2.2947036815835514E-002   9.2267931366698100E-002   0.0000000000000000     
  -2.3727345168684397E-002   9.8895577666612694E-002   0.0000000000000000     
  -2.4477813386104649E-002  0.10568267248106725        0.0000000000000000     
  -2.5727028076956118E-002   7.9770629630629683E-002   0.0000000000000000     
  -2.6734061149138545E-002   8.6070219624060126E-002   0.0000000000000000     
  -2.7705646517285801E-002   9.2528531756516097E-002   0.0000000000000000     
  -2.8641784181397879E-002   9.9145566027997636E-002   0.0000000000000000     
  -2.9542474141474779E-002  0.10592132243850469        0.0000000000000000     
  -3.0245893457003042E-002   8.0103406272410610E-002   0.0000000000000000     
  -3.1419191214531322E-002   8.6390842977581372E-002   0.0000000000000000     
  -3.2551676494167438E-002   9.2836710922630725E-002   0.0000000000000000     
  -3.3643349295911396E-002   9.9441010107558653E-002   0.0000000000000000     
  -3.4694209619763203E-002  0.10620374053236517        0.0000000000000000     
  -3.4853495843992638E-002   8.0489314235831472E-002   0.0000000000000000     
  -3.6192278523736299E-002   8.6761603641887175E-002   0.0000000000000000     
  -3.7485126746480406E-002   9.3192468865041914E-002   0.0000000000000000     
  -3.8732040512224952E-002   9.9781909905295729E-002   0.0000000000000000     
  -3.9933019820969938E-002  0.10652992676264862        0.0000000000000000     
  -1.9500227353652821E-002  0.10548779066005277        0.0000000000000000     
  -2.0074451350096282E-002  0.11243224293252935        0.0000000000000000     
  -2.0620722919735459E-002  0.11951149811023931        0.0000000000000000     
  -2.1139042062570342E-002  0.12672555619318276        0.0000000000000000     
  -2.1629408778600930E-002  0.13407441718135960        0.0000000000000000     
  -2.4477813386104649E-002  0.10568267248106725        0.0000000000000000     
  -2.5196007898781941E-002  0.11261690915727042        0.0000000000000000     
  -2.5879495137401936E-002  0.11968598104243088        0.0000000000000000     
  -2.6528275101964635E-002  0.12688988813654870        0.0000000000000000     
  -2.7142347792470042E-002  0.13422863043962383        0.0000000000000000     
  -2.9542474141474779E-002  0.10592132243850469        0.0000000000000000     
  -3.0404819216224500E-002  0.11284377319010479        0.0000000000000000     
  -3.1225922224355048E-002  0.11990089048486544        0.0000000000000000     
  -3.2005783165866407E-002  0.12709267432278662        0.0000000000000000     
  -3.2744402040758583E-002  0.13441912470386838        0.0000000000000000     
  -3.4694209619763203E-002  0.10620374053236517        0.0000000000000000     
  -3.5700885302423963E-002  0.11311283503103252        0.0000000000000000     
  -3.6660004180594785E-002  0.12015622643754298        0.0000000000000000     
  -3.7571566254275636E-002  0.12733391475189654        0.0000000000000000     
  -3.8435571523466550E-002  0.13464589997409321        0.0000000000000000     
  -3.9933019820969938E-002  0.10652992676264862        0.0000000000000000     
  -4.1084206157380350E-002  0.11342409468005354        0.0000000000000000     
  -4.2181741006121154E-002  0.12045198890046348        0.0000000000000000     
  -4.3225624367192350E-002  0.12761360942387842        0.0000000000000000     
  -4.4215856240593952E-002  0.13490895625029839        0.0000000000000000     
  -2.1629408778600930E-002  0.13407441718135960        0.0000000000000000     
  -2.2092263579934327E-002  0.14154667860283546        0.0000000000000000     
  -2.2528046978677628E-002  0.14913093798567598        0.0000000000000000     
  -2.2936758974830836E-002  0.15682719532988101        0.0000000000000000     
  -2.3318399568393957E-002  0.16463545063545071        0.0000000000000000     
  -2.7142347792470042E-002  0.13422863043962383        0.0000000000000000     
  -2.7722319462170682E-002  0.14169061419883117        0.0000000000000000     
  -2.8268796364319088E-002  0.14926424566134555        0.0000000000000000     
  -2.8781778498915264E-002  0.15694952482716706        0.0000000000000000     
  -2.9261265865959202E-002  0.16474645169629562        0.0000000000000000     
  -3.2744402040758583E-002  0.13441912470386838        0.0000000000000000     
  -3.3442538209957441E-002  0.14186860219892639        0.0000000000000000     
  -3.4100951034388850E-002  0.14942946737877655        0.0000000000000000     
  -3.4719640514052796E-002  0.15710172024341876        0.0000000000000000     
  -3.5298606648949293E-002  0.16488536079285307        0.0000000000000000     
  -3.8435571523466550E-002  0.13464589997409321        0.0000000000000000     
  -3.9252919823294603E-002  0.14208064260312125        0.0000000000000000     
  -4.0024510988886909E-002  0.14962660313796888        0.0000000000000000     
  -4.0750345020243453E-002  0.15728378157863612        0.0000000000000000     
  -4.1430421917364242E-002  0.16505217792512297        0.0000000000000000     
  -4.4215856240593952E-002  0.13490895625029839        0.0000000000000000     
  -4.5153464302182186E-002  0.14232673541141566        0.0000000000000000     
  -4.6039476227813271E-002  0.14985565293892258        0.0000000000000000     
  -4.6873892017487220E-002  0.15749570883281916        0.0000000000000000     
  -4.7656711671204041E-002  0.16524690309310536        0.0000000000000000     
  -2.3318399568393957E-002  0.16463545063545071        0.0000000000000000     
  -2.3671316531352453E-002  0.17254367475056617        0.0000000000000000     
  -2.3993857635691791E-002  0.18053983852340857        0.0000000000000000     
  -2.4286022881411972E-002  0.18862394195397786        0.0000000000000000     
  -2.4547812268512999E-002  0.19679598504227408        0.0000000000000000     
  -2.9261265865959202E-002  0.16474645169629562        0.0000000000000000     
  -2.9705219932224965E-002  0.17264339163400871        0.0000000000000000     
  -3.0111602164486610E-002  0.18062871000558367        0.0000000000000000     
  -3.0480412562744127E-002  0.18870240681102060        0.0000000000000000     
  -3.0811651126997529E-002  0.19686448205031945        0.0000000000000000     
  -3.5298606648949293E-002  0.16488536079285307        0.0000000000000000     
  -3.5835586037081590E-002  0.17276899351888114        0.0000000000000000     
  -3.6328315276452944E-002  0.18074122291330474        0.0000000000000000     
  -3.6776794367063347E-002  0.18880204897612385        0.0000000000000000     
  -3.7181023308912813E-002  0.19695147170733854        0.0000000000000000     
  -4.1430421917364242E-002  0.16505217792512297        0.0000000000000000     
  -4.2062414845922325E-002  0.17292048040518346        0.0000000000000000     
  -4.2643996971590797E-002  0.18087737724657166        0.0000000000000000     
  -4.3175168294369633E-002  0.18892286844928763        0.0000000000000000     
  -4.3655928814258844E-002  0.19705695401333131        0.0000000000000000     
  -4.7656711671204041E-002  0.16524690309310536        0.0000000000000000     
  -4.8385706358747192E-002  0.17309785229291569        0.0000000000000000     
  -4.9058647249900167E-002  0.18103717300538449        0.0000000000000000     
  -4.9675534344662986E-002  0.18906486523051191        0.0000000000000000     
  -5.0236367643035636E-002  0.19718092896829781        0.0000000000000000     
  -2.4547812268512999E-002  0.19679598504227408        0.0000000000000000     
  -2.4779831679135542E-002  0.20504071444245153        0.0000000000000000     
  -2.4982686995420274E-002  0.21334287680866459        0.0000000000000000     
  -2.5156378217367204E-002  0.22170247214091318        0.0000000000000000     
  -2.5300905344976324E-002  0.23011950043919732        0.0000000000000000     
  -3.0811651126997529E-002  0.19686448205031945        0.0000000000000000     
  -3.1105623844227055E-002  0.20510120443809229        0.0000000000000000     
  -3.1362636701412955E-002  0.21339884268895126        0.0000000000000000     
  -3.1582689698555232E-002  0.22175739680289633        0.0000000000000000     
  -3.1765782835653872E-002  0.23017686677992749        0.0000000000000000     
  -3.7181023308912813E-002  0.19695147170733854        0.0000000000000000     
  -3.7540726844034485E-002  0.20517742150291615        0.0000000000000000     
  -3.7855629714461533E-002  0.21346782875882422        0.0000000000000000     
  -3.8125731920193938E-002  0.22182269347506267        0.0000000000000000     
  -3.8351033461231726E-002  0.23024201565163155        0.0000000000000000     
  -4.3655928814258844E-002  0.19705695401333131        0.0000000000000000     
  -4.4085140678557837E-002  0.20526936563692308        0.0000000000000000     
  -4.4461666034566000E-002  0.21354983501828337        0.0000000000000000     
  -4.4785504882283361E-002  0.22189836215741218        0.0000000000000000     
  -4.5056657221709880E-002  0.23031494705430944        0.0000000000000000     
  -5.0236367643035636E-002  0.19718092896829781        0.0000000000000000     
  -5.0738865347797098E-002  0.20537703684011313        0.0000000000000000     
  -5.1180745661726368E-002  0.21364486146732881        0.0000000000000000     
  -5.1562008584823460E-002  0.22198440284994481        0.0000000000000000     
  -5.1882654117088353E-002  0.23039566098796116        0.0000000000000000     
  -2.5300905344976324E-002  0.23011950043919732        0.0000000000000000     
  -2.5422565207715898E-002  0.23856646029172512        0.0000000000000000     
  -2.5527654635054187E-002  0.24701585028670478        0.0000000000000000     
  -2.5616173626991184E-002  0.25546767042413621        0.0000000000000000     
  -2.5688122183526892E-002  0.26392192070401954        0.0000000000000000     
  -3.1765782835653872E-002  0.23017686677992749        0.0000000000000000     
  -3.1919849120379484E-002  0.23863238023391051        0.0000000000000000     
  -3.2052821560402678E-002  0.24709906477871113        0.0000000000000000     
  -3.2164700155723439E-002  0.25557692041432922        0.0000000000000000     
  -3.2255484906341780E-002  0.26406594714076492        0.0000000000000000     
  -3.8351033461231726E-002  0.23024201565163155        0.0000000000000000     
  -3.8540312212782021E-002  0.23870498001107721        0.0000000000000000     
  -3.8702346050051940E-002  0.24719077127594602        0.0000000000000000     
  -3.8837134973041511E-002  0.25569938944623805        0.0000000000000000     
  -3.8944678981750726E-002  0.26423083452195312        0.0000000000000000     
  -4.5056657221709880E-002  0.23031494705430944        0.0000000000000000     
  -4.5283954484923478E-002  0.23878425962322525        0.0000000000000000     
  -4.5476228104001974E-002  0.24729096977840970        0.0000000000000000     
  -4.5633478078945390E-002  0.25583507751986262        0.0000000000000000     
  -4.5755704409753725E-002  0.26441658284758418        0.0000000000000000     
  -5.1882654117088353E-002  0.23039566098796116        0.0000000000000000     
  -5.2150775936803860E-002  0.23887021907035461        0.0000000000000000     
  -5.2374467722252765E-002  0.24739966028610189        0.0000000000000000     
  -5.2553729473435076E-002  0.25598398463520305        0.0000000000000000     
  -5.2688561190350792E-002  0.26462319211765806        0.0000000000000000     
  -2.5688122183526892E-002  0.26392192070401954        0.0000000000000000     
  -2.5755688079915486E-002  0.27232346741934083        0.0000000000000000     
  -2.5831059091411118E-002  0.28061717686308618        0.0000000000000000     
  -2.5914235218013788E-002  0.28880304903525583        0.0000000000000000     
  -2.6005216459723507E-002  0.29688108393584955        0.0000000000000000     
  -3.2255484906341780E-002  0.26406594714076492        0.0000000000000000     
  -3.2339983335592543E-002  0.27251324842563862        0.0000000000000000     
  -3.2433002966810606E-002  0.28086592773657093        0.0000000000000000     
  -3.2534543799995957E-002  0.28912398507356185        0.0000000000000000     
  -3.2644605835148603E-002  0.29728742043661133        0.0000000000000000     
  -3.8944678981750726E-002  0.26423083452195312        0.0000000000000000     
  -3.9043765947417888E-002  0.27273394308264820        0.0000000000000000     
  -3.9153183741281322E-002  0.28115755170788026        0.0000000000000000     
  -3.9272932363341014E-002  0.28950166039764919        0.0000000000000000     
  -3.9403011813596983E-002  0.29776626915195503        0.0000000000000000     
  -4.5755704409753725E-002  0.26441658284758418        0.0000000000000000     
  -4.5867035915391513E-002  0.27298555139036951        0.0000000000000000     
  -4.5991601414823266E-002  0.28149204877701417        0.0000000000000000     
  -4.6129400908048977E-002  0.28993607500751784        0.0000000000000000     
  -4.6280434395068668E-002  0.29831763008188072        0.0000000000000000     
  -5.2688561190350792E-002  0.26462319211765806        0.0000000000000000     
  -5.2809793239513417E-002  0.27326807334880265        0.0000000000000000     
  -5.2948255987436438E-002  0.28186941894397260        0.0000000000000000     
  -5.3103949434119849E-002  0.29042722890316786        0.0000000000000000     
  -5.3276873579563649E-002  0.29894150322638841        0.0000000000000000     
  -2.8961673025957924E-002   5.7174927394218929E-002   0.0000000000000000     
  -3.0518033077665523E-002   6.2730220514294804E-002   0.0000000000000000     
  -3.2018790231240511E-002   6.8467716027922190E-002   0.0000000000000000     
  -3.3463944486682884E-002   7.4387413935101079E-002   0.0000000000000000     
  -3.4853495843992638E-002   8.0489314235831472E-002   0.0000000000000000     
  -3.2970664117174781E-002   5.7645662838762102E-002   0.0000000000000000     
  -3.4712649332889096E-002   6.3199562149581778E-002   0.0000000000000000     
  -3.6394000985031184E-002   6.8931107382382228E-002   0.0000000000000000     
  -3.8014719073601065E-002   7.4840298537163452E-002   0.0000000000000000     
  -3.9574803598598711E-002   8.0927135613925463E-002   0.0000000000000000     
  -3.7108330242753791E-002   5.8193050798210438E-002   0.0000000000000000     
  -3.9039681295890971E-002   6.3734974105387684E-002   0.0000000000000000     
  -4.0904540786726909E-002   6.9452715491365974E-002   0.0000000000000000     
  -4.2702908715261605E-002   7.5346274956145307E-002   0.0000000000000000     
  -4.4434785081495058E-002   8.1415652499725683E-002   0.0000000000000000     
  -4.1374671402694935E-002   5.8817091272563918E-002   0.0000000000000000     
  -4.3499128966671137E-002   6.4336456381712509E-002   0.0000000000000000     
  -4.5550409636327657E-002   7.0032540354873427E-002   0.0000000000000000     
  -4.7528513411664509E-002   7.5905343192046629E-002   0.0000000000000000     
  -4.9433440292681693E-002   8.1954864893232143E-002   0.0000000000000000     
  -4.5769687596998232E-002   5.9517784261822554E-002   0.0000000000000000     
  -4.8090992345229594E-002   6.5004008978556294E-002   0.0000000000000000     
  -5.0331607533833443E-002   7.0670581972904573E-002   0.0000000000000000     
  -5.2491533162809786E-002   7.6517503244867432E-002   0.0000000000000000     
  -5.4570769232158617E-002   8.2544772794444846E-002   0.0000000000000000     
  -3.4853495843992638E-002   8.0489314235831472E-002   0.0000000000000000     
  -3.6192278523736299E-002   8.6761603641887175E-002   0.0000000000000000     
  -3.7485126746480406E-002   9.3192468865041914E-002   0.0000000000000000     
  -3.8732040512224952E-002   9.9781909905295729E-002   0.0000000000000000     
  -3.9933019820969938E-002  0.10652992676264862        0.0000000000000000     
  -3.9574803598598711E-002   8.0927135613925463E-002   0.0000000000000000     
  -4.1079056969430469E-002   8.7182209902997548E-002   0.0000000000000000     
  -4.2532281595502694E-002   9.3596112694708980E-002   0.0000000000000000     
  -4.3934477476815371E-002  0.10016884398905980        0.0000000000000000     
  -4.5285644613368516E-002  0.10690040378604998        0.0000000000000000     
  -4.4434785081495058E-002   8.1415652499725683E-002   0.0000000000000000     
  -4.6105260444290780E-002   8.7652370046932521E-002   0.0000000000000000     
  -4.7719425362512245E-002   9.4047949522591212E-002   0.0000000000000000     
  -4.9277279836159461E-002  0.10060239092670173        0.0000000000000000     
  -5.0778823865232456E-002  0.10731569425926413        0.0000000000000000     
  -4.9433440292681693E-002   8.1954864893232143E-002   0.0000000000000000     
  -5.1270888948317203E-002   8.8172084073692064E-002   0.0000000000000000     
  -5.3046558047509060E-002   9.4547979348688527E-002   0.0000000000000000     
  -5.4760447590257236E-002  0.10108255071822153        0.0000000000000000     
  -5.6412557576561745E-002  0.10777579818229106        0.0000000000000000     
  -5.4570769232158617E-002   8.2544772794444846E-002   0.0000000000000000     
  -5.6575942481509781E-002   8.8741351983276234E-002   0.0000000000000000     
  -5.8513679650493131E-002   9.5096202173001007E-002   0.0000000000000000     
  -6.0383980739108688E-002  0.10160932336361918        0.0000000000000000     
  -6.2186845747356431E-002  0.10828071555513075        0.0000000000000000     
  -3.9933019820969938E-002  0.10652992676264862        0.0000000000000000     
  -4.1084206157380350E-002  0.11342409468005354        0.0000000000000000     
  -4.2181741006121154E-002  0.12045198890046348        0.0000000000000000     
  -4.3225624367192350E-002  0.12761360942387842        0.0000000000000000     
  -4.4215856240593952E-002  0.13490895625029839        0.0000000000000000     
  -4.5285644613368516E-002  0.10690040378604998        0.0000000000000000     
  -4.6581485594869833E-002  0.11377796499930949        0.0000000000000000     
  -4.7817703011027078E-002  0.12078870054246831        0.0000000000000000     
  -4.8994296861840252E-002  0.12793261041552639        0.0000000000000000     
  -5.0111267147309346E-002  0.13520969461848378        0.0000000000000000     
  -5.0778823865232456E-002  0.10731569425926413        0.0000000000000000     
  -5.2219427428668634E-002  0.11417485885094193        0.0000000000000000     
  -5.3594460505405506E-002  0.12116688403239877        0.0000000000000000     
  -5.4903923095443043E-002  0.12829176980363455        0.0000000000000000     
  -5.6147815198781266E-002  0.13554951616464936        0.0000000000000000     
  -5.6412557576561745E-002  0.10777579818229106        0.0000000000000000     
  -5.7998031658776768E-002  0.11461477623495089        0.0000000000000000     
  -5.9512013489256423E-002  0.12158653937025486        0.0000000000000000     
  -6.0954503068000744E-002  0.12869108758820294        0.0000000000000000     
  -6.2325500395009732E-002  0.13592842088879514        0.0000000000000000     
  -6.2186845747356431E-002  0.10828071555513075        0.0000000000000000     
  -6.3917298285194199E-002  0.11509771715133633        0.0000000000000000     
  -6.5570361962579829E-002  0.12204766655603658        0.0000000000000000     
  -6.7146036779513349E-002  0.12913056376923149        0.0000000000000000     
  -6.8644322735994731E-002  0.13634640879092105        0.0000000000000000     
  -4.4215856240593952E-002  0.13490895625029839        0.0000000000000000     
  -4.5153464302182186E-002  0.14232673541141566        0.0000000000000000     
  -4.6039476227813271E-002  0.14985565293892258        0.0000000000000000     
  -4.6873892017487220E-002  0.15749570883281916        0.0000000000000000     
  -4.7656711671204041E-002  0.16524690309310536        0.0000000000000000     
  -5.0111267147309346E-002  0.13520969461848378        0.0000000000000000     
  -5.1169868724356096E-002  0.14260886936448050        0.0000000000000000     
  -5.2171356449902249E-002  0.15011905086665661        0.0000000000000000     
  -5.3115730323947820E-002  0.15774023912501203        0.0000000000000000     
  -5.4002990346492800E-002  0.16547243413954685        0.0000000000000000     
  -5.6147815198781266E-002  0.13554951616464936        0.0000000000000000     
  -5.7327830167552253E-002  0.14292903320298664        0.0000000000000000     
  -5.8445661353888179E-002  0.15041923100618981        0.0000000000000000     
  -5.9501308757788980E-002  0.15802010957425891        0.0000000000000000     
  -6.0494772379254685E-002  0.16573166890719390        0.0000000000000000     
  -6.2325500395009732E-002  0.13592842088879514        0.0000000000000000     
  -6.3627348631770705E-002  0.14328722692693405        0.0000000000000000     
  -6.4862390939771031E-002  0.15075619335752227        0.0000000000000000     
  -6.6030627319010674E-002  0.15833532018055979        0.0000000000000000     
  -6.7132057769489675E-002  0.16602460739604663        0.0000000000000000     
  -6.8644322735994731E-002  0.13634640879092105        0.0000000000000000     
  -7.0068424117011419E-002  0.14368345053632270        0.0000000000000000     
  -7.1421545207550813E-002  0.15112993792065393        0.0000000000000000     
  -7.2703686007612942E-002  0.15868587094391465        0.0000000000000000     
  -7.3914846517197763E-002  0.16635124960610492        0.0000000000000000     
  -4.7656711671204041E-002  0.16524690309310536        0.0000000000000000     
  -4.8385706358747192E-002  0.17309785229291569        0.0000000000000000     
  -4.9058647249900167E-002  0.18103717300538449        0.0000000000000000     
  -4.9675534344662986E-002  0.18906486523051191        0.0000000000000000     
  -5.0236367643035636E-002  0.19718092896829781        0.0000000000000000     
  -5.4002990346492800E-002  0.16547243413954685        0.0000000000000000     
  -5.4831061620748328E-002  0.17330423282259594        0.0000000000000000     
  -5.5597869249925512E-002  0.18122423208649424        0.0000000000000000     
  -5.6303413234024387E-002  0.18923243193124170        0.0000000000000000     
  -5.6947693573044918E-002  0.19732883235683843        0.0000000000000000     
  -6.0494772379254685E-002  0.16573166890719390        0.0000000000000000     
  -6.1424081677117923E-002  0.17354274563474240        0.0000000000000000     
  -6.2287266110211285E-002  0.18144217638665178        0.0000000000000000     
  -6.3084325678534794E-002  0.18942996116292218        0.0000000000000000     
  -6.3815260382088443E-002  0.19750609996355356        0.0000000000000000     
  -6.7132057769489675E-002  0.16602460739604663        0.0000000000000000     
  -6.8164766527855955E-002  0.17381339072935501        0.0000000000000000     
  -6.9126837830757459E-002  0.18169100590585724        0.0000000000000000     
  -7.0018271678194216E-002  0.18965745292555333        0.0000000000000000     
  -7.0839068070166225E-002  0.19771273178844323        0.0000000000000000     
  -7.3914846517197763E-002  0.16635124960610492        0.0000000000000000     
  -7.5053116172962425E-002  0.17411616810643382        0.0000000000000000     
  -7.6116584411564076E-002  0.18197072064411055        0.0000000000000000     
  -7.7105251233002672E-002  0.18991490721913512        0.0000000000000000     
  -7.8019116637278230E-002  0.19794872783150749        0.0000000000000000     
  -5.0236367643035636E-002  0.19718092896829781        0.0000000000000000     
  -5.0738865347797098E-002  0.20537703684011313        0.0000000000000000     
  -5.1180745661726368E-002  0.21364486146732881        0.0000000000000000     
  -5.1562008584823460E-002  0.22198440284994481        0.0000000000000000     
  -5.1882654117088353E-002  0.23039566098796116        0.0000000000000000     
  -5.6947693573044918E-002  0.19732883235683843        0.0000000000000000     
  -5.7527657693803788E-002  0.20550668654468768        0.0000000000000000     
  -5.8040253023117674E-002  0.21375924767619292        0.0000000000000000     
  -5.8485479560986584E-002  0.22208651575135410        0.0000000000000000     
  -5.8863337307410488E-002  0.23048849077017119        0.0000000000000000     
  -6.3815260382088443E-002  0.19750609996355356        0.0000000000000000     
  -6.4477274558629435E-002  0.20566456618284815        0.0000000000000000     
  -6.5067572545914970E-002  0.21389933321510801        0.0000000000000000     
  -6.5586154343945033E-002  0.22221040106033335        0.0000000000000000     
  -6.6033019952719624E-002  0.23059776971852392        0.0000000000000000     
  -7.0839068070166225E-002  0.19771273178844323        0.0000000000000000     
  -7.1587715942274033E-002  0.20585067575459443        0.0000000000000000     
  -7.2262704230118241E-002  0.21406511808407419        0.0000000000000000     
  -7.2864032933698836E-002  0.22235605877688247        0.0000000000000000     
  -7.3391702053015803E-002  0.23072349783301940        0.0000000000000000     
  -7.8019116637278230E-002  0.19794872783150749        0.0000000000000000     
  -7.8858981844737566E-002  0.20606501525992657        0.0000000000000000     
  -7.9625648075727473E-002  0.21425660228309129        0.0000000000000000     
  -8.0319115330247937E-002  0.22252348890100163        0.0000000000000000     
  -8.0939383608298984E-002  0.23086567511365760        0.0000000000000000     
  -5.1882654117088353E-002  0.23039566098796116        0.0000000000000000     
  -5.2150775936803860E-002  0.23887021907035461        0.0000000000000000     
  -5.2374467722252765E-002  0.24739966028610189        0.0000000000000000     
  -5.2553729473435076E-002  0.25598398463520305        0.0000000000000000     
  -5.2688561190350792E-002  0.26462319211765806        0.0000000000000000     
  -5.8863337307410488E-002  0.23048849077017119        0.0000000000000000     
  -5.9179899013988457E-002  0.23896429110447351        0.0000000000000000     
  -5.9441237432319521E-002  0.24751303512609032        0.0000000000000000     
  -5.9647352562403715E-002  0.25613472283502153        0.0000000000000000     
  -5.9798244404241016E-002  0.26482935423126719        0.0000000000000000     
  -6.6033019952719624E-002  0.23059776971852392        0.0000000000000000     
  -6.6410446162042530E-002  0.23906790847759021        0.0000000000000000     
  -6.6720709761717456E-002  0.24762728662544223        0.0000000000000000     
  -6.6963810751744415E-002  0.25627590416208024        0.0000000000000000     
  -6.7139749132123450E-002  0.26501376108750396        0.0000000000000000     
  -7.3391702053015803E-002  0.23072349783301940        0.0000000000000000     
  -7.3842417380966072E-002  0.23918107118970466        0.0000000000000000     
  -7.4212884710446542E-002  0.24774241478415787        0.0000000000000000     
  -7.4503104041457227E-002  0.25640752861637905        0.0000000000000000     
  -7.4713075373998086E-002  0.26517641268636827        0.0000000000000000     
  -8.0939383608298984E-002  0.23086567511365760        0.0000000000000000     
  -8.1475812670759110E-002  0.23930377924081681        0.0000000000000000     
  -8.1917762278506820E-002  0.24785841960223698        0.0000000000000000     
  -8.2265232431542101E-002  0.25652959619791810        0.0000000000000000     
  -8.2518223129864982E-002  0.26531730902786016        0.0000000000000000     
  -5.2688561190350792E-002  0.26462319211765806        0.0000000000000000     
  -5.2809793239513417E-002  0.27326807334880265        0.0000000000000000     
  -5.2948255987436438E-002  0.28186941894397260        0.0000000000000000     
  -5.3103949434119849E-002  0.29042722890316786        0.0000000000000000     
  -5.3276873579563649E-002  0.29894150322638841        0.0000000000000000     
  -5.9798244404241016E-002  0.26482935423126719        0.0000000000000000     
  -5.9930789739362340E-002  0.27355280032309770        0.0000000000000000     
  -6.0081865349298644E-002  0.28226093211878345        0.0000000000000000     
  -6.0251471234049919E-002  0.29095374961832443        0.0000000000000000     
  -6.0439607393616167E-002  0.29963125282172054        0.0000000000000000     
  -6.7139749132123450E-002  0.26501376108750396        0.0000000000000000     
  -6.7288777234517039E-002  0.27381102367840493        0.0000000000000000     
  -6.7451147390587732E-002  0.28263785821147452        0.0000000000000000     
  -6.7626859600335543E-002  0.29149426468671275        0.0000000000000000     
  -6.7815913863760471E-002  0.30038024310411965        0.0000000000000000     
  -7.4713075373998086E-002  0.26517641268636827        0.0000000000000000     
  -7.4883755724977505E-002  0.27404274341472429        0.0000000000000000     
  -7.5056102111303674E-002  0.28300019722204578        0.0000000000000000     
  -7.5230114532976719E-002  0.29204877410833296        0.0000000000000000     
  -7.5405792989996570E-002  0.30118847407358562        0.0000000000000000     
  -8.2518223129864982E-002  0.26531730902786016        0.0000000000000000     
  -8.2715725210743690E-002  0.27424795953205572        0.0000000000000000     
  -8.2896729511446512E-002  0.28334794915049727        0.0000000000000000     
  -8.3061236031973421E-002  0.29261727788318498        0.0000000000000000     
  -8.3209244772324442E-002  0.30205594573011862        0.0000000000000000     
  -4.5769687596998232E-002   5.9517784261822554E-002   0.0000000000000000     
  -4.8090992345229594E-002   6.5004008978556294E-002   0.0000000000000000     
  -5.0331607533833443E-002   7.0670581972904573E-002   0.0000000000000000     
  -5.2491533162809786E-002   7.6517503244867432E-002   0.0000000000000000     
  -5.4570769232158617E-002   8.2544772794444846E-002   0.0000000000000000     
  -5.0337778663699838E-002   6.0273590436371288E-002   0.0000000000000000     
  -5.2853811312809161E-002   6.5726580858183115E-002   0.0000000000000000     
  -5.5282226238012912E-002   7.1362980277364457E-002   0.0000000000000000     
  -5.7623023439311069E-002   7.7182788693915302E-002   0.0000000000000000     
  -5.9876202916703619E-002   8.3186006107835636E-002   0.0000000000000000     
  -5.5123344440835935E-002   6.1062970466595062E-002   0.0000000000000000     
  -5.7826125750652685E-002   6.6493120982857173E-002   0.0000000000000000     
  -6.0436357507634701E-002   7.2105875200158098E-002   0.0000000000000000     
  -6.2954039711781984E-002   7.7901233118497851E-002   0.0000000000000000     
  -6.5379172363094526E-002   8.3879194737876445E-002   0.0000000000000000     
  -6.0126384928406516E-002   6.1885924352493897E-002   0.0000000000000000     
  -6.3007935658760117E-002   6.7303629352578442E-002   0.0000000000000000     
  -6.5794001342698791E-002   7.2899266741285496E-002   0.0000000000000000     
  -6.8484581980222531E-002   7.8672836518615077E-002   0.0000000000000000     
  -7.1079677571331351E-002   8.4624338684567216E-002   0.0000000000000000     
  -6.5346900126411589E-002   6.2742452094067758E-002   0.0000000000000000     
  -6.8399241037131492E-002   6.8158105967346908E-002   0.0000000000000000     
  -7.1355157743205222E-002   7.3743154900746663E-002   0.0000000000000000     
  -7.4214650244632752E-002   7.9497598894267038E-002   0.0000000000000000     
  -7.6977718541414081E-002   8.5421437947907991E-002   0.0000000000000000     
  -5.4570769232158617E-002   8.2544772794444846E-002   0.0000000000000000     
  -5.6575942481509781E-002   8.8741351983276234E-002   0.0000000000000000     
  -5.8513679650493131E-002   9.5096202173001007E-002   0.0000000000000000     
  -6.0383980739108688E-002  0.10160932336361918        0.0000000000000000     
  -6.2186845747356431E-002  0.10828071555513075        0.0000000000000000     
  -5.9876202916703619E-002   8.3186006107835636E-002   0.0000000000000000     
  -6.2049004108270710E-002   8.9359944019524296E-002   0.0000000000000000     
  -6.4148666452092468E-002   9.5691913929380062E-002   0.0000000000000000     
  -6.6175189948168886E-002  0.10218191583740292        0.0000000000000000     
  -6.8128574596499944E-002  0.10882994974359289        0.0000000000000000     
  -6.5379172363094526E-002   8.3879194737876445E-002   0.0000000000000000     
  -6.7718656893002258E-002   9.0027630426275609E-002   0.0000000000000000     
  -6.9979394732935046E-002   9.6334410551677144E-002   0.0000000000000000     
  -7.2161385882892892E-002  0.10279953511408098        0.0000000000000000     
  -7.4264630342875768E-002  0.10942300411348718        0.0000000000000000     
  -7.1079677571331351E-002   8.4624338684567216E-002   0.0000000000000000     
  -7.3584900835704403E-002   9.0744411203530148E-002   0.0000000000000000     
  -7.6005864493020853E-002   9.7023692039892195E-002   0.0000000000000000     
  -7.8342568543280686E-002  0.10346218119365333        0.0000000000000000     
  -8.0595012986483944E-002  0.11005987866481358        0.0000000000000000     
  -7.6977718541414081E-002   8.5421437947907991E-002   0.0000000000000000     
  -7.9647735936377168E-002   9.1510286351287967E-002   0.0000000000000000     
  -8.2228075732349915E-002   9.7759758394025301E-002   0.0000000000000000     
  -8.4718737929332336E-002  0.10416985407612001        0.0000000000000000     
  -8.7119722527324417E-002  0.11074057339757212        0.0000000000000000     
  -6.2186845747356431E-002  0.10828071555513075        0.0000000000000000     
  -6.3917298285194199E-002  0.11509771715133633        0.0000000000000000     
  -6.5570361962579829E-002  0.12204766655603658        0.0000000000000000     
  -6.7146036779513349E-002  0.12913056376923149        0.0000000000000000     
  -6.8644322735994731E-002  0.13634640879092105        0.0000000000000000     
  -6.8128574596499944E-002  0.10882994974359289        0.0000000000000000     
  -7.0003751807921080E-002  0.11562354605271459        0.0000000000000000     
  -7.1795652993267706E-002  0.12255023516953266        0.0000000000000000     
  -7.3504278152539806E-002  0.12961001709404710        0.0000000000000000     
  -7.5129627285737410E-002  0.13680289182625793        0.0000000000000000     
  -7.4264630342875768E-002  0.10942300411348718        0.0000000000000000     
  -7.6283916726957557E-002  0.11619212739170204        0.0000000000000000     
  -7.8214033649211992E-002  0.12309421479053184        0.0000000000000000     
  -8.0054981109639115E-002  0.13012926630997665        0.0000000000000000     
  -8.1806759108238869E-002  0.13729728195003643        0.0000000000000000     
  -8.0595012986483944E-002  0.11005987866481358        0.0000000000000000     
  -8.2757793042303587E-002  0.11680346116829862        0.0000000000000000     
  -8.4825503930412674E-002  0.12367960541903412        0.0000000000000000     
  -8.6798145650811190E-002  0.13068831141702014        0.0000000000000000     
  -8.8675718203499149E-002  0.13782957916225658        0.0000000000000000     
  -8.7119722527324417E-002  0.11074057339757212        0.0000000000000000     
  -8.9425380753959213E-002  0.11745754738250436        0.0000000000000000     
  -9.1630063836869780E-002  0.12430640705503949        0.0000000000000000     
  -9.3733771776056102E-002  0.13128715241517752        0.0000000000000000     
  -9.5736504571518180E-002  0.13839978346291842        0.0000000000000000     
  -6.8644322735994731E-002  0.13634640879092105        0.0000000000000000     
  -7.0068424117011419E-002  0.14368345053632270        0.0000000000000000     
  -7.1421545207550813E-002  0.15112993792065393        0.0000000000000000     
  -7.2703686007612942E-002  0.15868587094391465        0.0000000000000000     
  -7.3914846517197763E-002  0.16635124960610492        0.0000000000000000     
  -7.5129627285737410E-002  0.13680289182625793        0.0000000000000000     
  -7.6675754588419215E-002  0.14411676676288848        0.0000000000000000     
  -7.8146714256144001E-002  0.15153954930066207        0.0000000000000000     
  -7.9542506288911699E-002  0.15907123943957879        0.0000000000000000     
  -8.0863130686722337E-002  0.16671183717963861        0.0000000000000000     
  -8.1806759108238869E-002  0.13729728195003643        0.0000000000000000     
  -8.3474038011138979E-002  0.14458623833836692        0.0000000000000000     
  -8.5061488184466988E-002  0.15198411210262394        0.0000000000000000     
  -8.6569109628222937E-002  0.15949090324280746        0.0000000000000000     
  -8.7996902342406813E-002  0.16710661175891747        0.0000000000000000     
  -8.8675718203499149E-002  0.13782957916225658        0.0000000000000000     
  -9.0463274385170628E-002  0.14509186526275819        0.0000000000000000     
  -9.2165866992519815E-002  0.15246362632653954        0.0000000000000000     
  -9.3783496025546656E-002  0.15994486235360064        0.0000000000000000     
  -9.5316161484251191E-002  0.16753557334394151        0.0000000000000000     
  -9.5736504571518180E-002  0.13839978346291842        0.0000000000000000     
  -9.7643463710514217E-002  0.14563364753606223        0.0000000000000000     
  -9.9459850680302470E-002  0.15297809197240886        0.0000000000000000     
 -0.10118566548088286       0.16043311677195837        0.0000000000000000     
 -0.10282090811225544       0.16799872193471072        0.0000000000000000     
  -7.3914846517197763E-002  0.16635124960610492        0.0000000000000000     
  -7.5053116172962425E-002  0.17411616810643382        0.0000000000000000     
  -7.6116584411564076E-002  0.18197072064411055        0.0000000000000000     
  -7.7105251233002672E-002  0.18991490721913512        0.0000000000000000     
  -7.8019116637278230E-002  0.19794872783150749        0.0000000000000000     
  -8.0863130686722337E-002  0.16671183717963861        0.0000000000000000     
  -8.2106923872154292E-002  0.17445206266211921        0.0000000000000000     
  -8.3272222267785898E-002  0.18228263602829825        0.0000000000000000     
  -8.4359025873617141E-002  0.19020355727817581        0.0000000000000000     
  -8.5367334689648008E-002  0.19821482641175181        0.0000000000000000     
  -8.7996902342406813E-002  0.16710661175891747        0.0000000000000000     
  -8.9343982885148471E-002  0.17482205929255146        0.0000000000000000     
  -9.0609467814577724E-002  0.18262806748530680        0.0000000000000000     
  -9.1793357130694586E-002  0.19052463633718364        0.0000000000000000     
  -9.2895650833499016E-002  0.19851176584818184        0.0000000000000000     
  -9.5316161484251191E-002  0.16753557334394151        0.0000000000000000     
  -9.6764293211944977E-002  0.17522615799773056        0.0000000000000000     
  -9.8128321051939596E-002  0.18300701501513625        0.0000000000000000     
  -9.9408245004235007E-002  0.19087814439615861        0.0000000000000000     
 -0.10060406506883129       0.19883954614079757        0.0000000000000000     
 -0.10282090811225544       0.16799872193471072        0.0000000000000000     
 -0.10436785485254377       0.17566435877765663        0.0000000000000000     
 -0.10582878197987146       0.18341947861778657        0.0000000000000000     
 -0.10720368949423845       0.19126408145510074        0.0000000000000000     
 -0.10849257739564480       0.19919816728959899        0.0000000000000000     
  -7.8019116637278230E-002  0.19794872783150749        0.0000000000000000     
  -7.8858981844737566E-002  0.20606501525992657        0.0000000000000000     
  -7.9625648075727473E-002  0.21425660228309129        0.0000000000000000     
  -8.0319115330247937E-002  0.22252348890100163        0.0000000000000000     
  -8.0939383608298984E-002  0.23086567511365760        0.0000000000000000     
  -8.5367334689648008E-002  0.19821482641175181        0.0000000000000000     
  -8.6300350919836843E-002  0.20630840648950355        0.0000000000000000     
  -8.7161276768141976E-002  0.21447626057190819        0.0000000000000000     
  -8.7950112234563366E-002  0.22271838865896582        0.0000000000000000     
  -8.8666857319101067E-002  0.23103479075067640        0.0000000000000000     
  -9.2895650833499016E-002  0.19851176584818184        0.0000000000000000     
  -9.3921101821388617E-002  0.20658167123398430        0.0000000000000000     
  -9.4874462992760977E-002  0.21472656771027382        0.0000000000000000     
  -9.5755734347616070E-002  0.22294645527705031        0.0000000000000000     
  -9.6564915885953909E-002  0.23124133393431384        0.0000000000000000     
 -0.10060406506883129       0.19883954614079757        0.0000000000000000     
 -0.10172123454939294       0.20688480949336882        0.0000000000000000     
 -0.10276520674958452       0.21500752369818796        0.0000000000000000     
 -0.10373598166940605       0.22320768875525501        0.0000000000000000     
 -0.10463355930885754       0.23148530466456996        0.0000000000000000     
 -0.10849257739564480       0.19919816728959899        0.0000000000000000     
 -0.10970074910384975       0.20721782126765712        0.0000000000000000     
 -0.11083350803861260       0.21531912853565077        0.0000000000000000     
 -0.11189085419993329       0.22350208909357991        0.0000000000000000     
 -0.11287278758781191       0.23176670294144464        0.0000000000000000     
  -8.0939383608298984E-002  0.23086567511365760        0.0000000000000000     
  -8.1475812670759110E-002  0.23930377924081681        0.0000000000000000     
  -8.1917762278506820E-002  0.24785841960223698        0.0000000000000000     
  -8.2265232431542101E-002  0.25652959619791810        0.0000000000000000     
  -8.2518223129864982E-002  0.26531730902786016        0.0000000000000000     
  -8.8666857319101067E-002  0.23103479075067640        0.0000000000000000     
  -8.9297123878096338E-002  0.23945100344547465        0.0000000000000000     
  -8.9826523767890507E-002  0.24799256334179534        0.0000000000000000     
  -9.0255056988483545E-002  0.25665947043963838        0.0000000000000000     
  -9.0582723539875482E-002  0.26545172473900386        0.0000000000000000     
  -9.6564915885953909E-002  0.23124133393431384        0.0000000000000000     
  -9.7292842849652519E-002  0.23963771461822603        0.0000000000000000     
  -9.7930350480589873E-002  0.24816210826494836        0.0000000000000000     
  -9.8477438778766038E-002  0.25681451487448087        0.0000000000000000     
  -9.8934107744180988E-002  0.26559493444682347        0.0000000000000000     
 -0.10463355930885754       0.23148530466456996        0.0000000000000000     
 -0.10546296958542760       0.23986391275907090        0.0000000000000000     
 -0.10622924241660497       0.24836705437169615        0.0000000000000000     
 -0.10693237780238959       0.25699472950244551        0.0000000000000000     
 -0.10757237574278151       0.26574693815131906        0.0000000000000000     
 -0.11287278758781191       0.23176670294144464        0.0000000000000000     
 -0.11380750408542165       0.24012959786800933        0.0000000000000000     
 -0.11472319957593576       0.24860740166203857        0.0000000000000000     
 -0.11561987405935421       0.25720011432353229        0.0000000000000000     
 -0.11649752753567708       0.26590773585249061        0.0000000000000000     
  -8.2518223129864982E-002  0.26531730902786016        0.0000000000000000     
  -8.2715725210743690E-002  0.27424795953205572        0.0000000000000000     
  -8.2896729511446512E-002  0.28334794915049727        0.0000000000000000     
  -8.3061236031973421E-002  0.29261727788318498        0.0000000000000000     
  -8.3209244772324442E-002  0.30205594573011862        0.0000000000000000     
  -9.0582723539875482E-002  0.26545172473900386        0.0000000000000000     
  -9.0839872572753277E-002  0.27443236189329095        0.0000000000000000     
  -9.1056853237803950E-002  0.28366441755589888        0.0000000000000000     
  -9.1233665535027514E-002  0.29314789172682770        0.0000000000000000     
  -9.1370309464423927E-002  0.30288278440607741        0.0000000000000000     
  -9.8934107744180988E-002  0.26559493444682347        0.0000000000000000     
  -9.9311384691943866E-002  0.27460164036132156        0.0000000000000000     
  -9.9620296937163788E-002  0.28393290599732052        0.0000000000000000     
  -9.9860844479840769E-002  0.29358873135482016        0.0000000000000000     
 -0.10003302731997483       0.30356911643382073        0.0000000000000000     
 -0.10757237574278151       0.26574693815131906        0.0000000000000000     
 -0.10813026156831540       0.27475579493614766        0.0000000000000000     
 -0.10858706060952598       0.28415341447476211        0.0000000000000000     
 -0.10894277286641325       0.29393979676716236        0.0000000000000000     
 -0.10919739833897717       0.30411494181334869        0.0000000000000000     
 -0.11649752753567708       0.26590773585249061        0.0000000000000000     
 -0.11729650320186796       0.27489482561776912        0.0000000000000000     
 -0.11795714425489055       0.28432594298822372        0.0000000000000000     
 -0.11847945069474489       0.29420108796385441        0.0000000000000000     
 -0.11886342252143091       0.30452026054466114        0.0000000000000000     
 </DataArray>
 <DataArray  type="Float64" Name="stress" NumberOfComponents="3" format="ascii">
   5821163601.9546423       -330417194.83510709       -167947361.74777010     
   5668413270.3322811       -232550539.58018947       -133361396.49056196     
   5508772694.8226223       -157651363.94959521       -100037184.17640130     
   5342241875.4256735       -105719667.94327950       -67974724.805279180     
   5168820812.1414356       -76755451.561283350       -37174018.377209656     
   5574256659.7521286       -176301013.69759560        91662068.634364054     
   5408534697.6186552       -119067014.48208880        106864841.31781295     
   5238352794.0869579       -76699486.594007015        122727956.40639280     
   5063710949.1570320       -49198430.033344507        139251413.90010932     
   4884609162.8288774       -36563844.800109625        156435213.79895425     
   5288140292.3173561       -33947660.129755020        335722604.53142691     
   5114938400.6675701       -15698806.655212879        334377537.54503691     
   4939706870.1086102       -4215416.2112259865        335614908.31194669     
   4762445700.6404915        502511.20223140717        339434716.83216870     
   4583154892.2632084       -1545024.4148628712        345836963.10568792     
   4962814499.6503420        96642865.868411303        564234245.94344878     
   4787624379.4790077        77554083.900412798        549176692.19111216     
   4612834922.8875799        59800847.198758364        538623671.54026246     
   4438446129.8760462        43383155.763434172        532575183.99088532     
   4264458000.4444127        28301009.594442844        531031229.54299897     
   4598279281.7510557        215470564.29689646        777196992.87040007     
   4426592634.0529709        160691657.18480134        751262305.25603962     
   4257736952.4238505        115349303.63592482        731754246.09132624     
   4091712236.8636961        79443503.650261164        718672815.37627637     
   3928518487.3725066        52974257.227821827        712018013.11088133     
   5168820812.1414356       -76755451.561283350       -37174018.377209656     
   5008447995.6805210       -56288539.939085484       -30102675.299236413     
   4846781832.6848354       -40132783.432778835       -21685727.017248888     
   4683822323.1543961       -28288182.042328596       -11923173.531266287     
   4519569467.0891647       -20754735.767838001       -815014.84127196518     
   4884609162.8288774       -36563844.800109625        156435213.79895425     
   4726385398.4305658       -25416457.825728655        156894100.96331906     
   4567511286.5264254       -16436895.870799780        159811159.42903394     
   4407986827.1164570       -9625158.9352798462        165186389.19607809     
   4247812020.2006607       -4981247.0191905499        173019790.26447299     
   4583154892.2632084       -1545024.4148628712        345836963.10568792     
   4430258940.2055941        1236465.9951009750        340433559.89021093     
   4277355639.6710958        3993461.4821040630        338600894.07341754     
   4124444990.6597090        6725962.0461523533        340338965.65529519     
   3971526993.1714282        9433967.6872253418        345647774.63584518     
   4264458000.4444127        28301009.594442844        531031229.54299897     
   4120068621.0056028        23670231.523439407        520515701.48144782     
   3976314892.1188393        21158288.625929594        514683476.91590118     
   3833196813.7841334        20765180.901930094        513534555.84636617     
   3690714386.0014768        22490908.351435423        517068938.27284199     
   3928518487.3725066        52974257.227821827        712018013.11088133     
   3795814440.8305922        41884838.759262085        697140525.73701346     
   3664389043.8696661        35057585.560671329        688058907.95648706     
   3534242296.4897304        32492497.632052422        684773159.76930916     
   3405374198.6907945        34189574.973419905        687283281.17547011     
   4519569467.0891647       -20754735.767838001       -815014.84127196518     
   4322954076.9084530       -24487873.676573515       -6145706.2691535531     
   4126604896.5931010       -27333645.367429018       -6928817.8816808192     
   3930521926.1431293       -29292050.840369701       -3164349.6788358316     
   3734705165.5585089       -30363090.095448971        5147698.3393762875     
   4247812020.2006607       -4981247.0191905499        173019790.26447299     
   4063110370.4514866       -8427259.3092072010        166359113.43459943     
   3878576515.6657009       -11313955.054608822        164249012.74776039     
   3694210455.8432784       -13641334.255454779        166689488.20396581     
   3510012190.9842162       -15409396.911755323        173680539.80321407     
   3971526993.1714282        9433967.6872253418        345647774.63584518     
   3798747644.7900186        6277649.2968297005        337542295.01832098     
   3626037676.4699874        3352597.7776916027        333990387.87151462     
   3453397088.2113328        658813.12979841232        334992053.19541389     
   3280825880.0140448       -1803704.6468491554        340547290.99003273     
   3690714386.0014768        22490908.351435423        517068938.27284199     
   3529865899.9240346        19626852.141504765        507403838.48201454     
   3368988379.0059767        16666013.129509211        502295307.48956180     
   3208081823.2472982        13608391.315441728        501743345.29550767     
   3047146232.6479955        10453986.699312568        505747951.89983881     
   3405374198.6907945        34189574.973419905        687283281.17547011     
   3256465135.8535337        31620349.224818110        675943743.82566583     
   3107428623.2736669        28626291.000840664        669163771.60192573     
   2958264660.9511771        25207400.301457882        666943364.50424469     
   2808973248.8860741        21363677.126698732        669282522.53262663     
   3734705165.5585089       -30363090.095448971        5147698.3393762875     
   3563324075.3644300       -24433443.562448502        1085321.6402646641     
   3391459182.7803340       -20116471.662859678        1074571.6846710236     
   3219110487.8061895       -17412174.396763802        5115448.4726203457     
   3046277990.4420185       -16320551.764076352        13207952.004081246     
   3510012190.9842162       -15409396.911755323        173680539.80321407     
   3348500131.5229335       -10580914.465540409        167456102.25894704     
   3186682266.2080750       -6771784.8645844460        165025714.86256343     
   3024558595.0396175       -3982008.1089484692        166389377.61404657     
   2862129118.0175838       -2211584.1985590458        171547090.51341823     
   3280825880.0140448       -1803704.6468491554        340547290.99003273     
   3128446918.1551352        1702833.7734465599        332368455.22647399     
   2975940146.9790978        4783341.1366478205        327726093.01513946     
   2823305566.4859180        7437817.4427146912        326620204.35603982     
   2670543176.6756043        9666262.6916614771        329050789.24918777     
   3047146232.6479955        10453986.699312568        505747951.89983881     
   2903164435.2610550        12417801.154577494        495822380.54283643     
   2759232825.0934219        14548906.340884209        489175706.14241737     
   2615351402.1451101        16847302.258252144        485807928.69859344     
   2471520166.4161077        19312988.906656623        485719048.21136326     
   2808973248.8860741        21363677.126698732        669282522.53262663     
   2672652682.8406801        21563987.677810192        657817878.20803988     
   2536560300.5510492        22524910.748121619        649374554.24439561     
   2400696102.0171847        24246446.337651849        643952550.64169908     
   2265060087.2390780        26728594.446378708        641551867.39995015     
   3046277990.4420185       -16320551.764076352        13207952.004081246     
   2882635052.9026575       -12976086.833069444        8744329.5160057805     
   2719143593.1495366       -9126695.9479403496        5093644.7072342113     
   2555803611.1826367       -4772379.1087403297        2255897.5777883152     
   2392615107.0019717        86863.684585094452        231088.12765912581     
   2862129118.0175838       -2211584.1985590458        171547090.51341823     
   2700925671.7084312       -417179.20976412296        164919182.35227698     
   2539801331.3833709        1640912.3926602602        159712574.36786300     
   2378756097.0423570        3962690.6085934639        155927266.56019542     
   2217789968.6854391        6548155.4381707907        153563258.92926535     
   2670543176.6756043        9666262.6916614771        329050789.24918777     
   2513517400.1607590        10432061.307520509        320174161.64577878     
   2356498357.8278375        11220307.196448445        313327196.71653193     
   2199486049.6768184        12031000.358389258        308509894.46146673     
   2042480475.7077229        12864140.793414712        305722254.88056809     
   2471520166.4161077        19312988.906656623        485719048.21136326     
   2320410238.2596416        19571634.718758464        474509267.39650548     
   2169234672.4829378        19611488.463401198        465937511.75325310     
   2017993469.0859909        19432550.140565395        460003781.28159904     
   1866686628.0688112        19034819.750280142        456708075.98155254     
   2265060087.2390780        26728594.446378708        641551867.39995015     
   2121604186.0050731        27001541.023954391        627924499.60447037     
   1978010275.3486824        26814456.193563819        617543519.47802377     
   1834278355.2698913        26167339.955173969        610408927.02060699     
   1690408425.7687056        25060192.308800459        606520722.23221433     
   2392615107.0019717        86863.684585094452        231088.12765912581     
   2249774306.1848073        6581571.9232331514       -6370198.4149673488     
   2103835536.0009291        2749715.6061557531       -10960437.809817489     
   1954798796.4503627       -11408705.266532540       -13539630.056891294     
   1802664087.5330808       -35893690.694959641       -14107775.156183640     
   2217789968.6854391        6548155.4381707907        153563258.92926535     
   2079063567.5723486        12813857.494982362        143386345.85003155     
   1938285523.5878048        12240749.980287790        134416156.05272889     
   1795455836.7317755        4828832.8939943314        126652689.53733680     
   1650574507.0043042       -9421893.7637952566        120095946.30389377     
   2042480475.7077229        12864140.793414712        305722254.88056809     
   1905570406.1105580        18211416.211965322        293190429.50917482     
   1767655020.1371796        20207637.043129563        281061003.55384952     
   1628734317.7875671        18852803.286861300        269333977.01461166     
   1488808299.0617397        14146914.943199635        258009349.89143342     
   1866686628.0688112        19034819.750280142        456708075.98155254     
   1729294821.7994313        22774248.074130893        443042052.56244159     
   1591944025.6490710        26650376.794719756        428974104.69355524     
   1454634239.6177289        30663205.912039518        414504232.37489271     
   1317365463.7054148        34812735.426096261        399632435.60646540     
   1690408425.7687056        25060192.308800459        606520722.23221433     
   1550236814.6389661        26502353.081508160        592941215.00984049     
   1411152540.1234910        31568969.235115051        578155459.47184551     
   1273155602.2222548        40260040.769511759        562163455.61821759     
   1136246000.9352961        52575567.684828222        544965203.44896352     
   1802664087.5330808       -35893690.694959641       -14107775.156183640     
   1771776364.3903110       -16593116.778871894       -8461233.6771859266     
   1748873289.9189796        29322952.708654523       -41576532.327555120     
   1733954864.1190143        101854517.76740819       -113453671.10729763     
   1727021086.9905140        201001578.39772153       -224092650.01637885     
   1650574507.0043042       -9421893.7637952566        120095946.30389377     
   1527936561.0256529       -13865022.829944968        135628731.15044063     
   1409417015.5890379       -4580150.0892964602        124825577.71003899     
   1295015870.6944602        18432724.458148003        87686485.982683003     
   1184733126.3419244        55173600.812377572        24211455.968359273     
   1488808299.0617397        14146914.943199635        258009349.89143342     
   1309922706.9397850       -3389144.0973876119        278917755.28794491     
   1131289267.2304945       -20084695.095774651        285916124.23989290     
   952907979.93384516       -35939738.052023530        279004456.74728155     
   774778845.04985976       -50954272.966042280        258182752.81013426     
   1317365463.7054148        34812735.426096261        399632435.60646540     
   1117734802.1327322        14834519.418817639        421405838.73530024     
   914490044.84333384       -17190682.310864747        441695107.26199633     
   707631191.83720732       -61262869.762955248        460500241.18654031     
   497158243.11436641       -117382042.93744743        477821240.50892472     
   1136246000.9352961        52575567.684828222        544965203.44896352     
   951372846.60448658        40805967.718684971        563092981.49254036     
   759019348.42756212        4101888.2654918730        592162526.77636218     
   559185506.40454662       -57536670.674679756        632173839.30042779     
   351871320.53540576       -144109709.10191938        683126919.06475651     
   1727021086.9905140        201001578.39772153       -224092650.01637885     
   1456507126.8349757        184467050.35865217       -96565616.605996773     
   1153871682.5610490        60860908.591632724        60118540.704673797     
   819114754.16874063       -169816846.90331376        245959821.91564950     
   452236341.65806925       -507566216.12617111        460958227.02691627     
   1184733126.3419244        55173600.812377572        24211455.968359273     
   977639534.43357468        11800454.043714106        155604830.15386680     
   732754507.57254183       -157544142.56723747        312819506.48989624     
   450078045.75882030       -452860189.02046210        495855484.97644764     
   129610148.99241793       -874147685.31596768        704712765.61354661     
   774778845.04985976       -50954272.966042280        258182752.81013426     
   621574702.10366845       -124025314.24979544        386827525.13072509     
   424909173.37048119       -341967641.49018872        537957777.85209620     
   184782258.85031196       -704781254.68720734        711573510.97422945     
  -98806041.456869423       -1212466153.8409083        907674724.49712312     
   497158243.11436641       -117382042.93744743        477821240.50892472     
   388312629.84527177       -223010254.52184218        597102468.32460880     
   230335679.95488524       -492409588.17721963        735533354.79128754     
   23227393.443204701       -925580043.90357530        893113899.90897059     
  -233012229.68976969       -1522521621.7008796        1069844103.6776512     
   351871320.53540576       -144109709.10191938        683126919.06475651     
   277853317.65838271       -285154366.77242333        786429659.73549235     
   149034027.32575998       -608869982.62825942        905546237.30745292     
  -34586550.462462306       -1115256556.6694388        1040476651.7806474     
  -273008415.70629537       -1804314088.8959651        1191220903.1550949     
   4598279281.7510557        215470564.29689646        777196992.87040007     
   4426592634.0529709        160691657.18480134        751262305.25603962     
   4257736952.4238505        115349303.63592482        731754246.09132624     
   4091712236.8636961        79443503.650261164        718672815.37627637     
   3928518487.3725066        52974257.227821827        712018013.11088133     
   4157892000.0499239        102569675.98559666        833722991.55534589     
   4009718507.6339016        74729114.932854176        818581355.14451706     
   3862884981.6098957        51355108.520194292        808883591.41037619     
   3717391421.9779243        32447656.747637033        804629700.35292494     
   3573237828.7379770        18006759.615161657        805819681.97216952     
   3742794390.2186055       -2744310.7647638321        898766586.00366306     
   3615326179.4475975       -4488887.8492639065        892678501.17326975     
   3487706935.3916759       -6736909.2168045044        891051533.24659860     
   3359936658.0508409       -9488374.8673856258        893885682.22365940     
   3232015347.4250922       -12743284.801005363        901180948.10444272     
   3352986452.2570972       -100471395.95417786        972327776.21534884     
   3243415649.4940681       -76962351.161550283        973553743.34229147     
   3132202813.7691832       -58926749.575092554        978258071.60000288     
   3019347945.0824451       -46364591.194802642        986440760.98847091     
   2904851043.4338651       -39275876.020674944        998101811.50770903     
   2988468186.1654058       -190611579.58264887        1054406562.1904024     
   2893986917.7733102       -142691275.00400519        1061207081.6515918     
   2796372616.7424226       -105214412.55465651        1070503206.4705852     
   2695625283.0727453       -78180992.234606385        1082294936.6473753     
   2591744916.7642822       -61591014.043848038        1096582272.1819639     
   3928518487.3725066        52974257.227821827        712018013.11088133     
   3795814440.8305922        41884838.759262085        697140525.73701346     
   3664389043.8696661        35057585.560671329        688058907.95648706     
   3534242296.4897304        32492497.632052422        684773159.76930916     
   3405374198.6907945        34189574.973419905        687283281.17547011     
   3573237828.7379770        18006759.615161657        805819681.97216952     
   3456880414.1152005        15043403.176341057        796587649.85803771     
   3341252497.1279793        14511705.522698879        792258835.31227362     
   3226354077.7763171        16411666.654250026        792833238.33487010     
   3112185156.0602064        20743286.570985556        798310858.92583513     
   3232015347.4250922       -12743284.801005363        901180948.10444272     
   3129454130.3643708       -8345709.5172179937        896953693.98038244     
   3027073258.9937682       -3346981.9330346584        896737005.39970040     
   2924872733.3132849        2252897.9515589476        900530882.36240137     
   2822852553.3229218        8453930.1365425587        908335324.86848712     
   2904851043.4338651       -39275876.020674944        998101811.50770903     
   2813535589.5781054       -28282499.321404576        998238658.10403299     
   2721851329.4670286       -18518476.806528091        1001493418.2187629     
   2629798263.1006427       -9983808.4760193825        1007866091.8518945     
   2537376390.4789376       -2678494.3299088478        1017356679.0034277     
   2591744916.7642822       -61591014.043848038        1096582272.1819639     
   2509124791.7564006       -44766966.236224294        1100442542.2290032     
   2425586708.5477691       -31002779.097769380        1106528073.7694671     
   2341130667.1383891       -20298452.628480911        1114838866.8033504     
   2255756667.5282526       -12653986.828370452        1125374921.3306587     
   3405374198.6907945        34189574.973419905        687283281.17547011     
   3256465135.8535337        31620349.224818110        675943743.82566583     
   3107428623.2736669        28626291.000840664        669163771.60192573     
   2958264660.9511771        25207400.301457882        666943364.50424469     
   2808973248.8860741        21363677.126698732        669282522.53262663     
   3112185156.0602064        20743286.570985556        798310858.92583513     
   2975344729.0633154        19333974.544235587        788177463.42839706     
   2838474048.1500502        17823816.129568696        782500396.43859565     
   2701573113.3204050        16212811.326974988        781279657.95643091     
   2564641924.5743837        14500960.136455178        784515247.98191297     
   2822852553.3229218        8453930.1365425587        908335324.86848712     
   2697785800.3994808        8116043.3015813828        899521466.35402262     
   2572785989.3858929        8001296.1661510468        895060699.72877514     
   2447853120.2821665        8109688.7302554846        894953024.99274039     
   2322987193.0883040        8441220.9938946962        899198442.14592326     
   2537376390.4789376       -2678494.3299088478        1017356679.0034277     
   2423788349.8620129       -2033444.5031725168        1009975752.6025510     
   2310364446.9811845       -841268.88944995403        1006844681.4724649     
   2197104681.8364596        898032.51128566265        1007963465.6131719     
   2084009054.4278331        3184459.6990134716        1013332105.0246781     
   2255756667.5282526       -12653986.828370452        1125374921.3306587     
   2153352377.4509287       -11114488.870003343        1119540322.1739795     
   2051209420.9359379       -8703879.0371898413        1117852341.6696665     
   1949327797.9832885       -5422157.3299098015        1120310979.8177290     
   1847707508.5929708       -1269323.7481850386        1126916236.6181610     
   2808973248.8860741        21363677.126698732        669282522.53262663     
   2672652682.8406801        21563987.677810192        657817878.20803988     
   2536560300.5510492        22524910.748121619        649374554.24439561     
   2400696102.0171847        24246446.337651849        643952550.64169908     
   2265060087.2390780        26728594.446378708        641551867.39995015     
   2564641924.5743837        14500960.136455178        784515247.98191297     
   2436913423.4967279        15901344.972217798        774418181.63566613     
   2309446888.2425547        18174949.219569802        767632135.45335913     
   2182242318.8118539        21321772.878512502        764157109.43497849     
   2055299715.2046361        25341815.949051619        763993103.58053768     
   2322987193.0883040        8441220.9938946962        899198442.14592326     
   2204678470.7012138        11289994.231165051        890508366.19036579     
   2086665496.2053063        15124593.772395253        885419010.20171928     
   1968948269.6005936        19945019.617597461        883930374.17999637     
   1851526790.8870723        25751271.766774654        886042458.12519002     
   2084009054.4278331        3184459.6990134716        1013332105.0246781     
   1975947824.4541199        7729935.4546407461        1006088431.8721279     
   1868216124.4393067        13373844.406601906        1002735178.4894769     
   1760813954.3833983        20116186.554910421        1003272344.8767369     
   1653741314.2863922        27956961.899562836        1007699931.0339004     
   1847707508.5929708       -1269323.7481850386        1126916236.6181610     
   1750721484.7554519        5221168.6426345110        1121158378.6809530     
   1654098772.9445493        12922701.122169435        1119580640.3166373     
   1557839373.1602600        21835273.690414965        1122183021.5252090     
   1461943285.4025977        31958886.347423136        1128965522.3066761     
   2265060087.2390780        26728594.446378708        641551867.39995015     
   2121604186.0050731        27001541.023954391        627924499.60447037     
   1978010275.3486824        26814456.193563819        617543519.47802377     
   1834278355.2698913        26167339.955173969        610408927.02060699     
   1690408425.7687056        25060192.308800459        606520722.23221433     
   2055299715.2046361        25341815.949051619        763993103.58053768     
   1920928539.9788308        27283746.832827806        752341055.16010809     
   1786394602.8628292        28683138.082601786        744045719.62167358     
   1651697903.8566403        29539989.698419750        739107096.96523499     
   1516838442.9602456        29854301.680234790        737525187.19080555     
   1851526790.8870723        25751271.766774654        886042458.12519002     
   1726555556.5636563        29456751.424984992        876336851.20070934     
   1601396807.8822432        32537183.223226666        870098282.37119496     
   1476050544.8428388        34992567.161480308        867326751.63663876     
   1350516767.4454391        36822903.239758432        868022258.99705708     
   1653741314.2863922        27956961.899562836        1007699931.0339004     
   1538485235.7595546        33520554.800482333        999911887.72626925     
   1423016890.4069276        38376591.615425944        995701207.72657120     
   1307336278.2285075        42525072.344398618        995067891.03480637     
   1191443399.2242885        45965996.987385452        998011937.65097833     
   1461943285.4025977        31958886.347423136        1128965522.3066761     
   1356717577.5665331        39475156.959303737        1123066164.7367985     
   1251254850.4368820        46201363.259219587        1120854495.6878135     
   1145555104.0136359        52137505.247153223        1122330515.1597326     
   1039618338.2967948        57283582.923109710        1127494223.1525536     
   1690408425.7687056        25060192.308800459        606520722.23221433     
   1550236814.6389661        26502353.081508160        592941215.00984049     
   1411152540.1234910        31568969.235115051        578155459.47184551     
   1273155602.2222548        40260040.769511759        562163455.61821759     
   1136246000.9352961        52575567.684828222        544965203.44896352     
   1516838442.9602456        29854301.680234790        737525187.19080555     
   1374903386.8206866        28189028.888497412        728153397.98709989     
   1233225440.1313787        27380787.597591877        719348460.99094796     
   1091804602.8923159        27429577.807506740        711110376.20235562     
   950640875.10349905        28335399.518240988        703439143.62132990     
   1350516767.4454391        36822903.239758432        868022258.99705708     
   1211884267.7908835        33569997.332036197        861889589.45399511     
   1072678650.4225682        28406699.045105755        858096872.64167929     
   932899915.34047675        21333008.378918231        856644108.56011474     
   792548062.54461551        12348925.333514422        857531297.20929372     
   1191443399.2242885        45965996.987385452        998011937.65097833     
   1061179457.5495579        42645258.412121594        994149789.41055202     
   929512170.99704337        34646703.577582151        994400694.42405033     
   796441539.56674349        21970332.483761489        998764652.69148767     
   661967563.25866270        4616145.1306604445        1007241664.2128563     
   1039618338.2967948        57283582.923109710        1127494223.1525536     
   922788956.09669733        55414812.128736436        1124933997.8567431     
   803726001.85480583        46100801.195049703        1128259926.3380513     
   682429475.57111728        29341550.122044772        1137472008.5964770     
   558899377.24563086        5137058.9097027481        1152570244.6320186     
   1136246000.9352961        52575567.684828222        544965203.44896352     
   951372846.60448658        40805967.718684971        563092981.49254036     
   759019348.42756212        4101888.2654918730        592162526.77636218     
   559185506.40454662       -57536670.674679756        632173839.30042779     
   351871320.53540576       -144109709.10191938        683126919.06475651     
   950640875.10349905        28335399.518240988        703439143.62132990     
   791486068.24325287        11165066.295188040        721379309.73780274     
   623714483.00154567       -34727861.532748938        749407375.88142240     
   447326119.37835830       -109343383.96561813        787523342.05221713     
   262320977.37371510       -212681501.00331822        835727208.25017667     
   792548062.54461551        12348925.333514422        857531297.20929372     
   656671982.54611623       -10954027.329096407        873958011.10740340     
   511042689.63079298       -66767689.714452207        899618757.81958413     
   355660183.79864049       -155092061.82256913        934513537.34584153     
   190524465.04966480       -275927143.65343827        978642349.68617320     
   661967563.25866270        4616145.1306604445        1007241664.2128563     
   546930589.51308513       -25551313.154127568        1020829085.6013490     
   421003968.31532562       -92017596.279545754        1042796672.5908374     
   284187699.66537845       -194782704.24558651        1073144425.1813128     
   136481783.56323236       -333846637.05227304        1111872343.3727598     
   558899377.24563086        5137058.9097027481        1152570244.6320186     
   462261889.14414936       -32626791.179953426        1161992533.2196503     
   353598319.05513412       -110477581.22806656        1178941120.1951804     
   232908666.97856253       -228415311.23470092        1203416005.5586064     
   100192932.91444963       -386439981.19980609        1235417189.3099363     
   351871320.53540576       -144109709.10191938        683126919.06475651     
   277853317.65838271       -285154366.77242333        786429659.73549235     
   149034027.32575998       -608869982.62825942        905546237.30745292     
  -34586550.462462306       -1115256556.6694388        1040476651.7806474     
  -273008415.70629537       -1804314088.8959651        1191220903.1550949     
   262320977.37371510       -212681501.00331822        835727208.25017667     
   223618695.96931434       -352299082.00931436        885072557.00354886     
   140673639.88153625       -639392578.62655723        945440683.06588840     
   13485809.110389113       -1073961990.8550301        1016831586.4372057     
  -157944796.34412199       -1656007318.6947274        1099245267.1174879     
   190524465.04966480       -275927143.65343827        978642349.68617320     
   173449163.42569712       -418224270.50256336        986348571.42311966     
   122689599.89057779       -672802270.38886034        1000286510.8767685     
   38245774.444321811       -1039661143.3122768        1020456168.0471156     
  -79882312.913080633       -1518800889.2728429        1046857542.9341798     
   136481783.56323236       -333846637.05227304        1111872343.3727598     
   127344720.02752671       -482929932.25217497        1090257702.9942129     
   95081907.352888852       -709099057.91516352        1070083720.7400981     
   39693345.539336145       -1012354014.0411959        1051350396.6104176     
  -38820965.413121343       -1392694800.6302760        1034057730.6051981     
   100192932.91444963       -386439981.19980609        1235417189.3099363     
   85305365.774795890       -546416067.25817466        1196799951.7168248     
   57850562.268449515       -748282941.20552993        1154832312.6558764     
   17828522.395428181       -992040603.04180467        1109514272.1271091     
  -34760753.844285011       -1277689052.7670462        1060845830.1305164     
   2988468186.1654058       -190611579.58264887        1054406562.1904024     
   2893986917.7733102       -142691275.00400519        1061207081.6515918     
   2796372616.7424226       -105214412.55465651        1070503206.4705852     
   2695625283.0727453       -78180992.234606385        1082294936.6473753     
   2591744916.7642822       -61591014.043848038        1096582272.1819639     
   2681696579.8240080       -78695969.272365332        1189144511.1677215     
   2586191835.3010349       -63368977.821897030        1183428536.7210259     
   2489827769.7199678       -50906389.898420215        1181951201.3839018     
   2392604383.0807967       -41308205.501945138        1184712505.1563427     
   2294521675.3835244       -34574424.632473469        1191712448.0383594     
   2343327436.9285583        23740380.071702719        1310138332.1246712     
   2251779312.7083354        7968087.3240873814        1294558527.2808943     
   2161645579.0107141       -3089570.3482222557        1284960395.2984567     
   2072926235.8356760       -9432592.9452370405        1281343936.1773579     
   1985621283.1832261       -11060980.466952920        1283709149.9175956     
   1973360757.4790463        116697468.44955128        1417388025.0612555     
   1890749349.9952126        71319920.433947921        1394597053.3312020     
   1811826044.6146605        38236046.095938444        1379530788.2142560     
   1736590841.3373830        17445845.435523272        1372189229.7104175     
   1665043740.1633885        8949318.4527068138        1372572377.8196888     
   1571796541.4754832        200175295.86118597        1510893589.9774711     
   1503101947.1616588        126686521.50766939        1483544114.8719423     
   1440369166.5318060        73070459.434054613        1465662380.1312938     
   1383598199.5859189        39327109.640328109        1457248385.7555211     
   1332789046.3240006        25456472.126494765        1458302131.7446294     
   2591744916.7642822       -61591014.043848038        1096582272.1819639     
   2509124791.7564006       -44766966.236224294        1100442542.2290032     
   2425586708.5477691       -31002779.097769380        1106528073.7694671     
   2341130667.1383891       -20298452.628480911        1114838866.8033504     
   2255756667.5282526       -12653986.828370452        1125374921.3306587     
   2294521675.3835244       -34574424.632473469        1191712448.0383594     
   2216870762.9020019       -23907025.649143100        1191003282.1601660     
   2138631311.8406260       -15201421.931984305        1193312091.0759718     
   2059803322.1994150       -8457613.4809448719        1198638874.7857785     
   1980386793.9783566       -3675600.2960684299        1206983633.2895811     
   1985621283.1832261       -11060980.466952920        1283709149.9175956     
   1915204478.3725586       -5870761.7645894289        1278814871.0052328     
   1844528554.6029527       -1544272.9253516197        1277731280.1874440     
   1773593511.8744140        1918486.0507730246        1280458377.4642303     
   1702399350.1869364        4517515.1637746096        1286996162.8355913     
   1665043740.1633885        8949318.4527068138        1372572377.8196888     
   1604125938.1680813        9341825.4174562097        1363877308.7642121     
   1543278436.8347473        9968667.9221214056        1359785641.1038842     
   1482501236.1633811        10829845.966679633        1360297374.8387070     
   1421794336.1539936        11925359.551161706        1365412509.9686866     
   1332789046.3240006        25456472.126494765        1458302131.7446294     
   1283635142.2885633        21730735.896996260        1446190595.4370956     
   1234880958.5360055        19337400.610429406        1439475173.8252912     
   1186526495.0663261        18276466.266791940        1438155866.9092169     
   1138571751.8795280        18547932.866088629        1442232674.6888702     
   2255756667.5282526       -12653986.828370452        1125374921.3306587     
   2153352377.4509287       -11114488.870003343        1119540322.1739795     
   2051209420.9359379       -8703879.0371898413        1117852341.6696665     
   1949327797.9832885       -5422157.3299098015        1120310979.8177290     
   1847707508.5929708       -1269323.7481850386        1126916236.6181610     
   1980386793.9783566       -3675600.2960684299        1206983633.2895811     
   1888851815.1513615       -3026851.2263100147        1200673873.4854422     
   1797577201.9811230       -1510216.6340312958        1198784061.1188595     
   1706562954.4676466        874303.48078370094        1201314196.1898439     
   1615809072.6109283        4126709.1181336641        1208264278.6983879     
   1702399350.1869364        4517515.1637746096        1286996162.8355913     
   1622514621.9965391        4509797.1608060002        1280210113.1608098     
   1542889291.5573225        5366738.3284386992        1278117339.7087867     
   1463523358.8692842        7088338.6666678786        1280717842.4795196     
   1384416823.9324291        9674598.1755053401        1288011621.4730093     
   1421794336.1539936        11925359.551161706        1365412509.9686866     
   1354340797.9864600        11495456.291341960        1358149041.2000940     
   1287145689.6645324        11926985.850210011        1355852177.4394522     
   1220209011.1882057        13219948.227743804        1358521918.6867568     
   1153530762.5574794        15374343.423953533        1366158264.9420137     
   1138571751.8795280        18547932.866088629        1442232674.6888702     
   1084330343.1211283        17930126.165308833        1434490657.6032875     
   1030346396.3027542        18170525.931283116        1431988574.3108504     
   976619911.42439771        19269132.163984656        1434726424.8115561     
   923150888.48607123        21225944.863447487        1442704209.1054075     
   1847707508.5929708       -1269323.7481850386        1126916236.6181610     
   1750721484.7554519        5221168.6426345110        1121158378.6809530     
   1654098772.9445493        12922701.122169435        1119580640.3166373     
   1557839373.1602600        21835273.690414965        1122183021.5252090     
   1461943285.4025977        31958886.347423136        1128965522.3066761     
   1615809072.6109283        4126709.1181336641        1208264278.6983879     
   1529575062.4522390        9526236.2836616635        1203129081.5879200     
   1443602330.6052155        15796691.154744327        1202336305.8633358     
   1357890877.0698519        22938073.731355727        1205885951.5246418     
   1272440701.8461547        30950384.013530254        1213778018.5718384     
   1384416823.9324291        9674598.1755053401        1288011621.4730093     
   1309398546.9182763        14122275.955462217        1283380045.8551648     
   1234539514.5008307        19100769.057778120        1283253193.4362030     
   1159839726.6800976        24610077.482472837        1287631064.2161283     
   1085299183.4560800        30650201.229544342        1296513658.1949446     
   1153530762.5574794        15374343.423953533        1366158264.9420137     
   1090191938.1535630        19009287.658031702        1361911271.4826829     
   1026910324.6314100        22834934.831320703        1362331303.0352347     
   963685921.99101079        26851284.943793297        1367418359.5996692     
   900518730.23237300        31058337.995470464        1377172441.1759846     
   923150888.48607123        21225944.863447487        1442704209.1054075     
   871955236.15810704        24187271.391395152        1438722758.4704790     
   820714760.99694204        26999188.475339979        1439570634.6604297     
   769429463.00258577        29661696.115313441        1445247837.6752632     
   718099342.17503548        32174794.311307400        1455754367.5149763     
   1461943285.4025977        31958886.347423136        1128965522.3066761     
   1356717577.5665331        39475156.959303737        1123066164.7367985     
   1251254850.4368820        46201363.259219587        1120854495.6878135     
   1145555104.0136359        52137505.247153223        1122330515.1597326     
   1039618338.2967948        57283582.923109710        1127494223.1525536     
   1272440701.8461547        30950384.013530254        1213778018.5718384     
   1176700419.4730051        35962655.021425307        1208697294.0764751     
   1080756216.7248235        40295191.445875168        1207803208.2479889     
   984608093.60162139        43947993.286926985        1211095761.0863760     
   888256050.10337389        46921060.544492096        1218574952.5916390     
   1085299183.4560800        30650201.229544342        1296513658.1949446     
   1000469898.3914840        33586144.187142193        1292290182.1790867     
   915469791.87042117        35952682.289847583        1292752294.9760804     
   830298863.89288902        37749815.537658662        1297899996.5859284     
   744957114.45889115        38977543.930579215        1307733287.0086160     
   900518730.23237300        31058337.995470464        1377172441.1759846     
   828026014.32197464        32345624.456476063        1373844829.0446289     
   755395575.87366641        33173835.791107595        1375701755.8720965     
   682627414.88745201        33542971.999392331        1382743221.6583915     
   609721531.36333120        33453033.081321508        1394969226.4035089     
   718099342.17503548        32174794.311307400        1455754367.5149763     
   659368767.26446939        32241095.829387814        1453361234.6731057     
   600533568.73455703        31958651.949649572        1456651590.9360354     
   541593746.58530700        31327462.672118962        1465625436.3037615     
   482549300.81670904        30347527.996765152        1480282770.7762876     
   1039618338.2967948        57283582.923109710        1127494223.1525536     
   922788956.09669733        55414812.128736436        1124933997.8567431     
   803726001.85480583        46100801.195049703        1128259926.3380513     
   682429475.57111728        29341550.122044772        1137472008.5964770     
   558899377.24563086        5137058.9097027481        1152570244.6320186     
   888256050.10337389        46921060.544492096        1218574952.5916390     
   786532099.45073915        44582147.560817629        1216207578.0959692     
   682572239.65996206        34790204.116663665        1219682106.9033787     
   576376470.73105240        17545230.212068886        1228998539.0138633     
   467944792.66400045       -7152774.1529971063        1244156874.4274187     
   744957114.45889115        38977543.930579215        1307733287.0086160     
   658212165.42786980        36130559.779790521        1305556036.7007043     
   569228970.16237271        25822754.847428143        1309176439.2218182     
   478007528.66240185        8054129.1334841847        1318594494.5719697     
   384547840.92796046       -17175317.362029836        1333810202.7511570     
   609721531.36333120        33453033.081321508        1394969226.4035089     
   537829154.02809870        30060048.785713643        1392979373.6709437     
   463696193.36204839        19198453.387391716        1396742923.2933664     
   387322649.36518478        868246.88635271788        1406259875.2707937     
   308708522.03751647       -24930570.717368767        1421530229.6031985     
   482549300.81670904        30347527.996765152        1480282770.7762876     
   425383065.25141847        26370614.578550786        1478477589.0066864     
   365973909.25898236        14917299.736517787        1482381559.1180294     
   304321832.83938915       -4012416.5293693691        1491994681.1103292     
   240426835.99265718       -30418534.219052270        1507316954.9835806     
   558899377.24563086        5137058.9097027481        1152570244.6320186     
   462261889.14414936       -32626791.179953426        1161992533.2196503     
   353598319.05513412       -110477581.22806656        1178941120.1951804     
   232908666.97856253       -228415311.23470092        1203416005.5586064     
   100192932.91444963       -386439981.19980609        1235417189.3099363     
   467944792.66400045       -7152774.1529971063        1244156874.4274187     
   390379505.88538688       -41401485.158104137        1242682115.6420836     
   302647518.99662632       -109539196.53036529        1247540796.6207614     
   204748831.99771184       -211565908.26980585        1258732917.3634703     
   96683444.888645560       -347481620.37642193        1276258477.8701992     
   384547840.92796046       -17175317.362029836        1333810202.7511570     
   322646587.97542942       -48931339.531608373        1323607675.4497933     
   252438016.79013869       -108378422.47704294        1318545729.2885883     
   173922127.37208989       -195516566.19834176        1318624364.2675250     
   87098919.721283123       -310345770.69550198        1323843580.3866117     
   308708522.03751647       -24930570.717368767        1421530229.6031985     
   259063135.41427019       -55216354.300475642        1404769212.6427975     
   202969812.43565971       -106995259.06813221        1391955918.1986594     
   140428553.10169059       -180267285.02031779        1383090346.2707980     
   71439357.412353456       -275032432.15706044        1378172496.8592093     
   240426835.99265718       -30418534.219052270        1507316954.9835806     
   199629148.20191625       -60256529.464701310        1486166727.2210772     
   154242905.93320021       -105389706.30360058        1467771363.3509769     
   104268109.18652064       -165818064.73571458        1452130863.3732686     
   49704757.961868212       -241541604.76106566        1439245227.2879596     
   100192932.91444963       -386439981.19980609        1235417189.3099363     
   85305365.774795890       -546416067.25817466        1196799951.7168248     
   57850562.268449515       -748282941.20552993        1154832312.6558764     
   17828522.395428181       -992040603.04180467        1109514272.1271091     
  -34760753.844285011       -1277689052.7670462        1060845830.1305164     
   96683444.888645560       -347481620.37642193        1276258477.8701992     
   79751718.970768273       -488720777.74483162        1221953996.3119721     
   51450290.776780039       -667858942.70028341        1165103579.7714162     
   11779160.306688249       -884896115.24274969        1105707228.2485130     
  -39261672.439515829       -1139832295.3722458        1043764941.7432731     
   87098919.721283123       -310345770.69550198        1323843580.3866117     
   70421510.697986454       -432158456.67213130        1255248977.9689720     
   43571933.489164084       -587878369.93385482        1184912907.0544751     
   6550188.0948174894       -777505510.48065412        1112835367.6431141     
  -40643725.485058427       -1001039878.3125523        1039016359.7349174     
   71439357.412353456       -275032432.15706044        1378172496.8592093     
   57314740.956461355       -376729104.04003906        1296684896.6878128     
   34215490.405609339       -508341222.90621734        1214260294.5050583     
   2141605.7598333061       -669868788.75547576        1130898690.3109210     
  -38906912.980909556       -861311801.58795142        1046600084.1054217     
   49704757.961868212       -241541604.76106566        1439245227.2879596     
   40431409.746183574       -322432719.84857929        1346261752.4685018     
   23380961.526129872       -429247501.61732578        1253145742.1231556     
  -1446586.6982810497       -561985950.06725872        1159897196.2519250     
  -34051234.927060843       -720648065.19842708        1066516114.8548174     
   1571796541.4754832        200175295.86118597        1510893589.9774711     
   1503101947.1616588        126686521.50766939        1483544114.8719423     
   1440369166.5318060        73070459.434054613        1465662380.1312938     
   1383598199.5859189        39327109.640328109        1457248385.7555211     
   1332789046.3240006        25456472.126494765        1458302131.7446294     
   1115633226.6781695        100827342.92686680        1481996385.3599179     
   1079879982.4694998        65355643.560658813        1469904088.4160764     
   1047064396.0114783        39676136.696620762        1464910380.0373240     
   1017186467.3041122        23788822.334760904        1467015260.2236624     
   990246196.34739947        17693700.475077629        1476218728.9750953     
   691613899.66576326        11122586.328023106        1465684298.6095271     
   682033000.41999316        11637260.406438828        1465320997.9051688     
   672365602.99156058        11863607.209313661        1469687133.9661129     
   662611707.38046408        11801626.736642957        1478782706.7923601     
   652771313.58670557        11451318.988430977        1492607716.3839142     
   299738560.43825710       -68938973.935352981        1461957329.7262936     
   309561001.01314151       -34468627.954982951        1469794843.3392193     
   316272787.47204757       -10367129.027872249        1479992641.9176590     
   319873919.81497371        3365522.8459715247        1492550725.4616146     
   320364398.04192287        6729327.6665585190        1507469093.9710917     
  -59992791.004343145       -139357337.86325571        1470815478.7102237     
  -37536015.751055017       -72962021.523609832        1483325624.7182291     
  -21214050.547058433       -27016072.014938526        1495826903.8919632     
  -11026895.392357672       -1519489.3372511999        1508319316.2314265     
  -6974550.2869509179        3527726.5094553903        1520802861.7366202     
   1332789046.3240006        25456472.126494765        1458302131.7446294     
   1283635142.2885633        21730735.896996260        1446190595.4370956     
   1234880958.5360055        19337400.610429406        1439475173.8252912     
   1186526495.0663261        18276466.266791940        1438155866.9092169     
   1138571751.8795280        18547932.866088629        1442232674.6888702     
   990246196.34739947        17693700.475077629        1476218728.9750953     
   954777975.09609818        14176246.674949229        1466219499.5911698     
   919758504.76310194        12154629.269171000        1461303538.6309943     
   885187785.34841716        11628848.257764280        1461470846.0945733     
   851065816.85204136        12598903.640720606        1466721421.9819007     
   652771313.58670557        11451318.988430977        1492607716.3839142     
   630094928.62817597        7873993.6702532470        1484777996.3315959     
   607916325.22338533        5955940.1978724897        1481718698.4310551     
   586235503.37233055        5697158.5712767541        1483429822.6822872     
   565052463.07501721        7097648.7904863656        1489911369.0852981     
   320364398.04192287        6729327.6665585190        1507469093.9710917     
   309586002.88480246        2823976.8829211444        1501866085.6583812     
   299354419.91685510        741333.39652797580        1500720653.2254698     
   289669649.13806701        481397.20733276010        1504032796.6723611     
   280531690.54845560        2044168.3153917342        1511802515.9990463     
  -6974550.2869509179        3527726.5094553903        1520802861.7366202     
  -6748802.1340191681       -973803.68703376502        1517483767.5715218     
  -5927211.1564893862       -3489191.1348624695        1518309403.0142453     
  -4509777.3543664226       -4018435.8340475801        1523279768.0647907     
  -2496500.7276429571       -2561537.7845640047        1532394862.7231581     
   1138571751.8795280        18547932.866088629        1442232674.6888702     
   1084330343.1211283        17930126.165308833        1434490657.6032875     
   1030346396.3027542        18170525.931283116        1431988574.3108504     
   976619911.42439771        19269132.163984656        1434726424.8115561     
   923150888.48607123        21225944.863447487        1442704209.1054075     
   851065816.85204136        12598903.640720606        1466721421.9819007     
   810609266.63116109        12557382.463920325        1459727508.8565493     
   770289986.12334919        12973426.997347921        1457964410.3075385     
   730107975.32860088        13847037.240984887        1461432126.3348634     
   690063234.24693012        15178213.194883257        1470130656.9385281     
   565052463.07501721        7097648.7904863656        1489911369.0852981     
   538354716.48649430        7624596.6661053896        1483525335.6553969     
   511674047.38408601        8208469.4954377711        1482360997.5850263     
   485010455.76779395        8849267.2784918845        1486418354.8741906     
   458363941.63761228        9546990.0152476728        1495697407.5228844     
   280531690.54845560        2044168.3153917342        1511802515.9990463     
   267566692.68713617        3131768.7718946338        1505884137.9998133     
   254498580.08497307        3875653.4255864620        1505178336.1433103     
   241327352.74197048        4275822.2764789611        1509685110.4295316     
   228053010.65812859        4332275.3245748281        1519404460.8584838     
  -2496500.7276429571       -2561537.7845640047        1532394862.7231581     
  -1754804.7669212609       -921101.21873586869        1526803915.8898153     
  -1236415.7739976509       -25021.212234687642        1526416425.9823923     
  -941333.74886052962        126702.23497819802        1531232393.0008907     
  -869558.69152986736       -465930.87716377957        1541251816.9453096     
   923150888.48607123        21225944.863447487        1442704209.1054075     
   871955236.15810704        24187271.391395152        1438722758.4704790     
   820714760.99694204        26999188.475339979        1439570634.6604297     
   769429463.00258577        29661696.115313441        1445247837.6752632     
   718099342.17503548        32174794.311307400        1455754367.5149763     
   690063234.24693012        15178213.194883257        1470130656.9385281     
   651219723.75310218        17075437.222814173        1466652297.5055711     
   612374556.00622749        18967137.073922098        1468091820.9278500     
   573527731.00630784        20853312.748211890        1474449227.2053492     
   534679248.75333816        22733964.245669454        1485724516.3380811     
   458363941.63761228        9546990.0152476728        1495697407.5228844     
   432125590.20749843        10456016.712068453        1492772499.1354098     
   405928747.10447997        11503404.499207258        1494854029.6335065     
   379773412.32855725        12689153.376665086        1501941999.0171838     
   353659585.87973469        14013263.344459653        1514036407.2864325     
   228053010.65812859        4332275.3245748281        1519404460.8584838     
   214672835.52129266        4329009.8591480032        1517083363.3599813     
   201377334.29169360        4607990.7511776239        1519857260.7774062     
   188166506.96934178        5169218.0006972104        1527726153.1107585     
   175040353.55422819        6012691.6076789349        1540690040.3600333     
  -869558.69152986736       -465930.87716377957        1541251816.9453096     
  -1138540.3055216388       -1305583.3359683217        1539584890.1792924     
  -1279682.4321326148       -1719104.1701722930        1543101514.3595490     
  -1292985.0713548567       -1706493.3797454173        1551801689.4860775     
  -1178448.2231830810       -1267750.9646732032        1565685415.5588758     
   718099342.17503548        32174794.311307400        1455754367.5149763     
   659368767.26446939        32241095.829387814        1453361234.6731057     
   600533568.73455703        31958651.949649572        1456651590.9360354     
   541593746.58530700        31327462.672118962        1465625436.3037615     
   482549300.81670904        30347527.996765152        1480282770.7762876     
   534679248.75333816        22733964.245669454        1485724516.3380811     
   490764284.59072512        22951309.557472110        1484053725.9838390     
   446756453.54088205        22859098.578502491        1488061213.9169786     
   402655755.60380417        22457331.308749959        1497746980.1375031     
   358462190.77949417        21746007.748229548        1513111024.6454124     
   353659585.87973469        14013263.344459653        1514036407.2864325     
   324545344.41532767        14377186.035062164        1513101675.6072760     
   295349992.79579633        14470741.541918039        1517840011.3980882     
   266073531.02114341        14293929.865033358        1528251414.6588767     
   236715959.09136710        13846751.004406951        1544335885.3896308     
   175040353.55422819        6012691.6076789349        1540690040.3600333     
   160711946.73827681        6518725.2621619925        1540505083.5434217     
   146314186.49930745        6793580.8399197310        1545987983.3793705     
   131847072.83732820        6837258.3409771845        1557138739.8678772     
   117310605.75233561        6649757.7653263360        1573957353.0089467     
  -1178448.2231830810       -1267750.9646732032        1565685415.5588758     
  -735908.44043752528       -624072.76126052393        1566263949.7922723     
  -350965.34858775733       -172383.52750047127        1572505129.8608167     
  -23618.947646953558        87316.736563034297        1584408955.7645085     
   246130.76239367024        155028.03095927328        1601975427.5033481     
   482549300.81670904        30347527.996765152        1480282770.7762876     
   425383065.25141847        26370614.578550786        1478477589.0066864     
   365973909.25898236        14917299.736517787        1482381559.1180294     
   304321832.83938915       -4012416.5293693691        1491994681.1103292     
   240426835.99265718       -30418534.219052270        1507316954.9835806     
   358462190.77949417        21746007.748229548        1513111024.6454124     
   316277042.60073459        18950049.755428061        1509753970.2622163     
   272413007.84156567        10557803.161258042        1511939149.1972194     
   226870086.50198418       -3430732.0342827141        1519666561.4504380     
   179648278.58199760       -23015555.831178278        1532936207.0218639     
   236715959.09136710        13846751.004406951        1544335885.3896308     
   209034988.11988226        12088675.383244835        1540084997.8806903     
   180239164.41472700        6614423.9831792340        1541209425.1272225     
   150328487.97589532       -2576003.1958077028        1547709167.1292214     
   119302958.80339088       -15482606.153701752        1559584223.8866930     
   117310605.75233561        6649757.7653263360        1573957353.0089467     
   103656901.80886471        5786491.4620137028        1569470671.8621228     
   89452378.978462815        3087162.2022656798        1570192386.9080372     
   74697037.261121109       -1448230.0139483772        1576122498.1466801     
   59390876.656847849       -7819685.1865994520        1587261005.5780499     
   246130.76239367024        155028.03095927328        1601975427.5033481     
   142783.66768332481        43497.991740074467        1597910992.2065134     
   52651.532777671811       -23982.181464176640        1598888034.5396626     
  -24265.642328504298       -47412.488670865408        1604906554.5028021     
  -87967.857638040106       -26792.929886671474        1615966552.0959334     
   240426835.99265718       -30418534.219052270        1507316954.9835806     
   199629148.20191625       -60256529.464701310        1486166727.2210772     
   154242905.93320021       -105389706.30360058        1467771363.3509769     
   104268109.18652064       -165818064.73571458        1452130863.3732686     
   49704757.961868212       -241541604.76106566        1439245227.2879596     
   179648278.58199760       -23015555.831178278        1532936207.0218639     
   148397251.94150269       -45577757.693558507        1507329792.5284514     
   113702949.82693945       -79617544.469505370        1484633070.4005368     
   75565372.238295138       -125134916.15905307        1464846040.6381202     
   33984519.175584242       -182129872.76215610        1447968703.2412195     
   119302958.80339088       -15482606.153701752        1559584223.8866930     
   98040960.379174933       -30636304.512963317        1530857781.5002296     
   74480965.484775469       -53449991.106168635        1505195859.9523795     
   48622974.120193794       -83923665.933314577        1482598459.2431355     
   20466986.285427168       -122057328.99441180        1463065579.3724995     
   59390876.656847849       -7819685.1865994520        1587261005.5780499     
   48560273.514922939       -15432169.922945406        1556750694.1364141     
   36576952.906703070       -26887046.213610664        1529459732.0065050     
   23440914.832196105       -42184314.058564864        1505388119.1883035     
   9152159.2913964875       -61323973.457827888        1484535855.6818194     
  -87967.857638040106       -26792.929886671474        1615966552.0959334     
  -44808.651261235995        34646.076462880184        1585008530.4370129     
  -9087.9072742006283        71290.208179175475        1557424686.5629082     
   19194.374307098900        83139.465208296868        1533215020.4736221     
   40038.193492316059        70193.847587279815        1512379532.1691570     
   49704757.961868212       -241541604.76106566        1439245227.2879596     
   40431409.746183574       -322432719.84857929        1346261752.4685018     
   23380961.526129872       -429247501.61732578        1253145742.1231556     
  -1446586.6982810497       -561985950.06725872        1159897196.2519250     
  -34051234.927060843       -720648065.19842708        1066516114.8548174     
   33984519.175584242       -182129872.76215610        1447968703.2412195     
   29832243.062031165       -241962306.78938794        1347490422.5770185     
   19848923.405702651       -321231552.62586278        1246224268.0418222     
   4034560.2066100538       -419937610.27155894        1144170239.6356153     
  -17610846.535246670       -538080479.72646487        1041328337.3584039     
   20466986.285427168       -122057328.99441180        1463065579.3724995     
   19563387.002235040       -161392800.54290634        1357362892.0687599     
   14774800.637870893       -213678229.02864033        1250216992.5488982     
   6101227.1923434734       -278913614.45158964        1141627880.8129218     
  -6457333.3343589008       -357098956.81178057        1031595556.8608153     
   9152159.2913964875       -61323973.457827888        1484535855.6818194     
   9624841.5668058023       -80724201.109106392        1375879160.9437289     
   8158593.2226388678       -106587530.82563505        1265123915.6444058     
   4753414.2589154616       -138913962.60735723        1152270119.7838550     
  -590695.32439751178       -177703496.45437419        1037317773.3620501     
   40038.193492316059        70193.847587279815        1512379532.1691570     
   16606.755739604192        43491.512002494630        1403039229.2019343     
   301.16000787494522        40541.983152236528        1290945037.3283441     
  -8878.5936879568690        61345.261089690961        1176096956.5483983     
  -10932.505365276615        105901.34575343730        1058494986.8621069     
  -59992791.004343145       -139357337.86325571        1470815478.7102237     
  -37536015.751055017       -72962021.523609832        1483325624.7182291     
  -21214050.547058433       -27016072.014938526        1495826903.8919632     
  -11026895.392357672       -1519489.3372511999        1508319316.2314265     
  -6974550.2869509179        3527726.5094553903        1520802861.7366202     
  -375610465.67127794       -73456895.013233662        1489565727.6673207     
  -359591753.50977141       -37468738.010171339        1488719670.4292674     
  -347076675.81656593       -13159362.568110451        1489947160.5710208     
  -338065232.59165823       -528768.68704335392        1493248198.0925748     
  -332557423.83505261        423043.63301704824        1498622782.9939308     
  -716299524.29391229       -15077867.349923164        1495828916.3525348     
  -700769120.32683659       -7711943.2142375410        1484696360.7129221     
  -686111175.24706960       -3254215.3695733547        1477719766.6671829     
  -672325689.05460823       -1704683.8159320951        1474899134.2153189     
  -659412661.74945378       -3063348.5533128083        1476234463.3573308     
  -1082059966.8722427        35779745.126677752        1489605044.7658691     
  -1061068116.2022507        16308362.864192426        1471255695.5691836     
  -1038317548.8385730        2699369.5806565285        1459144722.1804490     
  -1013808264.7812055       -5047234.7239091992        1453272124.5996609     
  -987540264.03015482       -6931450.0495318174        1453637902.8268209     
  -1472891793.4062724        79115942.416572213        1470894112.9073210     
  -1440488741.1360145        34592180.225114226        1448397674.9980612     
  -1403695796.5910757        4701392.2825942039        1434222027.1108210     
  -1362512959.7714543       -10556421.410988986        1428367169.2456012     
  -1316940230.6771550       -11181260.855640531        1430833101.4024017     
  -6974550.2869509179        3527726.5094553903        1520802861.7366202     
  -6748802.1340191681       -973803.68703376502        1517483767.5715218     
  -5927211.1564893862       -3489191.1348624695        1518309403.0142453     
  -4509777.3543664226       -4018435.8340475801        1523279768.0647907     
  -2496500.7276429571       -2561537.7845640047        1532394862.7231581     
  -332557423.83505261        423043.63301704824        1498622782.9939308     
  -320757008.72614032       -1704538.1542465836        1495372418.9932241     
  -308728020.25640678       -3070208.7387709320        1496333081.1025522     
  -296470458.42585331       -3673968.1205634624        1501504769.3219151     
  -283984323.23448485       -3515816.2996388376        1510887483.6513083     
  -659412661.74945378       -3063348.5533128083        1476234463.3573308     
  -635848161.10681307       -2760156.3580173552        1472624348.4799435     
  -612422356.56712794       -2919284.5059105754        1473291556.2148025     
  -589135248.13040400       -3540732.9970051646        1478236086.5619051     
  -565986835.79663849       -4624501.8312954903        1487457939.5212519     
  -987540264.03015482       -6931450.0495318174        1453637902.8268209     
  -952022259.27603769       -4140658.2983524203        1449239556.0316801     
  -917010220.08865809       -3036418.4362945557        1449184828.3509946     
  -882504146.46801424       -3618730.4633597136        1453473719.7847638     
  -848504038.41411042       -5887594.3795551658        1462106230.3329871     
  -1316940230.6771550       -11181260.855640531        1430833101.4024017     
  -1269279303.2338183       -5846043.9752610326        1425218041.6484308     
  -1222491610.8209958       -3421610.5299240947        1424012897.5111268     
  -1176577153.4386868       -3907960.5196338296        1427217668.9904881     
  -1131535931.0868945       -7305093.9444018602        1434832356.0865188     
  -2496500.7276429571       -2561537.7845640047        1532394862.7231581     
  -1754804.7669212609       -921101.21873586869        1526803915.8898153     
  -1236415.7739976509       -25021.212234687642        1526416425.9823923     
  -941333.74886052962        126702.23497819802        1531232393.0008907     
  -869558.69152986736       -465930.87716377957        1541251816.9453096     
  -283984323.23448485       -3515816.2996388376        1510887483.6513083     
  -270032618.91862381       -2793466.5837682337        1504883942.1172907     
  -256227382.14539328       -2559342.0099996775        1504050354.7420626     
  -242568612.91479421       -2813442.5783360004        1508386721.5256271     
  -229056311.22682196       -3555768.2887616307        1517893042.4679818     
  -565986835.79663849       -4624501.8312954903        1487457939.5212519     
  -538920845.31744075       -4848955.6229265928        1481131449.2825875     
  -511924482.95571202       -5305503.1394520104        1479941410.4355824     
  -484997748.71144319       -5994144.3808449209        1483887822.9802377     
  -458140642.58464080       -6914879.3471274972        1492970686.9165545     
  -848504038.41411042       -5887594.3795551658        1462106230.3329871     
  -808419483.96337938       -7087568.3362322450        1455546437.3857036     
  -768327718.20494795       -8263504.6005726755        1454089593.0629456     
  -728228741.13881600       -9415403.1725809574        1457735697.3647194     
  -688122552.76498449       -10543264.052252501        1466484750.2910202     
  -1131535931.0868945       -7305093.9444018602        1434832356.0865188     
  -1078528534.8564334       -9509304.7236675024        1428128906.4266379     
  -1025437087.8931041       -11433346.393372655        1426494902.6241558     
  -972261590.19690967       -13077218.953528225        1429930344.6790721     
  -919002041.76784730       -14440922.404123247        1438435232.5913887     
  -869558.69152986736       -465930.87716377957        1541251816.9453096     
  -1138540.3055216388       -1305583.3359683217        1539584890.1792924     
  -1279682.4321326148       -1719104.1701722930        1543101514.3595490     
  -1292985.0713548567       -1706493.3797454173        1551801689.4860775     
  -1178448.2231830810       -1267750.9646732032        1565685415.5588758     
  -229056311.22682196       -3555768.2887616307        1517893042.4679818     
  -216034129.82965961       -4616745.7881056294        1515959941.8410809     
  -202978634.09974796       -5566675.5116194114        1519118336.8243039     
  -189889824.03709847       -6405557.4593426436        1527368227.4176500     
  -176767699.64170521       -7133391.6312481612        1540709613.6211236     
  -458140642.58464080       -6914879.3471274972        1492970686.9165545     
  -432090313.42245990       -8276086.4608316272        1490661133.0816851     
  -406101195.08217645       -9841329.6475296170        1493351019.5207939     
  -380173287.56379598       -11610608.907235831        1501040346.2338719     
  -354306590.86731225       -13583924.239935249        1513729113.2209275     
  -688122552.76498449       -10543264.052252501        1466484750.2910202     
  -649307091.08392525       -12283605.354155511        1463688463.9011035     
  -610647365.37941420       -14543066.577886343        1465799562.4490128     
  -572143375.65143824       -17321647.723400861        1472818045.9347460     
  -533795121.90001547       -20619348.790757895        1484743914.3583012     
  -919002041.76784730       -14440922.404123247        1438435232.5913887     
  -867684462.81406164       -16639302.468097329        1435041934.2993388     
  -816617144.99145269       -19671886.302662522        1436463965.6089633     
  -765800088.30003643       -23538673.907870829        1442701326.5202641     
  -715233292.73980772       -28239665.283700556        1453754017.0332325     
  -1178448.2231830810       -1267750.9646732032        1565685415.5588758     
  -735908.44043752528       -624072.76126052393        1566263949.7922723     
  -350965.34858775733       -172383.52750047127        1572505129.8608167     
  -23618.947646953558        87316.736563034297        1584408955.7645085     
   246130.76239367024        155028.03095927328        1601975427.5033481     
  -176767699.64170521       -7133391.6312481612        1540709613.6211236     
  -161870114.97435173       -7211805.9549015462        1540577963.7369564     
  -146928845.67271370       -7144604.8309394047        1546069570.0505202     
  -131943891.73679848       -6931788.2593864202        1557184432.5617988     
  -116915253.16659445       -6573356.2402049564        1573922551.2708001     
  -354306590.86731225       -13583924.239935249        1513729113.2209275     
  -325066503.13657975       -14418193.637051702        1513005440.7652614     
  -295681449.44637227       -14769243.169251457        1517865634.8698876     
  -266151429.79669756       -14637072.836563483        1528309695.5348089     
  -236476444.18755543       -14021682.638981037        1544337622.7600243     
  -533795121.90001547       -20619348.790757895        1484743914.3583012     
  -490325072.92711747       -22243235.807690620        1483546380.8771763     
  -446608776.66955984       -23046298.542425543        1487893324.3189228     
  -402646233.12734526       -23028536.994970098        1497784744.6835349     
  -358437442.30047572       -22189951.165331587        1513220641.9710188     
  -715233292.73980772       -28239665.283700556        1453754017.0332325     
  -657645824.34596205       -30686932.466814905        1452200784.0727086     
  -599710827.34226978       -31975770.950438023        1456152638.3976252     
  -541428301.72873318       -32106180.734582573        1465609580.0079825     
  -482798247.50536060       -31078161.819271520        1480571608.9037802     
   246130.76239367024        155028.03095927328        1601975427.5033481     
   142783.66768332481        43497.991740074467        1597910992.2065134     
   52651.532777671811       -23982.181464176640        1598888034.5396626     
  -24265.642328504298       -47412.488670865408        1604906554.5028021     
  -87967.857638040106       -26792.929886671474        1615966552.0959334     
  -116915253.16659445       -6573356.2402049564        1573922551.2708001     
  -103406411.13365316       -5760724.8679141738        1569437808.4305882     
  -89341162.538729653       -3093404.9556843191        1570169234.6559274     
  -74719507.381844357        1428603.4964176863        1576116829.9468164     
  -59541445.662985601        7805300.4884311371        1587280594.3032475     
  -236476444.18755543       -14021682.638981037        1544337622.7600243     
  -208856294.63963541       -12135154.338948809        1540066295.9123056     
  -180136546.92757910       -6583298.8251287490        1541185829.5656919     
  -150317201.05137849        2633883.9025069848        1547696223.7201874     
  -119398257.01103976        15516393.843933627        1559597478.3757946     
  -358437442.30047572       -22189951.165331587        1513220641.9710188     
  -316206866.85027170       -19079790.421393007        1509796454.6516507     
  -272333501.63375926       -10493663.789758220        1511937819.2689550     
  -226817346.65093476        3568428.7295832187        1519644735.8229296     
  -179658401.90180379        23106487.136611514        1532917204.3135705     
  -482798247.50536060       -31078161.819271520        1480571608.9037802     
  -425458127.76555568       -26594633.115221530        1478628284.6486335     
  -365932026.65727764       -14824499.849599183        1482425203.7657189     
  -304219944.18051255        4232237.9776488096        1491962366.2550311     
  -240321880.33526674        30575580.366499707        1507239772.1165729     
  -87967.857638040106       -26792.929886671474        1615966552.0959334     
  -44808.651261235995        34646.076462880184        1585008530.4370129     
  -9087.9072742006283        71290.208179175475        1557424686.5629082     
   19194.374307098900        83139.465208296868        1533215020.4736221     
   40038.193492316059        70193.847587279815        1512379532.1691570     
  -59541445.662985601        7805300.4884311371        1587280594.3032475     
  -48647704.767380059        15480166.927134093        1556766787.4270885     
  -36606986.459887333        26978291.405461349        1529468459.2734354     
  -23419290.740525912        42299673.923350736        1505385609.8422806     
  -9084617.6092750020        61444314.480871767        1484518239.1336415     
  -119398257.01103976        15516393.843933627        1559597478.3757946     
  -98107360.318528861        30668659.947297975        1530874704.8023880     
  -74515070.339859486        53492237.004520819        1505208710.8891649     
  -48621387.075037055        83987125.015589312        1482599496.6361442     
  -20426310.524051718        122153323.98053013        1463047062.0433064     
  -179658401.90180379        23106487.136611514        1532917204.3135705     
  -148423775.30470827        45600125.136948511        1507332282.5629027     
  -113733339.54718485        79613127.005378515        1484645441.4101112     
  -75587094.629222661        125145492.74193910        1464856680.8552022     
  -33985040.550831802        182197222.34659249        1447966000.8981726     
  -240321880.33526674        30575580.366499707        1507239772.1165729     
  -199596949.72591799        60274562.496089965        1486139520.7086368     
  -154261794.08186266        105340961.40803544        1467778650.8362665     
  -104316413.40309623        165774777.10235208        1452157162.4994557     
  -49760807.689613655        241576009.57905427        1439275055.6982167     
   40038.193492316059        70193.847587279815        1512379532.1691570     
   16606.755739604192        43491.512002494630        1403039229.2019343     
   301.16000787494522        40541.983152236528        1290945037.3283441     
  -8878.5936879568690        61345.261089690961        1176096956.5483983     
  -10932.505365276615        105901.34575343730        1058494986.8621069     
  -9084617.6092750020        61444314.480871767        1484518239.1336415     
  -9590900.4230239987        80827218.839193746        1375869724.5140266     
  -8151489.9337185174        106695767.54103068        1265124534.6590943     
  -4766386.1413637102        139049960.58636808        1152282669.5688465     
   564410.95404072851        177889797.97520155        1037344129.2432852     
  -20426310.524051718        122153323.98053013        1463047062.0433064     
  -19537691.367966011        161509161.03651813        1357351997.8091660     
  -14764811.447805211        213812533.97275355        1250217472.0107563     
  -6107670.7635584176        279063442.78927732        1141643484.6480651     
   6433730.6847614497        357261887.48604405        1031630035.7211128     
  -33985040.550831802        182197222.34659249        1447966000.8981726     
  -29823766.079084262        242089318.10397637        1347486049.0873721     
  -19839663.382224306        321390841.27840710        1246223849.3833468     
  -4032732.4602625668        420101791.86984038        1144179401.7860773     
   17597026.686803579        538222169.87828970        1041352706.2955906     
  -49760807.689613655        241576009.57905427        1439275055.6982167     
  -40449124.556362733        322567690.04163313        1346271878.3486235     
  -23376045.736993253        429430689.45793569        1253143666.7768416     
   1458428.7685225904        562165007.82806528        1159890420.9828658     
   34054298.960156590        720770645.15191519        1066512140.9666860     
  -1472891793.4062724        79115942.416572213        1470894112.9073210     
  -1440488741.1360145        34592180.225114226        1448397674.9980612     
  -1403695796.5910757        4701392.2825942039        1434222027.1108210     
  -1362512959.7714543       -10556421.410988986        1428367169.2456012     
  -1316940230.6771550       -11181260.855640531        1430833101.4024017     
  -1895745838.7272995        29570268.514138460        1373017650.8431947     
  -1836235712.4853632        8610496.1920332909        1359418899.3402975     
  -1774370082.5872397       -4497597.2761077881        1352913109.3621972     
  -1710148949.0329227       -9754011.8902761936        1353500280.9089043     
  -1643572311.8224168       -7158747.6504776478        1361180413.9804175     
  -2302666208.7284508       -15195302.792334080        1282263249.1954467     
  -2219557089.9354529       -13643509.671272397        1275188730.7106607     
  -2136126856.1047564       -11021333.091211200        1273979345.2534661     
  -2052375507.2363589       -7328773.0521506071        1278635092.8238592     
  -1968303043.3302634       -2565829.5540934801        1289155973.4218435     
  -2693652903.4097257       -55180771.502843022        1198630907.9640629     
  -2590452873.4862838       -32169837.364797473        1195707169.1091571     
  -2488966117.1436257       -14869815.162719488        1197420734.7846251     
  -2389192634.3817658       -3280704.8966161013        1203771604.9904671     
  -2291132425.2006969        2597493.4335147142        1214759779.7266836     
  -3068705922.7711258       -90386137.617389202        1122120627.1490488     
  -2948923063.1378489       -46968486.888549685        1120974214.5357833     
  -2832887865.7038569       -16043043.490644336        1123237277.9556735     
  -2720600330.4691424        2390192.5763245821        1128909817.4087243     
  -2612060457.4337139        8331221.3123478889        1137991832.8949344     
  -1316940230.6771550       -11181260.855640531        1430833101.4024017     
  -1269279303.2338183       -5846043.9752610326        1425218041.6484308     
  -1222491610.8209958       -3421610.5299240947        1424012897.5111268     
  -1176577153.4386868       -3907960.5196338296        1427217668.9904881     
  -1131535931.0868945       -7305093.9444018602        1434832356.0865188     
  -1643572311.8224168       -7158747.6504776478        1361180413.9804175     
  -1585462870.7625594       -4437477.5275182128        1355283196.3792593     
  -1527951022.5489914       -3708183.5588510036        1353616599.8104694     
  -1471036767.1817098       -4970865.7444725633        1356180624.2740467     
  -1414720104.6607139       -8225524.0843791366        1362975269.7699938     
  -1968303043.3302634       -2565829.5540934801        1289155973.4218435     
  -1900257358.8947425       -2612187.2608195543        1283298180.5217624     
  -1832533625.1212792       -3731713.8410723209        1281491714.0697536     
  -1765131842.0098732       -5924409.2948470116        1283736574.0658150     
  -1698052009.5605252       -9190273.6221523285        1290032760.5099473     
  -2291132425.2006969        2597493.4335147142        1214759779.7266836     
  -2213662767.6303596       -370173.17515206337        1209262994.0759470     
  -2136239418.5378540       -3492201.3765780926        1207638240.2889862     
  -2058862377.9231730       -6768591.1707621813        1209885518.3657954     
  -1981531645.7863283       -10199342.557727337        1216004828.3063774     
  -2612060457.4337139        8331221.3123478889        1137991832.8949344     
  -2525679096.9694138        2288564.7294944525        1133177637.0418115     
  -2439068402.7987156       -2989646.1653647423        1132056178.4681609     
  -2352228374.9216204       -7503411.3722279072        1134627457.1739886     
  -2265159013.3381224       -11252730.891092896        1140891473.1592884     
  -1131535931.0868945       -7305093.9444018602        1434832356.0865188     
  -1078528534.8564334       -9509304.7236675024        1428128906.4266379     
  -1025437087.8931041       -11433346.393372655        1426494902.6241558     
  -972261590.19690967       -13077218.953528225        1429930344.6790721     
  -919002041.76784730       -14440922.404123247        1438435232.5913887     
  -1414720104.6607139       -8225524.0843791366        1362975269.7699938     
  -1348454689.0809495       -9467359.4518488050        1356162718.2407811     
  -1282232429.8495221       -10853049.313782573        1354257110.6432171     
  -1216053326.9664407       -12382593.670194268        1357258446.9773073     
  -1149917380.4317002       -14055992.521085560        1365166727.2430446     
  -1698052009.5605252       -9190273.6221523285        1290032760.5099473     
  -1618992865.8478765       -9609020.9427458048        1282962698.8499908     
  -1540104085.5647759       -10595646.361836374        1280637079.1959360     
  -1461385668.7112329       -12150149.879445493        1283055901.5477870     
  -1382837615.2872360       -14272531.495551109        1290219165.9055390     
  -1981531645.7863283       -10199342.557727337        1216004828.3063774     
  -1890143065.1572185       -9934289.1963692904        1208528848.2542665     
  -1799052055.0388653       -10661137.537537575        1205634808.2823093     
  -1708258615.4312830       -12379887.581267357        1207322708.3905098     
  -1617762746.3344569       -15090539.327523112        1213592548.5788641     
  -2265159013.3381224       -11252730.891092896        1140891473.1592884     
  -2161905287.0089755       -10443164.212717533        1132861166.4536116     
  -2059076338.2717960       -11049522.840900421        1129250297.9023407     
  -1956672167.1265941       -13071806.775673151        1130058867.5054793     
  -1854692773.5733562       -16510016.016995192        1135286875.2630260     
  -919002041.76784730       -14440922.404123247        1438435232.5913887     
  -867684462.81406164       -16639302.468097329        1435041934.2993388     
  -816617144.99145269       -19671886.302662522        1436463965.6089633     
  -765800088.30003643       -23538673.907870829        1442701326.5202641     
  -715233292.73980772       -28239665.283700556        1453754017.0332325     
  -1149917380.4317002       -14055992.521085560        1365166727.2430446     
  -1086457838.7921920       -16890699.390351415        1360741141.5502601     
  -1023191439.6283799       -20369214.511939347        1360987042.1998820     
  -960118182.94026506       -24491537.885855794        1365904429.1919146     
  -897238068.72785676       -29257669.512123764        1375493302.5263608     
  -1382837615.2872360       -14272531.495551109        1290219165.9055390     
  -1307647091.7027564       -17866859.392330706        1284827931.2434149     
  -1232592591.9384897       -21914600.023158014        1283964339.6644368     
  -1157674115.9944327       -26415753.388015866        1287628391.1686065     
  -1082891663.8705969       -31370319.486944318        1295820085.7559252     
  -1617762746.3344569       -15090539.327523112        1213592548.5788641     
  -1531252221.5457606       -19567782.474051118        1207302303.3788059     
  -1444820601.9217885       -24308042.836326540        1205395858.0026257     
  -1358467887.4625468       -29311320.414366543        1207873212.4503312     
  -1272194078.1680329       -34577615.208172023        1214734366.7219255     
  -1854692773.5733562       -16510016.016995192        1135286875.2630260     
  -1757273228.3211937       -21993468.635486722        1128164257.9564295     
  -1659875469.5782790       -27549542.951468408        1125281597.2144513     
  -1562499497.3445947       -33178238.964886367        1126638893.0370929     
  -1465145311.6201661       -38879556.675822079        1132236145.4243548     
  -715233292.73980772       -28239665.283700556        1453754017.0332325     
  -657645824.34596205       -30686932.466814905        1452200784.0727086     
  -599710827.34226978       -31975770.950438023        1456152638.3976252     
  -541428301.72873318       -32106180.734582573        1465609580.0079825     
  -482798247.50536060       -31078161.819271520        1480571608.9037802     
  -897238068.72785676       -29257669.512123764        1375493302.5263608     
  -825748397.04570985       -31418501.531335771        1372795865.9294522     
  -754050792.31680346       -32886223.394689709        1375221244.1541276     
  -682145254.54113293       -33660835.102160603        1382769437.2003825     
  -610031783.71869838       -33742336.653749645        1395440445.0682249     
  -1082891663.8705969       -31370319.486944318        1295820085.7559252     
  -998591995.93974602       -33572378.454156399        1291815584.0323677     
  -914223990.52521896       -35546645.809105098        1292551624.6665392     
  -829787647.62700510       -37293121.551766813        1298028207.6584368     
  -745282967.24510455       -38811805.682144970        1308245333.0080564     
  -1272194078.1680329       -34577615.208172023        1214734366.7219255     
  -1176176621.0280738       -37148563.235257864        1209259938.3814616     
  -1080230421.9675181       -39957038.193689406        1208143779.9348712     
  -984355480.98635006       -43003040.083414972        1211385891.3821459     
  -888551798.08458340       -46286568.904473692        1218986272.7232962     
  -1465145311.6201661       -38879556.675822079        1132236145.4243548     
  -1358502272.3106899       -42147055.874655843        1125128928.9767311     
  -1252070086.6436961       -46117400.548427343        1121997709.9591186     
  -1145848754.6191747       -50790590.697109520        1122842488.3715136     
  -1039838276.2371271       -56166626.320701957        1127663264.2139227     
  -482798247.50536060       -31078161.819271520        1480571608.9037802     
  -425458127.76555568       -26594633.115221530        1478628284.6486335     
  -365932026.65727764       -14824499.849599183        1482425203.7657189     
  -304219944.18051255        4232237.9776488096        1491962366.2550311     
  -240321880.33526674        30575580.366499707        1507239772.1165729     
  -610031783.71869838       -33742336.653749645        1395440445.0682249     
  -537993975.85165918       -30159414.709499925        1393279559.5321336     
  -463733031.32866085       -19166037.245387092        1396892176.8970253     
  -387248950.14970493       -762204.26141317189        1406278297.1628997     
  -308541732.31478983        25052084.242420584        1421437920.3297462     
  -745282967.24510455       -38811805.682144970        1308245333.0080564     
  -658452444.02582383       -36100982.330181718        1305910234.0264168     
  -569361628.86310863       -25855852.500099331        1309381897.4745090     
  -478010521.75695604       -8076416.1918923855        1318660323.3523328     
  -384399122.70736551        17237326.594442308        1333745511.6598930     
  -888551798.08458340       -46286568.904473692        1218986272.7232962     
  -786833532.28805566       -44419335.977287829        1216520308.1314931     
  -682817819.26061666       -34893945.613727182        1219894365.4981751     
  -576504659.00225902       -17710397.813773960        1229108444.8233428     
  -467894051.51299381        7131307.4225399494        1244162546.1069913     
  -1039838276.2371271       -56166626.320701957        1127663264.2139227     
  -923137240.63835979       -55114475.650825620        1125109781.8473530     
  -804101602.52118385       -46280316.586259454        1128429580.9680178     
  -682731361.88563251       -29664149.127106756        1137622661.5759158     
  -559026518.73167968       -5265973.2732796967        1152689023.6710513     
  -240321880.33526674        30575580.366499707        1507239772.1165729     
  -199596949.72591799        60274562.496089965        1486139520.7086368     
  -154261794.08186266        105340961.40803544        1467778650.8362665     
  -104316413.40309623        165774777.10235208        1452157162.4994557     
  -49760807.689613655        241576009.57905427        1439275055.6982167     
  -308541732.31478983        25052084.242420584        1421437920.3297462     
  -258970875.36863425        55287667.967407987        1404720366.9110634     
  -202944779.15243202        107040715.92587537        1391944159.5400348     
  -140463443.66619205        180311228.11781210        1383109298.2166634     
  -71526868.909897834        275099204.54325688        1378215782.9409451     
  -384399122.70736551        17237326.594442308        1333745511.6598930     
  -322548155.10413492        49039767.210913986        1323563172.8383424     
  -252396933.99553517        108509719.51194930        1318524144.5765479     
  -173945459.38154954        195647183.49760717        1318628426.8744993     
  -87193731.262186378        310452159.16785157        1323876019.7321966     
  -467894051.51299381        7131307.4225399494        1244162546.1069913     
  -390328788.93243599        41530860.226548269        1242667938.4904723     
  -302618258.61115801        109747972.16629021        1247518605.9457979     
  -204762460.54917040        211782643.24172977        1258714548.4729638     
  -96761394.746480078        347634873.45284802        1276255766.0719664     
  -559026518.73167968       -5265973.2732796967        1152689023.6710513     
  -462312776.85352170        32760947.014380395        1162034663.8674564     
  -353608752.99932295        110755473.88883188        1178927543.6477888     
  -232914447.16907176        228717607.35012907        1203367663.0120559     
  -100229859.36277619        386647347.39824373        1235355021.9602554     
  -49760807.689613655        241576009.57905427        1439275055.6982167     
  -40449124.556362733        322567690.04163313        1346271878.3486235     
  -23376045.736993253        429430689.45793569        1253143666.7768416     
   1458428.7685225904        562165007.82806528        1159890420.9828658     
   34054298.960156590        720770645.15191519        1066512140.9666860     
  -71526868.909897834        275099204.54325688        1378215782.9409451     
  -57363018.700589657        376847731.16494614        1296702545.8351915     
  -34230868.710550398        508490590.38908160        1214256737.7426519     
  -2130418.9397529662        670027782.21572602        1130878358.6633229     
   38938330.611761361        861459306.64478660        1046567408.5971911     
  -87193731.262186378        310452159.16785157        1323876019.7321966     
  -70484961.875672251        432265357.57900584        1255260777.6473327     
  -43600988.613808811        587995902.24132383        1184905427.8110745     
  -6541811.4765981734        777643793.15479934        1112809970.2234297     
   40692569.535956502        1001209030.3194220        1038974404.8843955     
  -96761394.746480078        347634873.45284802        1276255766.0719664     
  -79814954.081603289        488820569.28382921        1221946573.7850242     
  -51486405.446783721        667946625.01462781        1165089736.9820964     
  -11775748.841988206        885013040.64532399        1105685255.6631796     
   39317015.732746720        1140019816.1758490        1043733129.8282804     
  -100229859.36277619        386647347.39824373        1235355021.9602554     
  -85352995.318397760        546513366.27936697        1196759934.2482884     
  -57887119.209449887        748342758.70905769        1154809665.2557251     
  -17832231.035949469        992135524.68726230        1109504214.9825988     
   34811669.202126980        1277891664.2140400        1060843583.4288713     
  -3068705922.7711258       -90386137.617389202        1122120627.1490488     
  -2948923063.1378489       -46968486.888549685        1120974214.5357833     
  -2832887865.7038569       -16043043.490644336        1123237277.9556735     
  -2720600330.4691424        2390192.5763245821        1128909817.4087243     
  -2612060457.4337139        8331221.3123478889        1137991832.8949344     
  -3417143181.1552444       -47744486.514727592        1027752178.2877680     
  -3293444350.4476976       -23469857.685149431        1020478643.2226520     
  -3171766050.1227193       -5930330.1307852268        1017225538.0044128     
  -3052108280.1803045        4874096.1483638287        1017992862.6330514     
  -2934471040.6204543        8943421.1523044109        1022780617.1085675     
  -3774345640.5468712       -7732395.7143211365        924561692.31998384     
  -3644985256.4401603       -2077114.0865383148        913176021.92252636     
  -3515918270.8992801        2600172.3217587471        906421735.18565893     
  -3387144683.9242582        6299463.5105657578        904298832.10939038     
  -3258664495.5150738        9020759.4798889160        906807312.69371736     
  -4140313300.9460378        29650134.783824682        812549169.24570417     
  -4003545781.1152272        17209743.907287121        799066350.63540101     
  -3865344528.0335460        9548463.8669948578        790825869.49941266     
  -3725709541.7009926        6666294.6629381180        787827725.83773899     
  -3584640822.1175709        8563236.2951128483        790071919.65038264     
  -4515046162.3527117        64403104.979717970        691714609.06491959     
  -4369125924.4729052        34390716.296336412        678149629.36128116     
  -4220044821.5255084        14914544.504916906        670437940.94567502     
  -4067802853.5105205        5974589.6054618359        668579543.81810308     
  -3912400020.4279442        7570851.5979771614        672574437.97856343     
  -2612060457.4337139        8331221.3123478889        1137991832.8949344     
  -2525679096.9694138        2288564.7294944525        1133177637.0418115     
  -2439068402.7987156       -2989646.1653647423        1132056178.4681609     
  -2352228374.9216204       -7503411.3722279072        1134627457.1739886     
  -2265159013.3381224       -11252730.891092896        1140891473.1592884     
  -2934471040.6204543        8943421.1523044109        1022780617.1085675     
  -2838063903.7085347        3716577.7309656143        1017598213.0076519     
  -2741566217.2695761       -1208433.9335716963        1016246942.7804656     
  -2644977981.3035774       -5831613.8413114548        1018726806.4270072     
  -2548299195.8105502       -10152961.992279887        1025037803.9472802     
  -3258664495.5150738        9020759.4798889160        906807312.69371736     
  -3151836163.3148012        4728354.8723098040        901094785.46908462     
  -3045056065.7668524        275168.09031331539        899351788.71243870     
  -2938324202.8712335       -4338800.8661211729        901578322.42377675     
  -2831640574.6279378       -9113551.9969648123        907774386.60309780     
  -3584640822.1175709        8563236.2951128483        790071919.65038264     
  -3466995875.7882147        5323896.1535000801        783667354.42611229     
  -3349537948.2905483        1461159.9062609673        781370716.26408112     
  -3232267039.6245751       -3024972.4466217756        783182005.16428757     
  -3115183149.7902880       -8134500.9051352739        789101221.12673485     
  -3912400020.4279442        7570851.5979771614        672574437.97856343     
  -3783543041.1287804        5503201.5745475292        665315919.87872946     
  -3655011864.8406649        2349541.5142893791        662303725.43539250     
  -3526806491.5636115       -1890128.5828454494        663537854.64854801     
  -3398926921.2976017       -7215808.7167913914        669018307.51819921     
  -2265159013.3381224       -11252730.891092896        1140891473.1592884     
  -2161905287.0089755       -10443164.212717533        1132861166.4536116     
  -2059076338.2717960       -11049522.840900421        1129250297.9023407     
  -1956672167.1265941       -13071806.775673151        1130058867.5054793     
  -1854692773.5733562       -16510016.016995192        1135286875.2630260     
  -2548299195.8105502       -10152961.992279887        1025037803.9472802     
  -2433578000.5894251       -9339796.1239718199        1016520179.1249305     
  -2319130789.3343315       -9439910.1424385309        1012403415.4827845     
  -2204957562.0452747       -10453304.047696829        1012687513.0208474     
  -2091058318.7222552       -12379977.839729786        1017372471.7391145     
  -2831640574.6279378       -9113551.9969648123        907774386.60309780     
  -2705504987.5839815       -8312710.0594602823        898945369.56099737     
  -2579492590.8801208       -7922502.5889531374        894498636.72490418     
  -2453603384.5163579       -7942929.5854417086        894434188.09481394     
  -2327837368.4926944       -8373991.0489215851        898752023.67073035     
  -3115183149.7902880       -8134500.9051352739        789101221.12673485     
  -2977686247.9926419       -7361906.0191737413        780136737.76181102     
  -2840161742.9091635       -6497300.1804367304        775535961.62869453     
  -2702609634.5398393       -5540683.3888957500        775298892.72737920     
  -2565029922.8846893       -4492055.6445857286        779425531.05786490     
  -3398926921.2976017       -7215808.7167913914        669018307.51819921     
  -3250121781.8154173       -6487384.0031352043        660094283.72737706     
  -3101138245.4214616       -5164302.9169063568        655515390.19416106     
  -2951976312.1157327       -3246565.4580991268        655281626.91854072     
  -2802635981.8982253       -734171.62670242786        659392993.90052867     
  -1854692773.5733562       -16510016.016995192        1135286875.2630260     
  -1757273228.3211937       -21993468.635486722        1128164257.9564295     
  -1659875469.5782790       -27549542.951468408        1125281597.2144513     
  -1562499497.3445947       -33178238.964886367        1126638893.0370929     
  -1465145311.6201661       -38879556.675822079        1132236145.4243548     
  -2091058318.7222552       -12379977.839729786        1017372471.7391145     
  -1982663699.4689684       -16593229.932562470        1009842602.8810067     
  -1874413903.5550578       -21289226.489984632        1006222018.8762960     
  -1766308930.9805269       -26467967.511993527        1006510719.7249833     
  -1658348781.7453742       -32129452.998605967        1010708705.4270761     
  -2327837368.4926944       -8373991.0489215851        898752023.67073035     
  -2209412451.5560594       -11600475.511426449        890671360.29261398     
  -2091255394.7889314       -15719827.205639601        886169310.05667901     
  -1973366198.1913180       -20732046.131551981        885245872.96292531     
  -1855744861.7632194       -26637132.289194226        887901049.01134872     
  -2565029922.8846893       -4492055.6445857286        779425531.05786490     
  -2437519484.5824680       -7015205.3720858097        770650530.19125533     
  -2310399943.2798944       -10841345.098416328        765123470.75560784     
  -2183671298.9769716       -15970474.823572636        762844352.75091672     
  -2057333551.6736956       -22402594.547572017        763813176.17718720     
  -2802635981.8982253       -734171.62670242786        659392993.90052867     
  -2666984798.5481958       -2837419.5145407915        649780112.57693303     
  -2531847549.0279493       -6653780.1683294773        643084500.97307372     
  -2397224233.3374810       -12183253.588036895        639306159.08895719     
  -2263114851.4768095       -19425839.773734212        638445086.92458153     
  -1465145311.6201661       -38879556.675822079        1132236145.4243548     
  -1358502272.3106899       -42147055.874655843        1125128928.9767311     
  -1252070086.6436961       -46117400.548427343        1121997709.9591186     
  -1145848754.6191747       -50790590.697109520        1122842488.3715136     
  -1039838276.2371271       -56166626.320701957        1127663264.2139227     
  -1658348781.7453742       -32129452.998605967        1010708705.4270761     
  -1541708203.1311166       -35414852.785709023        1001879124.3975371     
  -1425073159.2747633       -38718701.765831828        996768091.69280529     
  -1308443650.1763232       -42040999.938994825        995375607.31288218     
  -1191819675.8357916       -45381747.305188537        997701671.25776815     
  -1855744861.7632194       -26637132.289194226        887901049.01134872     
  -1729842312.7161794       -30161103.326148033        877588642.09855461     
  -1603739979.5424812       -33019127.274251461        870737334.40536857     
  -1477437862.2421279       -35211204.133493602        867347125.93178880     
  -1350935960.8151186       -36737333.903893709        867418016.67781568     
  -2057333551.6736956       -22402594.547572017        763813176.17718720     
  -1922904601.0658765       -26385807.495966434        752257482.07979870     
  -1788070547.4468327       -29018677.073627949        743905438.09681261     
  -1652831390.8165762       -30301203.280577183        738757044.22823465     
  -1517187131.1751018       -30233386.116789162        736812300.47405374     
  -2263114851.4768095       -19425839.773734212        638445086.92458153     
  -2120895068.1802220       -24088965.295212865        625885644.34125805     
  -1978064862.9878423       -26717351.164045095        616272402.76713431     
  -1834624235.8996754       -27310997.380255222        609605362.20221353     
  -1690573186.9157319       -25869903.943872094        605884522.64649880     
  -1039838276.2371271       -56166626.320701957        1127663264.2139227     
  -923137240.63835979       -55114475.650825620        1125109781.8473530     
  -804101602.52118385       -46280316.586259454        1128429580.9680178     
  -682731361.88563251       -29664149.127106756        1137622661.5759158     
  -559026518.73167968       -5265973.2732796967        1152689023.6710513     
  -1191819675.8357916       -45381747.305188537        997701671.25776815     
  -1061591891.6067910       -42449398.456465662        993971486.22356558     
  -929913328.71984673       -34681120.747913122        994339319.06872344     
  -796783987.17496002       -22076914.179567277        998805169.79324579     
  -662203866.97212613       -4636778.7513858080        1007369038.3971280     
  -1350935960.8151186       -36737333.903893709        867418016.67781568     
  -1212253609.6926692       -33446441.397371352        861480001.13878381     
  -1073004303.7727184       -28265699.565829456        857864739.87124848     
  -933188043.05527961       -21195108.409332097        856572232.87520516     
  -792804827.54033697       -12234667.927827954        857602480.15064788     
  -1517187131.1751018       -30233386.116789162        736812300.47405374     
  -1375122394.8959718       -28105604.473478556        727635326.59301674     
  -1233374527.6798069       -27034053.040030777        719005843.37559283     
  -1091943529.5265861       -27018731.816406310        710923850.82179201     
  -950829400.43631363       -28059640.802599728        703389348.93160546     
  -1690573186.9157319       -25869903.943872094        605884522.64649880     
  -1550198247.2167163       -26426887.684841633        592437462.58625770     
  -1411024000.4410930       -30986181.170449793        577762629.58175433     
  -1273050446.5888793       -39547784.400749505        561860023.63300467     
  -1136277585.6600561       -52111697.375701368        544729644.74000180     
  -559026518.73167968       -5265973.2732796967        1152689023.6710513     
  -462312776.85352170        32760947.014380395        1162034663.8674564     
  -353608752.99932295        110755473.88883188        1178927543.6477888     
  -232914447.16907176        228717607.35012907        1203367663.0120559     
  -100229859.36277619        386647347.39824373        1235355021.9602554     
  -662203866.97212613       -4636778.7513858080        1007369038.3971280     
  -547087440.25147033        25655598.870698541        1020876602.0973865     
  -421097824.99849236        92191938.267197430        1042777732.0923016     
  -284235021.21319425        194972239.43808764        1073072428.3818759     
  -136499028.89558011        333996502.38337559        1111760690.9661067     
  -792804827.54033697       -12234667.927827954        857602480.15064788     
  -656867639.66082871        11048589.923603773        873968691.67041492     
  -511174356.69272065        66852164.737023622        899574796.19556677     
  -355724978.63602531        155176056.51240665        934420793.72609818     
  -190519505.49073035        276020265.24977696        978506684.26201451     
  -950829400.43631363       -28059640.802599728        703389348.93160546     
  -791653375.08159506       -11060079.826911718        721310932.58653188     
  -623838348.08199978        34736153.298348725        749318735.95757055     
  -447384319.43754077        109329058.57314712        787412759.04470968     
  -262291289.14822263        212718635.99750888        835593001.84795451     
  -1136277585.6600561       -52111697.375701368        544729644.74000180     
  -951444646.51377225       -40670410.380867183        562903324.84574270     
  -759089799.16633320       -4156096.0488541424        592009551.37831712     
  -559213043.61777103        57431245.620238572        632048324.33772504     
  -351814379.86805892        144091614.62649769        683019643.72396135     
  -100229859.36277619        386647347.39824373        1235355021.9602554     
  -85352995.318397760        546513366.27936697        1196759934.2482884     
  -57887119.209449887        748342758.70905769        1154809665.2557251     
  -17832231.035949469        992135524.68726230        1109504214.9825988     
   34811669.202126980        1277891664.2140400        1060843583.4288713     
  -136499028.89558011        333996502.38337559        1111760690.9661067     
  -127369683.87898785        483021411.25448227        1090188514.1585119     
  -95102995.450023443        709170798.16684365        1070052144.7662870     
  -39698963.608646333        1012444663.1205555        1051351582.7894264     
   38842411.645090640        1392843006.1154807        1034086828.2279203     
  -190519505.49073035        276020265.24977696        978506684.26201451     
  -173449140.37064525        418310625.85025752        986263804.93124652     
  -122693100.49035367        672886568.98474264        1000247721.7118000     
  -38251385.849845648        1039748094.6532644        1020458434.6036731     
   79876003.550841749        1518895202.8557711        1046895943.6068498     
  -262291289.14822263        212718635.99750888        835593001.84795451     
  -223591364.79334939        352381010.06672865        884985806.56647992     
  -140657434.33044693        639490071.16271281        945396396.09227443     
  -13489497.759531736        1074045819.2854176        1016824770.4253289     
   157912444.91942495        1656048254.4349043        1099270929.5656569     
  -351814379.86805892        144091614.62649769        683019643.72396135     
  -277796357.14711052        285232563.90386939        786354519.06422520     
  -148995996.97032559        608981304.70072401        905498167.90771282     
   34586700.662318110        1115337837.0170853        1040450590.2544205     
   272951735.75078392        1804302160.8528705        1191211786.1043291     
  -4515046162.3527117        64403104.979717970        691714609.06491959     
  -4369125924.4729052        34390716.296336412        678149629.36128116     
  -4220044821.5255084        14914544.504916906        670437940.94567502     
  -4067802853.5105205        5974589.6054618359        668579543.81810308     
  -3912400020.4279442        7570851.5979771614        672574437.97856343     
  -4911958323.3679037        9791259.5712437630        505445539.35376388     
  -4744841114.3976812        6095189.8095502853        500033145.44126219     
  -4577010101.0909863        4778467.8360896111        498999825.94372791     
  -4408465283.4478245        5841093.6508681774        502345580.86116844     
  -4239206661.4681888        9283067.2538816929        510070410.19357705     
  -5289929140.3584328       -39138182.629832029        328279778.50290412     
  -5105827008.5065403       -17781547.932460546        328165066.19522953     
  -4923458133.0493050       -2202434.5505881310        330955211.42946559     
  -4742822513.9867115        7599157.5158033371        336650214.20560962     
  -4563920151.3187685        11623228.266682625        345250074.52366430     
  -5648958613.3242941       -82385221.623503923        160217326.51233250     
  -5452083606.7994900       -37239496.929697275        162545391.62318504     
  -5259388917.4004564       -6028162.6551148891        166304097.40288082     
  -5070874545.1271887        11248781.200246572        171493443.85142997     
  -4886540489.9796896        14591334.636376143        178113430.96882328     
  -5989046742.2655020       -119949857.40978670        1258183.3820571105     
  -5783610909.2765303       -52278657.182164431        3174121.7251297808     
  -5584802454.1444435       -6698716.4774923325        5046483.8639849937     
  -5392621376.8692417        16789964.704241514        6875269.7986232294     
  -5207067677.4509373        18187386.362984896        8660479.5290481709     
  -3912400020.4279442        7570851.5979771614        672574437.97856343     
  -3783543041.1287804        5503201.5745475292        665315919.87872946     
  -3655011864.8406649        2349541.5142893791        662303725.43539250     
  -3526806491.5636115       -1890128.5828454494        663537854.64854801     
  -3398926921.2976017       -7215808.7167913914        669018307.51819921     
  -4239206661.4681888        9283067.2538816929        510070410.19357705     
  -4100128354.2741485        4788798.9971606731        503332951.40378839     
  -3961026805.7621040        372001.80043601990        500771717.69971150     
  -3821902015.9320641       -3967324.3363001347        502386709.08134139     
  -3682753984.7840228       -8229179.4130287170        508177925.54868472     
  -4563920151.3187685        11623228.266682625        345250074.52366430     
  -4414820797.8606567        4642257.2874314785        339440893.42781264     
  -4265349158.7554917       -1097761.5349862576        337737838.84688330     
  -4115505234.0032868       -5596828.2005896568        340140910.78088409     
  -3965289023.6040244       -8854942.7093465328        346650109.22981191     
  -4886540489.9796896        14591334.636376143        178113430.96882328     
  -4727620371.8883104        5063576.4453654289        173639745.95079631     
  -4567978923.8208437       -2059748.4920105934        173202088.87691322     
  -4407616145.7772655       -6778640.1756989956        176800459.74717540     
  -4246532037.7575960       -9093098.6057341099        184434858.56158108     
  -5207067677.4509373        18187386.362984896        8660479.5290481709     
  -5038527076.3571110        6052756.4709515572        5929508.9727470987     
  -4868916100.9581413       -2513959.0706121922        7164467.7898032563     
  -4698234751.2540178       -7512760.2616529465        12365355.980215283     
  -4526483027.2447376       -8943647.1021826267        21532173.543990463     
  -3398926921.2976017       -7215808.7167913914        669018307.51819921     
  -3250121781.8154173       -6487384.0031352043        660094283.72737706     
  -3101138245.4214616       -5164302.9169063568        655515390.19416106     
  -2951976312.1157327       -3246565.4580991268        655281626.91854072     
  -2802635981.8982253       -734171.62670242786        659392993.90052867     
  -3682753984.7840228       -8229179.4130287170        508177925.54868472     
  -3522203419.4194803       -6027195.0747704506        499815501.84975857     
  -3361647691.5377402       -3808002.3458578587        495802838.65859950     
  -3201086801.1388016       -1571601.2262798548        496139935.97520465     
  -3040520748.2226658        682008.28395378590        500826793.79957432     
  -3965289023.6040244       -8854942.7093465328        346650109.22981191     
  -3792979803.0709419       -5175429.9606266022        338647178.82911205     
  -3620838654.4152341       -2056156.8031678200        334998639.18633735     
  -3448865577.6369090        502876.76302075386        335704490.30148834     
  -3277060572.7359667        2501670.7379364967        340764732.17457175     
  -4246532037.7575960       -9093098.6057341099        184434858.56158108     
  -4062450932.7697988       -3932088.6607108116        176589314.66543016     
  -3878711134.0539517        91233.711138725281        173102791.77737248     
  -3695312641.6100602        2976868.5097949505        173975289.89740542     
  -3512255455.4381280        4724815.7352752686        179206809.02552038     
  -4526483027.2447376       -8943647.1021826267        21532173.543990463     
  -4330616808.5160465       -2297171.1749958992        13641909.358725633     
  -4135265130.4538741        2634169.1971070766        10115296.431704681     
  -3940427993.0582404        5850374.0140962601        10952334.762942016     
  -3746105396.3291416        7351443.2759582996        16153024.352430277     
  -2802635981.8982253       -734171.62670242786        659392993.90052867     
  -2666984798.5481958       -2837419.5145407915        649780112.57693303     
  -2531847549.0279493       -6653780.1683294773        643084500.97307372     
  -2397224233.3374810       -12183253.588036895        639306159.08895719     
  -2263114851.4768095       -19425839.773734212        638445086.92458153     
  -3040520748.2226658        682008.28395378590        500826793.79957432     
  -2897143521.5401964       -2466766.4996196032        491462245.02521247     
  -2753933481.3905606       -6172829.7259624004        485364812.22430992     
  -2610890627.7737398       -10436181.395029187        482534495.39686751     
  -2468014960.6897545       -15256821.506875277        482971294.54288238     
  -3277060572.7359667        2501670.7379364967        340764732.17457175     
  -3124957741.9961448       -1392762.7238798141        332053054.46256596     
  -2972675350.4922037       -4688660.3052886724        326958338.97773266     
  -2820213398.2241287       -7386022.0062574148        325480585.72008497     
  -2667571885.1919222       -9484847.8267861605        327619794.68960190     
  -3512255455.4381280        4724815.7352752686        179206809.02552038     
  -3350427459.9160547        384591.81264996529        171552540.88898727     
  -3188073156.3328910       -2201271.9063429832        167865081.23334262     
  -3025192544.6886473       -3032775.4217262268        168144430.05860251     
  -2861785624.9833050       -2109918.7334601879        172390587.36475155     
  -3746105396.3291416        7351443.2759582996        16153024.352430277     
  -3573552675.2998986        2865297.1100199223        9960704.3044834211     
  -3400126898.9126229        1289335.4708795547        8085038.9911449114     
  -3225828067.1672850        2623558.3585935831        10526028.412428198     
  -3050656180.0639186        6867965.7730832100        17283672.568315987     
  -2263114851.4768095       -19425839.773734212        638445086.92458153     
  -2120895068.1802220       -24088965.295212865        625885644.34125805     
  -1978064862.9878423       -26717351.164045095        616272402.76713431     
  -1834624235.8996754       -27310997.380255222        609605362.20221353     
  -1690573186.9157319       -25869903.943872094        605884522.64649880     
  -2468014960.6897545       -15256821.506875277        482971294.54288238     
  -2318056325.5155282       -17761358.981755018        472590327.31333208     
  -2167804429.8239489       -19288361.398791075        464717986.35431910     
  -2017259273.6150024       -19837828.757927179        459354271.66584349     
  -1866420856.8886998       -19409761.059219480        456499183.24789757     
  -2667571885.1919222       -9484847.8267861605        327619794.68960190     
  -2511124611.6791058       -10205861.316789031        319047281.20566559     
  -2354701239.0273676       -11006544.343717217        312545819.25359976     
  -2198301767.2366877       -11886896.907503128        308115408.83340251     
  -2041926196.3070748       -12846919.008189082        305756049.94507325     
  -2861785624.9833050       -2109918.7334601879        172390587.36475155     
  -2700099926.6709599       -1422472.3003406525        165256506.01826262     
  -2538755290.5981002       -1871899.9988510609        159755901.46497577     
  -2377751716.7647281       -3458201.8289873600        155888773.70489350     
  -2217089205.1708565       -6181377.7907773256        153655122.73801839     
  -3050656180.0639186        6867965.7730832100        17283672.568315987     
  -2884982270.4910574        8588808.0677012205        11218001.751114229     
  -2719966584.5361443        8115571.6358252764        6348232.9884569831     
  -2555609122.1991348        5448256.4776091576        2674366.2803328792     
  -2391909883.4800415        586862.59299349785        196401.62673631232     
  -1690573186.9157319       -25869903.943872094        605884522.64649880     
  -1550198247.2167163       -26426887.684841633        592437462.58625770     
  -1411024000.4410930       -30986181.170449793        577762629.58175433     
  -1273050446.5888793       -39547784.400749505        561860023.63300467     
  -1136277585.6600561       -52111697.375701368        544729644.74000180     
  -1866420856.8886998       -19409761.059219480        456499183.24789757     
  -1728997225.0830510       -22709432.429502964        442823698.52505094     
  -1591671229.7900064       -26334558.841786504        428738677.81986189     
  -1454442871.0095758       -30285140.296139240        414244121.13233519     
  -1317312148.7417440       -34561176.792467773        399340028.46246290     
  -2041926196.3070748       -12846919.008189082        305756049.94507325     
  -1905116052.5036080       -18187932.040409327        293139039.70554370     
  -1767300488.8019552       -20177545.412028074        280930730.44558066     
  -1628479505.2021246       -18815759.123051405        269131122.16519940     
  -1488653101.7041078       -14102573.173440278        257740214.86438301     
  -2217089205.1708565       -6181377.7907773256        153655122.73801839     
  -2078554729.4783838       -12862386.517595410        143383486.12772822     
  -1937911777.4769552       -12515140.881197810        134338787.45892254     
  -1795160349.1665387       -5139640.8815231323        126521026.73159724     
  -1650300444.5471525        9264113.4813879728        119930203.94576421     
  -2391909883.4800415        586862.59299349785        196401.62673631232     
  -2249313256.0073919       -6732795.8610513210       -6442962.2083963864     
  -2103505095.8149929       -3347345.2492655516       -11037151.140133167     
  -1954485402.9028270        10743214.428404570       -13586165.168461701     
  -1802254177.2708859        35538883.172002792       -14090004.293394635     
  -1136277585.6600561       -52111697.375701368        544729644.74000180     
  -951444646.51377225       -40670410.380867183        562903324.84574270     
  -759089799.16633320       -4156096.0488541424        592009551.37831712     
  -559213043.61777103        57431245.620238572        632048324.33772504     
  -351814379.86805892        144091614.62649769        683019643.72396135     
  -1317312148.7417440       -34561176.792467773        399340028.46246290     
  -1117699343.0153880       -14731840.591766238        421197198.36018223     
  -914454341.88005900        17204813.638872564        441555246.30669391     
  -707577145.33573818        61248785.899464965        460414172.30199587     
  -497067753.38242644        117400076.19003835        477773976.34608191     
  -1488653101.7041078       -14102573.173440278        257740214.86438301     
  -1309779481.9063921        3459096.4804865122        278742876.29656523     
  -1131163379.4918370        20162374.857209384        285814747.39950740     
  -952804794.46046460        36007261.956656754        278955828.17318600     
  -774703726.81224406        50993757.778943837        258166118.61761343     
  -1650300444.5471525        9264113.4813879728        119930203.94576421     
  -1527685063.1867590        13902400.835966229        135540358.65490210     
  -1409216912.0016787        4716587.6061275005        124788054.65674730     
  -1294895990.9919400       -18293326.208159506        87673291.951295659     
  -1184722300.1574996       -55127340.606781960        24196070.538558267     
  -1802254177.2708859        35538883.172002792       -14090004.293394635     
  -1771416086.8565018        16598072.474579930       -8410354.5648229495     
  -1748614939.4096072       -29132548.114440441       -41524831.921567366     
  -1733850734.9301791       -101652978.59503305       -113433436.36365719     
  -1727123473.4182107       -200963218.96715778       -224136167.89109290     
  -351814379.86805892        144091614.62649769        683019643.72396135     
  -277796357.14711052        285232563.90386939        786354519.06422520     
  -148995996.97032559        608981304.70072401        905498167.90771282     
   34586700.662318110        1115337837.0170853        1040450590.2544205     
   272951735.75078392        1804302160.8528705        1191211786.1043291     
  -497067753.38242644        117400076.19003835        477773976.34608191     
  -388246627.67338473        223059607.79320630        597058462.41042304     
  -230300738.34964219        492468351.44536877        735493812.11797833     
  -23230085.411210120        925626307.14649487        893080025.46874309     
   232965331.14190593        1522533474.8965790        1069817102.4627258     
  -774703726.81224406        50993757.778943837        258166118.61761343     
  -621530669.14368451        124036520.39933550        386799712.59134585     
  -424890421.70157766        341969915.59821963        537926260.34829319     
  -184782984.48594505        704793943.37554538        711545761.88843584     
   98791642.503250301        1212508603.7313676        907658217.21180761     
  -1184722300.1574996       -55127340.606781960        24196070.538558267     
  -977648481.55800569       -11836698.277721763        155578269.60700586     
  -732765047.02612841        157485997.15926349        312795512.59865522     
  -450071996.56183565        452840745.70428765        495847799.51351321     
  -129569330.16518080        874227547.35723007        704735130.35157537     
  -1727123473.4182107       -200963218.96715778       -224136167.89109290     
  -1456600064.9163806       -184560048.23807514       -96605866.542612478     
  -1153924614.3232734       -60983403.871434391        60101568.869081765     
  -819097121.63895392        169766714.13263083        245986138.34396327     
  -452117586.86338258        507690305.77413476        461047841.88205796     
 </DataArray>
 <DataArray  type="Float64" Name="VM" NumberOfComponents="1" format="ascii">
   6000262719.2775841     
   5792800454.6625948     
   5591951215.7617550     
   5397162831.5737705     
   5208020822.3252172     
   5666689709.2063923     
   5472171679.6332769     
   5281400214.9352627     
   5094201464.3898096     
   4910474478.9099798     
   5336968164.2109051     
   5155440304.8627729     
   4975887534.1786718     
   4798348038.9322348     
   4622899723.6510296     
   5011419742.7804365     
   4843639863.7635651     
   4677212536.2646065     
   4512210248.4286346     
   4348758100.6722593     
   4691685366.9663506     
   4538988081.5429192     
   4388267910.6198444     
   4239437720.9990749     
   4092537401.3764596     
   5208020822.3252172     
   5037098020.0292816     
   4867117260.9518766     
   4698075678.4938231     
   4529982714.0644617     
   4910474478.9099798     
   4746929553.1664133     
   4584116496.2871141     
   4422072784.9097271     
   4260856570.7163010     
   4622899723.6510296     
   4468713793.4409332     
   4315397717.1716642     
   4163032872.0422978     
   4011740962.7548513     
   4348758100.6722593     
   4206044760.8138804     
   4064737755.4449100     
   3924969452.2144709     
   3786944924.5757008     
   4092537401.3764596     
   3963456732.5752811     
   3836767734.5858665     
   3712658192.4910502     
   3591432720.9927106     
   4529982714.0644617     
   4335262952.7490282     
   4140356781.8633595     
   3945253315.5110297     
   3749989503.5461001     
   4260856570.7163010     
   4077524230.4285383     
   3894650054.6765957     
   3712294047.3692713     
   3530581395.6211214     
   4011740962.7548513     
   3840375017.4919066     
   3670238761.0082612     
   3501476226.7748399     
   3334315030.3184638     
   3786944924.5757008     
   3628144745.5405078     
   3471471529.0624776     
   3317160908.6365075     
   3165548545.7254424     
   3591432720.9927106     
   3445764689.7505507     
   3303228483.9102960     
   3164148449.4449706     
   3028959294.3805189     
   3749989503.5461001     
   3575603902.9365950     
   3401562540.5916433     
   3227863958.2820692     
   3054556636.0898509     
   3530581395.6211214     
   3366321422.3527145     
   3202853369.9299335     
   3040241872.4529815     
   2878611302.6303639     
   3334315030.3184638     
   3180135557.5471072     
   3027246418.4400420     
   2875787315.7051973     
   2725968339.6848950     
   3165548545.7254424     
   3021586755.4011316     
   2879463882.0870047     
   2739400153.9518728     
   2601695882.3758588     
   3028959294.3805189     
   2895527137.1221156     
   2764520151.9719515     
   2636237086.7628336     
   2511062751.0656071     
   3054556636.0898509     
   2889184649.6378827     
   2723732697.8262339     
   2558196123.3490796     
   2392571709.8219934     
   2878611302.6303639     
   2716196133.9882507     
   2554006699.9215746     
   2392072309.7469201     
   2230438928.4569449     
   2725968339.6848950     
   2568889227.3811188     
   2412735287.3580732     
   2257644054.1375208     
   2103809762.0141587     
   2601695882.3758588     
   2452498651.5104041     
   2305366575.7541766     
   2160618185.2394552     
   2018686713.7519386     
   2511062751.0656071     
   2372238258.3622332     
   2237025791.0706086     
   2105958404.9920189     
   1979734542.4095292     
   2392571709.8219934     
   2246517846.0752664     
   2102547732.5523560     
   1960668299.6442697     
   1821040231.4769373     
   2230438928.4569449     
   2087512304.4431036     
   1946169994.4890363     
   1806415714.7174947     
   1668324195.6720235     
   2103809762.0141587     
   1963341278.6383429     
   1823808748.4445107     
   1685243920.6104312     
   1547706275.7765651     
   2018686713.7519386     
   1881609587.2494173     
   1744885802.2106581     
   1608644935.9691057     
   1473065119.7182164     
   1979734542.4095292     
   1848672357.7019665     
   1717728344.6871448     
   1587252977.4421976     
   1457752244.1555548     
   1821040231.4769373     
   1780191249.9737153     
   1735892080.4862897     
   1696755104.1736975     
   1681226353.7046759     
   1668324195.6720235     
   1552788687.1106248     
   1428172579.7775602     
   1294836653.5745020     
   1158891409.1047735     
   1547706275.7765651     
   1397760295.5832675     
   1244260620.3792403     
   1084943780.4945893     
   917786408.14469171     
   1473065119.7182164     
   1328803497.5113380     
   1198996235.5448766     
   1088130496.2259133     
   1002118619.0193014     
   1457752244.1555548     
   1348767899.9773390     
   1274748272.6290100     
   1243826298.4278865     
   1263042465.9405379     
   1681226353.7046759     
   1383740685.4634953     
   1129487028.6202593     
   1010136094.1894674     
   1152878364.0915618     
   1158891409.1047735     
   1008474248.1131456     
   985270844.36446476     
   1161504633.1778929     
   1544050395.6336272     
   917786408.14469171     
   963190006.81300700     
   1144984966.5216103     
   1476517103.5045049     
   1957462143.5546260     
   1002118619.0193014     
   1164779826.2217238     
   1425471561.7401216     
   1808782478.8938744     
   2334801886.3342085     
   1263042465.9405379     
   1446776207.6460519     
   1715726699.2095754     
   2110496512.2437956     
   2663552461.6440020     
   4691685366.9663506     
   4538988081.5429192     
   4388267910.6198444     
   4239437720.9990749     
   4092537401.3764596     
   4354009056.8608961     
   4218294743.2399535     
   4085219314.0938768     
   3954961195.4906244     
   3827799167.8048143     
   4054889998.2587509     
   3934139937.3995585     
   3817009290.3773351     
   3703814189.8004422     
   3594948315.7663870     
   3798125299.8154221     
   3690353620.8046427     
   3587436957.3800344     
   3489670277.6562433     
   3397412902.0213828     
   3587789167.5322523     
   3490981119.0823965     
   3400429374.5969758     
   3316223994.7399154     
   3238524571.9528241     
   4092537401.3764596     
   3963456732.5752811     
   3836767734.5858665     
   3712658192.4910502     
   3591432720.9927106     
   3827799167.8048143     
   3715090968.9251933     
   3605372900.7187195     
   3498918941.8703122     
   3396096356.6162028     
   3594948315.7663870     
   3497606053.7854471     
   3403781286.6972966     
   3313783902.4451289     
   3227990550.7415543     
   3397412902.0213828     
   3314482989.4862175     
   3235458133.6538301     
   3160629076.7096734     
   3090327863.9175472     
   3238524571.9528241     
   3169062727.8345127     
   3103682508.8953409     
   3042601395.9349127     
   2986059062.0950031     
   3591432720.9927106     
   3445764689.7505507     
   3303228483.9102960     
   3164148449.4449706     
   3028959294.3805189     
   3396096356.6162028     
   3264842409.9263597     
   3137448132.1927304     
   3014324759.9593663     
   2895997450.2346010     
   3227990550.7415543     
   3111854005.8808317     
   3000351165.0879102     
   2893963042.1784134     
   2793278614.8671718     
   3090327863.9175472     
   2989955819.3149805     
   2894984777.3639026     
   2805934383.0545721     
   2723415741.6920018     
   2986059062.0950031     
   2901912301.1023326     
   2823857450.0238996     
   2752411288.3595719     
   2688157473.1728230     
   3028959294.3805189     
   2895527137.1221156     
   2764520151.9719515     
   2636237086.7628336     
   2511062751.0656071     
   2895997450.2346010     
   2774746879.5404911     
   2657005544.7091756     
   2543209614.7633014     
   2433900262.2968893     
   2793278614.8671718     
   2686049006.7555537     
   2583552234.6763797     
   2486339296.9386668     
   2395067666.8094740     
   2723415741.6920018     
   2631690978.4325147     
   2545949455.5281429     
   2466802743.4112654     
   2394950061.3579154     
   2688157473.1728230     
   2612833805.6462078     
   2544644720.4486289     
   2484191748.6508908     
   2432132174.1462379     
   2511062751.0656071     
   2372238258.3622332     
   2237025791.0706086     
   2105958404.9920189     
   1979734542.4095292     
   2433900262.2968893     
   2310054527.5850048     
   2191255597.8584023     
   2078226489.0728600     
   1971861099.0932050     
   2395067666.8094740     
   2287990800.3686008     
   2187381659.9286680     
   2094054912.1684775     
   2008957302.5442901     
   2394950061.3579154     
   2305636770.8809180     
   2223983358.8196826     
   2150772484.3984566     
   2086855971.5074656     
   2432132174.1462379     
   2360617941.3664007     
   2297587427.7913098     
   2243694673.1484671     
   2199605488.4075074     
   1979734542.4095292     
   1848672357.7019665     
   1717728344.6871448     
   1587252977.4421976     
   1457752244.1555548     
   1971861099.0932050     
   1855537352.3998835     
   1743621127.1003368     
   1637032630.9386394     
   1536900798.8888245     
   2008957302.5442901     
   1912503193.4171956     
   1824819414.7752397     
   1747104225.2167940     
   1680647966.5988634     
   2086855971.5074656     
   2011881606.4461918     
   1949227272.7040429     
   1899972692.0212762     
   1865147161.9251764     
   2199605488.4075074     
   2144738581.0076220     
   2104746954.2542572     
   2080402626.4286237     
   2072384691.7663772     
   1457752244.1555548     
   1348767899.9773390     
   1274748272.6290100     
   1243826298.4278865     
   1263042465.9405379     
   1536900798.8888245     
   1476110492.4964974     
   1448005627.0438349     
   1456553406.9011929     
   1505043665.5063293     
   1680647966.5988634     
   1652252735.4358532     
   1651570592.8023612     
   1680968304.1751552     
   1743051570.5573034     
   1865147161.9251764     
   1854733619.7266471     
   1867277711.9781647     
   1904986790.2591002     
   1970894508.2497163     
   2072384691.7663772     
   2068939976.3067162     
   2084708192.7380970     
   2122321878.1610954     
   2185602876.3055077     
   1263042465.9405379     
   1446776207.6460519     
   1715726699.2095754     
   2110496512.2437956     
   2663552461.6440020     
   1505043665.5063293     
   1613369430.4666035     
   1788891243.0601137     
   2066373368.1932602     
   2476039081.1551552     
   1743051570.5573034     
   1787788386.6998227     
   1884669940.8244550     
   2060609873.4302166     
   2340842613.8630781     
   1970894508.2497163     
   1968990134.8189118     
   2003627221.3537285     
   2093473882.9208128     
   2257181049.2392998     
   2185602876.3055077     
   2156258361.0872626     
   2146503120.7992601     
   2166844432.0172367     
   2228332519.3587503     
   3587789167.5322523     
   3490981119.0823965     
   3400429374.5969758     
   3316223994.7399154     
   3238524571.9528241     
   3413344740.6882439     
   3325326671.7661433     
   3243394495.5840673     
   3167921630.1767693     
   3099337437.7123489     
   3253536990.1432238     
   3174945122.5219040     
   3103670305.1778026     
   3040097378.4977894     
   2984711826.7085042     
   3115196817.9115834     
   3046288621.5583777     
   2987342319.5038242     
   2938446129.9702144     
   2899899056.4070382     
   3007387238.0937233     
   2947482248.1991458     
   2901594876.7498016     
   2869180415.1565647     
   2850084540.6968040     
   3238524571.9528241     
   3169062727.8345127     
   3103682508.8953409     
   3042601395.9349127     
   2986059062.0950031     
   3099337437.7123489     
   3037030254.3477387     
   2979675560.9070058     
   2927539535.8830972     
   2880911825.6507678     
   2984711826.7085042     
   2930083410.4095726     
   2881480192.9112353     
   2839182273.2601123     
   2803492591.4012146     
   2899899056.4070382     
   2852859227.3067923     
   2813089804.2806897     
   2780844976.7536101     
   2756399808.9882612     
   2850084540.6968040     
   2809750661.9142795     
   2778073407.4523349     
   2755244187.6951761     
   2741473467.2061253     
   2986059062.0950031     
   2901912301.1023326     
   2823857450.0238996     
   2752411288.3595719     
   2688157473.1728230     
   2880911825.6507678     
   2810398702.3683233     
   2746861933.9904633     
   2690786729.1813378     
   2642706135.0748844     
   2803492591.4012146     
   2746283056.5229430     
   2696851439.5453453     
   2655615087.5876245     
   2623019571.9640846     
   2756399808.9882612     
   2711551001.0872588     
   2675171002.4197669     
   2647583635.8306322     
   2629125334.9957709     
   2741473467.2061253     
   2707386552.1631355     
   2682348925.7262812     
   2666581871.0205364     
   2660310068.1498952     
   2688157473.1728230     
   2612833805.6462078     
   2544644720.4486289     
   2484191748.6508908     
   2432132174.1462379     
   2642706135.0748844     
   2582184789.7241516     
   2529480354.0262351     
   2485101441.0788436     
   2449581999.5936589     
   2623019571.9640846     
   2576320114.4330277     
   2537929918.9449658     
   2508240693.1076784     
   2487647907.5095754     
   2629125334.9957709     
   2594718284.7184381     
   2568940745.9947009     
   2552064703.9152131     
   2544354886.2073898     
   2660310068.1498952     
   2636203760.5703983     
   2620922333.6661162     
   2614632453.8554564     
   2617491073.4534345     
   2432132174.1462379     
   2360617941.3664007     
   2297587427.7913098     
   2243694673.1484671     
   2199605488.4075074     
   2449581999.5936589     
   2392999658.2988563     
   2345735320.3944755     
   2308326623.7203245     
   2281292884.7066307     
   2487647907.5095754     
   2445098743.4612789     
   2412486151.0723343     
   2390211460.6065974     
   2378643059.0800366     
   2544354886.2073898     
   2514406320.4251537     
   2494860632.1732583     
   2485989625.3583951     
   2488031319.0371432     
   2617491073.4534345     
   2598331103.4668903     
   2589975144.9451561     
   2592587934.2849593     
   2606308091.1759501     
   2199605488.4075074     
   2144738581.0076220     
   2104746954.2542572     
   2080402626.4286237     
   2072384691.7663772     
   2281292884.7066307     
   2241213430.3280177     
   2215003773.9957809     
   2203115348.7601175     
   2205935080.4437661     
   2378643059.0800366     
   2350360992.0549273     
   2334912893.8853426     
   2332548060.6919842     
   2343485808.7018390     
   2488031319.0371432     
   2468840059.8793759     
   2461534657.8724108     
   2466248934.5703692     
   2483115652.8848505     
   2606308091.1759501     
   2593861309.3685308     
   2592501754.2962565     
   2602305387.2991157     
   2623367490.6444616     
   2072384691.7663772     
   2068939976.3067162     
   2084708192.7380970     
   2122321878.1610954     
   2185602876.3055077     
   2205935080.4437661     
   2191585967.8592610     
   2192218109.6080794     
   2209802199.7722535     
   2247263667.6890216     
   2343485808.7018390     
   2319071896.6850300     
   2306191273.3960347     
   2306250405.5928378     
   2321339478.9572196     
   2483115652.8848505     
   2450427860.2218285     
   2426311062.6035991     
   2411710568.1288190     
   2408001838.4635873     
   2623367490.6444616     
   2584876443.6820993     
   2552295399.0478349     
   2526204492.5834041     
   2507408851.7053776     
   2185602876.3055077     
   2156258361.0872626     
   2146503120.7992601     
   2166844432.0172367     
   2228332519.3587503     
   2247263667.6890216     
   2182590058.7853379     
   2134348446.5649147     
   2112195218.3423951     
   2127050347.1042805     
   2321339478.9572196     
   2224658032.6644440     
   2141301071.8652823     
   2079629341.3881283     
   2049807734.3424139     
   2408001838.4635873     
   2282756468.0152335     
   2168008033.0476503     
   2070497263.6352744     
   1998993744.9294333     
   2507408851.7053776     
   2357094840.1821842     
   2214939967.4328170     
   2085929494.7110069     
   1976948161.5969431     
   3007387238.0937233     
   2947482248.1991458     
   2901594876.7498016     
   2869180415.1565647     
   2850084540.6968040     
   2780513832.7803254     
   2753486875.3796301     
   2737564947.1263738     
   2732661316.4404354     
   2738803513.2431049     
   2629724767.4242110     
   2626568926.2925105     
   2631383739.2299623     
   2644195253.5381856     
   2665032797.7412062     
   2554841904.5740647     
   2566822332.6039400     
   2583514941.8276224     
   2604683687.6221328     
   2630192388.8207412     
   2550402651.3835468     
   2569972457.5005293     
   2590965295.5976605     
   2612506196.1975102     
   2634124090.9096994     
   2850084540.6968040     
   2809750661.9142795     
   2778073407.4523349     
   2755244187.6951761     
   2741473467.2061253     
   2738803513.2431049     
   2710657787.7975974     
   2690938166.2350702     
   2679755592.0194583     
   2677230742.7396646     
   2665032797.7412062     
   2646850458.6679983     
   2636749499.3379755     
   2634778313.8011398     
   2640990681.9039087     
   2630192388.8207412     
   2619500414.5952497     
   2616463096.2279062     
   2621090088.4199214     
   2633395013.3194857     
   2634124090.9096994     
   2628366579.6735134     
   2629794089.8402424     
   2638401432.5068088     
   2654186964.9690733     
   2741473467.2061253     
   2707386552.1631355     
   2682348925.7262812     
   2666581871.0205364     
   2660310068.1498952     
   2677230742.7396646     
   2653201677.3608465     
   2638276395.0728192     
   2632582599.5408745     
   2636246605.2968750     
   2640990681.9039087     
   2624561194.2295122     
   2617223725.7086244     
   2619034181.0866427     
   2630046550.2819123     
   2633395013.3194857     
   2621798027.5446348     
   2619252502.2315931     
   2625770877.0806127     
   2641364931.7879071     
   2654186964.9690733     
   2644502392.5388756     
   2643831086.6884036     
   2652172495.4379334     
   2669526560.6060772     
   2660310068.1498952     
   2636203760.5703983     
   2620922333.6661162     
   2614632453.8554564     
   2617491073.4534345     
   2636246605.2968750     
   2620394192.2896495     
   2613355724.1627107     
   2615226670.2067580     
   2626095079.8852987     
   2630046550.2819123     
   2620578704.0517731     
   2619924927.0159793     
   2628128452.2417998     
   2645228586.9257851     
   2641364931.7879071     
   2636247264.5726061     
   2639989469.4609447     
   2652602925.0833263     
   2674098019.0639501     
   2669526560.6060772     
   2666639536.3017807     
   2672730671.7765388     
   2687799811.7298689     
   2711846965.3421006     
   2617491073.4534345     
   2598331103.4668903     
   2589975144.9451561     
   2592587934.2849593     
   2606308091.1759501     
   2626095079.8852987     
   2614834420.6554270     
   2613977801.4452209     
   2623610387.4387374     
   2643801775.5126333     
   2645228586.9257851     
   2639943252.6937237     
   2644746110.2718234     
   2659671664.5424976     
   2684747364.5697355     
   2674098019.0639501     
   2672880641.5262337     
   2681547413.5129161     
   2700105940.8495188     
   2728562104.4171877     
   2711846965.3421006     
   2712848826.0543199     
   2723658797.0426588     
   2744276813.2177806     
   2774702841.2841759     
   2606308091.1759501     
   2593861309.3685308     
   2592501754.2962565     
   2602305387.2991157     
   2623367490.6444616     
   2643801775.5126333     
   2632958024.4538255     
   2632360956.2062640     
   2642048355.0678792     
   2662070278.7847486     
   2684747364.5697355     
   2675238346.0744534     
   2675316281.3104334     
   2684996002.7535453     
   2704298223.5665975     
   2728562104.4171877     
   2720274434.0424156     
   2721074695.8479404     
   2730966186.3028388     
   2749953698.0012641     
   2774702841.2841759     
   2767663027.3773685     
   2769355312.2689662     
   2779779694.1024733     
   2798936172.6516280     
   2623367490.6444616     
   2584876443.6820993     
   2552295399.0478349     
   2526204492.5834041     
   2507408851.7053776     
   2662070278.7847486     
   2616675753.8340769     
   2576960637.0745435     
   2543255100.7641258     
   2516019859.0129337     
   2704298223.5665975     
   2654078157.7268248     
   2609449952.2245836     
   2570560749.6425920     
   2537616539.8659401     
   2749953698.0012641     
   2696991622.8100119     
   2649676479.9592834     
   2608044861.5646467     
   2572148082.6205697     
   2798936172.6516280     
   2745315306.0140300     
   2697538687.1664104     
   2655606315.4584064     
   2619518190.7542453     
   2507408851.7053776     
   2357094840.1821842     
   2214939967.4328170     
   2085929494.7110069     
   1976948161.5969431     
   2516019859.0129337     
   2348157855.8076797     
   2183846278.7969947     
   2026187244.4499729     
   1879749666.9458754     
   2537616539.8659401     
   2357305625.9828253     
   2176731797.6506181     
   1997366866.4961672     
   1821489399.8915544     
   2572148082.6205697     
   2384641773.6053834     
   2194063042.5044289     
   2000789665.7082958     
   1805424715.0593112     
   2619518190.7542453     
   2430135230.2873430     
   2235982394.7964287     
   2037059684.4456828     
   1833367100.2090709     
   2550402651.3835468     
   2569972457.5005293     
   2590965295.5976605     
   2612506196.1975102     
   2634124090.9096994     
   2602941822.2325521     
   2601171939.2778540     
   2603055071.2161303     
   2608348168.1122575     
   2616934474.2541628     
   2686079768.4295578     
   2664339016.1449280     
   2649432676.5520201     
   2641374832.1122074     
   2640192986.1599460     
   2804927692.4853411     
   2763551294.8047919     
   2732805039.2279820     
   2712695218.4967046     
   2703262508.4650555     
   2963576768.6863155     
   2901654967.9859147     
   2854463484.8236666     
   2821855427.3975430     
   2803851214.2633886     
   2634124090.9096994     
   2628366579.6735134     
   2629794089.8402424     
   2638401432.5068088     
   2654186964.9690733     
   2616934474.2541628     
   2609742752.8387895     
   2609868315.8376050     
   2617320905.9336634     
   2632110177.1881204     
   2640192986.1599460     
   2628387885.6267314     
   2623937091.2409778     
   2626890307.8751965     
   2637297564.3048081     
   2703262508.4650555     
   2683897799.9619904     
   2671805108.3515668     
   2667094051.8510804     
   2669880522.7389202     
   2803851214.2633886     
   2774423050.2835827     
   2752045194.5075512     
   2736896395.0287361     
   2729174347.9811869     
   2654186964.9690733     
   2644502392.5388756     
   2643831086.6884036     
   2652172495.4379334     
   2669526560.6060772     
   2632110177.1881204     
   2620343131.9896941     
   2617538090.8190317     
   2623710445.0741692     
   2638875296.6275768     
   2637297564.3048081     
   2620896239.2256007     
   2613438069.4073725     
   2614980078.9028878     
   2625577477.9375739     
   2669880522.7389202     
   2646452127.1880674     
   2631952948.3632603     
   2626505144.1320381     
   2630228377.6841340     
   2729174347.9811869     
   2696611705.6407666     
   2672936753.2442751     
   2658355037.9200106     
   2653071768.8972683     
   2669526560.6060772     
   2666639536.3017807     
   2672730671.7765388     
   2687799811.7298689     
   2711846965.3421006     
   2638875296.6275768     
   2634406635.4180012     
   2638799530.3571177     
   2652064089.0889482     
   2674209246.1505589     
   2625577477.9375739     
   2617137053.5012059     
   2617500765.8445354     
   2626712556.5091982     
   2644812336.2687888     
   2630228377.6841340     
   2615516490.3902540     
   2609583509.3300109     
   2612530689.7861500     
   2624452201.0468349     
   2653071768.8972683     
   2629971784.7849021     
   2615620828.4945860     
   2610199087.9016414     
   2613878424.6924744     
   2711846965.3421006     
   2712848826.0543199     
   2723658797.0426588     
   2744276813.2177806     
   2774702841.2841759     
   2674209246.1505589     
   2673055920.7512980     
   2681712648.4463081     
   2700187531.2973948     
   2728486842.9264317     
   2644812336.2687888     
   2639838183.5517697     
   2644811319.4365854     
   2659764411.7510972     
   2684723076.5581532     
   2624452201.0468349     
   2613950384.9732766     
   2613652135.5632696     
   2623634763.6651859     
   2643960328.4649901     
   2613878424.6924744     
   2596135577.5246568     
   2588945891.5251446     
   2592455696.9941888     
   2606785834.1547866     
   2774702841.2841759     
   2767663027.3773685     
   2769355312.2689662     
   2779779694.1024733     
   2798936172.6516280     
   2728486842.9264317     
   2720208719.8457127     
   2721030929.7145061     
   2730956714.2607074     
   2749990890.9844193     
   2684723076.5581532     
   2675190889.9789681     
   2675269688.5373878     
   2684974658.9280200     
   2704326573.5305839     
   2643960328.4649901     
   2633016077.3782907     
   2632353658.7803497     
   2642012224.2912784     
   2662042034.1376715     
   2606785834.1547866     
   2594114839.9150281     
   2592576847.2573090     
   2602251011.0365500     
   2623233242.6222992     
   2798936172.6516280     
   2745315306.0140300     
   2697538687.1664104     
   2655606315.4584064     
   2619518190.7542453     
   2749990890.9844193     
   2697022024.5014353     
   2649693717.6492290     
   2608042533.5709724     
   2572119619.9091902     
   2704326573.5305839     
   2654111250.0298409     
   2609474982.2407560     
   2570565161.4462976     
   2537588210.8232098     
   2662042034.1376715     
   2616682816.3505549     
   2576983595.1013966     
   2543275343.6796370     
   2516020550.4075069     
   2623233242.6222992     
   2584827771.6475735     
   2552306017.8029256     
   2526249689.7187433     
   2507467683.0632262     
   2619518190.7542453     
   2430135230.2873430     
   2235982394.7964287     
   2037059684.4456828     
   1833367100.2090709     
   2572119619.9091902     
   2384628425.3498430     
   2194069376.2193484     
   2000821438.1966066     
   1805489746.0964220     
   2537588210.8232098     
   2357294165.8803940     
   2176745709.3223181     
   1997415248.3878741     
   1821581871.3904774     
   2516020550.4075069     
   2348163679.9022026     
   2183868956.5817347     
   2026236769.7311862     
   1879831914.3842049     
   2507467683.0632262     
   2357133330.6169839     
   2214972391.8706021     
   2085964791.5255325     
   1976984855.6948283     
   2963576768.6863155     
   2901654967.9859147     
   2854463484.8236666     
   2821855427.3975430     
   2803851214.2633886     
   3050625642.0443482     
   2988595968.7974033     
   2937950077.9904208     
   2898950290.4852996     
   2871942135.6711316     
   3193761101.9748011     
   3126444653.1181083     
   3067358238.9323611     
   3016948896.0056748     
   2975725540.9684796     
   3379396572.8811016     
   3304132782.3387032     
   3234132376.0570235     
   3169796870.8070397     
   3111618502.5694904     
   3595166383.3682594     
   3511352500.9322162     
   3430021697.2244945     
   3351341038.6601644     
   3275632325.4443874     
   2803851214.2633886     
   2774423050.2835827     
   2752045194.5075512     
   2736896395.0287361     
   2729174347.9811869     
   2871942135.6711316     
   2831440336.1324224     
   2797465969.9307580     
   2770259773.1261325     
   2750085194.5890517     
   2975725540.9684796     
   2923454067.6881042     
   2877154490.3747416     
   2837112428.0849242     
   2803642825.9098959     
   3111618502.5694904     
   3047365175.6509666     
   2988518232.9663177     
   2935386415.7883339     
   2888315183.1457381     
   3275632325.4443874     
   3199549185.3964505     
   3128326267.1341667     
   3062274202.5412254     
   3001746627.4553437     
   2729174347.9811869     
   2696611705.6407666     
   2672936753.2442751     
   2658355037.9200106     
   2653071768.8972683     
   2750085194.5890517     
   2706138453.4409919     
   2670647604.2764368     
   2643923713.7437973     
   2626287284.7729168     
   2803642825.9098959     
   2746571163.5632286     
   2697370654.8560524     
   2656451953.9114513     
   2624252935.6373248     
   2888315183.1457381     
   2817017607.3678222     
   2752850865.5615478     
   2696300627.8564610     
   2647903271.9034634     
   3001746627.4553437     
   2915731411.6920080     
   2835980316.1680236     
   2763016238.3401852     
   2697436880.6348863     
   2653071768.8972683     
   2629971784.7849021     
   2615620828.4945860     
   2610199087.9016414     
   2613878424.6924744     
   2626287284.7729168     
   2591751195.8839879     
   2565804203.0162802     
   2548724527.8465109     
   2540784631.6041551     
   2624252935.6373248     
   2576673249.1898694     
   2537409358.0543480     
   2506848008.5855045     
   2485380630.6288891     
   2647903271.9034634     
   2586095436.9371161     
   2532175786.7635312     
   2486634021.9892826     
   2449984222.7614932     
   2697436880.6348863     
   2620707567.9665389     
   2551272772.6313057     
   2489700801.0901723     
   2436611226.8732190     
   2613878424.6924744     
   2596135577.5246568     
   2588945891.5251446     
   2592455696.9941888     
   2606785834.1547866     
   2540784631.6041551     
   2512092599.5520024     
   2493707406.5323243     
   2485889693.9627709     
   2488866314.5719109     
   2485380630.6288891     
   2443593763.2895684     
   2411771253.6190238     
   2390318938.7810254     
   2379610227.2925134     
   2449984222.7614932     
   2393325507.2689919     
   2346095842.0752439     
   2308861630.6999102     
   2282174693.0453334     
   2436611226.8732190     
   2363851359.0063696     
   2299717522.2755871     
   2244922376.9533811     
   2200201680.5550971     
   2606785834.1547866     
   2594114839.9150281     
   2592576847.2573090     
   2602251011.0365500     
   2623233242.6222992     
   2488866314.5719109     
   2469373466.6812840     
   2461798326.1036901     
   2466277177.1967373     
   2482944321.7738523     
   2379610227.2925134     
   2351020361.4444804     
   2335286432.0114770     
   2332658101.9605265     
   2343355946.8859544     
   2282174693.0453334     
   2241850673.4842291     
   2215413808.4821849     
   2203312020.7083197     
   2205931485.4989510     
   2200201680.5550971     
   2145217427.0068598     
   2105128769.4008720     
   2080698293.7721002     
   2072599941.2062726     
   2623233242.6222992     
   2584827771.6475735     
   2552306017.8029256     
   2526249689.7187433     
   2507467683.0632262     
   2482944321.7738523     
   2450338438.6515551     
   2426292085.1657348     
   2411751074.7308068     
   2408092374.2870698     
   2343355946.8859544     
   2318990796.6724443     
   2306162147.7091312     
   2306276125.4769025     
   2321421099.0049911     
   2205931485.4989510     
   2191566307.9753370     
   2192200306.6794267     
   2209803527.9121261     
   2247295429.9040217     
   2072599941.2062726     
   2069039841.9959242     
   2084725519.0355351     
   2122289734.1869042     
   2185543844.4602218     
   2507467683.0632262     
   2357133330.6169839     
   2214972391.8706021     
   2085964791.5255325     
   1976984855.6948283     
   2408092374.2870698     
   2282812810.7611237     
   2168040309.3548231     
   2070513654.5751951     
   1998998390.5742781     
   2321421099.0049911     
   2224708640.7352333     
   2141326702.8801832     
   2079638899.6425214     
   2049813913.8802202     
   2247295429.9040217     
   2182611155.1754761     
   2134360794.2964115     
   2112209292.5262988     
   2127088472.7380128     
   2185543844.4602218     
   2156226232.7481351     
   2146495585.4764042     
   2166873712.7248192     
   2228430106.9129848     
   3595166383.3682594     
   3511352500.9322162     
   3430021697.2244945     
   3351341038.6601644     
   3275632325.4443874     
   3832077886.7218413     
   3727487067.3601656     
   3625681840.8758359     
   3526924068.5173192     
   3431571805.3971205     
   4096462258.9400358     
   3972407598.0304995     
   3851704963.7743526     
   3734621148.2132292     
   3621501042.9566641     
   4387088176.1402216     
   4244183795.8008270     
   4105375045.4409175     
   3970870217.3498249     
   3840971256.5522542     
   4702763007.1342916     
   4540964896.8923597     
   4384107877.7333775     
   4232299023.3005757     
   4085782735.4683976     
   3275632325.4443874     
   3199549185.3964505     
   3128326267.1341667     
   3062274202.5412254     
   3001746627.4553437     
   3431571805.3971205     
   3342407334.3828154     
   3257475606.7344894     
   3177094735.3665605     
   3101639338.7512159     
   3621501042.9566641     
   3519220367.4673495     
   3420483202.8858557     
   3325590106.6079803     
   3234907743.3542895     
   3840971256.5522542     
   3725714728.7184668     
   3613297856.7074146     
   3503984019.1996012     
   3398107411.2278724     
   4085782735.4683976     
   3957775340.9024038     
   3831924259.2671142     
   3708442926.2724557     
   3587615749.3653278     
   3001746627.4553437     
   2915731411.6920080     
   2835980316.1680236     
   2763016238.3401852     
   2697436880.6348863     
   3101639338.7512159     
   2999933302.2705212     
   2903695295.7784195     
   2813450910.7611728     
   2729822547.2105618     
   3234907743.3542895     
   3117955194.1664586     
   3005626754.7770157     
   2898410152.1739807     
   2796903510.8038096     
   3398107411.2278724     
   3266586617.8090773     
   3138865342.8791447     
   3015364049.4580612     
   2896616802.7733021     
   3587615749.3653278     
   3442298982.5050516     
   3300025931.7614412     
   3161134754.3062224     
   3026071501.3753443     
   2697436880.6348863     
   2620707567.9665389     
   2551272772.6313057     
   2489700801.0901723     
   2436611226.8732190     
   2729822547.2105618     
   2637741104.3557320     
   2551749232.3288274     
   2472445888.6552730     
   2400513987.9005494     
   2796903510.8038096     
   2689961734.5272064     
   2587780942.0449853     
   2490918067.2272592     
   2400035755.1306944     
   2896616802.7733021     
   2775996662.4790769     
   2658807884.3861861     
   2545504989.2134352     
   2436650429.1718073     
   3026071501.3753443     
   2893422056.3246131     
   2762991667.2827244     
   2635102191.7514987     
   2510167260.3206897     
   2436611226.8732190     
   2363851359.0063696     
   2299717522.2755871     
   2244922376.9533811     
   2200201680.5550971     
   2400513987.9005494     
   2309719542.7276292     
   2226610776.5736890     
   2151999477.4269433     
   2086775660.6370754     
   2400035755.1306944     
   2291631654.6309295     
   2189673173.5196586     
   2094973319.6648500     
   2008479490.4161747     
   2436650429.1718073     
   2311967751.2966776     
   2192335929.3125510     
   2078454449.9742517     
   1971187013.6242232     
   2510167260.3206897     
   2371262220.8784537     
   2236063681.7201247     
   2105075450.5967331     
   1978954307.3655367     
   2200201680.5550971     
   2145217427.0068598     
   2105128769.4008720     
   2080698293.7721002     
   2072599941.2062726     
   2086775660.6370754     
   2011878054.1638408     
   1949313516.8481460     
   1900157067.7895939     
   1865433490.3432038     
   2008479490.4161747     
   1912217374.2610836     
   1824720171.4637053     
   1747185767.1642764     
   1680903185.7176247     
   1971187013.6242232     
   1855117889.8744042     
   1743418670.7668304     
   1637011276.4311867     
   1537027549.9504035     
   1978954307.3655367     
   1848186276.4139829     
   1717456141.0279052     
   1587115370.9446645     
   1457676296.2241716     
   2072599941.2062726     
   2069039841.9959242     
   2084725519.0355351     
   2122289734.1869042     
   2185543844.4602218     
   1865433490.3432038     
   1854876233.8976490     
   1867297713.8178387     
   1904908126.3169529     
   1970738782.4508655     
   1680903185.7176247     
   1652367528.9165776     
   1651558654.4304423     
   1680846967.3266437     
   1742841962.6225791     
   1537027549.9504035     
   1476126697.3152301     
   1447924836.9812446     
   1456390826.0184774     
   1504821310.9659040     
   1457676296.2241716     
   1348623673.5275879     
   1274560972.6439846     
   1243619367.2833240     
   1262844707.1869318     
   2185543844.4602218     
   2156226232.7481351     
   2146495585.4764042     
   2166873712.7248192     
   2228430106.9129848     
   1970738782.4508655     
   1968905278.0084174     
   2003608456.1271715     
   2093521831.5869992     
   2257304963.0411334     
   1742841962.6225791     
   1787672475.9330394     
   1884641871.9279239     
   2060659439.2744980     
   2340955549.5152602     
   1504821310.9659040     
   1613243459.3409169     
   1788855537.7308810     
   2066408132.0975151     
   2476108087.7617989     
   1262844707.1869318     
   1446660045.6588936     
   1715684880.5858917     
   2110500217.2283008     
   2663546149.2427011     
   4702763007.1342916     
   4540964896.8923597     
   4384107877.7333775     
   4232299023.3005757     
   4085782735.4683976     
   4994191654.1090307     
   4826238131.1996517     
   4660248692.2559090     
   4496376739.1255379     
   4334838821.0613499     
   5301051474.3285036     
   5128554674.4251318     
   4955622594.6114645     
   4782307466.2657900     
   4608702916.7255239     
   5615081371.4171801     
   5440848518.1946802     
   5264263939.9823132     
   5085190886.2501392     
   4903566579.3007612     
   5929982149.6910610     
   5757652214.3182936     
   5581462954.9424849     
   5401049059.9296789     
   5216206719.6346846     
   4085782735.4683976     
   3957775340.9024038     
   3831924259.2671142     
   3708442926.2724557     
   3587615749.3653278     
   4334838821.0613499     
   4194131891.6524782     
   4055061521.5059752     
   3917775548.7717700     
   3782482386.0272593     
   4608702916.7255239     
   4456099114.9424086     
   4304732611.7081528     
   4154692334.8668742     
   4006118063.4477129     
   4903566579.3007612     
   4739705789.5800953     
   4576791856.1050367     
   4414863939.2731781     
   4254004178.2713480     
   5216206719.6346846     
   5041566640.4045563     
   4867675425.8228559     
   4694531735.3495512     
   4522171626.7122221     
   3587615749.3653278     
   3442298982.5050516     
   3300025931.7614412     
   3161134754.3062224     
   3026071501.3753443     
   3782482386.0272593     
   3624109663.8232212     
   3467758628.4332619     
   3313667583.6030688     
   3162170611.7805099     
   4006118063.4477129     
   3835510136.2730412     
   3666020191.1372457     
   3497785141.2397146     
   3331019692.2804799     
   4254004178.2713480     
   4071989745.0015793     
   3890327450.0396795     
   3709062825.7432575     
   3528299974.3763447     
   4522171626.7122221     
   4329533156.8389101     
   4136619946.7305756     
   3943402063.4216819     
   3749890895.2179685     
   3026071501.3753443     
   2893422056.3246131     
   2762991667.2827244     
   2635102191.7514987     
   2510167260.3206897     
   3162170611.7805099     
   3018427654.8579783     
   2876443144.6023974     
   2736444714.1553149     
   2598742073.9882374     
   3331019692.2804799     
   3176757497.4062243     
   3023836656.3563375     
   2872392877.3175178     
   2722633357.8401623     
   3528299974.3763447     
   3363769267.0420742     
   3200208358.2708168     
   3037670497.0503645     
   2876271688.1151438     
   3749890895.2179685     
   3575027813.8938103     
   3400800582.0509162     
   3227192145.1927996     
   3054242668.1844568     
   2510167260.3206897     
   2371262220.8784537     
   2236063681.7201247     
   2105075450.5967331     
   1978954307.3655367     
   2598742073.9882374     
   2450010942.0180941     
   2303437238.5826106     
   2159335433.2058311     
   2018130640.9406114     
   2722633357.8401623     
   2566241666.0135431     
   2410783402.3177118     
   2256401180.4546270     
   2103296332.0137434     
   2876271688.1151438     
   2714522049.7218695     
   2552860254.2408304     
   2391316869.3636889     
   2229943447.1247077     
   3054242668.1844568     
   2889351580.9540372     
   2724055628.5337262     
   2558341794.9182124     
   2392203392.9527044     
   1978954307.3655367     
   1848186276.4139829     
   1717456141.0279052     
   1587115370.9446645     
   1457676296.2241716     
   2018130640.9406114     
   1881212657.0216761     
   1744604658.5542264     
   1608436453.2147958     
   1472886719.7098165     
   2103296332.0137434     
   1962890558.0508745     
   1823421122.8114710     
   1684919326.3482151     
   1547444071.8687499     
   2229943447.1247077     
   2086982631.0675850     
   1945648009.4232132     
   1805941119.2572994     
   1667937562.7172658     
   2392203392.9527044     
   2245982150.9745984     
   2101920357.9504263     
   1960020360.6720536     
   1820447422.2077162     
   1457676296.2241716     
   1348623673.5275879     
   1274560972.6439846     
   1243619367.2833240     
   1262844707.1869318     
   1472886719.7098165     
   1328617446.6989460     
   1198819783.0165465     
   1087979182.5339537     
   1002007404.6040912     
   1547444071.8687499     
   1397554179.0663290     
   1244111836.6282315     
   1084845820.0608621     
   917725730.41783965     
   1667937562.7172658     
   1552535663.2314036     
   1428032710.4260364     
   1294782660.0888021     
   1158901079.4266009     
   1820447422.2077162     
   1779832785.2828963     
   1735722972.6625352     
   1696738648.3740294     
   1681357927.4826276     
   1262844707.1869318     
   1446660045.6588936     
   1715684880.5858917     
   2110500217.2283008     
   2663546149.2427011     
   1002007404.6040912     
   1164701504.9497321     
   1425423717.7776005     
   1808756996.1709886     
   2334782518.9310498     
   917725730.41783965     
   963130305.60940588     
   1144931884.4336014     
   1476484099.4955280     
   1957468136.1533031     
   1158901079.4266009     
   1008453432.1140703     
   985225753.65465474     
   1161479919.0903091     
   1544114602.4358659     
   1681357927.4826276     
   1383804199.5263786     
   1129481002.9557695     
   1010110785.7917750     
   1152992112.8789418     
 </DataArray>
 <DataArray  type="Float64" Name="strain" NumberOfComponents="3" format="ascii">
   9.8671479340086243E-002  -3.4612771257024999E-002  -7.2777190090700383E-003
   9.5636307203438964E-002  -3.2217908677997897E-002  -5.7789938479243519E-003
   9.2601135066791684E-002  -3.0171386206606365E-002  -4.3349446476440567E-003
   8.9565962930144294E-002  -2.8473203842849695E-002  -2.9455714082287643E-003
   8.6530790793497014E-002  -2.7123361586728567E-002  -1.6108741296790852E-003
   9.3785782731023448E-002  -3.0809633527053903E-002   3.9720229741557755E-003
   9.0737580032721366E-002  -2.9027123729461424E-002   4.6308097904385614E-003
   8.7689377334419338E-002  -2.7470088747001575E-002   5.3182114442770212E-003
   8.4641174636117256E-002  -2.6138528579674233E-002   6.0342279356714046E-003
   8.1592971937815173E-002  -2.5032443227479551E-002   6.7788592646213508E-003
   8.8305409839271376E-002  -2.7006495797082697E-002   1.4547979529695165E-002
   8.5327467377735555E-002  -2.5836338780924728E-002   1.4489693293618267E-002
   8.2349524916199623E-002  -2.4768791287396813E-002   1.4543312693517690E-002
   7.9371582454663692E-002  -2.3803853316498598E-002   1.4708837729393978E-002
   7.6393639993127788E-002  -2.2941524868230423E-002   1.4986268401246478E-002
   8.2230360664830304E-002  -2.3203358067111518E-002   2.4450150657549449E-002
   7.9405969238481394E-002  -2.2645553832388157E-002   2.3797656661614860E-002
   7.6581577812132540E-002  -2.2067493827791926E-002   2.3340359100078041E-002
   7.3757186385783602E-002  -2.1469178053322994E-002   2.3078257972938363E-002
   7.0932794959434664E-002  -2.0850606508981351E-002   2.3011353280196621E-002
   7.5560635207699789E-002  -1.9400220337140339E-002   3.3678536357717337E-002
   7.2973085614958855E-002  -1.9454768883851503E-002   3.2554699894428385E-002
   7.0385536022217893E-002  -1.9366196368187177E-002   3.1709350663957470E-002
   6.7797986429476972E-002  -1.9134502790147466E-002   3.1142488666305312E-002
   6.5210436836735997E-002  -1.8759688149732168E-002   3.0854113901471525E-002
   8.6530790793497014E-002  -2.7123361586728567E-002  -1.6108741296790852E-003
   8.3755575961037443E-002  -2.5980382310720695E-002  -1.3044492629669113E-003
   8.0980361128577816E-002  -2.4902788887303823E-002  -9.3971483741411843E-004
   7.8205146296118244E-002  -2.3890581316477456E-002  -5.1667085302153914E-004
   7.5429931463658617E-002  -2.2943759598243130E-002  -3.5317309788451823E-005
   8.1592971937815173E-002  -2.5032443227479551E-002   6.7788592646213508E-003
   7.8900172262971413E-002  -2.4055534622581642E-002   6.7987443750771592E-003
   7.6207372588127764E-002  -2.3111504697145457E-002   6.9251502419248046E-003
   7.3514572913284032E-002  -2.2200353451170288E-002   7.1580768651633847E-003
   7.0821773238440300E-002  -2.1322080884656480E-002   7.4975242447938295E-003
   7.6393639993127788E-002  -2.2941524868230423E-002   1.4986268401246478E-002
   7.3831466673451057E-002  -2.2130686934442950E-002   1.4752120928575807E-002
   7.1269293353774410E-002  -2.1320220506987078E-002   1.4672705409848094E-002
   6.8707120034097721E-002  -2.0510125585862671E-002   1.4748021845062791E-002
   6.6144946714421005E-002  -1.9700402171070053E-002   1.4978070234219959E-002
   7.0932794959434664E-002  -2.0850606508981351E-002   2.3011353280196621E-002
   6.8549459192476181E-002  -2.0205839246304022E-002   2.2555680397529407E-002
   6.6166123425517684E-002  -1.9528936316828706E-002   2.2302950666355719E-002
   6.3782787658559242E-002  -1.8819897720555166E-002   2.2253164086675867E-002
   6.1399451891600766E-002  -1.8078723457483459E-002   2.2406320658489819E-002
   6.5210436836735997E-002  -1.8759688149732168E-002   3.0854113901471525E-002
   6.3054149820046895E-002  -1.8280991558165260E-002   3.0209422781937251E-002
   6.0897862803357738E-002  -1.7737652126670472E-002   2.9815886011447773E-002
   5.8741575786668582E-002  -1.7129669855247782E-002   2.9673503590003397E-002
   5.6585288769979480E-002  -1.6457044743896976E-002   2.9782275517603707E-002
   7.5429931463658617E-002  -2.2943759598243130E-002  -3.5317309788451823E-005
   7.2171673983523754E-002  -2.2022901612485157E-002  -2.6631393832998729E-004
   6.8913416503388836E-002  -2.1088585239089325E-002  -3.0024877487283552E-004
   6.5655159023254001E-002  -2.0140810478055139E-002  -1.3712181941621937E-004
   6.2396901543119054E-002  -1.9179577329383357E-002   2.2306692803963912E-004
   7.0821773238440300E-002  -2.1322080884656480E-002   7.4975242447938295E-003
   6.7760642470737487E-002  -2.0456006174077557E-002   7.2088949154993087E-003
   6.4699511703034729E-002  -1.9581448495905318E-002   7.1174572190696173E-003
   6.1638380935331916E-002  -1.8698407850140639E-002   7.2232111555051853E-003
   5.8577250167629047E-002  -1.7806884236783671E-002   7.5261567248059436E-003
   6.6144946714421005E-002  -1.9700402171070053E-002   1.4978070234219959E-002
   6.3281072500016161E-002  -1.8889110735669595E-002   1.4626832784127242E-002
   6.0417198285611332E-002  -1.8074311752721742E-002   1.4472916807765634E-002
   5.7553324071206551E-002  -1.7256005222226690E-002   1.4516322305134603E-002
   5.4689449856801658E-002  -1.6434191144184374E-002   1.4757049276234752E-002
   6.1399451891600766E-002  -1.8078723457483459E-002   2.2406320658489819E-002
   5.8732964071359722E-002  -1.7322215297261759E-002   2.1987499667553964E-002
   5.6066476251118727E-002  -1.6567175009538061E-002   2.1766129991214345E-002
   5.3399988430877766E-002  -1.5813602594312463E-002   2.1742211629472000E-002
   5.0733500610636702E-002  -1.5061498051584771E-002   2.1915744582326348E-002
   5.6585288769979480E-002  -1.6457044743896976E-002   2.9782275517603707E-002
   5.4116317184768142E-002  -1.5755319858854033E-002   2.9290895565778852E-002
   5.1647345599556915E-002  -1.5060038266354325E-002   2.8997096769416780E-002
   4.9178374014345660E-002  -1.4371199966398254E-002   2.8900879128517271E-002
   4.6709402429134406E-002  -1.3688804958985390E-002   2.9002242643080489E-002
   6.2396901543119054E-002  -1.9179577329383357E-002   2.2306692803963912E-004
   5.9510901807219407E-002  -1.8223844436196290E-002   4.7030604411468779E-005
   5.6624902071319871E-002  -1.7292570441616001E-002   4.6564773002411020E-005
   5.3738902335420308E-002  -1.6385755345643675E-002   2.2166943381354831E-004
   5.0852902599520688E-002  -1.5503399148278030E-002   5.7234458684352063E-004
   5.8577250167629047E-002  -1.7806884236783671E-002   7.5261567248059436E-003
   5.5861240097709930E-002  -1.6918849232040345E-002   7.2564310978877056E-003
   5.3145230027790841E-002  -1.6046274412116784E-002   7.1511143107110819E-003
   5.0429219957871710E-002  -1.5189159777013898E-002   7.2102063632753510E-003
   4.7713209887952523E-002  -1.4347505326730570E-002   7.4337072555814565E-003
   5.4689449856801658E-002  -1.6434191144184374E-002   1.4757049276234752E-002
   5.2132267800385018E-002  -1.5613854027884899E-002   1.4402633059813874E-002
   4.9575085743968392E-002  -1.4799978382618026E-002   1.4201464030656044E-002
   4.7017903687551731E-002  -1.3992564208384347E-002   1.4153542188761727E-002
   4.4460721631135097E-002  -1.3191611505183665E-002   1.4258867534131470E-002
   5.0733500610636702E-002  -1.5061498051584771E-002   2.1915744582326348E-002
   4.8323984915244693E-002  -1.4308858823728982E-002   2.1485636490189579E-002
   4.5914469219852608E-002  -1.3553682353119038E-002   2.1197613932838085E-002
   4.3504953524460578E-002  -1.2795968639754683E-002   2.1051676910272384E-002
   4.1095437829068507E-002  -1.2035717683636260E-002   2.1047825422492408E-002
   4.6709402429134406E-002  -1.3688804958985390E-002   2.9002242643080489E-002
   4.4436391442288947E-002  -1.3003863619573230E-002   2.8505441389015063E-002
   4.2163380455443544E-002  -1.2307386323619884E-002   2.8139564017257146E-002
   3.9890369468598155E-002  -1.1599373071125060E-002   2.7904610527806961E-002
   3.7617358481752738E-002  -1.0879823862089077E-002   2.7800580920664508E-002
   5.0852902599520688E-002  -1.5503399148278030E-002   5.7234458684352063E-004
   4.8108797982542972E-002  -1.4629443378397777E-002   3.7892094569358381E-004
   4.5364693365565312E-002  -1.3747829564880021E-002   2.2072460398014915E-004
   4.2620588748587651E-002  -1.2858557707725524E-002   9.7755561704160332E-005
   3.9876484131609935E-002  -1.1961627806933439E-002   1.0013818865228785E-005
   4.7713209887952523E-002  -1.4347505326730570E-002   7.4337072555814565E-003
   4.5017513757856009E-002  -1.3511581345371559E-002   7.1464979019320030E-003
   4.2321817627759550E-002  -1.2671658117039186E-002   6.9208782226073962E-003
   3.9626121497662981E-002  -1.1827735641735226E-002   6.7568482176084688E-003
   3.6930425367566466E-002  -1.0979813919457682E-002   6.6544078869348322E-003
   4.4460721631135097E-002  -1.3191611505183665E-002   1.4258867534131470E-002
   4.1839796362808379E-002  -1.2393719312345119E-002   1.3874213671317082E-002
   3.9218871094481716E-002  -1.1595486669198379E-002   1.3577511857716384E-002
   3.6597945826155026E-002  -1.0796913575744270E-002   1.3368762093330225E-002
   3.3977020557828308E-002  -9.9980000319817020E-003   1.3247964378157950E-002
   4.1095437829068507E-002  -1.2035717683636260E-002   2.1047825422492408E-002
   3.8575645797400235E-002  -1.1275857279318902E-002   2.0562068253848570E-002
   3.6055853765731956E-002  -1.0519315221358003E-002   2.0190625509307634E-002
   3.3536061734063691E-002  -9.7660915097538652E-003   1.9933497188869293E-002
   3.1016269702395453E-002  -9.0161861445060554E-003   1.9790683292533945E-002
   3.7617358481752738E-002  -1.0879823862089077E-002   2.7800580920664508E-002
   3.5225062061631451E-002  -1.0157995246292795E-002   2.7210061649527051E-002
   3.2832765641510220E-002  -9.4431437735173485E-003   2.6760219177381028E-002
   3.0440469221388988E-002  -8.7352694437632245E-003   2.6451053504226302E-002
   2.8048172801267757E-002  -8.0343722570301868E-003   2.6282564630062621E-002
   3.9876484131609935E-002  -1.1961627806933439E-002   1.0013818865228785E-005
   3.7463330576797294E-002  -1.1139178665536820E-002  -2.7604193131525179E-004
   3.5050177021984708E-002  -1.0473349086568717E-002  -4.7495230509209119E-004
   3.2637023467172038E-002  -9.9641390700273558E-003  -5.8671730246528941E-004
   3.0223869912359480E-002  -9.6115486159147334E-003  -6.1133692343462442E-004
   3.6930425367566466E-002  -1.0979813919457682E-002   6.6544078869348322E-003
   3.4586990172064236E-002  -1.0181753546278705E-002   6.2134083201680346E-003
   3.2243554976561978E-002  -9.4874151182675615E-003   5.8247000956182515E-003
   2.9900119781059623E-002  -8.8967986354256401E-003   5.4882832132845949E-003
   2.7556684585557378E-002  -8.4099040977514417E-003   5.2041576731687300E-003
   3.3977020557828308E-002  -9.9980000319817020E-003   1.3247964378157950E-002
   3.1668449687449474E-002  -9.2243284270200343E-003   1.2704918612064242E-002
   2.9359878817070681E-002  -8.5014811499670717E-003   1.2179310154000145E-002
   2.7051307946691812E-002  -7.8294582008234803E-003   1.1671139003966505E-002
   2.4742737076312998E-002  -7.2082595795887050E-003   1.1180405161962115E-002
   3.1016269702395453E-002  -9.0161861445060554E-003   1.9790683292533945E-002
   2.8707709122953201E-002  -8.2669033077616416E-003   1.9198488944372469E-002
   2.6399148543510918E-002  -7.5155471816666930E-003   1.8588877870054060E-002
   2.4090587964068620E-002  -6.7621177662213205E-003   1.7961850069578685E-002
   2.1782027384626430E-002  -6.0066150614254687E-003   1.7317405542946834E-002
   2.8048172801267757E-002  -8.0343722570301868E-003   2.6282564630062621E-002
   2.5704768478575224E-002  -7.3094781885030269E-003   2.5694119317093089E-002
   2.3361364155882608E-002  -6.5296132133655371E-003   2.5053403243779970E-002
   2.1017959833190020E-002  -5.6947773316194106E-003   2.4360416410122765E-002
   1.8674555510497459E-002  -4.8049705432626766E-003   2.3615158816121751E-002
   3.0223869912359480E-002  -9.6115486159147334E-003  -6.1133692343462442E-004
   2.9612571657066211E-002  -9.1354337682660880E-003  -3.6665345934472349E-004
   2.9001273401773053E-002  -8.2556505711173234E-003  -1.8016497341940552E-003
   2.8389975146479868E-002  -6.9721990244716037E-003  -4.9163257479828970E-003
   2.7778676891186627E-002  -5.2850791283238774E-003  -9.7106815007097502E-003
   2.7556684585557378E-002  -8.4099040977514417E-003   5.2041576731687300E-003
   2.5534934464577275E-002  -7.8707665189606812E-003   5.8772450165190948E-003
   2.3513184343597116E-002  -7.1234209127667980E-003   5.4091083674350227E-003
   2.1491434222616929E-002  -6.1678672791698336E-003   3.7997477259162638E-003
   1.9469684101636853E-002  -5.0041056181699961E-003   1.0491630919622352E-003
   2.4742737076312998E-002  -7.2082595795887050E-003   1.1180405161962115E-002
   2.1848990836150023E-002  -6.6060992696553855E-003   1.2086436062477612E-002
   1.8955244595987117E-002  -5.9911912544153845E-003   1.2389698717062025E-002
   1.6061498355824204E-002  -5.3635355338696178E-003   1.2090193125715534E-002
   1.3167752115661208E-002  -4.7231321080166699E-003   1.1187919288439152E-002
   2.1782027384626430E-002  -6.0066150614254687E-003   1.7317405542946834E-002
   1.8554740771784782E-002  -5.3414320203500343E-003   1.8260919678529677E-002
   1.5327454158943220E-002  -4.8589615960644150E-003   1.9140121314686509E-002
   1.2100167546101567E-002  -4.5592037885686248E-003   1.9955010451416746E-002
   8.8728809332600106E-003  -4.4421585978626221E-003   2.0705587088720070E-002
   1.8674555510497459E-002  -4.8049705432626766E-003   2.3615158816121751E-002
   1.5652184271481351E-002  -4.0767647710443500E-003   2.4400695864676747E-002
   1.2629813032465242E-002  -3.7267319377129460E-003   2.5660376160309029E-002
   9.6074417934491757E-003  -3.7548720432673960E-003   2.7394199703018540E-002
   6.5850705544330257E-003  -4.1611850877090184E-003   2.9602166492806115E-002
   2.7778676891186627E-002  -5.2850791283238774E-003  -9.7106815007097502E-003
   2.3352783528789667E-002  -4.2080847948640088E-003  -4.1845100529265267E-003
   1.8926890166392651E-002  -4.7550099362780318E-003   2.6051367638691980E-003
   1.4500996803995581E-002  -6.9258545525655996E-003   1.0658258949678145E-002
   1.0075103441598676E-002  -1.0720618643726532E-002   1.9974856504499705E-002
   1.9469684101636853E-002  -5.0041056181699961E-003   1.0491630919622352E-003
   1.6234989970341007E-002  -4.6915234381059712E-003   6.7428759733342281E-003
   1.3000295839045217E-002  -6.2895082473166664E-003   1.3555511947895504E-002
   9.7656017077493162E-003  -9.7980600458018041E-003   2.1487071015646064E-002
   6.5309075764534708E-003  -1.5217178833561551E-002   3.0537553176587018E-002
   1.3167752115661208E-002  -4.7231321080166699E-003   1.1187919288439152E-002
   1.0979704939643453E-002  -5.1749620813482666E-003   1.6762526088998086E-002
   8.7916577636256293E-003  -7.8240065583555507E-003   2.3311503706924169E-002
   6.6036105876079026E-003  -1.2670265539038349E-002   3.0834852142216609E-002
   4.4155634115900511E-003  -1.9713739023397459E-002   3.9332571394875337E-002
   8.8728809332600106E-003  -4.4421585978626221E-003   2.0705587088720070E-002
   7.5869284366970741E-003  -5.6584007245903956E-003   2.5874440294066381E-002
   6.3009759401341861E-003  -9.3585048693947542E-003   3.1873112040955796E-002
   5.0150234435712877E-003  -1.5542471032275611E-002   3.8701602329388726E-002
   3.7290709470082367E-003  -2.4210299213232478E-002   4.6359911159364886E-002
   6.5850705544330257E-003  -4.1611850877090184E-003   2.9602166492806115E-002
   6.0566604615018282E-003  -6.1418393678323024E-003   3.4078618588538001E-002
   5.5282503685706308E-003  -1.0893003180433125E-002   3.9240336949989629E-002
   4.9998402756394889E-003  -1.8414676525511667E-002   4.5087321577161388E-002
   4.4714301827082359E-003  -2.8706859403067941E-002   5.1619572470054109E-002
   7.5560635207699789E-002  -1.9400220337140339E-002   3.3678536357717337E-002
   7.2973085614958855E-002  -1.9454768883851503E-002   3.2554699894428385E-002
   7.0385536022217893E-002  -1.9366196368187177E-002   3.1709350663957470E-002
   6.7797986429476972E-002  -1.9134502790147466E-002   3.1142488666305312E-002
   6.5210436836735997E-002  -1.8759688149732168E-002   3.0854113901471525E-002
   6.8785351620904073E-002  -1.9079965400489673E-002   3.6127996300731657E-002
   6.6454996219234092E-002  -1.8803107289288606E-002   3.5471858722929073E-002
   6.4124640817563958E-002  -1.8458506432712907E-002   3.5051622294449636E-002
   6.1794285415893886E-002  -1.8046162830762338E-002   3.4867287015293416E-002
   5.9463930014223815E-002  -1.7566076483437193E-002   3.4918852885460677E-002
   6.2393628057467246E-002  -1.8759710463839091E-002   3.8946552060158734E-002
   6.0277880763372954E-002  -1.8151445694725724E-002   3.8682735050841688E-002
   5.8162133469278628E-002  -1.7550816497238456E-002   3.8612233107352609E-002
   5.6046386175184273E-002  -1.6957822871377298E-002   3.8735046229691907E-002
   5.3930638881089898E-002  -1.6372464817142218E-002   3.9051174417859186E-002
   5.6385464517389183E-002  -1.8439455527188453E-002   4.2134203635998450E-002
   5.4441739247375560E-002  -1.7499784100162848E-002   4.2187328878165967E-002
   5.2498013977361847E-002  -1.6643126561764122E-002   4.2391183102666791E-002
   5.0554288707348100E-002  -1.5869482911992271E-002   4.2745766309500409E-002
   4.8610563437334463E-002  -1.5178853150847244E-002   4.3251078498667390E-002
   5.0760861000670010E-002  -1.8119200590537843E-002   4.5690951028250770E-002
   4.8946571671241862E-002  -1.6848122505599972E-002   4.5985640204902312E-002
   4.7132282341813658E-002  -1.5735436626289720E-002   4.6388472280392029E-002
   4.5317993012385455E-002  -1.4781142952607167E-002   4.6899447254719603E-002
   4.3503703682957279E-002  -1.3985241484552213E-002   4.7518565127885104E-002
   6.5210436836735997E-002  -1.8759688149732168E-002   3.0854113901471525E-002
   6.3054149820046895E-002  -1.8280991558165260E-002   3.0209422781937251E-002
   6.0897862803357738E-002  -1.7737652126670472E-002   2.9815886011447773E-002
   5.8741575786668582E-002  -1.7129669855247782E-002   2.9673503590003397E-002
   5.6585288769979480E-002  -1.6457044743896976E-002   2.9782275517603707E-002
   5.9463930014223815E-002  -1.7566076483437193E-002   3.4918852885460677E-002
   5.7539456552704968E-002  -1.7033678684303652E-002   3.4518798160514966E-002
   5.5614983091186163E-002  -1.6464400726928251E-002   3.4331216196865189E-002
   5.3690509629667371E-002  -1.5858242611310754E-002   3.4356106994511040E-002
   5.1766036168148510E-002  -1.5215204337451271E-002   3.4593470553452854E-002
   5.3930638881089898E-002  -1.6372464817142218E-002   3.9051174417859186E-002
   5.2199297386992270E-002  -1.5786365810442154E-002   3.8867993405816571E-002
   5.0467955892894642E-002  -1.5191149327186085E-002   3.8858603567320349E-002
   4.8736614398796958E-002  -1.4586815367373777E-002   3.9023004902370727E-002
   4.7005272904699316E-002  -1.3973363931005567E-002   3.9361197410967774E-002
   4.8610563437334463E-002  -1.5178853150847244E-002   4.3251078498667390E-002
   4.7033672322908775E-002  -1.4539052936580601E-002   4.3257008517841429E-002
   4.5456781208483121E-002  -1.3917897927443947E-002   4.3398048122813060E-002
   4.3879890094057475E-002  -1.3315388123436871E-002   4.3674197313582096E-002
   4.2302998979631835E-002  -1.2731523524559835E-002   4.4085456090148537E-002
   4.3503703682957279E-002  -1.3985241484552213E-002   4.7518565127885104E-002
   4.2042581360454467E-002  -1.3291740062719076E-002   4.7685843496590136E-002
   4.0581459037951670E-002  -1.2644646527701670E-002   4.7949549863343571E-002
   3.9120336715448886E-002  -1.2043960879499958E-002   4.8309684228145189E-002
   3.7659214392946061E-002  -1.1489683118114102E-002   4.8766246590995210E-002
   5.6585288769979480E-002  -1.6457044743896976E-002   2.9782275517603707E-002
   5.4116317184768142E-002  -1.5755319858854033E-002   2.9290895565778852E-002
   5.1647345599556915E-002  -1.5060038266354325E-002   2.8997096769416780E-002
   4.9178374014345660E-002  -1.4371199966398254E-002   2.8900879128517271E-002
   4.6709402429134406E-002  -1.3688804958985390E-002   2.9002242643080489E-002
   5.1766036168148510E-002  -1.5215204337451271E-002   3.4593470553452854E-002
   4.9492408945000746E-002  -1.4554490736245984E-002   3.4154356748563874E-002
   4.7218781721852995E-002  -1.3895306638590774E-002   3.3908350512339147E-002
   4.4945154498705210E-002  -1.3237652044485775E-002   3.3855451844778672E-002
   4.2671527275557453E-002  -1.2581526953930999E-002   3.3995660745882894E-002
   4.7005272904699316E-002  -1.3973363931005567E-002   3.9361197410967774E-002
   4.4922516456816768E-002  -1.3353661613637713E-002   3.8979263542007647E-002
   4.2839760008934122E-002  -1.2730575010826944E-002   3.8785963654913588E-002
   4.0757003561051497E-002  -1.2104104122573241E-002   3.8781297749685417E-002
   3.8674247113168927E-002  -1.1474248948876609E-002   3.8965265826323342E-002
   4.2302998979631835E-002  -1.2731523524559835E-002   4.4085456090148537E-002
   4.0406639720216082E-002  -1.2152832491029608E-002   4.3765615946110545E-002
   3.8510280460800322E-002  -1.1565843383063421E-002   4.3629936197140146E-002
   3.6613921201384569E-002  -1.0970556200660873E-002   4.3678416843237450E-002
   3.4717561941968816E-002  -1.0366970943822273E-002   4.3911057884402721E-002
   3.7659214392946061E-002  -1.1489683118114102E-002   4.8766246590995210E-002
   3.5944778735198829E-002  -1.0952003368421365E-002   4.8513413960872442E-002
   3.4230343077451583E-002  -1.0401111755299522E-002   4.8440268139018888E-002
   3.2515907419704358E-002  -9.8370082787482722E-003   4.8546809125434923E-002
   3.0801471761957105E-002  -9.2596929387679383E-003   4.8833036920120310E-002
   4.6709402429134406E-002  -1.3688804958985390E-002   2.9002242643080489E-002
   4.4436391442288947E-002  -1.3003863619573230E-002   2.8505441389015063E-002
   4.2163380455443544E-002  -1.2307386323619884E-002   2.8139564017257146E-002
   3.9890369468598155E-002  -1.1599373071125060E-002   2.7904610527806961E-002
   3.7617358481752738E-002  -1.0879823862089077E-002   2.7800580920664508E-002
   4.2671527275557453E-002  -1.2581526953930999E-002   3.3995660745882894E-002
   4.0535717000084376E-002  -1.1919544701280010E-002   3.3558121204212199E-002
   3.8399906724611396E-002  -1.1244318620886609E-002   3.3264059202978896E-002
   3.6264096449138340E-002  -1.0555848712750730E-002   3.3113474742182403E-002
   3.4128286173665340E-002  -9.8541349768723197E-003   3.3106367821823302E-002
   3.8674247113168927E-002  -1.1474248948876609E-002   3.8965265826323342E-002
   3.6688191207197740E-002  -1.0835225782986652E-002   3.8588695868249187E-002
   3.4702135301226462E-002  -1.0181250918153278E-002   3.8368157108741169E-002
   3.2716079395255240E-002  -9.5123243543763433E-003   3.8303649547799842E-002
   3.0730023489283997E-002  -8.8284460916557839E-003   3.8395173185424902E-002
   3.4717561941968816E-002  -1.0366970943822273E-002   4.3911057884402721E-002
   3.2893814063628790E-002  -9.7509068646932512E-003   4.3597165381125541E-002
   3.1070066185288771E-002  -9.1181832154198367E-003   4.3451857734543999E-002
   2.9246318306948751E-002  -8.4687999960018183E-003   4.3475134944658600E-002
   2.7422570428608725E-002  -7.8027572064392481E-003   4.3666997011469019E-002
   3.0801471761957105E-002  -9.2596929387679383E-003   4.8833036920120310E-002
   2.9152585569377693E-002  -8.6665879464000173E-003   4.8583529742841303E-002
   2.7503699376798307E-002  -8.0551155126865892E-003   4.8515161080387614E-002
   2.5854813184218922E-002  -7.4252756376277165E-003   4.8627930932759050E-002
   2.4205926991639509E-002  -6.7770683212226013E-003   4.8921839299955971E-002
   3.7617358481752738E-002  -1.0879823862089077E-002   2.7800580920664508E-002
   3.5225062061631451E-002  -1.0157995246292795E-002   2.7210061649527051E-002
   3.2832765641510220E-002  -9.4431437735173485E-003   2.6760219177381028E-002
   3.0440469221388988E-002  -8.7352694437632245E-003   2.6451053504226302E-002
   2.8048172801267757E-002  -8.0343722570301868E-003   2.6282564630062621E-002
   3.4128286173665340E-002  -9.8541349768723197E-003   3.3106367821823302E-002
   3.1879056932149707E-002  -9.1499135860136915E-003   3.2601445723604683E-002
   2.9629827690634145E-002  -8.4539207129374488E-003   3.2241981183605856E-002
   2.7380598449118575E-002  -7.7661563576428734E-003   3.2027974201826848E-002
   2.5131369207602922E-002  -7.0866205201306487E-003   3.1959424778268242E-002
   3.0730023489283997E-002  -8.8284460916557839E-003   3.8395173185424902E-002
   2.8628642185602682E-002  -8.1418319257351990E-003   3.7974596885364073E-002
   2.6527260881921255E-002  -7.4646976523574382E-003   3.7704258902751780E-002
   2.4425879578239912E-002  -6.7970432715228554E-003   3.7584159237587678E-002
   2.2324498274558527E-002  -6.1388687832312216E-003   3.7614297889872472E-002
   2.7422570428608725E-002  -7.8027572064392481E-003   4.3666997011469019E-002
   2.5473817821990166E-002  -7.1337502654564011E-003   4.3329515134804999E-002
   2.3525065215371663E-002  -6.4754745917775386E-003   4.3147052334818088E-002
   2.1576312608753132E-002  -5.8279301854025599E-003   4.3119608611508278E-002
   1.9627560002134545E-002  -5.1911170463316836E-003   4.3247183964875729E-002
   2.4205926991639509E-002  -6.7770683212226013E-003   4.8921839299955971E-002
   2.2414583841312369E-002  -6.1256686051776033E-003   4.8666200471927934E-002
   2.0623240690985270E-002  -5.4862515311974169E-003   4.8570361479805257E-002
   1.8831897540658164E-002  -4.8588170992822921E-003   4.8634322323588414E-002
   1.7040554390331031E-002  -4.2433653094321455E-003   4.8858083003277319E-002
   2.8048172801267757E-002  -8.0343722570301868E-003   2.6282564630062621E-002
   2.5704768478575224E-002  -7.3094781885030269E-003   2.5694119317093089E-002
   2.3361364155882608E-002  -6.5296132133655371E-003   2.5053403243779970E-002
   2.1017959833190020E-002  -5.6947773316194106E-003   2.4360416410122765E-002
   1.8674555510497459E-002  -4.8049705432626766E-003   2.3615158816121751E-002
   2.5131369207602922E-002  -7.0866205201306487E-003   3.1959424778268242E-002
   2.2774111302568956E-002  -6.4046997859618093E-003   3.1553313912774328E-002
   2.0416853397535017E-002  -5.7097807406970291E-003   3.1171766642941079E-002
   1.8059595492501065E-002  -5.0018633843364677E-003   3.0814782968768745E-002
   1.5702337587467113E-002  -4.2809477168801457E-003   3.0482362890257630E-002
   2.2324498274558527E-002  -6.1388687832312216E-003   3.7614297889872472E-002
   2.0030221143187879E-002  -5.4999213834204808E-003   3.7348548876339788E-002
   1.7735944011817273E-002  -4.8899482680277440E-003   3.7184197814472769E-002
   1.5441666880446688E-002  -4.3089494370537468E-003   3.7121244704271639E-002
   1.3147389749076019E-002  -3.7569248904978370E-003   3.7159689545736063E-002
   1.9627560002134545E-002  -5.1911170463316836E-003   4.3247183964875729E-002
   1.7473098000432025E-002  -4.5951429808790967E-003   4.3079824207790586E-002
   1.5318635998729478E-002  -4.0701157953588474E-003   4.3090696758375513E-002
   1.3164173997026917E-002  -3.6160354897710259E-003   4.3279801616631135E-002
   1.1009711995324408E-002  -3.2329020641156392E-003   4.3647138782557104E-002
   1.7040554390331031E-002  -4.2433653094321455E-003   4.8858083003277319E-002
   1.5102741874301273E-002  -3.6903645783378791E-003   4.8747139907125536E-002
   1.3164929358271515E-002  -3.2502833226898675E-003   4.8891263474648894E-002
   1.1227116842241730E-002  -2.9231215424881732E-003   4.9290453705847337E-002
   9.2893043262120001E-003  -2.7088792377331083E-003   4.9944710600720810E-002
   1.8674555510497459E-002  -4.8049705432626766E-003   2.3615158816121751E-002
   1.5652184271481351E-002  -4.0767647710443500E-003   2.4400695864676747E-002
   1.2629813032465242E-002  -3.7267319377129460E-003   2.5660376160309029E-002
   9.6074417934491757E-003  -3.7548720432673960E-003   2.7394199703018540E-002
   6.5850705544330257E-003  -4.1611850877090184E-003   2.9602166492806115E-002
   1.5702337587467113E-002  -4.2809477168801457E-003   3.0482362890257630E-002
   1.3135609139244941E-002  -3.7713459029631302E-003   3.1259770088638117E-002
   1.0568880691022839E-002  -3.6973701072202103E-003   3.2474319621528303E-002
   8.0021522428007294E-003  -4.0590203296520938E-003   3.4126011488929409E-002
   5.4354237945785089E-003  -4.8562965702572125E-003   3.6214845690840991E-002
   1.3147389749076019E-002  -3.7569248904978370E-003   3.7159689545736063E-002
   1.0999303179080752E-002  -3.4659270348821880E-003   3.7871513814654145E-002
   8.8512166090854785E-003  -3.6680082767281685E-003   3.8983479505515312E-002
   6.7031300390901875E-003  -4.3631686160360214E-003   4.0495586618319798E-002
   4.5550434690949382E-003  -5.5514080528056287E-003   4.2407835153067508E-002
   1.1009711995324408E-002  -3.2329020641156392E-003   4.3647138782557104E-002
   9.2432663909887240E-003  -3.1605081668008850E-003   4.4235927042725123E-002
   7.4768207866531562E-003  -3.6386464462357243E-003   4.5187855812269619E-002
   5.7103751823175735E-003  -4.6673169024200011E-003   4.6502925091190223E-002
   3.9439295779819042E-003  -6.2465195353540448E-003   4.8181134879486262E-002
   9.2893043262120001E-003  -2.7088792377331083E-003   4.9944710600720810E-002
   7.8674987749689229E-003  -2.8550892987199705E-003   5.0353009772851509E-002
   6.4456932237259013E-003  -3.6092846157434466E-003   5.1087448541791147E-002
   5.0238876724828796E-003  -4.9714651888044942E-003   5.2148026907539613E-002
   3.6020821212398579E-003  -6.9416310179023499E-003   5.3534744870097239E-002
   6.5850705544330257E-003  -4.1611850877090184E-003   2.9602166492806115E-002
   6.0566604615018282E-003  -6.1418393678323024E-003   3.4078618588538001E-002
   5.5282503685706308E-003  -1.0893003180433125E-002   3.9240336949989629E-002
   4.9998402756394889E-003  -1.8414676525511667E-002   4.5087321577161388E-002
   4.4714301827082359E-003  -2.8706859403067941E-002   5.1619572470054109E-002
   5.4354237945785089E-003  -4.8562965702572125E-003   3.6214845690840991E-002
   5.4884736762018105E-003  -6.9897448466684775E-003   3.8353144136820450E-002
   5.5415235578250566E-003  -1.1359911176516968E-002   4.0969096266188498E-002
   5.5945734394483027E-003  -1.7966795559802448E-002   4.4062702078945581E-002
   5.6476233210716043E-003  -2.6810397996524848E-002   4.7633961575091144E-002
   4.5550434690949382E-003  -5.5514080528056287E-003   4.2407835153067508E-002
   4.9819407429411017E-003  -7.8376503255045415E-003   4.2741771428335185E-002
   5.4088380167872652E-003  -1.1826819172600561E-002   4.3345748804659967E-002
   5.8357352906334148E-003  -1.7518914594092889E-002   4.4219767282041675E-002
   6.2626325644795366E-003  -2.4913936589981978E-002   4.5363826860481127E-002
   3.9439295779819042E-003  -6.2465195353540448E-003   4.8181134879486262E-002
   4.5370616617196532E-003  -8.6855558043405501E-003   4.7244500463082553E-002
   5.1301937454572982E-003  -1.2293727168683835E-002   4.6370294565404251E-002
   5.7233258291949154E-003  -1.7071033628383279E-002   4.5558517186451430E-002
   6.3164579129326923E-003  -2.3017475183438996E-002   4.4809168326225252E-002
   3.6020821212398579E-003  -6.9416310179023499E-003   5.3534744870097239E-002
   4.1538364325374721E-003  -9.5334612831768917E-003   5.1861331241062403E-002
   4.7055907438351419E-003  -1.2760635164767747E-002   5.0042733548421314E-002
   5.2573450551328255E-003  -1.6623152662673883E-002   4.8078951792174723E-002
   5.8090993664304813E-003  -2.1121013776896014E-002   4.5969985972322380E-002
   5.0760861000670010E-002  -1.8119200590537843E-002   4.5690951028250770E-002
   4.8946571671241862E-002  -1.6848122505599972E-002   4.5985640204902312E-002
   4.7132282341813658E-002  -1.5735436626289720E-002   4.6388472280392029E-002
   4.5317993012385455E-002  -1.4781142952607167E-002   4.6899447254719603E-002
   4.3503703682957279E-002  -1.3985241484552213E-002   4.7518565127885104E-002
   4.5088422843428622E-002  -1.4720082386992794E-002   5.1529595483934598E-002
   4.3420042144126730E-002  -1.3987108806870124E-002   5.1281903257911127E-002
   4.1751661444824895E-002  -1.3297578680240174E-002   5.1217885393302409E-002
   4.0083280745523003E-002  -1.2651492007103068E-002   5.1337541890108182E-002
   3.8414900046221112E-002  -1.2048848787458849E-002   5.1640872748328903E-002
   3.8936755381784122E-002  -1.1320964183447746E-002   5.6772661058735754E-002
   3.7489814775185155E-002  -1.1126095108140222E-002   5.6097536182172086E-002
   3.6042874168586342E-002  -1.0859720734190607E-002   5.5681617129599785E-002
   3.4595933561987452E-002  -1.0521841061598999E-002   5.5524903901018843E-002
   3.3148992955388534E-002  -1.0112456090365346E-002   5.5627396496429143E-002
   3.2305858615736351E-002  -7.9218459799027113E-003   6.1420147752654405E-002
   3.1155889564417137E-002  -8.2650814094102631E-003   6.0432538977685427E-002
   3.0005920513097983E-002  -8.4218627881409956E-003   5.9779667489284434E-002
   2.8855951461778766E-002  -8.3921901160948602E-003   5.9461533287451428E-002
   2.7705982410459608E-002  -8.1760633932718291E-003   5.9478136372186512E-002
   2.5195732545285454E-002  -4.5227277763576490E-003   6.5472055565690412E-002
   2.4418266511822634E-002  -5.4040677106804713E-003   6.4286911644450828E-002
   2.3640800478359827E-002  -5.9840048420914532E-003   6.3512036472356065E-002
   2.2863334444897007E-002  -6.2625391705907925E-003   6.3147430049405914E-002
   2.2085868411434201E-002  -6.2396706961784232E-003   6.3193092375600612E-002
   4.3503703682957279E-002  -1.3985241484552213E-002   4.7518565127885104E-002
   4.2042581360454467E-002  -1.3291740062719076E-002   4.7685843496590136E-002
   4.0581459037951670E-002  -1.2644646527701670E-002   4.7949549863343571E-002
   3.9120336715448886E-002  -1.2043960879499958E-002   4.8309684228145189E-002
   3.7659214392946061E-002  -1.1489683118114102E-002   4.8766246590995210E-002
   3.8414900046221112E-002  -1.2048848787458849E-002   5.1640872748328903E-002
   3.7067381176612416E-002  -1.1482804241995728E-002   5.1610142226940534E-002
   3.5719862307003691E-002  -1.0946513591402869E-002   5.1710190613292115E-002
   3.4372343437394974E-002  -1.0439976835679489E-002   5.1941017907383737E-002
   3.3024824567786285E-002  -9.9631939748262566E-003   5.2302624109215184E-002
   3.3148992955388534E-002  -1.0112456090365346E-002   5.5627396496429143E-002
   3.1949428448365590E-002  -9.6738684212726161E-003   5.5415311076893424E-002
   3.0749863941342638E-002  -9.2483806551039577E-003   5.5368355474789244E-002
   2.9550299434319700E-002  -8.8359927918591867E-003   5.5486529690116644E-002
   2.8350734927296735E-002  -8.4367048315384385E-003   5.5769833722875625E-002
   2.7705982410459608E-002  -8.1760633932718291E-003   5.9478136372186512E-002
   2.6688723175714073E-002  -7.8649326005494694E-003   5.9101350046449189E-002
   2.5671463940968513E-002  -7.5502477188050462E-003   5.8924044447834986E-002
   2.4654204706222954E-002  -7.2320087480389119E-003   5.8946219576343974E-002
   2.3636945471477419E-002  -6.9102156882506066E-003   5.9167875431976422E-002
   2.2085868411434201E-002  -6.2396706961784232E-003   6.3193092375600612E-002
   2.1285265358657740E-002  -6.0559967798262115E-003   6.2668259135607474E-002
   2.0484662305881279E-002  -5.8521147825062042E-003   6.2377257532429287E-002
   1.9684059253104812E-002  -5.6280247042184324E-003   6.2320087566066065E-002
   1.8883456200328358E-002  -5.3837265449628302E-003   6.2496749236517712E-002
   3.7659214392946061E-002  -1.1489683118114102E-002   4.8766246590995210E-002
   3.5944778735198829E-002  -1.0952003368421365E-002   4.8513413960872442E-002
   3.4230343077451583E-002  -1.0401111755299522E-002   4.8440268139018888E-002
   3.2515907419704358E-002  -9.8370082787482722E-003   4.8546809125434923E-002
   3.0801471761957105E-002  -9.2596929387679383E-003   4.8833036920120310E-002
   3.3024824567786285E-002  -9.9631939748262566E-003   5.2302624109215184E-002
   3.1495997841987575E-002  -9.4947065961953070E-003   5.2029201184369156E-002
   2.9967171116188872E-002  -9.0130562871394704E-003   5.1947309315150583E-002
   2.8438344390390193E-002  -8.5182430476585039E-003   5.2056948501559903E-002
   2.6909517664591473E-002  -8.0102668777524144E-003   5.2358118743596804E-002
   2.8350734927296735E-002  -8.4367048315384385E-003   5.5769833722875625E-002
   2.7019361380804956E-002  -8.0374098239692632E-003   5.5475771570301757E-002
   2.5687987834313180E-002  -7.6250008189793009E-003   5.5385084720714094E-002
   2.4356614287821397E-002  -7.1994778165686227E-003   5.5497773174112516E-002
   2.3025240741329625E-002  -6.7608408167370571E-003   5.5813836930497074E-002
   2.3636945471477419E-002  -6.9102156882506066E-003   5.9167875431976422E-002
   2.2514869351650958E-002  -6.5801130517432679E-003   5.8853125118670739E-002
   2.1392793231824490E-002  -6.2369453508191626E-003   5.8753594355709600E-002
   2.0270717111998043E-002  -5.8807125854786315E-003   5.8869283143092796E-002
   1.9148640992171558E-002  -5.5114147557215054E-003   5.9200191480820598E-002
   1.8883456200328358E-002  -5.3837265449628302E-003   6.2496749236517712E-002
   1.7982521754525596E-002  -5.1228162795171617E-003   6.2161261829475789E-002
   1.7081587308722820E-002  -4.8488898826590521E-003   6.2052838220136852E-002
   1.6180652862920038E-002  -4.5619473543889108E-003   6.2171478408500763E-002
   1.5279718417117283E-002  -4.2619886947062313E-003   6.2517182394567661E-002
   3.0801471761957105E-002  -9.2596929387679383E-003   4.8833036920120310E-002
   2.9152585569377693E-002  -8.6665879464000173E-003   4.8583529742841303E-002
   2.7503699376798307E-002  -8.0551155126865892E-003   4.8515161080387614E-002
   2.5854813184218922E-002  -7.4252756376277165E-003   4.8627930932759050E-002
   2.4205926991639509E-002  -6.7770683212226013E-003   4.8921839299955971E-002
   2.6909517664591473E-002  -8.0102668777524144E-003   5.2358118743596804E-002
   2.5445286526119007E-002  -7.4891047075335004E-003   5.2135593535476532E-002
   2.3981055387646534E-002  -6.9547334671136718E-003   5.2101239920744558E-002
   2.2516824249174085E-002  -6.4071531564933309E-003   5.2255057899401144E-002
   2.1052593110701595E-002  -5.8463637756719367E-003   5.2597047471446334E-002
   2.3025240741329625E-002  -6.7608408167370571E-003   5.5813836930497074E-002
   2.1752697735527293E-002  -6.3116214686670113E-003   5.5613135320390472E-002
   2.0480154729724954E-002  -5.8543514215411846E-003   5.5607638382235466E-002
   1.9207611723922598E-002  -5.3890306753592750E-003   5.5797346116032230E-002
   1.7935068718120277E-002  -4.9156592301213275E-003   5.6182258521780937E-002
   1.9148640992171558E-002  -5.5114147557215054E-003   5.9200191480820598E-002
   1.8074819197602558E-002  -5.1341382298006194E-003   5.9016155097582929E-002
   1.7000997403033562E-002  -4.7539693759683713E-003   5.9034356464860174E-002
   1.5927175608464548E-002  -4.3709081942251652E-003   5.9254795582652335E-002
   1.4853353813895532E-002  -3.9849546845706907E-003   5.9677472450959335E-002
   1.5279718417117283E-002  -4.2619886947062313E-003   6.2517182394567661E-002
   1.4411650912344809E-002  -3.9566549909339499E-003   6.2344652867054096E-002
   1.3543583407572335E-002  -3.6535873303957106E-003   6.2381394168618626E-002
   1.2675515902799861E-002  -3.3527857130910381E-003   6.2627406299261404E-002
   1.1807448398027387E-002  -3.0542501390200538E-003   6.3082689258982305E-002
   2.4205926991639509E-002  -6.7770683212226013E-003   4.8921839299955971E-002
   2.2414583841312369E-002  -6.1256686051776033E-003   4.8666200471927934E-002
   2.0623240690985270E-002  -5.4862515311974169E-003   4.8570361479805257E-002
   1.8831897540658164E-002  -4.8588170992822921E-003   4.8634322323588414E-002
   1.7040554390331031E-002  -4.2433653094321455E-003   4.8858083003277319E-002
   2.1052593110701595E-002  -5.8463637756719367E-003   5.2597047471446334E-002
   1.9431860382776292E-002  -5.2841245136746040E-003   5.2376882743313924E-002
   1.7811127654851017E-002  -4.7321945595261983E-003   5.2338139024079522E-002
   1.6190394926925721E-002  -4.1905739132259909E-003   5.2480816313742962E-002
   1.4569662199000438E-002  -3.6592625747753349E-003   5.2804914612304354E-002
   1.7935068718120277E-002  -4.9156592301213275E-003   5.6182258521780937E-002
   1.6506567585589021E-002  -4.4425804221717158E-003   5.5999241227760427E-002
   1.5078066453057783E-002  -3.9781375878546466E-003   5.6019266115630156E-002
   1.3649565320526523E-002  -3.5223307271701337E-003   5.6242333185390236E-002
   1.2221064187995290E-002  -3.0751598401181357E-003   5.6668442437040029E-002
   1.4853353813895532E-002  -3.9849546845706907E-003   5.9677472450959335E-002
   1.3638705449750531E-002  -3.6010363306686055E-003   5.9533275925267255E-002
   1.2424057085605570E-002  -3.2240806161832058E-003   5.9613742754457522E-002
   1.1209408721460572E-002  -2.8540875411140545E-003   5.9918872938530300E-002
   9.9947603573155783E-003  -2.4910571054612973E-003   6.0448666477485390E-002
   1.1807448398027387E-002  -3.0542501390200538E-003   6.3082689258982305E-002
   1.0828273975260885E-002  -2.7594922391658838E-003   6.2978986835834583E-002
   9.8490995524943697E-003  -2.4700236445119594E-003   6.3121568940561534E-002
   8.8699251297278542E-003  -2.1858443550578852E-003   6.3510435573162993E-002
   7.8907507069613247E-003  -1.9069543708041259E-003   6.4145586733639126E-002
   1.7040554390331031E-002  -4.2433653094321455E-003   4.8858083003277319E-002
   1.5102741874301273E-002  -3.6903645783378791E-003   4.8747139907125536E-002
   1.3164929358271515E-002  -3.2502833226898675E-003   4.8891263474648894E-002
   1.1227116842241730E-002  -2.9231215424881732E-003   4.9290453705847337E-002
   9.2893043262120001E-003  -2.7088792377331083E-003   4.9944710600720810E-002
   1.4569662199000438E-002  -3.6592625747753349E-003   5.2804914612304354E-002
   1.2885957586374897E-002  -3.1896247045734016E-003   5.2702328384158670E-002
   1.1202252973749383E-002  -2.8330244630220824E-003   5.2852891299146415E-002
   9.5185483611238617E-003  -2.5894618501207806E-003   5.3256603357267410E-002
   7.8348437484983269E-003  -2.4589368658699540E-003   5.3913464558521473E-002
   1.2221064187995290E-002  -3.0751598401181357E-003   5.6668442437040029E-002
   1.0789549958232211E-002  -2.6888848308095070E-003   5.6574094923697194E-002
   9.3580357284690704E-003  -2.4157656033547276E-003   5.6730979032945453E-002
   7.9265214987059435E-003  -2.2558021577539396E-003   5.7139094764785354E-002
   6.4950072689428234E-003  -2.2089944940069661E-003   5.7798442119216809E-002
   9.9947603573155783E-003  -2.4910571054612973E-003   6.0448666477485390E-002
   8.8135189898730752E-003  -2.1881449570452655E-003   6.0362439525740899E-002
   7.6322776224305149E-003  -1.9985067436870466E-003   6.0525526676045882E-002
   6.4510362549879824E-003  -1.9221424653867118E-003   6.0937927928401060E-002
   5.2697948875454516E-003  -1.9590521221437285E-003   6.1599643282805275E-002
   7.8907507069613247E-003  -1.9069543708041259E-003   6.4145586733639126E-002
   6.9578646812975542E-003  -1.6874050832812459E-003   6.4067362190289745E-002
   6.0249786556337837E-003  -1.5812478840196154E-003   6.4236534228447939E-002
   5.0920926299699992E-003  -1.5884827730197684E-003   6.4653102848114263E-002
   4.1592066043062148E-003  -1.7091097502808239E-003   6.5317068049288496E-002
   9.2893043262120001E-003  -2.7088792377331083E-003   4.9944710600720810E-002
   7.8674987749689229E-003  -2.8550892987199705E-003   5.0353009772851509E-002
   6.4456932237259013E-003  -3.6092846157434466E-003   5.1087448541791147E-002
   5.0238876724828796E-003  -4.9714651888044942E-003   5.2148026907539613E-002
   3.6020821212398579E-003  -6.9416310179023499E-003   5.3534744870097239E-002
   7.8348437484983269E-003  -2.4589368658699540E-003   5.3913464558521473E-002
   6.7133325238803027E-003  -2.6419222820620036E-003   5.3849558344490289E-002
   5.5918212992622646E-003  -3.3388908704892195E-003   5.4060101186899662E-002
   4.4703100746442265E-003  -4.5498426311519902E-003   5.4545093085750382E-002
   3.3487988500262023E-003  -6.2747775640502601E-003   5.5304534041041964E-002
   6.4950072689428234E-003  -2.2089944940069661E-003   5.7798442119216809E-002
   5.6220998305818656E-003  -2.4287552654039535E-003   5.7356332602824384E-002
   4.7491923922208593E-003  -3.0684971252347426E-003   5.7136981602505493E-002
   3.8762849538598737E-003  -4.1282200734994792E-003   5.7140389118259416E-002
   3.0033775154988951E-003  -5.6079241101981148E-003   5.7366555150086512E-002
   5.2697948875454516E-003  -1.9590521221437285E-003   6.1599643282805275E-002
   4.5938006950735476E-003  -2.2155882487459450E-003   6.0873332547854556E-002
   3.9178065026016558E-003  -2.7981033799805016E-003   6.0318089788608580E-002
   3.2418123101297658E-003  -3.7065975158470828E-003   5.9933915005067909E-002
   2.5658181176578601E-003  -4.9410706563461082E-003   5.9720808197232404E-002
   4.1592066043062148E-003  -1.7091097502808239E-003   6.5317068049288496E-002
   3.6284351173554441E-003  -2.0024212320879364E-003   6.4400558179580014E-002
   3.0976636304046734E-003  -2.5277096347260108E-003   6.3603425745208997E-002
   2.5668921434539166E-003  -3.2849749581945129E-003   6.2925670746174972E-002
   2.0361206565031320E-003  -4.2742172024937686E-003   6.2367293182478245E-002
   3.6020821212398579E-003  -6.9416310179023499E-003   5.3534744870097239E-002
   4.1538364325374721E-003  -9.5334612831768917E-003   5.1861331241062403E-002
   4.7055907438351419E-003  -1.2760635164767747E-002   5.0042733548421314E-002
   5.2573450551328255E-003  -1.6623152662673883E-002   4.8078951792174723E-002
   5.8090993664304813E-003  -2.1121013776896014E-002   4.5969985972322380E-002
   3.3487988500262023E-003  -6.2747775640502601E-003   5.5304534041041964E-002
   3.7727992049036291E-003  -8.5441048906010342E-003   5.2951339840185463E-002
   4.1967995597810837E-003  -1.1388233832221956E-002   5.0487821790094700E-002
   4.6207999146585521E-003  -1.4807164388912601E-002   4.7913979890768899E-002
   5.0448002695359651E-003  -1.8800896560673186E-002   4.5229814142208502E-002
   3.0033775154988951E-003  -5.6079241101981148E-003   5.7366555150086512E-002
   3.3344841283270976E-003  -7.5547484980254542E-003   5.4394122378655457E-002
   3.6655907411553418E-003  -1.0015832499676733E-002   5.1346225972360590E-002
   3.9966973539835617E-003  -1.2991176115151656E-002   4.8222865931201613E-002
   4.3278039668117885E-003  -1.6480779344450580E-002   4.5024042255179753E-002
   2.5658181176578601E-003  -4.9410706563461082E-003   5.9720808197232404E-002
   2.8388912028078847E-003  -6.5653921054496245E-003   5.6189678856471893E-002
   3.1119642879579093E-003  -8.6434311671316696E-003   5.2617946095219192E-002
   3.3850373731079348E-003  -1.1175187841390431E-002   4.9005609913473247E-002
   3.6581104582579307E-003  -1.4160662128227974E-002   4.5352670311234938E-002
   2.0361206565031320E-003  -4.2742172024937686E-003   6.2367293182478245E-002
   2.2860204283459556E-003  -5.5760357128739058E-003   5.8338009273635083E-002
   2.5359202001887932E-003  -7.2710298345860791E-003   5.4302982158670077E-002
   2.7858199720316099E-003  -9.3591995676295739E-003   5.0262211837583420E-002
   3.0357197438744543E-003  -1.1840544912005146E-002   4.6215698310375419E-002
   2.5195732545285454E-002  -4.5227277763576490E-003   6.5472055565690412E-002
   2.4418266511822634E-002  -5.4040677106804713E-003   6.4286911644450828E-002
   2.3640800478359827E-002  -5.9840048420914532E-003   6.3512036472356065E-002
   2.2863334444897007E-002  -6.2625391705907925E-003   6.3147430049405914E-002
   2.2085868411434201E-002  -6.2396706961784232E-003   6.3193092375600612E-002
   1.8089750396668491E-002  -3.8977104179430677E-003   6.4219843365596441E-002
   1.7671221490021705E-002  -4.3101391863365202E-003   6.3695843831363314E-002
   1.7252692583374869E-002  -4.5740530351137121E-003   6.3479449801617377E-002
   1.6834163676728065E-002  -4.6894519642745464E-003   6.3570661276358700E-002
   1.6415634770081268E-002  -4.6563359738190369E-003   6.3969478255587464E-002
   1.1471285396122605E-002  -3.2726930595284309E-003   6.3512986273079511E-002
   1.1309030371634360E-002  -3.2162106619926523E-003   6.3497243242557316E-002
   1.1146775347146108E-002  -3.1641012281359085E-003   6.3686442471864890E-002
   1.0984520322657853E-002  -3.1163647579582707E-003   6.4080583961002274E-002
   1.0822265298169605E-002  -3.0730012514596783E-003   6.4679667709969621E-002
   5.3403375436477177E-003  -2.6476757011138358E-003   6.3351484288139387E-002
   5.3316931566606066E-003  -2.1222821376487566E-003   6.3691109878032837E-002
   5.3230487696734868E-003  -1.7541494211581084E-003   6.4133014483098563E-002
   5.3144043826863713E-003  -1.5432775516420099E-003   6.4677198103336636E-002
   5.3057599956992559E-003  -1.4896665291003058E-003   6.5323660738747305E-002
  -3.0309316075610715E-004  -2.0226583426992129E-003   6.3735337410776360E-002
  -2.6079015489953450E-004  -1.0283536133048887E-003   6.4277443737789930E-002
  -2.1848714904294797E-004  -3.4419761418034989E-004   6.4819165835318410E-002
  -1.7618414318637185E-004   2.9809654674268354E-005   6.5360503703361814E-002
  -1.3388113732979226E-004   9.3668193259011101E-005   6.5901457341920211E-002
   2.2085868411434201E-002  -6.2396706961784232E-003   6.3193092375600612E-002
   2.1285265358657740E-002  -6.0559967798262115E-003   6.2668259135607474E-002
   2.0484662305881279E-002  -5.8521147825062042E-003   6.2377257532429287E-002
   1.9684059253104812E-002  -5.6280247042184324E-003   6.2320087566066065E-002
   1.8883456200328358E-002  -5.3837265449628302E-003   6.2496749236517712E-002
   1.6415634770081268E-002  -4.6563359738190369E-003   6.3969478255587464E-002
   1.5842085018226891E-002  -4.5376190975646713E-003   6.3536178315617364E-002
   1.5268535266372511E-002  -4.3962153693293260E-003   6.3323153340676425E-002
   1.4694985514518132E-002  -4.2321247891126818E-003   6.3330403330764840E-002
   1.4121435762663753E-002  -4.0453473569148635E-003   6.3557928285882359E-002
   1.0822265298169605E-002  -3.0730012514596783E-003   6.4679667709969621E-002
   1.0462212175451666E-002  -3.0192414153033253E-003   6.4340379841035827E-002
   1.0102159052733727E-002  -2.9403159561523853E-003   6.4207810265345722E-002
   9.7421059300157927E-003  -2.8362248740070404E-003   6.4281958982899109E-002
   9.3820528072978554E-003  -2.7069681688669800E-003   6.4562825993696255E-002
   5.3057599956992559E-003  -1.4896665291003058E-003   6.5323660738747305E-002
   5.1456468303321019E-003  -1.5008637330419933E-003   6.5080863711863182E-002
   4.9855336649649454E-003  -1.4844165429754759E-003   6.5031228306437025E-002
   4.8254204995977854E-003  -1.4403249589014554E-003   6.5174754522468986E-002
   4.6653073342306350E-003  -1.3685889808190826E-003   6.5511442359958677E-002
  -1.3388113732979226E-004   9.3668193259011101E-005   6.5901457341920211E-002
  -1.0761101713181731E-004   1.7513949219533087E-005   6.5757629928099276E-002
  -8.1340896933844095E-005  -2.8517129798594221E-005   6.5793407463950626E-002
  -5.5070776735869145E-005  -4.4425043795627561E-005   6.6008789949474261E-002
  -2.8800656537895930E-005  -3.0209792771185295E-005   6.6403777384670182E-002
   1.8883456200328358E-002  -5.3837265449628302E-003   6.2496749236517712E-002
   1.7982521754525596E-002  -5.1228162795171617E-003   6.2161261829475789E-002
   1.7081587308722820E-002  -4.8488898826590521E-003   6.2052838220136852E-002
   1.6180652862920038E-002  -4.5619473543889108E-003   6.2171478408500763E-002
   1.5279718417117283E-002  -4.2619886947062313E-003   6.2517182394567661E-002
   1.4121435762663753E-002  -4.0453473569148635E-003   6.3557928285882359E-002
   1.3447367531533083E-002  -3.8437566254237998E-003   6.3254858717117141E-002
   1.2773299300402413E-002  -3.6352261473276137E-003   6.3178457779993341E-002
   1.2099231069271757E-002  -3.4197559226265897E-003   6.3328725474510753E-002
   1.1425162838141087E-002  -3.1973459513199298E-003   6.3705661800669555E-002
   9.3820528072978554E-003  -2.7069681688669800E-003   6.4562825993696255E-002
   8.9344556247777131E-003  -2.5646969713307155E-003   6.4286097878400533E-002
   8.4868584422575777E-003  -2.4215624119964668E-003   6.4235643228684469E-002
   8.0392612597374406E-003  -2.2775644908641056E-003   6.4411462044548257E-002
   7.5916640772173000E-003  -2.1327032079339336E-003   6.4813554325991660E-002
   4.6653073342306350E-003  -1.3685889808190826E-003   6.5511442359958677E-002
   4.4437860342594632E-003  -1.2856373172374369E-003   6.5254979313325245E-002
   4.2222647342882854E-003  -1.2078986766650909E-003   6.5224394566210112E-002
   4.0007434343171128E-003  -1.1353730591018695E-003   6.5419688118613040E-002
   3.7792221343459359E-003  -1.0680604645477293E-003   6.5840859970534293E-002
  -2.8800656537895930E-005  -3.0209792771185295E-005   6.6403777384670182E-002
  -2.4641240021675004E-005  -6.5776631443248412E-006   6.6161503021891999E-002
  -2.0481823505454078E-005   5.7650586660767944E-006   6.6144711792570338E-002
  -1.6322406989233151E-005   6.8183726606059480E-006   6.6353403696705268E-002
  -1.2162990473012225E-005  -3.4177211617469894E-006   6.6787578734296749E-002
   1.5279718417117283E-002  -4.2619886947062313E-003   6.2517182394567661E-002
   1.4411650912344809E-002  -3.9566549909339499E-003   6.2344652867054096E-002
   1.3543583407572335E-002  -3.6535873303957106E-003   6.2381394168618626E-002
   1.2675515902799861E-002  -3.3527857130910381E-003   6.2627406299261404E-002
   1.1807448398027387E-002  -3.0542501390200538E-003   6.3082689258982305E-002
   1.1425162838141087E-002  -3.1973459513199298E-003   6.3705661800669555E-002
   1.0768284876437634E-002  -2.9715079983852755E-003   6.3554932891908084E-002
   1.0111406914734181E-002  -2.7457538287991023E-003   6.3617312240206836E-002
   9.4545289530307379E-003  -2.5200834425613411E-003   6.3892799845565132E-002
   8.7976509913272882E-003  -2.2944968396721999E-003   6.4381395707983513E-002
   7.5916640772173000E-003  -2.1327032079339336E-003   6.4813554325991660E-002
   7.1498130865646319E-003  -1.9863610058363512E-003   6.4686808295867759E-002
   6.7079620959119637E-003  -1.8379203272022790E-003   6.4777007950785281E-002
   6.2661111052592956E-003  -1.6873811720317013E-003   6.5084153290744629E-002
   5.8242601146066136E-003  -1.5347435403243459E-003   6.5608244315745412E-002
   3.7792221343459359E-003  -1.0680604645477293E-003   6.5840859970534293E-002
   3.5562355427258040E-003  -1.0012140132873298E-003   6.5740279078932526E-002
   3.3332489511056721E-003  -9.3008682560550768E-004   6.5860481300354268E-002
   3.1102623594855437E-003  -8.5467890150175540E-004   6.6201466634799533E-002
   2.8872757678654083E-003  -7.7499024097649194E-004   6.6763235082268113E-002
  -1.2162990473012225E-005  -3.4177211617469894E-006   6.6787578734296749E-002
  -1.2447755078852374E-005  -1.6067020738530502E-005   6.6715345241102675E-002
  -1.2732519684682114E-005  -2.2253324008875142E-005   6.6867732288913795E-002
  -1.3017284290520528E-005  -2.1976630972316002E-005   6.7244739877730025E-002
  -1.3302048896352003E-005  -1.5236941628637979E-005   6.7846368007551283E-002
   1.1807448398027387E-002  -3.0542501390200538E-003   6.3082689258982305E-002
   1.0828273975260885E-002  -2.7594922391658838E-003   6.2978986835834583E-002
   9.8490995524943697E-003  -2.4700236445119594E-003   6.3121568940561534E-002
   8.8699251297278542E-003  -2.1858443550578852E-003   6.3510435573162993E-002
   7.8907507069613247E-003  -1.9069543708041259E-003   6.4145586733639126E-002
   8.7976509913272882E-003  -2.2944968396721999E-003   6.4381395707983513E-002
   8.0646481953913912E-003  -2.0712995969957571E-003   6.4308994792633023E-002
   7.3316453994555220E-003  -1.8527972913960356E-003   6.4482652603069068E-002
   6.5986426035196527E-003  -1.6389899228731880E-003   6.4902369139291802E-002
   5.8656398075837557E-003  -1.4298774914269785E-003   6.5568144401301209E-002
   5.8242601146066136E-003  -1.5347435403243459E-003   6.5608244315745412E-002
   5.3372031434134846E-003  -1.3831069548256025E-003   6.5567739276315290E-002
   4.8501461722203487E-003  -1.2355709382803476E-003   6.5773067160583829E-002
   4.3630892010272232E-003  -1.0921354906884943E-003   6.6224227968551319E-002
   3.8760322298340838E-003  -9.5280061205005318E-004   6.6921221700217332E-002
   2.8872757678654083E-003  -7.7499024097649194E-004   6.6763235082268113E-002
   2.6459388193271370E-003  -6.9491431265535086E-004   6.6755220286881606E-002
   2.4046018707888587E-003  -6.1834458516454166E-004   6.6992812613106051E-002
   2.1632649222505839E-003  -5.4528105850368790E-004   6.7476012060941351E-002
   1.9219279737122952E-003  -4.7572373267290580E-004   6.8204818630387687E-002
  -1.3302048896352003E-005  -1.5236941628637979E-005   6.7846368007551283E-002
  -9.1447768676561347E-006  -6.7216704854877740E-006   6.7871437824331804E-002
  -4.9875048389602661E-006  -1.1182320487357345E-006   6.8141888960635388E-002
  -8.3023281026439744E-007   1.5733736809520060E-006   6.8657721416462036E-002
   3.3270392184314712E-006   1.3531467040195366E-006   6.9418935191811748E-002
   7.8907507069613247E-003  -1.9069543708041259E-003   6.4145586733639126E-002
   6.9578646812975542E-003  -1.6874050832812459E-003   6.4067362190289745E-002
   6.0249786556337837E-003  -1.5812478840196154E-003   6.4236534228447939E-002
   5.0920926299699992E-003  -1.5884827730197684E-003   6.4653102848114263E-002
   4.1592066043062148E-003  -1.7091097502808239E-003   6.5317068049288496E-002
   5.8656398075837557E-003  -1.4298774914269785E-003   6.5568144401301209E-002
   5.1765337945684359E-003  -1.2655510504132050E-003   6.5422672044696040E-002
   4.4874277815531369E-003  -1.1861016531868607E-003   6.5517363131879502E-002
   3.7983217685378171E-003  -1.1915292997479662E-003   6.5852217662852319E-002
   3.1092157555225181E-003  -1.2818339900962927E-003   6.6427235637614102E-002
   3.8760322298340838E-003  -9.5280061205005318E-004   6.6921221700217332E-002
   3.4234730917484801E-003  -8.4369701754533066E-004   6.6737016574829916E-002
   2.9709139536628869E-003  -7.9095542235398109E-004   6.6785741755512981E-002
   2.5183548155772936E-003  -7.9457582647627159E-004   6.7067397242266263E-002
   2.0657956774916900E-003  -8.5455822991198360E-004   6.7581983035090026E-002
   1.9219279737122952E-003  -4.7572373267290580E-004   6.8204818630387687E-002
   1.6986825728376766E-003  -4.2184298467742853E-004   6.8010395780691985E-002
   1.4754371719630519E-003  -3.9580919152121946E-004   6.8041670099348278E-002
   1.2521917710884272E-003  -3.9762235320474522E-004   6.8298641586356137E-002
   1.0289463702137947E-003  -4.2728246972756345E-004   6.8781310241715493E-002
   3.3270392184314712E-006   1.3531467040195366E-006   6.9418935191811748E-002
   2.1622378360217076E-006   1.1048190584617146E-008   6.9242809662282245E-002
   9.9743645361541344E-007  -6.6296068829130306E-007   6.9285148163385379E-002
  -1.6736492878741127E-007  -6.6887993287190195E-007   6.9545950695121428E-002
  -1.3321663112006443E-006  -6.7095432543240463E-009   7.0025217257490446E-002
   4.1592066043062148E-003  -1.7091097502808239E-003   6.5317068049288496E-002
   3.6284351173554441E-003  -2.0024212320879364E-003   6.4400558179580014E-002
   3.0976636304046734E-003  -2.5277096347260108E-003   6.3603425745208997E-002
   2.5668921434539166E-003  -3.2849749581945129E-003   6.2925670746174972E-002
   2.0361206565031320E-003  -4.2742172024937686E-003   6.2367293182478245E-002
   3.1092157555225181E-003  -1.2818339900962927E-003   6.6427235637614102E-002
   2.7011763208261708E-003  -1.5016155546001553E-003   6.5317624342899561E-002
   2.2931368861298512E-003  -1.8954738236264534E-003   6.4334099717356596E-002
   1.8850974514335178E-003  -2.4634087971756938E-003   6.3476661760985209E-002
   1.4770580167371844E-003  -3.2054204752471893E-003   6.2745310473786176E-002
   2.0657956774916900E-003  -8.5455822991198360E-004   6.7581983035090026E-002
   1.7871975288843989E-003  -1.0008098771119300E-003   6.6337170531676620E-002
   1.5085993802771008E-003  -1.2632380125266879E-003   6.5225153931269778E-002
   1.2300012316698028E-003  -1.6418426361562120E-003   6.4245933233869207E-002
   9.5140308306251170E-004  -2.1366237480006656E-003   6.3399508439474977E-002
   1.0289463702137947E-003  -4.2728246972756345E-004   6.8781310241715493E-002
   8.8649874153010934E-004  -5.0000419962370479E-004   6.7459196745911276E-002
   7.4405111284643784E-004  -6.3100220142702640E-004   6.6276588386948554E-002
   6.0160348416275940E-004  -8.2027647513706163E-004   6.5233485164826480E-002
   4.5915585547908096E-004  -1.0678270207541141E-003   6.4329887079545511E-002
  -1.3321663112006443E-006  -6.7095432543240463E-009   7.0025217257490446E-002
  -9.2004123666833415E-007   8.0147786402084975E-007   6.8683702985603889E-002
  -5.0791616213255453E-007   1.2336096726905943E-006   6.7488403084392690E-002
  -9.5791087589836010E-008   1.2896858819361201E-006   6.6439317553856958E-002
   3.1633398693553527E-007   9.6970649232641648E-007   6.5536446393996806E-002
   2.0361206565031320E-003  -4.2742172024937686E-003   6.2367293182478245E-002
   2.2860204283459556E-003  -5.5760357128739058E-003   5.8338009273635083E-002
   2.5359202001887932E-003  -7.2710298345860791E-003   5.4302982158670077E-002
   2.7858199720316099E-003  -9.3591995676295739E-003   5.0262211837583420E-002
   3.0357197438744543E-003  -1.1840544912005146E-002   4.6215698310375419E-002
   1.4770580167371844E-003  -3.2054204752471893E-003   6.2745310473786176E-002
   1.7070155849807922E-003  -4.1818663284666213E-003   5.8391251645004139E-002
   1.9369731532243584E-003  -5.4531038274595600E-003   5.4003051615145625E-002
   2.1669307214679627E-003  -7.0191329722257001E-003   4.9580710384209997E-002
   2.3968882897115462E-003  -8.8799537627648473E-003   4.5124227952197504E-002
   9.5140308306251170E-004  -2.1366237480006656E-003   6.3399508439474977E-002
   1.1330204527517825E-003  -2.7876969440596144E-003   5.8819058656312928E-002
   1.3146378224410497E-003  -3.6351778203333601E-003   5.4176069677118924E-002
   1.4962551921303396E-003  -4.6790663768215453E-003   4.9470541501893277E-002
   1.6778725618195878E-003  -5.9193626135245481E-003   4.4702474130635328E-002
   4.5915585547908096E-004  -1.0678270207541141E-003   6.4329887079545511E-002
   5.6403503165896197E-004  -1.3935275596524688E-003   5.9621430307561590E-002
   6.6891420783882303E-004  -1.8172518132071117E-003   5.4822036344590916E-002
   7.7379338401871054E-004  -2.3389997814171979E-003   4.9931705190633717E-002
   8.7867256019857898E-004  -2.9587714642842489E-003   4.4950436845688835E-002
   3.1633398693553527E-007   9.6970649232641648E-007   6.5536446393996806E-002
   5.9321702314263369E-008   6.4182475467688960E-007   6.0798366598750486E-002
  -1.9769058229660019E-007   6.7419391916456739E-007   5.5940951617561574E-002
  -4.5470286691440265E-007   1.0668139866013004E-006   5.0964201450430596E-002
  -7.1171515152179676E-007   1.8196849560503381E-006   4.5868116097357969E-002
  -3.0309316075610715E-004  -2.0226583426992129E-003   6.3735337410776360E-002
  -2.6079015489953450E-004  -1.0283536133048887E-003   6.4277443737789930E-002
  -2.1848714904294797E-004  -3.4419761418034989E-004   6.4819165835318410E-002
  -1.7618414318637185E-004   2.9809654674268354E-005   6.5360503703361814E-002
  -1.3388113732979226E-004   9.3668193259011101E-005   6.5901457341920211E-002
  -5.8928899527884646E-003   6.5377074480249542E-004   6.4547848198917235E-002
  -5.8058522017786669E-003   1.1734798007126679E-003   6.4511185718601594E-002
  -5.7188144507688797E-003   1.5160606696143220E-003   6.4564376958077568E-002
  -5.6317766997590873E-003   1.6815133515075686E-003   6.4707421917344909E-002
  -5.5447389487492948E-003   1.6698378463922137E-003   6.4940320596403672E-002
  -1.1862936068148923E-002   3.3301998323041759E-003   6.4819253041943178E-002
  -1.1640925622709424E-002   3.3753132147302245E-003   6.4336842297559954E-002
  -1.1418915177269961E-002   3.3763189534091256E-003   6.4034523222244594E-002
  -1.1196904731830477E-002   3.3332170483408394E-003   6.3912295815997153E-002
  -1.0974894286390998E-002   3.2460074995253885E-003   6.3970160078817673E-002
  -1.8213231506837433E-002   6.0066289198058426E-003   6.4549551939854330E-002
  -1.7766010417691810E-002   5.5771466287477950E-003   6.3754413474664623E-002
  -1.7318789328546167E-002   5.2365772372038079E-003   6.3229604627819458E-002
  -1.6871568239400548E-002   4.9849207451742083E-003   6.2975125399318641E-002
  -1.6424347150254922E-002   4.8221771526585772E-003   6.2990975789162240E-002
  -2.4943776268854065E-002   8.6830580073075647E-003   6.3738744892650578E-002
  -2.4181106586725815E-002   7.7789800427653100E-003   6.2763899249915989E-002
  -2.3418436904597564E-002   7.0968355209986150E-003   6.2149621174802244E-002
  -2.2655767222469297E-002   6.6366244420074556E-003   6.1895910667309387E-002
  -2.1893097540341046E-002   6.3983468057917658E-003   6.2002767727437402E-002
  -1.3388113732979226E-004   9.3668193259011101E-005   6.5901457341920211E-002
  -1.0761101713181731E-004   1.7513949219533087E-005   6.5757629928099276E-002
  -8.1340896933844095E-005  -2.8517129798594221E-005   6.5793407463950626E-002
  -5.5070776735869145E-005  -4.4425043795627561E-005   6.6008789949474261E-002
  -2.8800656537895930E-005  -3.0209792771185295E-005   6.6403777384670182E-002
  -5.5447389487492948E-003   1.6698378463922137E-003   6.4940320596403672E-002
  -5.3374274546644394E-003   1.5753760743932588E-003   6.4799471489706384E-002
  -5.1301159605795909E-003   1.4924699556358514E-003   6.4841100181110597E-002
  -4.9228044664947380E-003   1.4211194901198754E-003   6.5065206670616327E-002
  -4.7154929724098869E-003   1.3613246778451105E-003   6.5471790958223364E-002
  -1.0974894286390998E-002   3.2460074995253885E-003   6.3970160078817673E-002
  -1.0583668569990131E-002   3.1332381995671094E-003   6.3813721767464221E-002
  -1.0192442853589247E-002   3.0134570410704636E-003   6.3842634102641446E-002
  -9.8012171371883745E-003   2.8866640240352674E-003   6.4056897084349224E-002
  -9.4099914207874964E-003   2.7528591484616005E-003   6.4456510712587581E-002
  -1.6424347150254922E-002   4.8221771526585772E-003   6.2990975789162240E-002
  -1.5846334363108866E-002   4.6911003247409808E-003   6.2800380761372801E-002
  -1.5268321575962829E-002   4.5344441265050481E-003   6.2798009228543103E-002
  -1.4690308788816773E-002   4.3522085579507427E-003   6.2983861190673104E-002
  -1.4112296001670729E-002   4.1443936190779657E-003   6.3357936647762778E-002
  -2.1893097540341046E-002   6.3983468057917658E-003   6.2002767727437402E-002
  -2.1125424834020669E-002   6.2489624499147411E-003   6.1759448471431999E-002
  -2.0357752127700308E-002   6.0554312119395770E-003   6.1707225558815498E-002
  -1.9590079421379945E-002   5.8177530918662040E-003   6.1846098989587817E-002
  -1.8822406715059567E-002   5.5359280896944418E-003   6.2176068763749148E-002
  -2.8800656537895930E-005  -3.0209792771185295E-005   6.6403777384670182E-002
  -2.4641240021675004E-005  -6.5776631443248412E-006   6.6161503021891999E-002
  -2.0481823505454078E-005   5.7650586660767944E-006   6.6144711792570338E-002
  -1.6322406989233151E-005   6.8183726606059480E-006   6.6353403696705268E-002
  -1.2162990473012225E-005  -3.4177211617469894E-006   6.6787578734296749E-002
  -4.7154929724098869E-003   1.3613246778451105E-003   6.5471790958223364E-002
  -4.4865763157248897E-003   1.3036053181969820E-003   6.5211637491749269E-002
  -4.2576596590398891E-003   1.2384812105603049E-003   6.5175515372156045E-002
  -4.0287430023548901E-003   1.1659523549350376E-003   6.5363424599443845E-002
  -3.7998263456698912E-003   1.0860187513214159E-003   6.5775365173612543E-002
  -9.4099914207874964E-003   2.7528591484616005E-003   6.4456510712587581E-002
  -8.9577693105093812E-003   2.6137882995384276E-003   6.4182362802245457E-002
  -8.5055472002312730E-003   2.4711973624543596E-003   6.4130794452208567E-002
  -8.0533250899531613E-003   2.3250863372098005E-003   6.4301805662476966E-002
  -7.6011029796750427E-003   2.1754552238044123E-003   6.4695396433050695E-002
  -1.4112296001670729E-002   4.1443936190779657E-003   6.3357936647762778E-002
  -1.3438220224375162E-002   3.9239712808796928E-003   6.3073678953380494E-002
  -1.2764144447079604E-002   3.7039135143485287E-003   6.3010549032727639E-002
  -1.2090068669784029E-002   3.4842203194843978E-003   6.3168546885804505E-002
  -1.1415992892488479E-002   3.2648916962873809E-003   6.3547672512610870E-002
  -1.8822406715059567E-002   5.5359280896944418E-003   6.2176068763749148E-002
  -1.7927929057322219E-002   5.2341542622210413E-003   6.1885585945154309E-002
  -1.7033451399584870E-002   4.9366296662426423E-003   6.1814779113713414E-002
  -1.6138973741847522E-002   4.6433543017590784E-003   6.1963648269426463E-002
  -1.5244496084110173E-002   4.3543281687705160E-003   6.2332193412293513E-002
  -1.2162990473012225E-005  -3.4177211617469894E-006   6.6787578734296749E-002
  -1.2447755078852374E-005  -1.6067020738530502E-005   6.6715345241102675E-002
  -1.2732519684682114E-005  -2.2253324008875142E-005   6.6867732288913795E-002
  -1.3017284290520528E-005  -2.1976630972316002E-005   6.7244739877730025E-002
  -1.3302048896352003E-005  -1.5236941628637979E-005   6.7846368007551283E-002
  -3.7998263456698912E-003   1.0860187513214159E-003   6.5775365173612543E-002
  -3.5774851015537984E-003   1.0032248860132043E-003   6.5691597479780178E-002
  -3.3551438574377021E-003   9.2211524530508293E-004   6.5828461262386506E-002
  -3.1328026133215945E-003   8.4268982919644825E-004   6.6185956521431499E-002
  -2.9104613692055130E-003   7.6494863768772348E-004   6.6764083256915352E-002
  -7.6011029796750427E-003   2.1754552238044123E-003   6.4695396433050695E-002
  -7.1601247914035064E-003   2.0225167927651055E-003   6.4595315766873024E-002
  -6.7191466031319589E-003   1.8664838146187218E-003   6.4711877512567739E-002
  -6.2781684148604210E-003   1.7073562893650494E-003   6.5045081670134453E-002
  -5.8371902265888613E-003   1.5451342170043070E-003   6.5594928239573524E-002
  -1.1415992892488479E-002   3.2648916962873809E-003   6.3547672512610870E-002
  -1.0760366824627977E-002   3.0418086995170346E-003   6.3426500102381156E-002
  -1.0104740756767471E-002   2.8108523839322982E-003   6.3517981039457216E-002
  -9.4491146889069660E-003   2.5720227495338432E-003   6.3822115323838996E-002
  -8.7934886210464698E-003   2.3253197963207795E-003   6.4338902955526384E-002
  -1.5244496084110173E-002   4.3543281687705160E-003   6.2332193412293513E-002
  -1.4378211201227207E-002   4.0611006062686861E-003   6.2185150486304686E-002
  -1.3511926318344233E-002   3.7552209532462216E-003   6.2246771843055076E-002
  -1.2645641435461253E-002   3.4366892097023351E-003   6.2517057482544783E-002
  -1.1779356552578293E-002   3.1055053756373630E-003   6.2996007404773402E-002
  -1.3302048896352003E-005  -1.5236941628637979E-005   6.7846368007551283E-002
  -9.1447768676561347E-006  -6.7216704854877740E-006   6.7871437824331804E-002
  -4.9875048389602661E-006  -1.1182320487357345E-006   6.8141888960635388E-002
  -8.3023281026439744E-007   1.5733736809520060E-006   6.8657721416462036E-002
   3.3270392184314712E-006   1.3531467040195366E-006   6.9418935191811748E-002
  -2.9104613692055130E-003   7.6494863768772348E-004   6.6764083256915352E-002
  -2.6617762197980212E-003   6.8915380895673284E-004   6.6758378428601439E-002
  -2.4130910703905311E-003   6.1556748118124505E-004   6.6996348035522540E-002
  -2.1644059209830428E-003   5.4418965436088540E-004   6.7477992077677948E-002
  -1.9157207715755492E-003   4.7502032849622289E-004   6.8203310555068009E-002
  -5.8371902265888613E-003   1.5451342170043070E-003   6.5594928239573524E-002
  -5.3456840840910708E-003   1.3850292883987037E-003   6.5563569099827995E-002
  -4.8541779415932802E-003   1.2322531944110038E-003   6.5774177511028459E-002
  -4.3626717990954758E-003   1.0868059350407633E-003   6.6226753473175054E-002
  -3.8711656565976853E-003   9.4868751028809317E-004   6.6921296986267725E-002
  -8.7934886210464698E-003   2.3253197963207795E-003   6.4338902955526384E-002
  -8.0608683697468379E-003   2.0809047678407439E-003   6.4287009838010972E-002
  -7.3282481184472033E-003   1.8489389076407070E-003   6.4475377387153324E-002
  -6.5956278671475705E-003   1.6294222157205579E-003   6.4904005602953174E-002
  -5.8630076158479377E-003   1.4223546920801855E-003   6.5572894485410815E-002
  -1.1779356552578293E-002   3.1055053756373630E-003   6.2996007404773402E-002
  -1.0807329076765293E-002   2.7767802472828951E-003   6.2928700643150703E-002
  -9.8353016009523064E-003   2.4656246208707155E-003   6.3099947663897094E-002
  -8.8632741251393060E-003   2.1720384964006231E-003   6.3509748467012572E-002
  -7.8912466493263195E-003   1.8960218738722778E-003   6.4158103052497140E-002
   3.3270392184314712E-006   1.3531467040195366E-006   6.9418935191811748E-002
   2.1622378360217076E-006   1.1048190584617146E-008   6.9242809662282245E-002
   9.9743645361541344E-007  -6.6296068829130306E-007   6.9285148163385379E-002
  -1.6736492878741127E-007  -6.6887993287190195E-007   6.9545950695121428E-002
  -1.3321663112006443E-006  -6.7095432543240463E-009   7.0025217257490446E-002
  -1.9157207715755492E-003   4.7502032849622289E-004   6.8203310555068009E-002
  -1.6946365612213153E-003   4.2101997453636297E-004   6.8008971698658827E-002
  -1.4735523508670727E-003   3.9514906343224299E-004   6.8040666835090191E-002
  -1.2524681405128276E-003   3.9740759518284985E-004   6.8298395964362046E-002
  -1.0313839301585824E-003   4.2779556978878031E-004   6.8782159086474060E-002
  -3.8711656565976853E-003   9.4868751028809317E-004   6.6921296986267725E-002
  -3.4202624722991792E-003   8.4202890088236337E-004   6.6736206156199906E-002
  -2.9693592880006749E-003   7.9096108755241645E-004   6.6784719281179988E-002
  -2.5184561037021767E-003   7.9548407029867568E-004   6.7066836361208124E-002
  -2.0675529194036646E-003   8.5559784912075942E-004   6.7582557396284437E-002
  -5.8630076158479377E-003   1.4223546920801855E-003   6.5572894485410815E-002
  -5.1747154953975631E-003   1.2630378272281417E-003   6.5424513034904860E-002
  -4.4864233749471964E-003   1.1867731116728258E-003   6.5517305501654716E-002
  -3.7981312544968287E-003   1.1935605454143940E-003   6.5851271885660284E-002
  -3.1098391340464542E-003   1.2834001284525443E-003   6.6426412186921385E-002
  -7.8912466493263195E-003   1.8960218738722778E-003   6.4158103052497140E-002
  -6.9579956305164878E-003   1.6840467535740866E-003   6.4073892334774118E-002
  -6.0247446117066318E-003   1.5825851357930687E-003   6.4238425496514484E-002
  -5.0914935928967862E-003   1.5916370205300429E-003   6.4651702537718014E-002
  -4.1582425740869441E-003   1.7112024077846621E-003   6.5313723458384820E-002
  -1.3321663112006443E-006  -6.7095432543240463E-009   7.0025217257490446E-002
  -9.2004123666833415E-007   8.0147786402084975E-007   6.8683702985603889E-002
  -5.0791616213255453E-007   1.2336096726905943E-006   6.7488403084392690E-002
  -9.5791087589836010E-008   1.2896858819361201E-006   6.6439317553856958E-002
   3.1633398693553527E-007   9.6970649232641648E-007   6.5536446393996806E-002
  -1.0313839301585824E-003   4.2779556978878031E-004   6.8782159086474060E-002
  -8.8819591409200482E-004   5.0124130595580185E-004   6.7459894121840502E-002
  -7.4500789802542898E-004   6.3267312239045914E-004   6.6276966568515533E-002
  -6.0181988195885227E-004   8.2209101909180848E-004   6.5233376426498832E-002
  -4.5863186589227556E-004   1.0694949960609046E-003   6.4329123695791135E-002
  -2.0675529194036646E-003   8.5559784912075942E-004   6.7582557396284437E-002
  -1.7884659717119708E-003   1.0016811340476106E-003   6.6337903874770149E-002
  -1.5093790240202623E-003   1.2641126351079779E-003   6.5225710805197151E-002
  -1.2302920763285641E-003   1.6428923523016739E-003   6.4245978187566249E-002
  -9.5120512863684607E-004   2.1380202856290942E-003   6.3398706021876611E-002
  -3.1098391340464542E-003   1.2834001284525443E-003   6.6426412186921385E-002
  -2.7017302140965472E-003   1.5021209621393500E-003   6.5317732244392454E-002
  -2.2936212941466402E-003   1.8955521478255660E-003   6.4334635794438155E-002
  -1.8855123741967398E-003   2.4636936855117648E-003   6.3477122837058766E-002
  -1.4774034542468259E-003   3.2065455751973670E-003   6.2745193372254149E-002
  -4.1582425740869441E-003   1.7112024077846621E-003   6.5313723458384820E-002
  -3.6279886412457496E-003   2.0025607902310893E-003   6.4399379230707599E-002
  -3.0977347084045551E-003   2.5269916605432374E-003   6.3603741536238212E-002
  -2.5674807755633640E-003   3.2844950187213492E-003   6.2926810374976411E-002
  -2.0372268427221660E-003   4.2750708647656399E-003   6.2368585746922722E-002
   3.1633398693553527E-007   9.6970649232641648E-007   6.5536446393996806E-002
   5.9321702314263369E-008   6.4182475467688960E-007   6.0798366598750486E-002
  -1.9769058229660019E-007   6.7419391916456739E-007   5.5940951617561574E-002
  -4.5470286691440265E-007   1.0668139866013004E-006   5.0964201450430596E-002
  -7.1171515152179676E-007   1.8196849560503381E-006   4.5868116097357969E-002
  -4.5863186589227556E-004   1.0694949960609046E-003   6.4329123695791135E-002
  -5.6398443457970210E-004   1.3950748161016824E-003   5.9621021395607821E-002
  -6.6933700326712864E-004   1.8190202420191037E-003   5.4822063168560753E-002
  -7.7468957195456906E-004   2.3413312738129535E-003   4.9932249014650015E-002
  -8.8004214064199560E-004   2.9620079114831555E-003   4.4951578933875691E-002
  -9.5120512863684607E-004   2.1380202856290942E-003   6.3398706021876611E-002
  -1.1331739946486910E-003   2.7895078074484658E-003   5.8818586571730530E-002
  -1.3151428606605212E-003   3.6373662901182519E-003   5.4176090453799439E-002
  -1.4971117266723601E-003   4.6815957336390802E-003   4.9471217668082816E-002
  -1.6790805926841963E-003   5.9221961380102606E-003   4.4703968214581558E-002
  -1.4774034542468259E-003   3.2065455751973670E-003   6.2745193372254149E-002
  -1.7075093585046195E-003   4.1839407987950272E-003   5.8391062127119454E-002
  -1.9376152627624407E-003   5.4557123382179065E-003   5.4003033473278367E-002
  -2.1677211670202449E-003   7.0218601934653197E-003   4.9581107410730019E-002
  -2.3978270712780555E-003   8.8823843645374767E-003   4.5125283939475597E-002
  -2.0372268427221660E-003   4.2750708647656399E-003   6.2368585746922722E-002
  -2.2869905261475448E-003   5.5783737901423658E-003   5.8338448061773684E-002
  -2.5367542095728994E-003   7.2740583863172281E-003   5.4302892226996469E-002
  -2.7865178929982835E-003   9.3621246532918090E-003   5.0261918242590853E-002
  -3.0362815764236328E-003   1.1842572591064471E-002   4.6215526108556393E-002
  -2.4943776268854065E-002   8.6830580073075647E-003   6.3738744892650578E-002
  -2.4181106586725815E-002   7.7789800427653100E-003   6.2763899249915989E-002
  -2.3418436904597564E-002   7.0968355209986150E-003   6.2149621174802244E-002
  -2.2655767222469297E-002   6.6366244420074556E-003   6.1895910667309387E-002
  -2.1893097540341046E-002   6.3983468057917658E-003   6.2002767727437402E-002
  -3.1743615321359019E-002   9.9715670022054725E-003   5.9497431536538442E-002
  -3.0646981022382887E-002   9.3246868322940379E-003   5.8908152304746220E-002
  -2.9550346723406788E-002   8.7968904583343999E-003   5.8626234739028546E-002
  -2.8453712424430663E-002   8.3881778803266763E-003   5.8651678839385858E-002
  -2.7357078125454560E-002   8.0985490982707908E-003   5.8984484605818094E-002
  -3.8301793631512510E-002   1.1260075997103353E-002   5.5564740798469361E-002
  -3.6924400617234523E-002   1.0870393621822724E-002   5.5258178330795299E-002
  -3.5547007602956551E-002   1.0496945395670261E-002   5.5205771627650203E-002
  -3.4169614588678565E-002   1.0139731318645951E-002   5.5407520689033901E-002
  -3.2792221574400593E-002   9.7987513907497603E-003   5.5863425514946552E-002
  -4.4618311199314552E-002   1.2548584992001247E-002   5.1940672678442726E-002
  -4.3013365371280740E-002   1.2416100411351459E-002   5.1813977328063469E-002
  -4.1408419543246838E-002   1.2197000333006140E-002   5.1888231840667091E-002
  -3.9803473715213013E-002   1.1891284756965225E-002   5.2163436216253578E-002
  -3.8198527887179187E-002   1.1498953683228730E-002   5.2639590454822957E-002
  -5.0693168024765145E-002   1.3837093986899140E-002   4.8625227176458785E-002
  -4.8913875284521402E-002   1.3961807200880083E-002   4.8575549296550613E-002
  -4.7134582544277728E-002   1.3897055270341879E-002   4.8673615378079182E-002
  -4.5355289804033992E-002   1.3642838195284453E-002   4.8919425421044715E-002
  -4.3575997063790298E-002   1.3199155975707699E-002   4.9312979425447157E-002
  -2.1893097540341046E-002   6.3983468057917658E-003   6.2002767727437402E-002
  -2.1125424834020669E-002   6.2489624499147411E-003   6.1759448471431999E-002
  -2.0357752127700308E-002   6.0554312119395770E-003   6.1707225558815498E-002
  -1.9590079421379945E-002   5.8177530918662040E-003   6.1846098989587817E-002
  -1.8822406715059567E-002   5.5359280896944418E-003   6.2176068763749148E-002
  -2.7357078125454560E-002   8.0985490982707908E-003   5.8984484605818094E-002
  -2.6402193791738401E-002   7.8533563950208274E-003   5.8728938509767903E-002
  -2.5447309458022267E-002   7.5779520534307726E-003   5.8656719325120343E-002
  -2.4492425124306130E-002   7.2723360735006716E-003   5.8767827051875360E-002
  -2.3537540790590002E-002   6.9365084552305833E-003   5.9062261690033063E-002
  -3.2792221574400593E-002   9.7987513907497603E-003   5.5863425514946552E-002
  -3.1657895045274942E-002   9.4577503401267193E-003   5.5609587822609705E-002
  -3.0523568516149291E-002   9.1004728949218572E-003   5.5531307609689329E-002
  -2.9389241987023650E-002   8.7269190551352502E-003   5.5628584876185314E-002
  -2.8254915457897989E-002   8.3370888207667526E-003   5.5901419622097714E-002
  -3.8198527887179187E-002   1.1498953683228730E-002   5.2639590454822957E-002
  -3.6892528594630235E-002   1.1062144285232597E-002   5.2401396409957710E-002
  -3.5586529302081345E-002   1.0622993736412970E-002   5.2330990412522739E-002
  -3.4280530009532406E-002   1.0181502036769829E-002   5.2428372462517803E-002
  -3.2974530716983502E-002   9.7376691863028525E-003   5.2693542559943018E-002
  -4.3575997063790298E-002   1.3199155975707699E-002   4.9312979425447157E-002
  -4.2106094439804370E-002   1.2666538230338642E-002   4.9104364271811834E-002
  -4.0636191815818436E-002   1.2145514577904165E-002   4.9055767733620304E-002
  -3.9166289191832529E-002   1.1636085018404303E-002   4.9167189810872841E-002
  -3.7696386567846574E-002   1.1138249551839063E-002   4.9438630503569170E-002
  -1.8822406715059567E-002   5.5359280896944418E-003   6.2176068763749148E-002
  -1.7927929057322219E-002   5.2341542622210413E-003   6.1885585945154309E-002
  -1.7033451399584870E-002   4.9366296662426423E-003   6.1814779113713414E-002
  -1.6138973741847522E-002   4.6433543017590784E-003   6.1963648269426463E-002
  -1.5244496084110173E-002   4.3543281687705160E-003   6.2332193412293513E-002
  -2.3537540790590002E-002   6.9365084552305833E-003   5.9062261690033063E-002
  -2.2426908020756583E-002   6.5844841212072680E-003   5.8767051123767178E-002
  -2.1316275250923125E-002   6.2302779940179021E-003   5.8684474794539407E-002
  -2.0205642481089706E-002   5.8738900736622982E-003   5.8814532702349979E-002
  -1.9095009711256241E-002   5.5153203601404077E-003   5.9157224847198597E-002
  -2.8254915457897989E-002   8.3370888207667526E-003   5.5901419622097714E-002
  -2.6935169326084214E-002   7.9348139801936196E-003   5.5595050283499606E-002
  -2.5615423194270417E-002   7.5239263217932728E-003   5.5494273431823893E-002
  -2.4295677062456656E-002   7.1044258455654069E-003   5.5599089067070770E-002
  -2.2975930930642843E-002   6.6763125515103272E-003   5.5909497189240029E-002
  -3.2974530716983502E-002   9.7376691863028525E-003   5.2693542559943018E-002
  -3.1452712973305125E-002   9.2851438391799365E-003   5.2369583424351544E-002
  -2.9930895229626733E-002   8.8175746495686991E-003   5.2244175025566733E-002
  -2.8409077485948380E-002   8.3349616174686267E-003   5.2317317363588758E-002
  -2.6887259742269999E-002   7.8373047428802328E-003   5.2589010438417447E-002
  -3.7696386567846574E-002   1.1138249551839063E-002   4.9438630503569170E-002
  -3.5979538962419344E-002   1.0635473698166253E-002   4.9090650546323167E-002
  -3.4262691356992100E-002   1.0111222977343973E-002   4.8934179575768094E-002
  -3.2545843751564871E-002   9.5654973893717528E-003   4.8969217591904105E-002
  -3.0828996146137627E-002   8.9982969342501939E-003   4.9195764594731128E-002
  -1.5244496084110173E-002   4.3543281687705160E-003   6.2332193412293513E-002
  -1.4378211201227207E-002   4.0611006062686861E-003   6.2185150486304686E-002
  -1.3511926318344233E-002   3.7552209532462216E-003   6.2246771843055076E-002
  -1.2645641435461253E-002   3.4366892097023351E-003   6.2517057482544783E-002
  -1.1779356552578293E-002   3.1055053756373630E-003   6.2996007404773402E-002
  -1.9095009711256241E-002   5.5153203601404077E-003   5.9157224847198597E-002
  -1.8023177149584780E-002   5.1507775374551035E-003   5.8965449467177938E-002
  -1.6951344587913302E-002   4.7764702896095773E-003   5.8976105161994891E-002
  -1.5879512026241806E-002   4.3923986166037286E-003   5.9189191931649635E-002
  -1.4807679464570327E-002   3.9985625184372209E-003   5.9604709776142295E-002
  -2.2975930930642843E-002   6.6763125515103272E-003   5.5909497189240029E-002
  -2.1704783898084286E-002   6.2404544686416041E-003   5.5675877020547979E-002
  -2.0433636865525705E-002   5.7977196259731481E-003   5.5638454718792259E-002
  -1.9162489832967131E-002   5.3481080235052315E-003   5.5797230283972946E-002
  -1.7891342800408560E-002   4.8916196612372453E-003   5.6152203716090088E-002
  -2.6887259742269999E-002   7.8373047428802328E-003   5.2589010438417447E-002
  -2.5423031446725756E-002   7.3301313998279521E-003   5.2316433146414917E-002
  -2.3958803151181509E-002   6.8189689623368334E-003   5.2233820513447118E-002
  -2.2494574855637280E-002   6.3038174304066242E-003   5.2341172539514348E-002
  -2.1030346560093022E-002   5.7846768040372976E-003   5.2638489224616773E-002
  -3.0828996146137627E-002   8.9982969342501939E-003   4.9195764594731128E-002
  -2.9177919795509127E-002   8.4198083310145222E-003   4.8887117844778616E-002
  -2.7526843444880641E-002   7.8402182987002550E-003   4.8762202545959560E-002
  -2.5875767094252149E-002   7.2595268373082007E-003   4.8821018698274030E-002
  -2.4224690743623656E-002   6.6777339468371277E-003   4.9063566301722039E-002
  -1.1779356552578293E-002   3.1055053756373630E-003   6.2996007404773402E-002
  -1.0807329076765293E-002   2.7767802472828951E-003   6.2928700643150703E-002
  -9.8353016009523064E-003   2.4656246208707155E-003   6.3099947663897094E-002
  -8.8632741251393060E-003   2.1720384964006231E-003   6.3509748467012572E-002
  -7.8912466493263195E-003   1.8960218738722778E-003   6.4158103052497140E-002
  -1.4807679464570327E-002   3.9985625184372209E-003   5.9604709776142295E-002
  -1.3605380776438487E-002   3.6051002930396203E-003   5.9487820856942930E-002
  -1.2403082088306610E-002   3.2221502383391887E-003   5.9592920580012199E-002
  -1.1200783400174746E-002   2.8497123543363215E-003   5.9920008945349906E-002
  -9.9984847120428919E-003   2.4877866410309979E-003   6.0469085952956414E-002
  -1.7891342800408560E-002   4.8916196612372453E-003   5.6152203716090088E-002
  -1.6475338040058320E-002   4.4334203387961235E-003   5.5978675308069270E-002
  -1.5059333279708122E-002   3.9786758558076757E-003   5.6010570402216700E-002
  -1.3643328519357917E-002   3.5273862122722453E-003   5.6247888998532260E-002
  -1.2227323759007685E-002   3.0795514081897735E-003   5.6690631097015776E-002
  -2.1030346560093022E-002   5.7846768040372976E-003   5.2638489224616773E-002
  -1.9417200867624940E-002   5.2617403845527377E-003   5.2401263996530008E-002
  -1.7804055175156853E-002   4.7352014732761002E-003   5.2352897130511084E-002
  -1.6190909482688760E-002   4.2050600702081675E-003   5.2493388626559653E-002
  -1.4577763790220688E-002   3.6713161753483547E-003   5.2822738484676168E-002
  -2.4224690743623656E-002   6.6777339468371277E-003   4.9063566301722039E-002
  -2.2430969259138220E-002   6.0900604303091854E-003   4.8755586922325012E-002
  -2.0637247774652798E-002   5.4917270907446913E-003   4.8619900764895141E-002
  -1.8843526290167362E-002   4.8827339281440479E-003   4.8656507829432261E-002
  -1.7049804805681940E-002   4.2630809425072691E-003   4.8865408115936648E-002
  -7.8912466493263195E-003   1.8960218738722778E-003   6.4158103052497140E-002
  -6.9579956305164878E-003   1.6840467535740866E-003   6.4073892334774118E-002
  -6.0247446117066318E-003   1.5825851357930687E-003   6.4238425496514484E-002
  -5.0914935928967862E-003   1.5916370205300429E-003   6.4651702537718014E-002
  -4.1582425740869441E-003   1.7112024077846621E-003   6.5313723458384820E-002
  -9.9984847120428919E-003   2.4877866410309979E-003   6.0469085952956414E-002
  -8.8157691906468189E-003   2.1873129674332970E-003   6.0375447579725794E-002
  -7.6330536692507459E-003   1.9992312025535197E-003   6.0531994332204436E-002
  -6.4503381478546833E-003   1.9235413463916384E-003   6.0938726210392327E-002
  -5.2676226264585999E-003   1.9602433989476253E-003   6.1595643214289009E-002
  -1.2227323759007685E-002   3.0795514081897735E-003   5.6690631097015776E-002
  -1.0793702488779488E-002   2.6905791812927571E-003   5.6589443474478057E-002
  -9.3600812185513135E-003   2.4158772693138875E-003   5.6739882223895394E-002
  -7.9264599483231390E-003   2.2554456722532409E-003   5.7141947345267757E-002
  -6.4928386780949698E-003   2.2092843901108661E-003   5.7795638838595370E-002
  -1.4577763790220688E-002   3.6713161753483547E-003   5.2822738484676168E-002
  -1.2891795524914488E-002   3.1938453951521478E-003   5.2715880019031366E-002
  -1.1205827259608309E-002   2.8325233360742968E-003   5.2862089171587585E-002
  -9.5198589943021137E-003   2.5873499981150620E-003   5.3261365942344860E-002
  -7.8338907289959292E-003   2.4583253812739680E-003   5.3913710331302954E-002
  -1.7049804805681940E-002   4.2630809425072691E-003   4.8865408115936648E-002
  -1.5110048299051868E-002   3.6971116090113720E-003   4.8754757213385291E-002
  -1.3170291792421768E-002   3.2491694028349283E-003   4.8898615175280769E-002
  -1.1230535285791675E-002   2.9192543239763835E-003   4.9296982001623024E-002
  -9.2907787791615959E-003   2.7073663724370700E-003   4.9949857692412225E-002
  -4.1582425740869441E-003   1.7112024077846621E-003   6.5313723458384820E-002
  -3.6279886412457496E-003   2.0025607902310893E-003   6.4399379230707599E-002
  -3.0977347084045551E-003   2.5269916605432374E-003   6.3603741536238212E-002
  -2.5674807755633640E-003   3.2844950187213492E-003   6.2926810374976411E-002
  -2.0372268427221660E-003   4.2750708647656399E-003   6.2368585746922722E-002
  -5.2676226264585999E-003   1.9602433989476253E-003   6.1595643214289009E-002
  -4.5926195959809443E-003   2.2163155096333043E-003   6.0871215899479414E-002
  -3.9176165655032437E-003   2.7987358278600827E-003   6.0317580246734837E-002
  -3.2426135350255951E-003   3.7075043536278288E-003   5.9934736256055415E-002
  -2.5676105045479153E-003   4.9426210869371046E-003   5.9722683927440956E-002
  -6.4928386780949698E-003   2.2092843901108661E-003   5.7795638838595370E-002
  -5.6210014211234855E-003   2.4300702290359077E-003   5.7354404156328170E-002
  -4.7491641641519994E-003   3.0704799951768308E-003   5.7136046264983739E-002
  -3.8773269071805281E-003   4.1305136885345338E-003   5.7140565164561639E-002
  -3.0054896502090308E-003   5.6101713091084582E-003   5.7367960855061850E-002
  -7.8338907289959292E-003   2.4583253812739680E-003   5.3913710331302954E-002
  -6.7131341166733402E-003   2.6438249484379839E-003   5.3848944001253805E-002
  -5.5923775043507521E-003   3.3422241624939605E-003   5.4059139590984573E-002
  -4.4716208920281553E-003   4.5535230234413481E-003   5.4544297100495104E-002
  -3.3508642797055745E-003   6.2777215312798673E-003   5.5304416529785211E-002
  -9.2907787791615959E-003   2.7073663724370700E-003   4.9949857692412225E-002
  -7.8690176826305969E-003   2.8575796678406151E-003   5.0354835434256451E-002
  -6.4472565860995423E-003   3.6139683298104797E-003   5.1086860224737518E-002
  -5.0254954895685086E-003   4.9765323583475102E-003   5.2145932063855760E-002
  -3.6037343930374888E-003   6.9452717534512765E-003   5.3532050951611065E-002
  -2.0372268427221660E-003   4.2750708647656399E-003   6.2368585746922722E-002
  -2.2869905261475448E-003   5.5783737901423658E-003   5.8338448061773684E-002
  -2.5367542095728994E-003   7.2740583863172281E-003   5.4302892226996469E-002
  -2.7865178929982835E-003   9.3621246532918090E-003   5.0261918242590853E-002
  -3.0362815764236328E-003   1.1842572591064471E-002   4.6215526108556393E-002
  -2.5676105045479153E-003   4.9426210869371046E-003   5.9722683927440956E-002
  -2.8402889675012248E-003   6.5676106129187173E-003   5.6190443652858302E-002
  -3.1129674304545812E-003   8.6459975167041125E-003   5.2617791968848249E-002
  -3.3856458934078465E-003   1.1177781798294199E-002   4.9004728875410658E-002
  -3.6583243563612436E-003   1.4162963457687638E-002   4.5351254372544947E-002
  -3.0054896502090308E-003   5.6101713091084582E-003   5.7367960855061850E-002
  -3.3360761524895664E-003   7.5568474356951243E-003   5.4394633698051087E-002
  -3.6666626547700995E-003   1.0017936647091108E-002   5.1345901871813232E-002
  -3.9972491570506325E-003   1.2993438943296312E-002   4.8221765376348619E-002
  -4.3278356593311681E-003   1.6483354324310584E-002   4.5022224211657136E-002
  -3.3508642797055745E-003   6.2777215312798673E-003   5.5304416529785211E-002
  -3.7743520811125341E-003   8.5460842584718366E-003   5.2951018197351048E-002
  -4.1978398825195341E-003   1.1389875777477715E-002   5.0487221935890850E-002
  -4.6213276839264239E-003   1.4809096088298675E-002   4.7913027745404450E-002
  -5.0448154853334672E-003   1.8803745190933752E-002   4.5228435625892155E-002
  -3.6037343930374888E-003   6.9452717534512765E-003   5.3532050951611065E-002
  -4.1551167533701305E-003   9.5353210812481048E-003   5.1859597150759162E-002
  -4.7064991137027862E-003   1.2761814907864877E-002   5.0041752161081421E-002
  -5.2578814740354696E-003   1.6624753233300787E-002   4.8078515982579284E-002
  -5.8092638343680836E-003   2.1124136057556697E-002   4.5969888615251087E-002
  -5.0693168024765145E-002   1.3837093986899140E-002   4.8625227176458785E-002
  -4.8913875284521402E-002   1.3961807200880083E-002   4.8575549296550613E-002
  -4.7134582544277728E-002   1.3897055270341879E-002   4.8673615378079182E-002
  -4.5355289804033992E-002   1.3642838195284453E-002   4.8919425421044715E-002
  -4.3575997063790298E-002   1.3199155975707699E-002   4.9312979425447157E-002
  -5.6713663920013771E-002   1.6289974463864099E-002   4.4535927725803282E-002
  -5.4773389885702545E-002   1.6076057457485998E-002   4.4220741206314917E-002
  -5.2833115851391395E-002   1.5759991415100510E-002   4.4079773313524556E-002
  -5.0892841817080231E-002   1.5341776336707587E-002   4.4113024047432225E-002
  -4.8952567782769095E-002   1.4821412222307345E-002   4.4320493408037925E-002
  -6.2867098697209578E-002   1.8742854940829001E-002   4.0064340000532633E-002
  -6.0739368703569982E-002   1.8190307714091830E-002   3.9570960949976142E-002
  -5.8611638709930122E-002   1.7622927559859045E-002   3.9278275191378553E-002
  -5.6483908716290464E-002   1.7040714478130718E-002   3.9186282724740250E-002
  -5.4356178722650680E-002   1.6443668468906852E-002   3.9294983550061086E-002
  -6.9153472356353080E-002   2.1195735417793932E-002   3.5210464000647181E-002
  -6.6811811738123561E-002   2.0304557970697593E-002   3.4626208527534043E-002
  -6.4470151119894070E-002   1.9485863704617641E-002   3.4269121011641215E-002
  -6.2128490501664572E-002   1.8739652619553931E-002   3.4139201452968691E-002
  -5.9786829883435075E-002   1.8065924715506401E-002   3.4236449851516582E-002
  -7.5572784897443790E-002   2.3648615894758862E-002   2.9974299726146514E-002
  -7.2990718989363434E-002   2.2418808227303466E-002   2.9386483938988850E-002
  -7.0408653081283051E-002   2.1348799849376154E-002   2.9052310774312584E-002
  -6.7826587173202654E-002   2.0438590760976968E-002   2.8971780232117800E-002
  -6.5244521265122285E-002   1.9688180962106006E-002   2.9144892312404413E-002
  -4.3575997063790298E-002   1.3199155975707699E-002   4.9312979425447157E-002
  -4.2106094439804370E-002   1.2666538230338642E-002   4.9104364271811834E-002
  -4.0636191815818436E-002   1.2145514577904165E-002   4.9055767733620304E-002
  -3.9166289191832529E-002   1.1636085018404303E-002   4.9167189810872841E-002
  -3.7696386567846574E-002   1.1138249551839063E-002   4.9438630503569170E-002
  -4.8952567782769095E-002   1.4821412222307345E-002   4.4320493408037925E-002
  -4.7319647950463742E-002   1.4252262480725433E-002   4.4095922563664916E-002
  -4.5686728118158410E-002   1.3687690520788352E-002   4.4037367520486842E-002
  -4.4053808285853070E-002   1.3127696342496031E-002   4.4144828278503648E-002
  -4.2420888453547773E-002   1.2572279945848086E-002   4.4418304837715472E-002
  -5.4356178722650680E-002   1.6443668468906852E-002   3.9294983550061086E-002
  -5.2554244496274903E-002   1.5837986731112502E-002   3.9047440703660334E-002
  -5.0752310269899105E-002   1.5229866463672817E-002   3.8971910844205676E-002
  -4.8950376043523286E-002   1.4619307666587481E-002   3.9068393971696994E-002
  -4.7148441817147474E-002   1.4006310339856942E-002   3.9336890086134238E-002
  -5.9786829883435075E-002   1.8065924715506401E-002   3.4236449851516582E-002
  -5.7809884077237743E-002   1.7423710981499405E-002   3.3958918691798200E-002
  -5.5832938271040439E-002   1.6772042406557088E-002   3.3859397704776847E-002
  -5.3855992464843142E-002   1.6110918990679179E-002   3.3937886890452462E-002
  -5.1879046658645796E-002   1.5440340733865854E-002   3.4194386248825176E-002
  -6.5244521265122285E-002   1.9688180962106006E-002   2.9144892312404413E-002
  -6.3086566693352414E-002   1.9009435231886362E-002   2.8830356528078277E-002
  -6.0928612121582529E-002   1.8314218349441483E-002   2.8699828102200342E-002
  -5.8770657549812637E-002   1.7602530314770635E-002   2.8753307034770414E-002
  -5.6612702978042745E-002   1.6874371127874821E-002   2.8990793325788633E-002
  -3.7696386567846574E-002   1.1138249551839063E-002   4.9438630503569170E-002
  -3.5979538962419344E-002   1.0635473698166253E-002   4.9090650546323167E-002
  -3.4262691356992100E-002   1.0111222977343973E-002   4.8934179575768094E-002
  -3.2545843751564871E-002   9.5654973893717528E-003   4.8969217591904105E-002
  -3.0828996146137627E-002   8.9982969342501939E-003   4.9195764594731128E-002
  -4.2420888453547773E-002   1.2572279945848086E-002   4.4418304837715472E-002
  -4.0512934362537223E-002   1.2012226734214260E-002   4.4049207762080322E-002
  -3.8604980271526666E-002   1.1438322110964350E-002   4.3870814670920660E-002
  -3.6697026180516096E-002   1.0850566076098092E-002   4.3883125564236722E-002
  -3.4789072089505602E-002   1.0248958629615779E-002   4.4086140442028299E-002
  -4.7148441817147474E-002   1.4006310339856942E-002   3.9336890086134238E-002
  -4.5050186242769061E-002   1.3388979770262238E-002   3.8954299347643218E-002
  -4.2951930668390585E-002   1.2765421244584720E-002   3.8761607591412513E-002
  -4.0853675094012096E-002   1.2135634762824430E-002   3.8758814817441936E-002
  -3.8755419519633634E-002   1.1499620324981447E-002   3.8945921025731647E-002
  -5.1879046658645796E-002   1.5440340733865854E-002   3.4194386248825176E-002
  -4.9591294603114830E-002   1.4765732806310314E-002   3.3805925303011811E-002
  -4.7303542547583871E-002   1.4092520378205204E-002   3.3606558337243429E-002
  -4.5015790492052843E-002   1.3420703449550934E-002   3.3596285351519768E-002
  -4.2728038436521891E-002   1.2750282020347017E-002   3.3775106345840814E-002
  -5.6612702978042745E-002   1.6874371127874821E-002   2.8990793325788633E-002
  -5.4136259443574614E-002   1.6142485842358167E-002   2.8604085628186338E-002
  -5.1659815909106496E-002   1.5419619511825536E-002   2.8405666908413646E-002
  -4.9183372374638386E-002   1.4705772136277013E-002   2.8395537166470100E-002
  -4.6706928840170248E-002   1.4000943715712755E-002   2.8573696402356241E-002
  -3.0828996146137627E-002   8.9982969342501939E-003   4.9195764594731128E-002
  -2.9177919795509127E-002   8.4198083310145222E-003   4.8887117844778616E-002
  -2.7526843444880641E-002   7.8402182987002550E-003   4.8762202545959560E-002
  -2.5875767094252149E-002   7.2595268373082007E-003   4.8821018698274030E-002
  -2.4224690743623656E-002   6.6777339468371277E-003   4.9063566301722039E-002
  -3.4789072089505602E-002   1.0248958629615779E-002   4.4086140442028299E-002
  -3.2961428841486659E-002   9.6367646651354666E-003   4.3759846124843627E-002
  -3.1133785593467710E-002   9.0172490762755464E-003   4.3602954151306161E-002
  -2.9306142345448812E-002   8.3904118630360736E-003   4.3615464521415945E-002
  -2.7478499097429873E-002   7.7562530254167705E-003   4.3797377235173296E-002
  -3.8755419519633634E-002   1.1499620324981447E-002   3.8945921025731647E-002
  -3.6765538481710519E-002   1.0853720999256522E-002   3.8595758946013276E-002
  -3.4775657443787328E-002   1.0194279853850664E-002   3.8400670102456090E-002
  -3.2785776405864206E-002   9.5212968887640557E-003   3.8360654495060098E-002
  -3.0795895367941015E-002   8.8347721039961913E-003   3.8475712123825112E-002
  -4.2728038436521891E-002   1.2750282020347017E-002   3.3775106345840814E-002
  -4.0590248716180707E-002   1.2070677333377577E-002   3.3394856308287729E-002
  -3.8452458995839496E-002   1.1371310631425869E-002   3.3155350399409672E-002
  -3.6314669275498333E-002   1.0652181914491982E-002   3.3056588619206392E-002
  -3.4176879555157066E-002   9.9132911825756120E-003   3.3098570967678112E-002
  -4.6706928840170248E-002   1.4000943715712755E-002   2.8573696402356241E-002
  -4.4435559544897224E-002   1.3287633667498633E-002   2.8157138211667099E-002
  -4.2164190249624173E-002   1.2548341409000921E-002   2.7866995042166526E-002
  -3.9892820954351163E-002   1.1783066940220122E-002   2.7703266893854814E-002
  -3.7621451659078153E-002   1.0991810261155144E-002   2.7665953766731866E-002
  -2.4224690743623656E-002   6.6777339468371277E-003   4.9063566301722039E-002
  -2.2430969259138220E-002   6.0900604303091854E-003   4.8755586922325012E-002
  -2.0637247774652798E-002   5.4917270907446913E-003   4.8619900764895141E-002
  -1.8843526290167362E-002   4.8827339281440479E-003   4.8656507829432261E-002
  -1.7049804805681940E-002   4.2630809425072691E-003   4.8865408115936648E-002
  -2.7478499097429873E-002   7.7562530254167705E-003   4.3797377235173296E-002
  -2.5518062454923399E-002   7.1182934692270994E-003   4.3414762057226608E-002
  -2.3557625812416896E-002   6.4800541002766193E-003   4.3193283973354896E-002
  -2.1597189169910411E-002   5.8415349185650355E-003   4.3132942983558228E-002
  -1.9636752527403920E-002   5.2027359240924831E-003   4.3233739087836620E-002
  -3.0795895367941015E-002   8.8347721039961913E-003   3.8475712123825112E-002
  -2.8679899695305582E-002   8.1465265081450966E-003   3.8028841157604035E-002
  -2.6563904022670094E-002   7.4683811098082142E-003   3.7731951157565974E-002
  -2.4447908350034662E-002   6.8003359089857454E-003   3.7585042123710846E-002
  -2.2331912677399174E-002   6.1423909056773640E-003   3.7588114056038680E-002
  -3.4176879555157066E-002   9.9132911825756120E-003   3.3098570967678112E-002
  -3.1916480980284774E-002   9.1747595470632742E-003   3.2597824223457944E-002
  -2.9656082405412405E-002   8.4567081193403643E-003   3.2235902317528549E-002
  -2.7395683830540050E-002   7.7591368994065942E-003   3.2012805249890169E-002
  -2.5135285255667751E-002   7.0820458872623560E-003   3.1928533020542327E-002
  -3.7621451659078153E-002   1.0991810261155144E-002   2.7665953766731866E-002
  -3.5227806309860971E-002   1.0202992585980897E-002   2.7121711254787850E-002
  -3.2834160960643816E-002   9.4450351288717926E-003   2.6705137453242489E-002
  -3.0440515611426647E-002   8.7179378898274568E-003   2.6416232362095921E-002
  -2.8046870262209506E-002   8.0217008688474589E-003   2.6254995981348284E-002
  -1.7049804805681940E-002   4.2630809425072691E-003   4.8865408115936648E-002
  -1.5110048299051868E-002   3.6971116090113720E-003   4.8754757213385291E-002
  -1.3170291792421768E-002   3.2491694028349283E-003   4.8898615175280769E-002
  -1.1230535285791675E-002   2.9192543239763835E-003   4.9296982001623024E-002
  -9.2907787791615959E-003   2.7073663724370700E-003   4.9949857692412225E-002
  -1.9636752527403920E-002   5.2027359240924831E-003   4.3233739087836620E-002
  -1.7480951201164191E-002   4.6004694837595284E-003   4.3072097736354509E-002
  -1.5325149874924546E-002   4.0715479644673480E-003   4.3088037159644682E-002
  -1.3169348548684831E-002   3.6159713662153453E-003   4.3281557357707320E-002
  -1.1013547222445172E-002   3.2337396890042003E-003   4.3652658330542216E-002
  -2.2331912677399174E-002   6.1423909056773640E-003   3.7588114056038680E-002
  -2.0036994621224297E-002   5.5038273585071573E-003   3.7330800049347301E-002
  -1.7742076565049492E-002   4.8939265260997677E-003   3.7174138727754102E-002
  -1.5447158508874665E-002   4.3126884084541961E-003   3.7118130091258889E-002
  -1.3152240452699811E-002   3.7601130055712195E-003   3.7162774139861410E-002
  -2.5135285255667751E-002   7.0820458872623560E-003   3.1928533020542327E-002
  -2.2778178559232136E-002   6.4071852332552165E-003   3.1530864152364058E-002
  -2.0421071862796628E-002   5.7163050877318544E-003   3.1156919879609023E-002
  -1.8063965166361069E-002   5.0094054506928248E-003   3.0806700202277652E-002
  -1.5706858469925561E-002   4.2864863221382388E-003   3.0480205120369572E-002
  -2.8046870262209506E-002   8.0217008688474589E-003   2.6254995981348284E-002
  -2.5704503015187730E-002   7.3105431080028871E-003   2.5672290045404500E-002
  -2.3362135768165967E-002   6.5386836493646350E-003   2.5036380615209353E-002
  -2.1019768521144240E-002   5.7061224929319046E-003   2.4347267690763535E-002
  -1.8677401274122429E-002   4.8128596387052580E-003   2.3604951272066743E-002
  -9.2907787791615959E-003   2.7073663724370700E-003   4.9949857692412225E-002
  -7.8690176826305969E-003   2.8575796678406151E-003   5.0354835434256451E-002
  -6.4472565860995423E-003   3.6139683298104797E-003   5.1086860224737518E-002
  -5.0254954895685086E-003   4.9765323583475102E-003   5.2145932063855760E-002
  -3.6037343930374888E-003   6.9452717534512765E-003   5.3532050951611065E-002
  -1.1013547222445172E-002   3.2337396890042003E-003   4.3652658330542216E-002
  -9.2464019985446649E-003   3.1630305157689942E-003   4.4237986090886749E-002
  -7.4792567746441926E-003   3.6420214294457520E-003   4.5187035057333069E-002
  -5.7121115507436752E-003   4.6707124300340991E-003   4.6499805229881286E-002
  -3.9449663268432134E-003   6.2491035175341603E-003   4.8176296608531288E-002
  -1.3152240452699811E-002   3.7601130055712195E-003   3.7162774139861410E-002
  -1.1003036943965164E-002   3.4684813636975398E-003   3.7871976639051314E-002
  -8.8538334352304612E-003   3.6700745290806636E-003   3.8981574501807892E-002
  -6.7046299264957882E-003   4.3648925017202370E-003   4.0491567728130923E-002
  -4.5554264177610562E-003   5.5529352816166000E-003   4.2401956318020628E-002
  -1.5706858469925561E-002   4.2864863221382388E-003   3.0480205120369572E-002
  -1.3138922518892026E-002   3.7739322116261131E-003   3.1256807078749713E-002
  -1.0570986567858407E-002   3.6981276287158110E-003   3.2470478558161389E-002
  -8.0030506168247487E-003   4.0590725734068224E-003   3.4121219558604088E-002
  -5.4351146657912550E-003   4.8567670456995948E-003   3.6209030080078031E-002
  -1.8677401274122429E-002   4.8128596387052580E-003   2.3604951272066743E-002
  -1.5654058723325204E-002   4.0793830595544089E-003   2.4392477409982183E-002
  -1.2630716172527950E-002   3.7261807283507642E-003   2.5653747226393742E-002
  -9.6073736217307110E-003   3.7532526450928319E-003   2.7388760721301419E-002
  -6.5840310709334715E-003   4.1605988097819235E-003   2.9597517894704994E-002
  -3.6037343930374888E-003   6.9452717534512765E-003   5.3532050951611065E-002
  -4.1551167533701305E-003   9.5353210812481048E-003   5.1859597150759162E-002
  -4.7064991137027862E-003   1.2761814907864877E-002   5.0041752161081421E-002
  -5.2578814740354696E-003   1.6624753233300787E-002   4.8078515982579284E-002
  -5.8092638343680836E-003   2.1124136057556697E-002   4.5969888615251087E-002
  -3.9449663268432134E-003   6.2491035175341603E-003   4.8176296608531288E-002
  -4.5379351209222096E-003   8.6872052736363115E-003   4.7241502280202186E-002
  -5.1309039150012753E-003   1.2295028280030845E-002   4.6368926273205768E-002
  -5.7238727090802161E-003   1.7072572536719156E-002   4.5558568587541814E-002
  -6.3168415031592262E-003   2.3019838043699226E-002   4.4810429223209880E-002
  -4.5554264177610562E-003   5.5529352816166000E-003   4.2401956318020628E-002
  -4.9823721354287087E-003   7.8390894660241850E-003   4.2738098213687348E-002
  -5.4093178530962745E-003   1.1828241652197480E-002   4.3344067940844666E-002
  -5.8362635707637500E-003   1.7520391840136970E-002   4.4219865499492500E-002
  -6.2632092884314927E-003   2.4915540029841976E-002   4.5365490889630156E-002
  -5.4351146657912550E-003   4.8567670456995948E-003   3.6209030080078031E-002
  -5.4884277968894665E-003   6.9909736584122251E-003   3.8349384951214129E-002
  -5.5417409279876796E-003   1.1361455024364114E-002   4.0967177163998558E-002
  -5.5950540590859500E-003   1.7968211143554617E-002   4.4062406718430917E-002
  -5.6483671901841059E-003   2.6811242015984615E-002   4.7635073614511803E-002
  -6.5840310709334715E-003   4.1605988097819235E-003   2.9597517894704994E-002
  -6.0561021053045228E-003   6.1428578508000431E-003   3.4075362492783090E-002
  -5.5281731396757128E-003   1.0894668396530360E-002   3.9238253942667556E-002
  -5.0002441740467918E-003   1.8416030446973167E-002   4.5086192244358225E-002
  -4.4723152084179540E-003   2.8706944002127255E-002   5.1619177397854266E-002
  -7.5572784897443790E-002   2.3648615894758862E-002   2.9974299726146514E-002
  -7.2990718989363434E-002   2.2418808227303466E-002   2.9386483938988850E-002
  -7.0408653081283051E-002   2.1348799849376154E-002   2.9052310774312584E-002
  -6.7826587173202654E-002   2.0438590760976968E-002   2.8971780232117800E-002
  -6.5244521265122285E-002   1.9688180962106006E-002   2.9144892312404413E-002
  -8.1914928353987948E-002   2.4722979276360246E-002   2.1902640038663101E-002
  -7.9111161189009099E-002   2.3825792068814244E-002   2.1668102969121361E-002
  -7.6307394024030223E-002   2.2964691636056425E-002   2.1623325790894876E-002
  -7.3503626859051430E-002   2.2139677978086931E-002   2.1768308503983966E-002
  -7.0699859694072553E-002   2.1350751094905640E-002   2.2103051108388339E-002
  -8.7969794759491390E-002   2.5797342657961631E-002   1.4225457068459180E-002
  -8.5008209068780025E-002   2.5232775910325023E-002   1.4220486201793281E-002
  -8.2046623378068811E-002   2.4580583422736724E-002   1.4341392495276842E-002
  -7.9085037687357543E-002   2.3840765195196949E-002   1.4588175948909751E-002
  -7.6123451996646219E-002   2.3013321227705219E-002   1.4960836562692120E-002
  -9.3737384113954048E-002   2.6871706039563070E-002   6.9427508155344084E-003
  -9.0681862628676349E-002   2.6639759751835829E-002   7.0436336370046856E-003
  -8.7626341143398706E-002   2.6196475209417036E-002   7.2065108874581688E-003
  -8.4570819658121035E-002   2.5541852412306717E-002   7.4313825668952983E-003
  -8.1515298172843378E-002   2.4675891360504715E-002   7.7182486753156754E-003
  -9.9217696417376100E-002   2.7946069421164399E-002   5.4521279889141461E-005
  -9.6132121868698017E-002   2.8046743593346579E-002   1.3754527475562384E-004
  -9.3046547320019934E-002   2.7812366996097349E-002   2.1868096743934973E-004
  -8.9960972771341907E-002   2.7242939629416901E-002   2.9792835794033995E-004
  -8.6875398222663880E-002   2.6338461493304433E-002   3.7528744625875410E-004
  -6.5244521265122285E-002   1.9688180962106006E-002   2.9144892312404413E-002
  -6.3086566693352414E-002   1.9009435231886362E-002   2.8830356528078277E-002
  -6.0928612121582529E-002   1.8314218349441483E-002   2.8699828102200342E-002
  -5.8770657549812637E-002   1.7602530314770635E-002   2.8753307034770414E-002
  -5.6612702978042745E-002   1.6874371127874821E-002   2.8990793325788633E-002
  -7.0699859694072553E-002   2.1350751094905640E-002   2.2103051108388339E-002
  -6.8359416566221604E-002   2.0580455087990085E-002   2.1811094560830829E-002
  -6.6018973438370571E-002   1.9811334058817784E-002   2.1700107766987498E-002
  -6.3678530310519565E-002   1.9043388007388650E-002   2.1770090726858128E-002
  -6.1338087182668574E-002   1.8276616933702972E-002   2.2021043440443006E-002
  -7.6123451996646219E-002   2.3013321227705219E-002   1.4960836562692120E-002
  -7.3603557917448104E-002   2.2151474944093807E-002   1.4709105381871881E-002
  -7.1083663838249933E-002   2.1308449768194355E-002   1.4635306350031609E-002
  -6.8563769759051832E-002   2.0484245700006606E-002   1.4739439467171645E-002
  -6.6043875679853675E-002   1.9678862739531011E-002   1.5021504733291849E-002
  -8.1515298172843378E-002   2.4675891360504715E-002   7.7182486753156754E-003
  -7.8818990747031997E-002   2.3722494800197641E-002   7.5243889912011731E-003
  -7.6122683321220672E-002   2.2805565477570709E-002   7.5054238513329059E-003
  -7.3426375895409263E-002   2.1925103392624677E-002   7.6613532557109334E-003
  -7.0730068469597937E-002   2.1081108545359079E-002   7.9921772043351803E-003
  -8.6875398222663880E-002   2.6338461493304433E-002   3.7528744625875410E-004
  -8.4005715054973285E-002   2.5293514656301419E-002   2.5694538881904094E-004
  -8.1136031887282634E-002   2.4302681186947173E-002   3.1046027089147443E-004
  -7.8266348719592038E-002   2.3365961085242540E-002   5.3583209247599559E-004
  -7.5396665551901387E-002   2.2483354351187312E-002   9.3306085357292012E-004
  -5.6612702978042745E-002   1.6874371127874821E-002   2.8990793325788633E-002
  -5.4136259443574614E-002   1.6142485842358167E-002   2.8604085628186338E-002
  -5.1659815909106496E-002   1.5419619511825536E-002   2.8405666908413646E-002
  -4.9183372374638386E-002   1.4705772136277013E-002   2.8395537166470100E-002
  -4.6706928840170248E-002   1.4000943715712755E-002   2.8573696402356241E-002
  -6.1338087182668574E-002   1.8276616933702972E-002   2.2021043440443006E-002
  -5.8673254348284160E-002   1.7510563845851229E-002   2.1658671746822872E-002
  -5.6008421513899710E-002   1.6744771751924403E-002   2.1484789675205979E-002
  -5.3343588679515289E-002   1.5979240651922674E-002   2.1499397225592201E-002
  -5.0678755845130860E-002   1.5213970545845890E-002   2.1702494397981553E-002
  -6.6043875679853675E-002   1.9678862739531011E-002   1.5021504733291849E-002
  -6.3190452901379229E-002   1.8878641849344263E-002   1.4674711082594855E-002
  -6.0337030122904728E-002   1.8069923992023375E-002   1.4516607698074620E-002
  -5.7483607344430254E-002   1.7252709167568221E-002   1.4547194579731162E-002
  -5.4630184565955794E-002   1.6426997375978775E-002   1.4766471727564776E-002
  -7.0730068469597937E-002   2.1081108545359079E-002   7.9921772043351803E-003
  -6.7687855102859754E-002   2.0246719852837144E-002   7.6522036355019737E-003
  -6.4645641736121556E-002   1.9395076232122072E-002   7.5011209770194740E-003
  -6.1603428369383310E-002   1.8526177683213550E-002   7.5389292288875675E-003
  -5.8561215002645176E-002   1.7640024206111896E-002   7.7656283911058839E-003
  -7.5396665551901387E-002   2.2483354351187312E-002   9.3306085357292012E-004
  -7.2165460952725802E-002   2.1614797856330303E-002   5.9114940554477746E-004
  -6.8934256353550105E-002   2.0720228472221158E-002   4.3832951204053616E-004
  -6.5703051754374492E-002   1.9799646198859475E-002   4.7460117306082072E-004
  -6.2471847155198823E-002   1.8853051036245017E-002   6.9996438860531196E-004
  -4.6706928840170248E-002   1.4000943715712755E-002   2.8573696402356241E-002
  -4.4435559544897224E-002   1.3287633667498633E-002   2.8157138211667099E-002
  -4.2164190249624173E-002   1.2548341409000921E-002   2.7866995042166526E-002
  -3.9892820954351163E-002   1.1783066940220122E-002   2.7703266893854814E-002
  -3.7621451659078153E-002   1.0991810261155144E-002   2.7665953766731866E-002
  -5.0678755845130860E-002   1.5213970545845890E-002   2.1702494397981553E-002
  -4.8273391526505172E-002   1.4444604832707320E-002   2.1296697284425875E-002
  -4.5868027207879532E-002   1.3666786911520096E-002   2.1032475196386763E-002
  -4.3462662889253850E-002   1.2880516782284877E-002   2.0909828133864258E-002
  -4.1057298570628203E-002   1.2085794445000853E-002   2.0928756096858236E-002
  -5.4630184565955794E-002   1.6426997375978775E-002   1.4766471727564776E-002
  -5.2075665219649681E-002   1.5601575997916062E-002   1.4388965693377859E-002
  -4.9521145873343615E-002   1.4785232414039541E-002   1.4168194689035081E-002
  -4.6966626527037522E-002   1.3977966624349686E-002   1.4104158714537015E-002
  -4.4412107180731436E-002   1.3179778628846506E-002   1.4196857769882748E-002
  -5.8561215002645176E-002   1.7640024206111896E-002   7.7656283911058839E-003
  -5.5842380624330834E-002   1.6758547163124443E-002   7.4339434385227825E-003
  -5.3123546246016472E-002   1.5903677916558740E-002   7.2741535201115131E-003
  -5.0404711867702158E-002   1.5075416466414467E-002   7.2862586358727758E-003
  -4.7685877489387775E-002   1.4273762812692187E-002   7.4702587858059000E-003
  -6.2471847155198823E-002   1.8853051036245017E-002   6.9996438860531196E-004
  -5.9573537740548410E-002   1.7915518328333158E-002   4.3163051986094825E-004
  -5.6675228325898108E-002   1.7022123419077773E-002   3.5035168961627949E-004
  -5.3776918911247723E-002   1.6172866308479653E-002   4.5612789787188857E-004
  -5.0878609496597393E-002   1.5367746996537646E-002   7.4895914462702606E-004
  -3.7621451659078153E-002   1.0991810261155144E-002   2.7665953766731866E-002
  -3.5227806309860971E-002   1.0202992585980897E-002   2.7121711254787850E-002
  -3.2834160960643816E-002   9.4450351288717926E-003   2.6705137453242489E-002
  -3.0440515611426647E-002   8.7179378898274568E-003   2.6416232362095921E-002
  -2.8046870262209506E-002   8.0217008688474589E-003   2.6254995981348284E-002
  -4.1057298570628203E-002   1.2085794445000853E-002   2.0928756096858236E-002
  -3.8545465297016690E-002   1.1294258977881722E-002   2.0478914183577723E-002
  -3.6033632023405190E-002   1.0517549459139894E-002   2.0137779408687162E-002
  -3.3521798749793739E-002   9.7556658887762264E-003   1.9905351772186552E-002
  -3.1009965476182233E-002   9.0086082667898415E-003   1.9781631274075562E-002
  -4.4412107180731436E-002   1.3179778628846506E-002   1.4196857769882748E-002
  -4.1801047554734488E-002   1.2385525369782380E-002   1.3825382185578841E-002
  -3.9189987928737541E-002   1.1590063789408217E-002   1.3543652167655990E-002
  -3.6578928302740607E-002   1.0793393887725052E-002   1.3351667716114110E-002
  -3.3967868676743639E-002   9.9955156647322241E-003   1.3249428830953175E-002
  -4.7685877489387775E-002   1.4273762812692187E-002   7.4702587858059000E-003
  -4.4994553083014296E-002   1.3476791761682455E-002   7.1611152607913807E-003
  -4.2303228676640749E-002   1.2662578119676318E-002   6.9227557301489509E-003
  -3.9611904270267194E-002   1.1831121886673849E-002   6.7551801938787182E-003
  -3.6920579863893722E-002   1.0982423062674662E-002   6.6583886519807969E-003
  -5.0878609496597393E-002   1.5367746996537646E-002   7.4895914462702606E-004
  -4.8125981881856128E-002   1.4568058153583641E-002   4.8611340921494994E-004
  -4.5373354267114863E-002   1.3735092449944475E-002   2.7509009616646929E-004
  -4.2620726652373625E-002   1.2868849885622494E-002   1.1588920548109144E-004
  -3.9868099037632332E-002   1.1969330460616767E-002   8.5107371585735336E-006
  -2.8046870262209506E-002   8.0217008688474589E-003   2.6254995981348284E-002
  -2.5704503015187730E-002   7.3105431080028871E-003   2.5672290045404500E-002
  -2.3362135768165967E-002   6.5386836493646350E-003   2.5036380615209353E-002
  -2.1019768521144240E-002   5.7061224929319046E-003   2.4347267690763535E-002
  -1.8677401274122429E-002   4.8128596387052580E-003   2.3604951272066743E-002
  -3.1009965476182233E-002   9.0086082667898415E-003   1.9781631274075562E-002
  -2.8703073255903336E-002   8.2664955849235389E-003   1.9189026936085540E-002
  -2.6396181035624508E-002   7.5194468349202570E-003   1.8578676038860681E-002
  -2.4089288815345569E-002   6.7674620167788926E-003   1.7950578582401192E-002
  -2.1782396595066728E-002   6.0105411305009238E-003   1.7304734566706725E-002
  -3.3967868676743639E-002   9.9955156647322241E-003   1.3249428830953175E-002
  -3.1660994548191421E-002   9.2224480618445515E-003   1.2702691720573561E-002
  -2.9354120419639116E-002   8.5002100204759762E-003   1.2173664985975163E-002
  -2.7047246291086818E-002   7.8288015406264323E-003   1.1662348627158640E-002
  -2.4740372162534593E-002   7.2082226222965340E-003   1.1168742644123264E-002
  -3.6920579863893722E-002   1.0982423062674662E-002   6.6583886519807969E-003
  -3.4578266892051748E-002   1.0178400538765328E-002   6.2132843988682226E-003
  -3.2235953920209934E-002   9.4809732060314802E-003   5.8213474565533101E-003
  -2.9893640948368029E-002   8.8901410644739737E-003   5.4825778250358805E-003
  -2.7551327976526149E-002   8.4059041140922275E-003   5.1969755043164492E-003
  -3.9868099037632332E-002   1.1969330460616767E-002   8.5107371585735336E-006
  -3.7454890287484610E-002   1.1134353015686105E-002  -2.7919502903051008E-004
  -3.5041681537336888E-002   1.0461736391587206E-002  -4.7827654940577058E-004
  -3.2628472787189139E-002   9.9514805883208768E-003  -5.8873382396667367E-004
  -3.0215264037041445E-002   9.6035856058878100E-003  -6.1056685271376754E-004
  -1.8677401274122429E-002   4.8128596387052580E-003   2.3604951272066743E-002
  -1.5654058723325204E-002   4.0793830595544089E-003   2.4392477409982183E-002
  -1.2630716172527950E-002   3.7261807283507642E-003   2.5653747226393742E-002
  -9.6073736217307110E-003   3.7532526450928319E-003   2.7388760721301419E-002
  -6.5840310709334715E-003   4.1605988097819235E-003   2.9597517894704994E-002
  -2.1782396595066728E-002   6.0105411305009238E-003   1.7304734566706725E-002
  -1.8554663180630968E-002   5.3429660385475031E-003   1.8251878595607895E-002
  -1.5326929766195346E-002   4.8590186033815042E-003   1.9134060673290071E-002
  -1.2099196351759628E-002   4.5586988250031074E-003   1.9951280799753154E-002
  -8.8714629373239651E-003   4.4420067034127708E-003   2.0703538974996882E-002
  -2.4740372162534593E-002   7.2082226222965340E-003   1.1168742644123264E-002
  -2.1846953514175635E-002   6.6065490175400698E-003   1.2078857972851159E-002
  -1.8953534865816662E-002   5.9918564784126743E-003   1.2385305720645320E-002
  -1.6060116217457693E-002   5.3641450049132684E-003   1.2088085887504728E-002
  -1.3166697569098787E-002   4.7234145970436181E-003   1.1187198473429916E-002
  -2.7551327976526149E-002   8.4059041140922275E-003   5.1969755043164492E-003
  -2.5530929723959150E-002   7.8701319965332334E-003   5.8734155417124248E-003
  -2.3510531471391947E-002   7.1246943534438514E-003   5.4074823684590496E-003
  -2.1490133218824869E-002   6.1695911848237087E-003   3.7991759845561451E-003
  -1.9469734966257750E-002   5.0048224906744654E-003   1.0484963900041916E-003
  -3.0215264037041445E-002   9.6035856058878100E-003  -6.1056685271376754E-004
  -2.9606591809981264E-002   9.1337149755255087E-003  -3.6444869780899447E-004
  -2.8997919582921250E-002   8.2575322284740293E-003  -1.7994093832679192E-003
  -2.8389247355861152E-002   6.9750373647336772E-003  -4.9154489090918116E-003
  -2.7780575128801055E-002   5.2862303843050906E-003  -9.7125672752806924E-003
  -6.5840310709334715E-003   4.1605988097819235E-003   2.9597517894704994E-002
  -6.0561021053045228E-003   6.1428578508000431E-003   3.4075362492783090E-002
  -5.5281731396757128E-003   1.0894668396530360E-002   3.9238253942667556E-002
  -5.0002441740467918E-003   1.8416030446973167E-002   4.5086192244358225E-002
  -4.4723152084179540E-003   2.8706944002127255E-002   5.1619177397854266E-002
  -8.8714629373239651E-003   4.4420067034127708E-003   2.0703538974996882E-002
  -7.5860751668557769E-003   5.6588932682536952E-003   2.5872533371118334E-002
  -6.3006873963875470E-003   9.3593095491710243E-003   3.1871398525112393E-002
  -5.0152996259193103E-003   1.5543255546164300E-002   3.8700134436978867E-002
  -3.7299118554511290E-003   2.4210731259233453E-002   4.6358741106718115E-002
  -1.3166697569098787E-002   4.7234145970436181E-003   1.1187198473429916E-002
  -1.0979027087724753E-002   5.1749286857073473E-003   1.6761320878958319E-002
  -8.7913566063507267E-003   7.8239507018115495E-003   2.3310137948426041E-002
  -6.6036861249768111E-003   1.2670480645355482E-002   3.0833649681832220E-002
  -4.4160156436026665E-003   1.9714518516339874E-002   3.9331856079178329E-002
  -1.9469734966257750E-002   5.0048224906744654E-003   1.0484963900041916E-003
  -1.6234957867911487E-002   4.6909641031613325E-003   6.7417250163035874E-003
  -1.3000180769565124E-002   6.2885918544517000E-003   1.3554472212608394E-002
  -9.7654036712186993E-003   9.7977057445473061E-003   2.1486737978918907E-002
  -6.5306265728724971E-003   1.5218305773446406E-002   3.0538522315234934E-002
  -2.7780575128801055E-002   5.2862303843050906E-003  -9.7125672752806924E-003
  -2.3353867507415971E-002   4.2069995206139854E-003  -4.1862542168465411E-003
  -1.8927159886030720E-002   4.7532330070924611E-003   2.6044013176602099E-003
  -1.4500452264645719E-002   6.9249308437386164E-003   1.0659399328238409E-002
  -1.0073744643260385E-002   1.0722093030552493E-002   1.9978739814889179E-002
 </DataArray>
 </PointData>
 </Piece>
 </UnstructuredGrid>
 </VTKFile>
