 <VTKFile type="UnstructuredGrid"  version="0.1"   >
 <UnstructuredGrid>
 <Piece  NumberOfPoints="          1600 "  NumberOfCells="         1024 ">
 <Points>
 <DataArray  type="Float64" NumberOfComponents="3"  format="ascii" >
   0.0000000000000000        0.0000000000000000        0.0000000000000000     
   3.1250000000000000E-002   0.0000000000000000        0.0000000000000000     
   6.2500000000000000E-002   0.0000000000000000        0.0000000000000000     
   9.3750000000000000E-002   0.0000000000000000        0.0000000000000000     
  0.12500000000000000        0.0000000000000000        0.0000000000000000     
   0.0000000000000000        3.1250000000000000E-002   0.0000000000000000     
   3.1250000000000000E-002   3.1250000000000000E-002   0.0000000000000000     
   6.2500000000000000E-002   3.1250000000000000E-002   0.0000000000000000     
   9.3750000000000000E-002   3.1250000000000000E-002   0.0000000000000000     
  0.12500000000000000        3.1250000000000000E-002   0.0000000000000000     
   0.0000000000000000        6.2500000000000000E-002   0.0000000000000000     
   3.1250000000000000E-002   6.2500000000000000E-002   0.0000000000000000     
   6.2500000000000000E-002   6.2500000000000000E-002   0.0000000000000000     
   9.3750000000000000E-002   6.2500000000000000E-002   0.0000000000000000     
  0.12500000000000000        6.2500000000000000E-002   0.0000000000000000     
   0.0000000000000000        9.3750000000000000E-002   0.0000000000000000     
   3.1250000000000000E-002   9.3750000000000000E-002   0.0000000000000000     
   6.2500000000000000E-002   9.3750000000000000E-002   0.0000000000000000     
   9.3750000000000000E-002   9.3750000000000000E-002   0.0000000000000000     
  0.12500000000000000        9.3750000000000000E-002   0.0000000000000000     
   0.0000000000000000       0.12500000000000000        0.0000000000000000     
   3.1250000000000000E-002  0.12500000000000000        0.0000000000000000     
   6.2500000000000000E-002  0.12500000000000000        0.0000000000000000     
   9.3750000000000000E-002  0.12500000000000000        0.0000000000000000     
  0.12500000000000000       0.12500000000000000        0.0000000000000000     
  0.12500000000000000        0.0000000000000000        0.0000000000000000     
  0.15625000000000000        0.0000000000000000        0.0000000000000000     
  0.18750000000000000        0.0000000000000000        0.0000000000000000     
  0.21875000000000000        0.0000000000000000        0.0000000000000000     
  0.25000000000000000        0.0000000000000000        0.0000000000000000     
  0.12500000000000000        3.1250000000000000E-002   0.0000000000000000     
  0.15625000000000000        3.1250000000000000E-002   0.0000000000000000     
  0.18750000000000000        3.1250000000000000E-002   0.0000000000000000     
  0.21875000000000000        3.1250000000000000E-002   0.0000000000000000     
  0.25000000000000000        3.1250000000000000E-002   0.0000000000000000     
  0.12500000000000000        6.2500000000000000E-002   0.0000000000000000     
  0.15625000000000000        6.2500000000000000E-002   0.0000000000000000     
  0.18750000000000000        6.2500000000000000E-002   0.0000000000000000     
  0.21875000000000000        6.2500000000000000E-002   0.0000000000000000     
  0.25000000000000000        6.2500000000000000E-002   0.0000000000000000     
  0.12500000000000000        9.3750000000000000E-002   0.0000000000000000     
  0.15625000000000000        9.3750000000000000E-002   0.0000000000000000     
  0.18750000000000000        9.3750000000000000E-002   0.0000000000000000     
  0.21875000000000000        9.3750000000000000E-002   0.0000000000000000     
  0.25000000000000000        9.3750000000000000E-002   0.0000000000000000     
  0.12500000000000000       0.12500000000000000        0.0000000000000000     
  0.15625000000000000       0.12500000000000000        0.0000000000000000     
  0.18750000000000000       0.12500000000000000        0.0000000000000000     
  0.21875000000000000       0.12500000000000000        0.0000000000000000     
  0.25000000000000000       0.12500000000000000        0.0000000000000000     
  0.25000000000000000        0.0000000000000000        0.0000000000000000     
  0.28125000000000000        0.0000000000000000        0.0000000000000000     
  0.31250000000000000        0.0000000000000000        0.0000000000000000     
  0.34375000000000000        0.0000000000000000        0.0000000000000000     
  0.37500000000000000        0.0000000000000000        0.0000000000000000     
  0.25000000000000000        3.1250000000000000E-002   0.0000000000000000     
  0.28125000000000000        3.1250000000000000E-002   0.0000000000000000     
  0.31250000000000000        3.1250000000000000E-002   0.0000000000000000     
  0.34375000000000000        3.1250000000000000E-002   0.0000000000000000     
  0.37500000000000000        3.1250000000000000E-002   0.0000000000000000     
  0.25000000000000000        6.2500000000000000E-002   0.0000000000000000     
  0.28125000000000000        6.2500000000000000E-002   0.0000000000000000     
  0.31250000000000000        6.2500000000000000E-002   0.0000000000000000     
  0.34375000000000000        6.2500000000000000E-002   0.0000000000000000     
  0.37500000000000000        6.2500000000000000E-002   0.0000000000000000     
  0.25000000000000000        9.3750000000000000E-002   0.0000000000000000     
  0.28125000000000000        9.3750000000000000E-002   0.0000000000000000     
  0.31250000000000000        9.3750000000000000E-002   0.0000000000000000     
  0.34375000000000000        9.3750000000000000E-002   0.0000000000000000     
  0.37500000000000000        9.3750000000000000E-002   0.0000000000000000     
  0.25000000000000000       0.12500000000000000        0.0000000000000000     
  0.28125000000000000       0.12500000000000000        0.0000000000000000     
  0.31250000000000000       0.12500000000000000        0.0000000000000000     
  0.34375000000000000       0.12500000000000000        0.0000000000000000     
  0.37500000000000000       0.12500000000000000        0.0000000000000000     
  0.37500000000000000        0.0000000000000000        0.0000000000000000     
  0.40625000000000000        0.0000000000000000        0.0000000000000000     
  0.43750000000000000        0.0000000000000000        0.0000000000000000     
  0.46875000000000000        0.0000000000000000        0.0000000000000000     
  0.50000000000000000        0.0000000000000000        0.0000000000000000     
  0.37500000000000000        3.1250000000000000E-002   0.0000000000000000     
  0.40625000000000000        3.1250000000000000E-002   0.0000000000000000     
  0.43750000000000000        3.1250000000000000E-002   0.0000000000000000     
  0.46875000000000000        3.1250000000000000E-002   0.0000000000000000     
  0.50000000000000000        3.1250000000000000E-002   0.0000000000000000     
  0.37500000000000000        6.2500000000000000E-002   0.0000000000000000     
  0.40625000000000000        6.2500000000000000E-002   0.0000000000000000     
  0.43750000000000000        6.2500000000000000E-002   0.0000000000000000     
  0.46875000000000000        6.2500000000000000E-002   0.0000000000000000     
  0.50000000000000000        6.2500000000000000E-002   0.0000000000000000     
  0.37500000000000000        9.3750000000000000E-002   0.0000000000000000     
  0.40625000000000000        9.3750000000000000E-002   0.0000000000000000     
  0.43750000000000000        9.3750000000000000E-002   0.0000000000000000     
  0.46875000000000000        9.3750000000000000E-002   0.0000000000000000     
  0.50000000000000000        9.3750000000000000E-002   0.0000000000000000     
  0.37500000000000000       0.12500000000000000        0.0000000000000000     
  0.40625000000000000       0.12500000000000000        0.0000000000000000     
  0.43750000000000000       0.12500000000000000        0.0000000000000000     
  0.46875000000000000       0.12500000000000000        0.0000000000000000     
  0.50000000000000000       0.12500000000000000        0.0000000000000000     
  0.50000000000000000        0.0000000000000000        0.0000000000000000     
  0.53125000000000000        0.0000000000000000        0.0000000000000000     
  0.56250000000000000        0.0000000000000000        0.0000000000000000     
  0.59375000000000000        0.0000000000000000        0.0000000000000000     
  0.62500000000000000        0.0000000000000000        0.0000000000000000     
  0.50000000000000000        3.1250000000000000E-002   0.0000000000000000     
  0.53125000000000000        3.1250000000000000E-002   0.0000000000000000     
  0.56250000000000000        3.1250000000000000E-002   0.0000000000000000     
  0.59375000000000000        3.1250000000000000E-002   0.0000000000000000     
  0.62500000000000000        3.1250000000000000E-002   0.0000000000000000     
  0.50000000000000000        6.2500000000000000E-002   0.0000000000000000     
  0.53125000000000000        6.2500000000000000E-002   0.0000000000000000     
  0.56250000000000000        6.2500000000000000E-002   0.0000000000000000     
  0.59375000000000000        6.2500000000000000E-002   0.0000000000000000     
  0.62500000000000000        6.2500000000000000E-002   0.0000000000000000     
  0.50000000000000000        9.3750000000000000E-002   0.0000000000000000     
  0.53125000000000000        9.3750000000000000E-002   0.0000000000000000     
  0.56250000000000000        9.3750000000000000E-002   0.0000000000000000     
  0.59375000000000000        9.3750000000000000E-002   0.0000000000000000     
  0.62500000000000000        9.3750000000000000E-002   0.0000000000000000     
  0.50000000000000000       0.12500000000000000        0.0000000000000000     
  0.53125000000000000       0.12500000000000000        0.0000000000000000     
  0.56250000000000000       0.12500000000000000        0.0000000000000000     
  0.59375000000000000       0.12500000000000000        0.0000000000000000     
  0.62500000000000000       0.12500000000000000        0.0000000000000000     
  0.62500000000000000        0.0000000000000000        0.0000000000000000     
  0.65625000000000000        0.0000000000000000        0.0000000000000000     
  0.68750000000000000        0.0000000000000000        0.0000000000000000     
  0.71875000000000000        0.0000000000000000        0.0000000000000000     
  0.75000000000000000        0.0000000000000000        0.0000000000000000     
  0.62500000000000000        3.1250000000000000E-002   0.0000000000000000     
  0.65625000000000000        3.1250000000000000E-002   0.0000000000000000     
  0.68750000000000000        3.1250000000000000E-002   0.0000000000000000     
  0.71875000000000000        3.1250000000000000E-002   0.0000000000000000     
  0.75000000000000000        3.1250000000000000E-002   0.0000000000000000     
  0.62500000000000000        6.2500000000000000E-002   0.0000000000000000     
  0.65625000000000000        6.2500000000000000E-002   0.0000000000000000     
  0.68750000000000000        6.2500000000000000E-002   0.0000000000000000     
  0.71875000000000000        6.2500000000000000E-002   0.0000000000000000     
  0.75000000000000000        6.2500000000000000E-002   0.0000000000000000     
  0.62500000000000000        9.3750000000000000E-002   0.0000000000000000     
  0.65625000000000000        9.3750000000000000E-002   0.0000000000000000     
  0.68750000000000000        9.3750000000000000E-002   0.0000000000000000     
  0.71875000000000000        9.3750000000000000E-002   0.0000000000000000     
  0.75000000000000000        9.3750000000000000E-002   0.0000000000000000     
  0.62500000000000000       0.12500000000000000        0.0000000000000000     
  0.65625000000000000       0.12500000000000000        0.0000000000000000     
  0.68750000000000000       0.12500000000000000        0.0000000000000000     
  0.71875000000000000       0.12500000000000000        0.0000000000000000     
  0.75000000000000000       0.12500000000000000        0.0000000000000000     
  0.75000000000000000        0.0000000000000000        0.0000000000000000     
  0.78125000000000000        0.0000000000000000        0.0000000000000000     
  0.81250000000000000        0.0000000000000000        0.0000000000000000     
  0.84375000000000000        0.0000000000000000        0.0000000000000000     
  0.87500000000000000        0.0000000000000000        0.0000000000000000     
  0.75000000000000000        3.1250000000000000E-002   0.0000000000000000     
  0.78125000000000000        3.1250000000000000E-002   0.0000000000000000     
  0.81250000000000000        3.1250000000000000E-002   0.0000000000000000     
  0.84375000000000000        3.1250000000000000E-002   0.0000000000000000     
  0.87500000000000000        3.1250000000000000E-002   0.0000000000000000     
  0.75000000000000000        6.2500000000000000E-002   0.0000000000000000     
  0.78125000000000000        6.2500000000000000E-002   0.0000000000000000     
  0.81250000000000000        6.2500000000000000E-002   0.0000000000000000     
  0.84375000000000000        6.2500000000000000E-002   0.0000000000000000     
  0.87500000000000000        6.2500000000000000E-002   0.0000000000000000     
  0.75000000000000000        9.3750000000000000E-002   0.0000000000000000     
  0.78125000000000000        9.3750000000000000E-002   0.0000000000000000     
  0.81250000000000000        9.3750000000000000E-002   0.0000000000000000     
  0.84375000000000000        9.3750000000000000E-002   0.0000000000000000     
  0.87500000000000000        9.3750000000000000E-002   0.0000000000000000     
  0.75000000000000000       0.12500000000000000        0.0000000000000000     
  0.78125000000000000       0.12500000000000000        0.0000000000000000     
  0.81250000000000000       0.12500000000000000        0.0000000000000000     
  0.84375000000000000       0.12500000000000000        0.0000000000000000     
  0.87500000000000000       0.12500000000000000        0.0000000000000000     
  0.87500000000000000        0.0000000000000000        0.0000000000000000     
  0.90625000000000000        0.0000000000000000        0.0000000000000000     
  0.93750000000000000        0.0000000000000000        0.0000000000000000     
  0.96875000000000000        0.0000000000000000        0.0000000000000000     
   1.0000000000000000        0.0000000000000000        0.0000000000000000     
  0.87500000000000000        3.1250000000000000E-002   0.0000000000000000     
  0.90625000000000000        3.1250000000000000E-002   0.0000000000000000     
  0.93750000000000000        3.1250000000000000E-002   0.0000000000000000     
  0.96875000000000000        3.1250000000000000E-002   0.0000000000000000     
   1.0000000000000000        3.1250000000000000E-002   0.0000000000000000     
  0.87500000000000000        6.2500000000000000E-002   0.0000000000000000     
  0.90625000000000000        6.2500000000000000E-002   0.0000000000000000     
  0.93750000000000000        6.2500000000000000E-002   0.0000000000000000     
  0.96875000000000000        6.2500000000000000E-002   0.0000000000000000     
   1.0000000000000000        6.2500000000000000E-002   0.0000000000000000     
  0.87500000000000000        9.3750000000000000E-002   0.0000000000000000     
  0.90625000000000000        9.3750000000000000E-002   0.0000000000000000     
  0.93750000000000000        9.3750000000000000E-002   0.0000000000000000     
  0.96875000000000000        9.3750000000000000E-002   0.0000000000000000     
   1.0000000000000000        9.3750000000000000E-002   0.0000000000000000     
  0.87500000000000000       0.12500000000000000        0.0000000000000000     
  0.90625000000000000       0.12500000000000000        0.0000000000000000     
  0.93750000000000000       0.12500000000000000        0.0000000000000000     
  0.96875000000000000       0.12500000000000000        0.0000000000000000     
   1.0000000000000000       0.12500000000000000        0.0000000000000000     
   0.0000000000000000       0.12500000000000000        0.0000000000000000     
   3.1250000000000000E-002  0.12500000000000000        0.0000000000000000     
   6.2500000000000000E-002  0.12500000000000000        0.0000000000000000     
   9.3750000000000000E-002  0.12500000000000000        0.0000000000000000     
  0.12500000000000000       0.12500000000000000        0.0000000000000000     
   0.0000000000000000       0.15625000000000000        0.0000000000000000     
   3.1250000000000000E-002  0.15625000000000000        0.0000000000000000     
   6.2500000000000000E-002  0.15625000000000000        0.0000000000000000     
   9.3750000000000000E-002  0.15625000000000000        0.0000000000000000     
  0.12500000000000000       0.15625000000000000        0.0000000000000000     
   0.0000000000000000       0.18750000000000000        0.0000000000000000     
   3.1250000000000000E-002  0.18750000000000000        0.0000000000000000     
   6.2500000000000000E-002  0.18750000000000000        0.0000000000000000     
   9.3750000000000000E-002  0.18750000000000000        0.0000000000000000     
  0.12500000000000000       0.18750000000000000        0.0000000000000000     
   0.0000000000000000       0.21875000000000000        0.0000000000000000     
   3.1250000000000000E-002  0.21875000000000000        0.0000000000000000     
   6.2500000000000000E-002  0.21875000000000000        0.0000000000000000     
   9.3750000000000000E-002  0.21875000000000000        0.0000000000000000     
  0.12500000000000000       0.21875000000000000        0.0000000000000000     
   0.0000000000000000       0.25000000000000000        0.0000000000000000     
   3.1250000000000000E-002  0.25000000000000000        0.0000000000000000     
   6.2500000000000000E-002  0.25000000000000000        0.0000000000000000     
   9.3750000000000000E-002  0.25000000000000000        0.0000000000000000     
  0.12500000000000000       0.25000000000000000        0.0000000000000000     
  0.12500000000000000       0.12500000000000000        0.0000000000000000     
  0.15625000000000000       0.12500000000000000        0.0000000000000000     
  0.18750000000000000       0.12500000000000000        0.0000000000000000     
  0.21875000000000000       0.12500000000000000        0.0000000000000000     
  0.25000000000000000       0.12500000000000000        0.0000000000000000     
  0.12500000000000000       0.15625000000000000        0.0000000000000000     
  0.15625000000000000       0.15625000000000000        0.0000000000000000     
  0.18750000000000000       0.15625000000000000        0.0000000000000000     
  0.21875000000000000       0.15625000000000000        0.0000000000000000     
  0.25000000000000000       0.15625000000000000        0.0000000000000000     
  0.12500000000000000       0.18750000000000000        0.0000000000000000     
  0.15625000000000000       0.18750000000000000        0.0000000000000000     
  0.18750000000000000       0.18750000000000000        0.0000000000000000     
  0.21875000000000000       0.18750000000000000        0.0000000000000000     
  0.25000000000000000       0.18750000000000000        0.0000000000000000     
  0.12500000000000000       0.21875000000000000        0.0000000000000000     
  0.15625000000000000       0.21875000000000000        0.0000000000000000     
  0.18750000000000000       0.21875000000000000        0.0000000000000000     
  0.21875000000000000       0.21875000000000000        0.0000000000000000     
  0.25000000000000000       0.21875000000000000        0.0000000000000000     
  0.12500000000000000       0.25000000000000000        0.0000000000000000     
  0.15625000000000000       0.25000000000000000        0.0000000000000000     
  0.18750000000000000       0.25000000000000000        0.0000000000000000     
  0.21875000000000000       0.25000000000000000        0.0000000000000000     
  0.25000000000000000       0.25000000000000000        0.0000000000000000     
  0.25000000000000000       0.12500000000000000        0.0000000000000000     
  0.28125000000000000       0.12500000000000000        0.0000000000000000     
  0.31250000000000000       0.12500000000000000        0.0000000000000000     
  0.34375000000000000       0.12500000000000000        0.0000000000000000     
  0.37500000000000000       0.12500000000000000        0.0000000000000000     
  0.25000000000000000       0.15625000000000000        0.0000000000000000     
  0.28125000000000000       0.15625000000000000        0.0000000000000000     
  0.31250000000000000       0.15625000000000000        0.0000000000000000     
  0.34375000000000000       0.15625000000000000        0.0000000000000000     
  0.37500000000000000       0.15625000000000000        0.0000000000000000     
  0.25000000000000000       0.18750000000000000        0.0000000000000000     
  0.28125000000000000       0.18750000000000000        0.0000000000000000     
  0.31250000000000000       0.18750000000000000        0.0000000000000000     
  0.34375000000000000       0.18750000000000000        0.0000000000000000     
  0.37500000000000000       0.18750000000000000        0.0000000000000000     
  0.25000000000000000       0.21875000000000000        0.0000000000000000     
  0.28125000000000000       0.21875000000000000        0.0000000000000000     
  0.31250000000000000       0.21875000000000000        0.0000000000000000     
  0.34375000000000000       0.21875000000000000        0.0000000000000000     
  0.37500000000000000       0.21875000000000000        0.0000000000000000     
  0.25000000000000000       0.25000000000000000        0.0000000000000000     
  0.28125000000000000       0.25000000000000000        0.0000000000000000     
  0.31250000000000000       0.25000000000000000        0.0000000000000000     
  0.34375000000000000       0.25000000000000000        0.0000000000000000     
  0.37500000000000000       0.25000000000000000        0.0000000000000000     
  0.37500000000000000       0.12500000000000000        0.0000000000000000     
  0.40625000000000000       0.12500000000000000        0.0000000000000000     
  0.43750000000000000       0.12500000000000000        0.0000000000000000     
  0.46875000000000000       0.12500000000000000        0.0000000000000000     
  0.50000000000000000       0.12500000000000000        0.0000000000000000     
  0.37500000000000000       0.15625000000000000        0.0000000000000000     
  0.40625000000000000       0.15625000000000000        0.0000000000000000     
  0.43750000000000000       0.15625000000000000        0.0000000000000000     
  0.46875000000000000       0.15625000000000000        0.0000000000000000     
  0.50000000000000000       0.15625000000000000        0.0000000000000000     
  0.37500000000000000       0.18750000000000000        0.0000000000000000     
  0.40625000000000000       0.18750000000000000        0.0000000000000000     
  0.43750000000000000       0.18750000000000000        0.0000000000000000     
  0.46875000000000000       0.18750000000000000        0.0000000000000000     
  0.50000000000000000       0.18750000000000000        0.0000000000000000     
  0.37500000000000000       0.21875000000000000        0.0000000000000000     
  0.40625000000000000       0.21875000000000000        0.0000000000000000     
  0.43750000000000000       0.21875000000000000        0.0000000000000000     
  0.46875000000000000       0.21875000000000000        0.0000000000000000     
  0.50000000000000000       0.21875000000000000        0.0000000000000000     
  0.37500000000000000       0.25000000000000000        0.0000000000000000     
  0.40625000000000000       0.25000000000000000        0.0000000000000000     
  0.43750000000000000       0.25000000000000000        0.0000000000000000     
  0.46875000000000000       0.25000000000000000        0.0000000000000000     
  0.50000000000000000       0.25000000000000000        0.0000000000000000     
  0.50000000000000000       0.12500000000000000        0.0000000000000000     
  0.53125000000000000       0.12500000000000000        0.0000000000000000     
  0.56250000000000000       0.12500000000000000        0.0000000000000000     
  0.59375000000000000       0.12500000000000000        0.0000000000000000     
  0.62500000000000000       0.12500000000000000        0.0000000000000000     
  0.50000000000000000       0.15625000000000000        0.0000000000000000     
  0.53125000000000000       0.15625000000000000        0.0000000000000000     
  0.56250000000000000       0.15625000000000000        0.0000000000000000     
  0.59375000000000000       0.15625000000000000        0.0000000000000000     
  0.62500000000000000       0.15625000000000000        0.0000000000000000     
  0.50000000000000000       0.18750000000000000        0.0000000000000000     
  0.53125000000000000       0.18750000000000000        0.0000000000000000     
  0.56250000000000000       0.18750000000000000        0.0000000000000000     
  0.59375000000000000       0.18750000000000000        0.0000000000000000     
  0.62500000000000000       0.18750000000000000        0.0000000000000000     
  0.50000000000000000       0.21875000000000000        0.0000000000000000     
  0.53125000000000000       0.21875000000000000        0.0000000000000000     
  0.56250000000000000       0.21875000000000000        0.0000000000000000     
  0.59375000000000000       0.21875000000000000        0.0000000000000000     
  0.62500000000000000       0.21875000000000000        0.0000000000000000     
  0.50000000000000000       0.25000000000000000        0.0000000000000000     
  0.53125000000000000       0.25000000000000000        0.0000000000000000     
  0.56250000000000000       0.25000000000000000        0.0000000000000000     
  0.59375000000000000       0.25000000000000000        0.0000000000000000     
  0.62500000000000000       0.25000000000000000        0.0000000000000000     
  0.62500000000000000       0.12500000000000000        0.0000000000000000     
  0.65625000000000000       0.12500000000000000        0.0000000000000000     
  0.68750000000000000       0.12500000000000000        0.0000000000000000     
  0.71875000000000000       0.12500000000000000        0.0000000000000000     
  0.75000000000000000       0.12500000000000000        0.0000000000000000     
  0.62500000000000000       0.15625000000000000        0.0000000000000000     
  0.65625000000000000       0.15625000000000000        0.0000000000000000     
  0.68750000000000000       0.15625000000000000        0.0000000000000000     
  0.71875000000000000       0.15625000000000000        0.0000000000000000     
  0.75000000000000000       0.15625000000000000        0.0000000000000000     
  0.62500000000000000       0.18750000000000000        0.0000000000000000     
  0.65625000000000000       0.18750000000000000        0.0000000000000000     
  0.68750000000000000       0.18750000000000000        0.0000000000000000     
  0.71875000000000000       0.18750000000000000        0.0000000000000000     
  0.75000000000000000       0.18750000000000000        0.0000000000000000     
  0.62500000000000000       0.21875000000000000        0.0000000000000000     
  0.65625000000000000       0.21875000000000000        0.0000000000000000     
  0.68750000000000000       0.21875000000000000        0.0000000000000000     
  0.71875000000000000       0.21875000000000000        0.0000000000000000     
  0.75000000000000000       0.21875000000000000        0.0000000000000000     
  0.62500000000000000       0.25000000000000000        0.0000000000000000     
  0.65625000000000000       0.25000000000000000        0.0000000000000000     
  0.68750000000000000       0.25000000000000000        0.0000000000000000     
  0.71875000000000000       0.25000000000000000        0.0000000000000000     
  0.75000000000000000       0.25000000000000000        0.0000000000000000     
  0.75000000000000000       0.12500000000000000        0.0000000000000000     
  0.78125000000000000       0.12500000000000000        0.0000000000000000     
  0.81250000000000000       0.12500000000000000        0.0000000000000000     
  0.84375000000000000       0.12500000000000000        0.0000000000000000     
  0.87500000000000000       0.12500000000000000        0.0000000000000000     
  0.75000000000000000       0.15625000000000000        0.0000000000000000     
  0.78125000000000000       0.15625000000000000        0.0000000000000000     
  0.81250000000000000       0.15625000000000000        0.0000000000000000     
  0.84375000000000000       0.15625000000000000        0.0000000000000000     
  0.87500000000000000       0.15625000000000000        0.0000000000000000     
  0.75000000000000000       0.18750000000000000        0.0000000000000000     
  0.78125000000000000       0.18750000000000000        0.0000000000000000     
  0.81250000000000000       0.18750000000000000        0.0000000000000000     
  0.84375000000000000       0.18750000000000000        0.0000000000000000     
  0.87500000000000000       0.18750000000000000        0.0000000000000000     
  0.75000000000000000       0.21875000000000000        0.0000000000000000     
  0.78125000000000000       0.21875000000000000        0.0000000000000000     
  0.81250000000000000       0.21875000000000000        0.0000000000000000     
  0.84375000000000000       0.21875000000000000        0.0000000000000000     
  0.87500000000000000       0.21875000000000000        0.0000000000000000     
  0.75000000000000000       0.25000000000000000        0.0000000000000000     
  0.78125000000000000       0.25000000000000000        0.0000000000000000     
  0.81250000000000000       0.25000000000000000        0.0000000000000000     
  0.84375000000000000       0.25000000000000000        0.0000000000000000     
  0.87500000000000000       0.25000000000000000        0.0000000000000000     
  0.87500000000000000       0.12500000000000000        0.0000000000000000     
  0.90625000000000000       0.12500000000000000        0.0000000000000000     
  0.93750000000000000       0.12500000000000000        0.0000000000000000     
  0.96875000000000000       0.12500000000000000        0.0000000000000000     
   1.0000000000000000       0.12500000000000000        0.0000000000000000     
  0.87500000000000000       0.15625000000000000        0.0000000000000000     
  0.90625000000000000       0.15625000000000000        0.0000000000000000     
  0.93750000000000000       0.15625000000000000        0.0000000000000000     
  0.96875000000000000       0.15625000000000000        0.0000000000000000     
   1.0000000000000000       0.15625000000000000        0.0000000000000000     
  0.87500000000000000       0.18750000000000000        0.0000000000000000     
  0.90625000000000000       0.18750000000000000        0.0000000000000000     
  0.93750000000000000       0.18750000000000000        0.0000000000000000     
  0.96875000000000000       0.18750000000000000        0.0000000000000000     
   1.0000000000000000       0.18750000000000000        0.0000000000000000     
  0.87500000000000000       0.21875000000000000        0.0000000000000000     
  0.90625000000000000       0.21875000000000000        0.0000000000000000     
  0.93750000000000000       0.21875000000000000        0.0000000000000000     
  0.96875000000000000       0.21875000000000000        0.0000000000000000     
   1.0000000000000000       0.21875000000000000        0.0000000000000000     
  0.87500000000000000       0.25000000000000000        0.0000000000000000     
  0.90625000000000000       0.25000000000000000        0.0000000000000000     
  0.93750000000000000       0.25000000000000000        0.0000000000000000     
  0.96875000000000000       0.25000000000000000        0.0000000000000000     
   1.0000000000000000       0.25000000000000000        0.0000000000000000     
   0.0000000000000000       0.25000000000000000        0.0000000000000000     
   3.1250000000000000E-002  0.25000000000000000        0.0000000000000000     
   6.2500000000000000E-002  0.25000000000000000        0.0000000000000000     
   9.3750000000000000E-002  0.25000000000000000        0.0000000000000000     
  0.12500000000000000       0.25000000000000000        0.0000000000000000     
   0.0000000000000000       0.28125000000000000        0.0000000000000000     
   3.1250000000000000E-002  0.28125000000000000        0.0000000000000000     
   6.2500000000000000E-002  0.28125000000000000        0.0000000000000000     
   9.3750000000000000E-002  0.28125000000000000        0.0000000000000000     
  0.12500000000000000       0.28125000000000000        0.0000000000000000     
   0.0000000000000000       0.31250000000000000        0.0000000000000000     
   3.1250000000000000E-002  0.31250000000000000        0.0000000000000000     
   6.2500000000000000E-002  0.31250000000000000        0.0000000000000000     
   9.3750000000000000E-002  0.31250000000000000        0.0000000000000000     
  0.12500000000000000       0.31250000000000000        0.0000000000000000     
   0.0000000000000000       0.34375000000000000        0.0000000000000000     
   3.1250000000000000E-002  0.34375000000000000        0.0000000000000000     
   6.2500000000000000E-002  0.34375000000000000        0.0000000000000000     
   9.3750000000000000E-002  0.34375000000000000        0.0000000000000000     
  0.12500000000000000       0.34375000000000000        0.0000000000000000     
   0.0000000000000000       0.37500000000000000        0.0000000000000000     
   3.1250000000000000E-002  0.37500000000000000        0.0000000000000000     
   6.2500000000000000E-002  0.37500000000000000        0.0000000000000000     
   9.3750000000000000E-002  0.37500000000000000        0.0000000000000000     
  0.12500000000000000       0.37500000000000000        0.0000000000000000     
  0.12500000000000000       0.25000000000000000        0.0000000000000000     
  0.15625000000000000       0.25000000000000000        0.0000000000000000     
  0.18750000000000000       0.25000000000000000        0.0000000000000000     
  0.21875000000000000       0.25000000000000000        0.0000000000000000     
  0.25000000000000000       0.25000000000000000        0.0000000000000000     
  0.12500000000000000       0.28125000000000000        0.0000000000000000     
  0.15625000000000000       0.28125000000000000        0.0000000000000000     
  0.18750000000000000       0.28125000000000000        0.0000000000000000     
  0.21875000000000000       0.28125000000000000        0.0000000000000000     
  0.25000000000000000       0.28125000000000000        0.0000000000000000     
  0.12500000000000000       0.31250000000000000        0.0000000000000000     
  0.15625000000000000       0.31250000000000000        0.0000000000000000     
  0.18750000000000000       0.31250000000000000        0.0000000000000000     
  0.21875000000000000       0.31250000000000000        0.0000000000000000     
  0.25000000000000000       0.31250000000000000        0.0000000000000000     
  0.12500000000000000       0.34375000000000000        0.0000000000000000     
  0.15625000000000000       0.34375000000000000        0.0000000000000000     
  0.18750000000000000       0.34375000000000000        0.0000000000000000     
  0.21875000000000000       0.34375000000000000        0.0000000000000000     
  0.25000000000000000       0.34375000000000000        0.0000000000000000     
  0.12500000000000000       0.37500000000000000        0.0000000000000000     
  0.15625000000000000       0.37500000000000000        0.0000000000000000     
  0.18750000000000000       0.37500000000000000        0.0000000000000000     
  0.21875000000000000       0.37500000000000000        0.0000000000000000     
  0.25000000000000000       0.37500000000000000        0.0000000000000000     
  0.25000000000000000       0.25000000000000000        0.0000000000000000     
  0.28125000000000000       0.25000000000000000        0.0000000000000000     
  0.31250000000000000       0.25000000000000000        0.0000000000000000     
  0.34375000000000000       0.25000000000000000        0.0000000000000000     
  0.37500000000000000       0.25000000000000000        0.0000000000000000     
  0.25000000000000000       0.28125000000000000        0.0000000000000000     
  0.28125000000000000       0.28125000000000000        0.0000000000000000     
  0.31250000000000000       0.28125000000000000        0.0000000000000000     
  0.34375000000000000       0.28125000000000000        0.0000000000000000     
  0.37500000000000000       0.28125000000000000        0.0000000000000000     
  0.25000000000000000       0.31250000000000000        0.0000000000000000     
  0.28125000000000000       0.31250000000000000        0.0000000000000000     
  0.31250000000000000       0.31250000000000000        0.0000000000000000     
  0.34375000000000000       0.31250000000000000        0.0000000000000000     
  0.37500000000000000       0.31250000000000000        0.0000000000000000     
  0.25000000000000000       0.34375000000000000        0.0000000000000000     
  0.28125000000000000       0.34375000000000000        0.0000000000000000     
  0.31250000000000000       0.34375000000000000        0.0000000000000000     
  0.34375000000000000       0.34375000000000000        0.0000000000000000     
  0.37500000000000000       0.34375000000000000        0.0000000000000000     
  0.25000000000000000       0.37500000000000000        0.0000000000000000     
  0.28125000000000000       0.37500000000000000        0.0000000000000000     
  0.31250000000000000       0.37500000000000000        0.0000000000000000     
  0.34375000000000000       0.37500000000000000        0.0000000000000000     
  0.37500000000000000       0.37500000000000000        0.0000000000000000     
  0.37500000000000000       0.25000000000000000        0.0000000000000000     
  0.40625000000000000       0.25000000000000000        0.0000000000000000     
  0.43750000000000000       0.25000000000000000        0.0000000000000000     
  0.46875000000000000       0.25000000000000000        0.0000000000000000     
  0.50000000000000000       0.25000000000000000        0.0000000000000000     
  0.37500000000000000       0.28125000000000000        0.0000000000000000     
  0.40625000000000000       0.28125000000000000        0.0000000000000000     
  0.43750000000000000       0.28125000000000000        0.0000000000000000     
  0.46875000000000000       0.28125000000000000        0.0000000000000000     
  0.50000000000000000       0.28125000000000000        0.0000000000000000     
  0.37500000000000000       0.31250000000000000        0.0000000000000000     
  0.40625000000000000       0.31250000000000000        0.0000000000000000     
  0.43750000000000000       0.31250000000000000        0.0000000000000000     
  0.46875000000000000       0.31250000000000000        0.0000000000000000     
  0.50000000000000000       0.31250000000000000        0.0000000000000000     
  0.37500000000000000       0.34375000000000000        0.0000000000000000     
  0.40625000000000000       0.34375000000000000        0.0000000000000000     
  0.43750000000000000       0.34375000000000000        0.0000000000000000     
  0.46875000000000000       0.34375000000000000        0.0000000000000000     
  0.50000000000000000       0.34375000000000000        0.0000000000000000     
  0.37500000000000000       0.37500000000000000        0.0000000000000000     
  0.40625000000000000       0.37500000000000000        0.0000000000000000     
  0.43750000000000000       0.37500000000000000        0.0000000000000000     
  0.46875000000000000       0.37500000000000000        0.0000000000000000     
  0.50000000000000000       0.37500000000000000        0.0000000000000000     
  0.50000000000000000       0.25000000000000000        0.0000000000000000     
  0.53125000000000000       0.25000000000000000        0.0000000000000000     
  0.56250000000000000       0.25000000000000000        0.0000000000000000     
  0.59375000000000000       0.25000000000000000        0.0000000000000000     
  0.62500000000000000       0.25000000000000000        0.0000000000000000     
  0.50000000000000000       0.28125000000000000        0.0000000000000000     
  0.53125000000000000       0.28125000000000000        0.0000000000000000     
  0.56250000000000000       0.28125000000000000        0.0000000000000000     
  0.59375000000000000       0.28125000000000000        0.0000000000000000     
  0.62500000000000000       0.28125000000000000        0.0000000000000000     
  0.50000000000000000       0.31250000000000000        0.0000000000000000     
  0.53125000000000000       0.31250000000000000        0.0000000000000000     
  0.56250000000000000       0.31250000000000000        0.0000000000000000     
  0.59375000000000000       0.31250000000000000        0.0000000000000000     
  0.62500000000000000       0.31250000000000000        0.0000000000000000     
  0.50000000000000000       0.34375000000000000        0.0000000000000000     
  0.53125000000000000       0.34375000000000000        0.0000000000000000     
  0.56250000000000000       0.34375000000000000        0.0000000000000000     
  0.59375000000000000       0.34375000000000000        0.0000000000000000     
  0.62500000000000000       0.34375000000000000        0.0000000000000000     
  0.50000000000000000       0.37500000000000000        0.0000000000000000     
  0.53125000000000000       0.37500000000000000        0.0000000000000000     
  0.56250000000000000       0.37500000000000000        0.0000000000000000     
  0.59375000000000000       0.37500000000000000        0.0000000000000000     
  0.62500000000000000       0.37500000000000000        0.0000000000000000     
  0.62500000000000000       0.25000000000000000        0.0000000000000000     
  0.65625000000000000       0.25000000000000000        0.0000000000000000     
  0.68750000000000000       0.25000000000000000        0.0000000000000000     
  0.71875000000000000       0.25000000000000000        0.0000000000000000     
  0.75000000000000000       0.25000000000000000        0.0000000000000000     
  0.62500000000000000       0.28125000000000000        0.0000000000000000     
  0.65625000000000000       0.28125000000000000        0.0000000000000000     
  0.68750000000000000       0.28125000000000000        0.0000000000000000     
  0.71875000000000000       0.28125000000000000        0.0000000000000000     
  0.75000000000000000       0.28125000000000000        0.0000000000000000     
  0.62500000000000000       0.31250000000000000        0.0000000000000000     
  0.65625000000000000       0.31250000000000000        0.0000000000000000     
  0.68750000000000000       0.31250000000000000        0.0000000000000000     
  0.71875000000000000       0.31250000000000000        0.0000000000000000     
  0.75000000000000000       0.31250000000000000        0.0000000000000000     
  0.62500000000000000       0.34375000000000000        0.0000000000000000     
  0.65625000000000000       0.34375000000000000        0.0000000000000000     
  0.68750000000000000       0.34375000000000000        0.0000000000000000     
  0.71875000000000000       0.34375000000000000        0.0000000000000000     
  0.75000000000000000       0.34375000000000000        0.0000000000000000     
  0.62500000000000000       0.37500000000000000        0.0000000000000000     
  0.65625000000000000       0.37500000000000000        0.0000000000000000     
  0.68750000000000000       0.37500000000000000        0.0000000000000000     
  0.71875000000000000       0.37500000000000000        0.0000000000000000     
  0.75000000000000000       0.37500000000000000        0.0000000000000000     
  0.75000000000000000       0.25000000000000000        0.0000000000000000     
  0.78125000000000000       0.25000000000000000        0.0000000000000000     
  0.81250000000000000       0.25000000000000000        0.0000000000000000     
  0.84375000000000000       0.25000000000000000        0.0000000000000000     
  0.87500000000000000       0.25000000000000000        0.0000000000000000     
  0.75000000000000000       0.28125000000000000        0.0000000000000000     
  0.78125000000000000       0.28125000000000000        0.0000000000000000     
  0.81250000000000000       0.28125000000000000        0.0000000000000000     
  0.84375000000000000       0.28125000000000000        0.0000000000000000     
  0.87500000000000000       0.28125000000000000        0.0000000000000000     
  0.75000000000000000       0.31250000000000000        0.0000000000000000     
  0.78125000000000000       0.31250000000000000        0.0000000000000000     
  0.81250000000000000       0.31250000000000000        0.0000000000000000     
  0.84375000000000000       0.31250000000000000        0.0000000000000000     
  0.87500000000000000       0.31250000000000000        0.0000000000000000     
  0.75000000000000000       0.34375000000000000        0.0000000000000000     
  0.78125000000000000       0.34375000000000000        0.0000000000000000     
  0.81250000000000000       0.34375000000000000        0.0000000000000000     
  0.84375000000000000       0.34375000000000000        0.0000000000000000     
  0.87500000000000000       0.34375000000000000        0.0000000000000000     
  0.75000000000000000       0.37500000000000000        0.0000000000000000     
  0.78125000000000000       0.37500000000000000        0.0000000000000000     
  0.81250000000000000       0.37500000000000000        0.0000000000000000     
  0.84375000000000000       0.37500000000000000        0.0000000000000000     
  0.87500000000000000       0.37500000000000000        0.0000000000000000     
  0.87500000000000000       0.25000000000000000        0.0000000000000000     
  0.90625000000000000       0.25000000000000000        0.0000000000000000     
  0.93750000000000000       0.25000000000000000        0.0000000000000000     
  0.96875000000000000       0.25000000000000000        0.0000000000000000     
   1.0000000000000000       0.25000000000000000        0.0000000000000000     
  0.87500000000000000       0.28125000000000000        0.0000000000000000     
  0.90625000000000000       0.28125000000000000        0.0000000000000000     
  0.93750000000000000       0.28125000000000000        0.0000000000000000     
  0.96875000000000000       0.28125000000000000        0.0000000000000000     
   1.0000000000000000       0.28125000000000000        0.0000000000000000     
  0.87500000000000000       0.31250000000000000        0.0000000000000000     
  0.90625000000000000       0.31250000000000000        0.0000000000000000     
  0.93750000000000000       0.31250000000000000        0.0000000000000000     
  0.96875000000000000       0.31250000000000000        0.0000000000000000     
   1.0000000000000000       0.31250000000000000        0.0000000000000000     
  0.87500000000000000       0.34375000000000000        0.0000000000000000     
  0.90625000000000000       0.34375000000000000        0.0000000000000000     
  0.93750000000000000       0.34375000000000000        0.0000000000000000     
  0.96875000000000000       0.34375000000000000        0.0000000000000000     
   1.0000000000000000       0.34375000000000000        0.0000000000000000     
  0.87500000000000000       0.37500000000000000        0.0000000000000000     
  0.90625000000000000       0.37500000000000000        0.0000000000000000     
  0.93750000000000000       0.37500000000000000        0.0000000000000000     
  0.96875000000000000       0.37500000000000000        0.0000000000000000     
   1.0000000000000000       0.37500000000000000        0.0000000000000000     
   0.0000000000000000       0.37500000000000000        0.0000000000000000     
   3.1250000000000000E-002  0.37500000000000000        0.0000000000000000     
   6.2500000000000000E-002  0.37500000000000000        0.0000000000000000     
   9.3750000000000000E-002  0.37500000000000000        0.0000000000000000     
  0.12500000000000000       0.37500000000000000        0.0000000000000000     
   0.0000000000000000       0.40625000000000000        0.0000000000000000     
   3.1250000000000000E-002  0.40625000000000000        0.0000000000000000     
   6.2500000000000000E-002  0.40625000000000000        0.0000000000000000     
   9.3750000000000000E-002  0.40625000000000000        0.0000000000000000     
  0.12500000000000000       0.40625000000000000        0.0000000000000000     
   0.0000000000000000       0.43750000000000000        0.0000000000000000     
   3.1250000000000000E-002  0.43750000000000000        0.0000000000000000     
   6.2500000000000000E-002  0.43750000000000000        0.0000000000000000     
   9.3750000000000000E-002  0.43750000000000000        0.0000000000000000     
  0.12500000000000000       0.43750000000000000        0.0000000000000000     
   0.0000000000000000       0.46875000000000000        0.0000000000000000     
   3.1250000000000000E-002  0.46875000000000000        0.0000000000000000     
   6.2500000000000000E-002  0.46875000000000000        0.0000000000000000     
   9.3750000000000000E-002  0.46875000000000000        0.0000000000000000     
  0.12500000000000000       0.46875000000000000        0.0000000000000000     
   0.0000000000000000       0.50000000000000000        0.0000000000000000     
   3.1250000000000000E-002  0.50000000000000000        0.0000000000000000     
   6.2500000000000000E-002  0.50000000000000000        0.0000000000000000     
   9.3750000000000000E-002  0.50000000000000000        0.0000000000000000     
  0.12500000000000000       0.50000000000000000        0.0000000000000000     
  0.12500000000000000       0.37500000000000000        0.0000000000000000     
  0.15625000000000000       0.37500000000000000        0.0000000000000000     
  0.18750000000000000       0.37500000000000000        0.0000000000000000     
  0.21875000000000000       0.37500000000000000        0.0000000000000000     
  0.25000000000000000       0.37500000000000000        0.0000000000000000     
  0.12500000000000000       0.40625000000000000        0.0000000000000000     
  0.15625000000000000       0.40625000000000000        0.0000000000000000     
  0.18750000000000000       0.40625000000000000        0.0000000000000000     
  0.21875000000000000       0.40625000000000000        0.0000000000000000     
  0.25000000000000000       0.40625000000000000        0.0000000000000000     
  0.12500000000000000       0.43750000000000000        0.0000000000000000     
  0.15625000000000000       0.43750000000000000        0.0000000000000000     
  0.18750000000000000       0.43750000000000000        0.0000000000000000     
  0.21875000000000000       0.43750000000000000        0.0000000000000000     
  0.25000000000000000       0.43750000000000000        0.0000000000000000     
  0.12500000000000000       0.46875000000000000        0.0000000000000000     
  0.15625000000000000       0.46875000000000000        0.0000000000000000     
  0.18750000000000000       0.46875000000000000        0.0000000000000000     
  0.21875000000000000       0.46875000000000000        0.0000000000000000     
  0.25000000000000000       0.46875000000000000        0.0000000000000000     
  0.12500000000000000       0.50000000000000000        0.0000000000000000     
  0.15625000000000000       0.50000000000000000        0.0000000000000000     
  0.18750000000000000       0.50000000000000000        0.0000000000000000     
  0.21875000000000000       0.50000000000000000        0.0000000000000000     
  0.25000000000000000       0.50000000000000000        0.0000000000000000     
  0.25000000000000000       0.37500000000000000        0.0000000000000000     
  0.28125000000000000       0.37500000000000000        0.0000000000000000     
  0.31250000000000000       0.37500000000000000        0.0000000000000000     
  0.34375000000000000       0.37500000000000000        0.0000000000000000     
  0.37500000000000000       0.37500000000000000        0.0000000000000000     
  0.25000000000000000       0.40625000000000000        0.0000000000000000     
  0.28125000000000000       0.40625000000000000        0.0000000000000000     
  0.31250000000000000       0.40625000000000000        0.0000000000000000     
  0.34375000000000000       0.40625000000000000        0.0000000000000000     
  0.37500000000000000       0.40625000000000000        0.0000000000000000     
  0.25000000000000000       0.43750000000000000        0.0000000000000000     
  0.28125000000000000       0.43750000000000000        0.0000000000000000     
  0.31250000000000000       0.43750000000000000        0.0000000000000000     
  0.34375000000000000       0.43750000000000000        0.0000000000000000     
  0.37500000000000000       0.43750000000000000        0.0000000000000000     
  0.25000000000000000       0.46875000000000000        0.0000000000000000     
  0.28125000000000000       0.46875000000000000        0.0000000000000000     
  0.31250000000000000       0.46875000000000000        0.0000000000000000     
  0.34375000000000000       0.46875000000000000        0.0000000000000000     
  0.37500000000000000       0.46875000000000000        0.0000000000000000     
  0.25000000000000000       0.50000000000000000        0.0000000000000000     
  0.28125000000000000       0.50000000000000000        0.0000000000000000     
  0.31250000000000000       0.50000000000000000        0.0000000000000000     
  0.34375000000000000       0.50000000000000000        0.0000000000000000     
  0.37500000000000000       0.50000000000000000        0.0000000000000000     
  0.37500000000000000       0.37500000000000000        0.0000000000000000     
  0.40625000000000000       0.37500000000000000        0.0000000000000000     
  0.43750000000000000       0.37500000000000000        0.0000000000000000     
  0.46875000000000000       0.37500000000000000        0.0000000000000000     
  0.50000000000000000       0.37500000000000000        0.0000000000000000     
  0.37500000000000000       0.40625000000000000        0.0000000000000000     
  0.40625000000000000       0.40625000000000000        0.0000000000000000     
  0.43750000000000000       0.40625000000000000        0.0000000000000000     
  0.46875000000000000       0.40625000000000000        0.0000000000000000     
  0.50000000000000000       0.40625000000000000        0.0000000000000000     
  0.37500000000000000       0.43750000000000000        0.0000000000000000     
  0.40625000000000000       0.43750000000000000        0.0000000000000000     
  0.43750000000000000       0.43750000000000000        0.0000000000000000     
  0.46875000000000000       0.43750000000000000        0.0000000000000000     
  0.50000000000000000       0.43750000000000000        0.0000000000000000     
  0.37500000000000000       0.46875000000000000        0.0000000000000000     
  0.40625000000000000       0.46875000000000000        0.0000000000000000     
  0.43750000000000000       0.46875000000000000        0.0000000000000000     
  0.46875000000000000       0.46875000000000000        0.0000000000000000     
  0.50000000000000000       0.46875000000000000        0.0000000000000000     
  0.37500000000000000       0.50000000000000000        0.0000000000000000     
  0.40625000000000000       0.50000000000000000        0.0000000000000000     
  0.43750000000000000       0.50000000000000000        0.0000000000000000     
  0.46875000000000000       0.50000000000000000        0.0000000000000000     
  0.50000000000000000       0.50000000000000000        0.0000000000000000     
  0.50000000000000000       0.37500000000000000        0.0000000000000000     
  0.53125000000000000       0.37500000000000000        0.0000000000000000     
  0.56250000000000000       0.37500000000000000        0.0000000000000000     
  0.59375000000000000       0.37500000000000000        0.0000000000000000     
  0.62500000000000000       0.37500000000000000        0.0000000000000000     
  0.50000000000000000       0.40625000000000000        0.0000000000000000     
  0.53125000000000000       0.40625000000000000        0.0000000000000000     
  0.56250000000000000       0.40625000000000000        0.0000000000000000     
  0.59375000000000000       0.40625000000000000        0.0000000000000000     
  0.62500000000000000       0.40625000000000000        0.0000000000000000     
  0.50000000000000000       0.43750000000000000        0.0000000000000000     
  0.53125000000000000       0.43750000000000000        0.0000000000000000     
  0.56250000000000000       0.43750000000000000        0.0000000000000000     
  0.59375000000000000       0.43750000000000000        0.0000000000000000     
  0.62500000000000000       0.43750000000000000        0.0000000000000000     
  0.50000000000000000       0.46875000000000000        0.0000000000000000     
  0.53125000000000000       0.46875000000000000        0.0000000000000000     
  0.56250000000000000       0.46875000000000000        0.0000000000000000     
  0.59375000000000000       0.46875000000000000        0.0000000000000000     
  0.62500000000000000       0.46875000000000000        0.0000000000000000     
  0.50000000000000000       0.50000000000000000        0.0000000000000000     
  0.53125000000000000       0.50000000000000000        0.0000000000000000     
  0.56250000000000000       0.50000000000000000        0.0000000000000000     
  0.59375000000000000       0.50000000000000000        0.0000000000000000     
  0.62500000000000000       0.50000000000000000        0.0000000000000000     
  0.62500000000000000       0.37500000000000000        0.0000000000000000     
  0.65625000000000000       0.37500000000000000        0.0000000000000000     
  0.68750000000000000       0.37500000000000000        0.0000000000000000     
  0.71875000000000000       0.37500000000000000        0.0000000000000000     
  0.75000000000000000       0.37500000000000000        0.0000000000000000     
  0.62500000000000000       0.40625000000000000        0.0000000000000000     
  0.65625000000000000       0.40625000000000000        0.0000000000000000     
  0.68750000000000000       0.40625000000000000        0.0000000000000000     
  0.71875000000000000       0.40625000000000000        0.0000000000000000     
  0.75000000000000000       0.40625000000000000        0.0000000000000000     
  0.62500000000000000       0.43750000000000000        0.0000000000000000     
  0.65625000000000000       0.43750000000000000        0.0000000000000000     
  0.68750000000000000       0.43750000000000000        0.0000000000000000     
  0.71875000000000000       0.43750000000000000        0.0000000000000000     
  0.75000000000000000       0.43750000000000000        0.0000000000000000     
  0.62500000000000000       0.46875000000000000        0.0000000000000000     
  0.65625000000000000       0.46875000000000000        0.0000000000000000     
  0.68750000000000000       0.46875000000000000        0.0000000000000000     
  0.71875000000000000       0.46875000000000000        0.0000000000000000     
  0.75000000000000000       0.46875000000000000        0.0000000000000000     
  0.62500000000000000       0.50000000000000000        0.0000000000000000     
  0.65625000000000000       0.50000000000000000        0.0000000000000000     
  0.68750000000000000       0.50000000000000000        0.0000000000000000     
  0.71875000000000000       0.50000000000000000        0.0000000000000000     
  0.75000000000000000       0.50000000000000000        0.0000000000000000     
  0.75000000000000000       0.37500000000000000        0.0000000000000000     
  0.78125000000000000       0.37500000000000000        0.0000000000000000     
  0.81250000000000000       0.37500000000000000        0.0000000000000000     
  0.84375000000000000       0.37500000000000000        0.0000000000000000     
  0.87500000000000000       0.37500000000000000        0.0000000000000000     
  0.75000000000000000       0.40625000000000000        0.0000000000000000     
  0.78125000000000000       0.40625000000000000        0.0000000000000000     
  0.81250000000000000       0.40625000000000000        0.0000000000000000     
  0.84375000000000000       0.40625000000000000        0.0000000000000000     
  0.87500000000000000       0.40625000000000000        0.0000000000000000     
  0.75000000000000000       0.43750000000000000        0.0000000000000000     
  0.78125000000000000       0.43750000000000000        0.0000000000000000     
  0.81250000000000000       0.43750000000000000        0.0000000000000000     
  0.84375000000000000       0.43750000000000000        0.0000000000000000     
  0.87500000000000000       0.43750000000000000        0.0000000000000000     
  0.75000000000000000       0.46875000000000000        0.0000000000000000     
  0.78125000000000000       0.46875000000000000        0.0000000000000000     
  0.81250000000000000       0.46875000000000000        0.0000000000000000     
  0.84375000000000000       0.46875000000000000        0.0000000000000000     
  0.87500000000000000       0.46875000000000000        0.0000000000000000     
  0.75000000000000000       0.50000000000000000        0.0000000000000000     
  0.78125000000000000       0.50000000000000000        0.0000000000000000     
  0.81250000000000000       0.50000000000000000        0.0000000000000000     
  0.84375000000000000       0.50000000000000000        0.0000000000000000     
  0.87500000000000000       0.50000000000000000        0.0000000000000000     
  0.87500000000000000       0.37500000000000000        0.0000000000000000     
  0.90625000000000000       0.37500000000000000        0.0000000000000000     
  0.93750000000000000       0.37500000000000000        0.0000000000000000     
  0.96875000000000000       0.37500000000000000        0.0000000000000000     
   1.0000000000000000       0.37500000000000000        0.0000000000000000     
  0.87500000000000000       0.40625000000000000        0.0000000000000000     
  0.90625000000000000       0.40625000000000000        0.0000000000000000     
  0.93750000000000000       0.40625000000000000        0.0000000000000000     
  0.96875000000000000       0.40625000000000000        0.0000000000000000     
   1.0000000000000000       0.40625000000000000        0.0000000000000000     
  0.87500000000000000       0.43750000000000000        0.0000000000000000     
  0.90625000000000000       0.43750000000000000        0.0000000000000000     
  0.93750000000000000       0.43750000000000000        0.0000000000000000     
  0.96875000000000000       0.43750000000000000        0.0000000000000000     
   1.0000000000000000       0.43750000000000000        0.0000000000000000     
  0.87500000000000000       0.46875000000000000        0.0000000000000000     
  0.90625000000000000       0.46875000000000000        0.0000000000000000     
  0.93750000000000000       0.46875000000000000        0.0000000000000000     
  0.96875000000000000       0.46875000000000000        0.0000000000000000     
   1.0000000000000000       0.46875000000000000        0.0000000000000000     
  0.87500000000000000       0.50000000000000000        0.0000000000000000     
  0.90625000000000000       0.50000000000000000        0.0000000000000000     
  0.93750000000000000       0.50000000000000000        0.0000000000000000     
  0.96875000000000000       0.50000000000000000        0.0000000000000000     
   1.0000000000000000       0.50000000000000000        0.0000000000000000     
   0.0000000000000000       0.50000000000000000        0.0000000000000000     
   3.1250000000000000E-002  0.50000000000000000        0.0000000000000000     
   6.2500000000000000E-002  0.50000000000000000        0.0000000000000000     
   9.3750000000000000E-002  0.50000000000000000        0.0000000000000000     
  0.12500000000000000       0.50000000000000000        0.0000000000000000     
   0.0000000000000000       0.53125000000000000        0.0000000000000000     
   3.1250000000000000E-002  0.53125000000000000        0.0000000000000000     
   6.2500000000000000E-002  0.53125000000000000        0.0000000000000000     
   9.3750000000000000E-002  0.53125000000000000        0.0000000000000000     
  0.12500000000000000       0.53125000000000000        0.0000000000000000     
   0.0000000000000000       0.56250000000000000        0.0000000000000000     
   3.1250000000000000E-002  0.56250000000000000        0.0000000000000000     
   6.2500000000000000E-002  0.56250000000000000        0.0000000000000000     
   9.3750000000000000E-002  0.56250000000000000        0.0000000000000000     
  0.12500000000000000       0.56250000000000000        0.0000000000000000     
   0.0000000000000000       0.59375000000000000        0.0000000000000000     
   3.1250000000000000E-002  0.59375000000000000        0.0000000000000000     
   6.2500000000000000E-002  0.59375000000000000        0.0000000000000000     
   9.3750000000000000E-002  0.59375000000000000        0.0000000000000000     
  0.12500000000000000       0.59375000000000000        0.0000000000000000     
   0.0000000000000000       0.62500000000000000        0.0000000000000000     
   3.1250000000000000E-002  0.62500000000000000        0.0000000000000000     
   6.2500000000000000E-002  0.62500000000000000        0.0000000000000000     
   9.3750000000000000E-002  0.62500000000000000        0.0000000000000000     
  0.12500000000000000       0.62500000000000000        0.0000000000000000     
  0.12500000000000000       0.50000000000000000        0.0000000000000000     
  0.15625000000000000       0.50000000000000000        0.0000000000000000     
  0.18750000000000000       0.50000000000000000        0.0000000000000000     
  0.21875000000000000       0.50000000000000000        0.0000000000000000     
  0.25000000000000000       0.50000000000000000        0.0000000000000000     
  0.12500000000000000       0.53125000000000000        0.0000000000000000     
  0.15625000000000000       0.53125000000000000        0.0000000000000000     
  0.18750000000000000       0.53125000000000000        0.0000000000000000     
  0.21875000000000000       0.53125000000000000        0.0000000000000000     
  0.25000000000000000       0.53125000000000000        0.0000000000000000     
  0.12500000000000000       0.56250000000000000        0.0000000000000000     
  0.15625000000000000       0.56250000000000000        0.0000000000000000     
  0.18750000000000000       0.56250000000000000        0.0000000000000000     
  0.21875000000000000       0.56250000000000000        0.0000000000000000     
  0.25000000000000000       0.56250000000000000        0.0000000000000000     
  0.12500000000000000       0.59375000000000000        0.0000000000000000     
  0.15625000000000000       0.59375000000000000        0.0000000000000000     
  0.18750000000000000       0.59375000000000000        0.0000000000000000     
  0.21875000000000000       0.59375000000000000        0.0000000000000000     
  0.25000000000000000       0.59375000000000000        0.0000000000000000     
  0.12500000000000000       0.62500000000000000        0.0000000000000000     
  0.15625000000000000       0.62500000000000000        0.0000000000000000     
  0.18750000000000000       0.62500000000000000        0.0000000000000000     
  0.21875000000000000       0.62500000000000000        0.0000000000000000     
  0.25000000000000000       0.62500000000000000        0.0000000000000000     
  0.25000000000000000       0.50000000000000000        0.0000000000000000     
  0.28125000000000000       0.50000000000000000        0.0000000000000000     
  0.31250000000000000       0.50000000000000000        0.0000000000000000     
  0.34375000000000000       0.50000000000000000        0.0000000000000000     
  0.37500000000000000       0.50000000000000000        0.0000000000000000     
  0.25000000000000000       0.53125000000000000        0.0000000000000000     
  0.28125000000000000       0.53125000000000000        0.0000000000000000     
  0.31250000000000000       0.53125000000000000        0.0000000000000000     
  0.34375000000000000       0.53125000000000000        0.0000000000000000     
  0.37500000000000000       0.53125000000000000        0.0000000000000000     
  0.25000000000000000       0.56250000000000000        0.0000000000000000     
  0.28125000000000000       0.56250000000000000        0.0000000000000000     
  0.31250000000000000       0.56250000000000000        0.0000000000000000     
  0.34375000000000000       0.56250000000000000        0.0000000000000000     
  0.37500000000000000       0.56250000000000000        0.0000000000000000     
  0.25000000000000000       0.59375000000000000        0.0000000000000000     
  0.28125000000000000       0.59375000000000000        0.0000000000000000     
  0.31250000000000000       0.59375000000000000        0.0000000000000000     
  0.34375000000000000       0.59375000000000000        0.0000000000000000     
  0.37500000000000000       0.59375000000000000        0.0000000000000000     
  0.25000000000000000       0.62500000000000000        0.0000000000000000     
  0.28125000000000000       0.62500000000000000        0.0000000000000000     
  0.31250000000000000       0.62500000000000000        0.0000000000000000     
  0.34375000000000000       0.62500000000000000        0.0000000000000000     
  0.37500000000000000       0.62500000000000000        0.0000000000000000     
  0.37500000000000000       0.50000000000000000        0.0000000000000000     
  0.40625000000000000       0.50000000000000000        0.0000000000000000     
  0.43750000000000000       0.50000000000000000        0.0000000000000000     
  0.46875000000000000       0.50000000000000000        0.0000000000000000     
  0.50000000000000000       0.50000000000000000        0.0000000000000000     
  0.37500000000000000       0.53125000000000000        0.0000000000000000     
  0.40625000000000000       0.53125000000000000        0.0000000000000000     
  0.43750000000000000       0.53125000000000000        0.0000000000000000     
  0.46875000000000000       0.53125000000000000        0.0000000000000000     
  0.50000000000000000       0.53125000000000000        0.0000000000000000     
  0.37500000000000000       0.56250000000000000        0.0000000000000000     
  0.40625000000000000       0.56250000000000000        0.0000000000000000     
  0.43750000000000000       0.56250000000000000        0.0000000000000000     
  0.46875000000000000       0.56250000000000000        0.0000000000000000     
  0.50000000000000000       0.56250000000000000        0.0000000000000000     
  0.37500000000000000       0.59375000000000000        0.0000000000000000     
  0.40625000000000000       0.59375000000000000        0.0000000000000000     
  0.43750000000000000       0.59375000000000000        0.0000000000000000     
  0.46875000000000000       0.59375000000000000        0.0000000000000000     
  0.50000000000000000       0.59375000000000000        0.0000000000000000     
  0.37500000000000000       0.62500000000000000        0.0000000000000000     
  0.40625000000000000       0.62500000000000000        0.0000000000000000     
  0.43750000000000000       0.62500000000000000        0.0000000000000000     
  0.46875000000000000       0.62500000000000000        0.0000000000000000     
  0.50000000000000000       0.62500000000000000        0.0000000000000000     
  0.50000000000000000       0.50000000000000000        0.0000000000000000     
  0.53125000000000000       0.50000000000000000        0.0000000000000000     
  0.56250000000000000       0.50000000000000000        0.0000000000000000     
  0.59375000000000000       0.50000000000000000        0.0000000000000000     
  0.62500000000000000       0.50000000000000000        0.0000000000000000     
  0.50000000000000000       0.53125000000000000        0.0000000000000000     
  0.53125000000000000       0.53125000000000000        0.0000000000000000     
  0.56250000000000000       0.53125000000000000        0.0000000000000000     
  0.59375000000000000       0.53125000000000000        0.0000000000000000     
  0.62500000000000000       0.53125000000000000        0.0000000000000000     
  0.50000000000000000       0.56250000000000000        0.0000000000000000     
  0.53125000000000000       0.56250000000000000        0.0000000000000000     
  0.56250000000000000       0.56250000000000000        0.0000000000000000     
  0.59375000000000000       0.56250000000000000        0.0000000000000000     
  0.62500000000000000       0.56250000000000000        0.0000000000000000     
  0.50000000000000000       0.59375000000000000        0.0000000000000000     
  0.53125000000000000       0.59375000000000000        0.0000000000000000     
  0.56250000000000000       0.59375000000000000        0.0000000000000000     
  0.59375000000000000       0.59375000000000000        0.0000000000000000     
  0.62500000000000000       0.59375000000000000        0.0000000000000000     
  0.50000000000000000       0.62500000000000000        0.0000000000000000     
  0.53125000000000000       0.62500000000000000        0.0000000000000000     
  0.56250000000000000       0.62500000000000000        0.0000000000000000     
  0.59375000000000000       0.62500000000000000        0.0000000000000000     
  0.62500000000000000       0.62500000000000000        0.0000000000000000     
  0.62500000000000000       0.50000000000000000        0.0000000000000000     
  0.65625000000000000       0.50000000000000000        0.0000000000000000     
  0.68750000000000000       0.50000000000000000        0.0000000000000000     
  0.71875000000000000       0.50000000000000000        0.0000000000000000     
  0.75000000000000000       0.50000000000000000        0.0000000000000000     
  0.62500000000000000       0.53125000000000000        0.0000000000000000     
  0.65625000000000000       0.53125000000000000        0.0000000000000000     
  0.68750000000000000       0.53125000000000000        0.0000000000000000     
  0.71875000000000000       0.53125000000000000        0.0000000000000000     
  0.75000000000000000       0.53125000000000000        0.0000000000000000     
  0.62500000000000000       0.56250000000000000        0.0000000000000000     
  0.65625000000000000       0.56250000000000000        0.0000000000000000     
  0.68750000000000000       0.56250000000000000        0.0000000000000000     
  0.71875000000000000       0.56250000000000000        0.0000000000000000     
  0.75000000000000000       0.56250000000000000        0.0000000000000000     
  0.62500000000000000       0.59375000000000000        0.0000000000000000     
  0.65625000000000000       0.59375000000000000        0.0000000000000000     
  0.68750000000000000       0.59375000000000000        0.0000000000000000     
  0.71875000000000000       0.59375000000000000        0.0000000000000000     
  0.75000000000000000       0.59375000000000000        0.0000000000000000     
  0.62500000000000000       0.62500000000000000        0.0000000000000000     
  0.65625000000000000       0.62500000000000000        0.0000000000000000     
  0.68750000000000000       0.62500000000000000        0.0000000000000000     
  0.71875000000000000       0.62500000000000000        0.0000000000000000     
  0.75000000000000000       0.62500000000000000        0.0000000000000000     
  0.75000000000000000       0.50000000000000000        0.0000000000000000     
  0.78125000000000000       0.50000000000000000        0.0000000000000000     
  0.81250000000000000       0.50000000000000000        0.0000000000000000     
  0.84375000000000000       0.50000000000000000        0.0000000000000000     
  0.87500000000000000       0.50000000000000000        0.0000000000000000     
  0.75000000000000000       0.53125000000000000        0.0000000000000000     
  0.78125000000000000       0.53125000000000000        0.0000000000000000     
  0.81250000000000000       0.53125000000000000        0.0000000000000000     
  0.84375000000000000       0.53125000000000000        0.0000000000000000     
  0.87500000000000000       0.53125000000000000        0.0000000000000000     
  0.75000000000000000       0.56250000000000000        0.0000000000000000     
  0.78125000000000000       0.56250000000000000        0.0000000000000000     
  0.81250000000000000       0.56250000000000000        0.0000000000000000     
  0.84375000000000000       0.56250000000000000        0.0000000000000000     
  0.87500000000000000       0.56250000000000000        0.0000000000000000     
  0.75000000000000000       0.59375000000000000        0.0000000000000000     
  0.78125000000000000       0.59375000000000000        0.0000000000000000     
  0.81250000000000000       0.59375000000000000        0.0000000000000000     
  0.84375000000000000       0.59375000000000000        0.0000000000000000     
  0.87500000000000000       0.59375000000000000        0.0000000000000000     
  0.75000000000000000       0.62500000000000000        0.0000000000000000     
  0.78125000000000000       0.62500000000000000        0.0000000000000000     
  0.81250000000000000       0.62500000000000000        0.0000000000000000     
  0.84375000000000000       0.62500000000000000        0.0000000000000000     
  0.87500000000000000       0.62500000000000000        0.0000000000000000     
  0.87500000000000000       0.50000000000000000        0.0000000000000000     
  0.90625000000000000       0.50000000000000000        0.0000000000000000     
  0.93750000000000000       0.50000000000000000        0.0000000000000000     
  0.96875000000000000       0.50000000000000000        0.0000000000000000     
   1.0000000000000000       0.50000000000000000        0.0000000000000000     
  0.87500000000000000       0.53125000000000000        0.0000000000000000     
  0.90625000000000000       0.53125000000000000        0.0000000000000000     
  0.93750000000000000       0.53125000000000000        0.0000000000000000     
  0.96875000000000000       0.53125000000000000        0.0000000000000000     
   1.0000000000000000       0.53125000000000000        0.0000000000000000     
  0.87500000000000000       0.56250000000000000        0.0000000000000000     
  0.90625000000000000       0.56250000000000000        0.0000000000000000     
  0.93750000000000000       0.56250000000000000        0.0000000000000000     
  0.96875000000000000       0.56250000000000000        0.0000000000000000     
   1.0000000000000000       0.56250000000000000        0.0000000000000000     
  0.87500000000000000       0.59375000000000000        0.0000000000000000     
  0.90625000000000000       0.59375000000000000        0.0000000000000000     
  0.93750000000000000       0.59375000000000000        0.0000000000000000     
  0.96875000000000000       0.59375000000000000        0.0000000000000000     
   1.0000000000000000       0.59375000000000000        0.0000000000000000     
  0.87500000000000000       0.62500000000000000        0.0000000000000000     
  0.90625000000000000       0.62500000000000000        0.0000000000000000     
  0.93750000000000000       0.62500000000000000        0.0000000000000000     
  0.96875000000000000       0.62500000000000000        0.0000000000000000     
   1.0000000000000000       0.62500000000000000        0.0000000000000000     
   0.0000000000000000       0.62500000000000000        0.0000000000000000     
   3.1250000000000000E-002  0.62500000000000000        0.0000000000000000     
   6.2500000000000000E-002  0.62500000000000000        0.0000000000000000     
   9.3750000000000000E-002  0.62500000000000000        0.0000000000000000     
  0.12500000000000000       0.62500000000000000        0.0000000000000000     
   0.0000000000000000       0.65625000000000000        0.0000000000000000     
   3.1250000000000000E-002  0.65625000000000000        0.0000000000000000     
   6.2500000000000000E-002  0.65625000000000000        0.0000000000000000     
   9.3750000000000000E-002  0.65625000000000000        0.0000000000000000     
  0.12500000000000000       0.65625000000000000        0.0000000000000000     
   0.0000000000000000       0.68750000000000000        0.0000000000000000     
   3.1250000000000000E-002  0.68750000000000000        0.0000000000000000     
   6.2500000000000000E-002  0.68750000000000000        0.0000000000000000     
   9.3750000000000000E-002  0.68750000000000000        0.0000000000000000     
  0.12500000000000000       0.68750000000000000        0.0000000000000000     
   0.0000000000000000       0.71875000000000000        0.0000000000000000     
   3.1250000000000000E-002  0.71875000000000000        0.0000000000000000     
   6.2500000000000000E-002  0.71875000000000000        0.0000000000000000     
   9.3750000000000000E-002  0.71875000000000000        0.0000000000000000     
  0.12500000000000000       0.71875000000000000        0.0000000000000000     
   0.0000000000000000       0.75000000000000000        0.0000000000000000     
   3.1250000000000000E-002  0.75000000000000000        0.0000000000000000     
   6.2500000000000000E-002  0.75000000000000000        0.0000000000000000     
   9.3750000000000000E-002  0.75000000000000000        0.0000000000000000     
  0.12500000000000000       0.75000000000000000        0.0000000000000000     
  0.12500000000000000       0.62500000000000000        0.0000000000000000     
  0.15625000000000000       0.62500000000000000        0.0000000000000000     
  0.18750000000000000       0.62500000000000000        0.0000000000000000     
  0.21875000000000000       0.62500000000000000        0.0000000000000000     
  0.25000000000000000       0.62500000000000000        0.0000000000000000     
  0.12500000000000000       0.65625000000000000        0.0000000000000000     
  0.15625000000000000       0.65625000000000000        0.0000000000000000     
  0.18750000000000000       0.65625000000000000        0.0000000000000000     
  0.21875000000000000       0.65625000000000000        0.0000000000000000     
  0.25000000000000000       0.65625000000000000        0.0000000000000000     
  0.12500000000000000       0.68750000000000000        0.0000000000000000     
  0.15625000000000000       0.68750000000000000        0.0000000000000000     
  0.18750000000000000       0.68750000000000000        0.0000000000000000     
  0.21875000000000000       0.68750000000000000        0.0000000000000000     
  0.25000000000000000       0.68750000000000000        0.0000000000000000     
  0.12500000000000000       0.71875000000000000        0.0000000000000000     
  0.15625000000000000       0.71875000000000000        0.0000000000000000     
  0.18750000000000000       0.71875000000000000        0.0000000000000000     
  0.21875000000000000       0.71875000000000000        0.0000000000000000     
  0.25000000000000000       0.71875000000000000        0.0000000000000000     
  0.12500000000000000       0.75000000000000000        0.0000000000000000     
  0.15625000000000000       0.75000000000000000        0.0000000000000000     
  0.18750000000000000       0.75000000000000000        0.0000000000000000     
  0.21875000000000000       0.75000000000000000        0.0000000000000000     
  0.25000000000000000       0.75000000000000000        0.0000000000000000     
  0.25000000000000000       0.62500000000000000        0.0000000000000000     
  0.28125000000000000       0.62500000000000000        0.0000000000000000     
  0.31250000000000000       0.62500000000000000        0.0000000000000000     
  0.34375000000000000       0.62500000000000000        0.0000000000000000     
  0.37500000000000000       0.62500000000000000        0.0000000000000000     
  0.25000000000000000       0.65625000000000000        0.0000000000000000     
  0.28125000000000000       0.65625000000000000        0.0000000000000000     
  0.31250000000000000       0.65625000000000000        0.0000000000000000     
  0.34375000000000000       0.65625000000000000        0.0000000000000000     
  0.37500000000000000       0.65625000000000000        0.0000000000000000     
  0.25000000000000000       0.68750000000000000        0.0000000000000000     
  0.28125000000000000       0.68750000000000000        0.0000000000000000     
  0.31250000000000000       0.68750000000000000        0.0000000000000000     
  0.34375000000000000       0.68750000000000000        0.0000000000000000     
  0.37500000000000000       0.68750000000000000        0.0000000000000000     
  0.25000000000000000       0.71875000000000000        0.0000000000000000     
  0.28125000000000000       0.71875000000000000        0.0000000000000000     
  0.31250000000000000       0.71875000000000000        0.0000000000000000     
  0.34375000000000000       0.71875000000000000        0.0000000000000000     
  0.37500000000000000       0.71875000000000000        0.0000000000000000     
  0.25000000000000000       0.75000000000000000        0.0000000000000000     
  0.28125000000000000       0.75000000000000000        0.0000000000000000     
  0.31250000000000000       0.75000000000000000        0.0000000000000000     
  0.34375000000000000       0.75000000000000000        0.0000000000000000     
  0.37500000000000000       0.75000000000000000        0.0000000000000000     
  0.37500000000000000       0.62500000000000000        0.0000000000000000     
  0.40625000000000000       0.62500000000000000        0.0000000000000000     
  0.43750000000000000       0.62500000000000000        0.0000000000000000     
  0.46875000000000000       0.62500000000000000        0.0000000000000000     
  0.50000000000000000       0.62500000000000000        0.0000000000000000     
  0.37500000000000000       0.65625000000000000        0.0000000000000000     
  0.40625000000000000       0.65625000000000000        0.0000000000000000     
  0.43750000000000000       0.65625000000000000        0.0000000000000000     
  0.46875000000000000       0.65625000000000000        0.0000000000000000     
  0.50000000000000000       0.65625000000000000        0.0000000000000000     
  0.37500000000000000       0.68750000000000000        0.0000000000000000     
  0.40625000000000000       0.68750000000000000        0.0000000000000000     
  0.43750000000000000       0.68750000000000000        0.0000000000000000     
  0.46875000000000000       0.68750000000000000        0.0000000000000000     
  0.50000000000000000       0.68750000000000000        0.0000000000000000     
  0.37500000000000000       0.71875000000000000        0.0000000000000000     
  0.40625000000000000       0.71875000000000000        0.0000000000000000     
  0.43750000000000000       0.71875000000000000        0.0000000000000000     
  0.46875000000000000       0.71875000000000000        0.0000000000000000     
  0.50000000000000000       0.71875000000000000        0.0000000000000000     
  0.37500000000000000       0.75000000000000000        0.0000000000000000     
  0.40625000000000000       0.75000000000000000        0.0000000000000000     
  0.43750000000000000       0.75000000000000000        0.0000000000000000     
  0.46875000000000000       0.75000000000000000        0.0000000000000000     
  0.50000000000000000       0.75000000000000000        0.0000000000000000     
  0.50000000000000000       0.62500000000000000        0.0000000000000000     
  0.53125000000000000       0.62500000000000000        0.0000000000000000     
  0.56250000000000000       0.62500000000000000        0.0000000000000000     
  0.59375000000000000       0.62500000000000000        0.0000000000000000     
  0.62500000000000000       0.62500000000000000        0.0000000000000000     
  0.50000000000000000       0.65625000000000000        0.0000000000000000     
  0.53125000000000000       0.65625000000000000        0.0000000000000000     
  0.56250000000000000       0.65625000000000000        0.0000000000000000     
  0.59375000000000000       0.65625000000000000        0.0000000000000000     
  0.62500000000000000       0.65625000000000000        0.0000000000000000     
  0.50000000000000000       0.68750000000000000        0.0000000000000000     
  0.53125000000000000       0.68750000000000000        0.0000000000000000     
  0.56250000000000000       0.68750000000000000        0.0000000000000000     
  0.59375000000000000       0.68750000000000000        0.0000000000000000     
  0.62500000000000000       0.68750000000000000        0.0000000000000000     
  0.50000000000000000       0.71875000000000000        0.0000000000000000     
  0.53125000000000000       0.71875000000000000        0.0000000000000000     
  0.56250000000000000       0.71875000000000000        0.0000000000000000     
  0.59375000000000000       0.71875000000000000        0.0000000000000000     
  0.62500000000000000       0.71875000000000000        0.0000000000000000     
  0.50000000000000000       0.75000000000000000        0.0000000000000000     
  0.53125000000000000       0.75000000000000000        0.0000000000000000     
  0.56250000000000000       0.75000000000000000        0.0000000000000000     
  0.59375000000000000       0.75000000000000000        0.0000000000000000     
  0.62500000000000000       0.75000000000000000        0.0000000000000000     
  0.62500000000000000       0.62500000000000000        0.0000000000000000     
  0.65625000000000000       0.62500000000000000        0.0000000000000000     
  0.68750000000000000       0.62500000000000000        0.0000000000000000     
  0.71875000000000000       0.62500000000000000        0.0000000000000000     
  0.75000000000000000       0.62500000000000000        0.0000000000000000     
  0.62500000000000000       0.65625000000000000        0.0000000000000000     
  0.65625000000000000       0.65625000000000000        0.0000000000000000     
  0.68750000000000000       0.65625000000000000        0.0000000000000000     
  0.71875000000000000       0.65625000000000000        0.0000000000000000     
  0.75000000000000000       0.65625000000000000        0.0000000000000000     
  0.62500000000000000       0.68750000000000000        0.0000000000000000     
  0.65625000000000000       0.68750000000000000        0.0000000000000000     
  0.68750000000000000       0.68750000000000000        0.0000000000000000     
  0.71875000000000000       0.68750000000000000        0.0000000000000000     
  0.75000000000000000       0.68750000000000000        0.0000000000000000     
  0.62500000000000000       0.71875000000000000        0.0000000000000000     
  0.65625000000000000       0.71875000000000000        0.0000000000000000     
  0.68750000000000000       0.71875000000000000        0.0000000000000000     
  0.71875000000000000       0.71875000000000000        0.0000000000000000     
  0.75000000000000000       0.71875000000000000        0.0000000000000000     
  0.62500000000000000       0.75000000000000000        0.0000000000000000     
  0.65625000000000000       0.75000000000000000        0.0000000000000000     
  0.68750000000000000       0.75000000000000000        0.0000000000000000     
  0.71875000000000000       0.75000000000000000        0.0000000000000000     
  0.75000000000000000       0.75000000000000000        0.0000000000000000     
  0.75000000000000000       0.62500000000000000        0.0000000000000000     
  0.78125000000000000       0.62500000000000000        0.0000000000000000     
  0.81250000000000000       0.62500000000000000        0.0000000000000000     
  0.84375000000000000       0.62500000000000000        0.0000000000000000     
  0.87500000000000000       0.62500000000000000        0.0000000000000000     
  0.75000000000000000       0.65625000000000000        0.0000000000000000     
  0.78125000000000000       0.65625000000000000        0.0000000000000000     
  0.81250000000000000       0.65625000000000000        0.0000000000000000     
  0.84375000000000000       0.65625000000000000        0.0000000000000000     
  0.87500000000000000       0.65625000000000000        0.0000000000000000     
  0.75000000000000000       0.68750000000000000        0.0000000000000000     
  0.78125000000000000       0.68750000000000000        0.0000000000000000     
  0.81250000000000000       0.68750000000000000        0.0000000000000000     
  0.84375000000000000       0.68750000000000000        0.0000000000000000     
  0.87500000000000000       0.68750000000000000        0.0000000000000000     
  0.75000000000000000       0.71875000000000000        0.0000000000000000     
  0.78125000000000000       0.71875000000000000        0.0000000000000000     
  0.81250000000000000       0.71875000000000000        0.0000000000000000     
  0.84375000000000000       0.71875000000000000        0.0000000000000000     
  0.87500000000000000       0.71875000000000000        0.0000000000000000     
  0.75000000000000000       0.75000000000000000        0.0000000000000000     
  0.78125000000000000       0.75000000000000000        0.0000000000000000     
  0.81250000000000000       0.75000000000000000        0.0000000000000000     
  0.84375000000000000       0.75000000000000000        0.0000000000000000     
  0.87500000000000000       0.75000000000000000        0.0000000000000000     
  0.87500000000000000       0.62500000000000000        0.0000000000000000     
  0.90625000000000000       0.62500000000000000        0.0000000000000000     
  0.93750000000000000       0.62500000000000000        0.0000000000000000     
  0.96875000000000000       0.62500000000000000        0.0000000000000000     
   1.0000000000000000       0.62500000000000000        0.0000000000000000     
  0.87500000000000000       0.65625000000000000        0.0000000000000000     
  0.90625000000000000       0.65625000000000000        0.0000000000000000     
  0.93750000000000000       0.65625000000000000        0.0000000000000000     
  0.96875000000000000       0.65625000000000000        0.0000000000000000     
   1.0000000000000000       0.65625000000000000        0.0000000000000000     
  0.87500000000000000       0.68750000000000000        0.0000000000000000     
  0.90625000000000000       0.68750000000000000        0.0000000000000000     
  0.93750000000000000       0.68750000000000000        0.0000000000000000     
  0.96875000000000000       0.68750000000000000        0.0000000000000000     
   1.0000000000000000       0.68750000000000000        0.0000000000000000     
  0.87500000000000000       0.71875000000000000        0.0000000000000000     
  0.90625000000000000       0.71875000000000000        0.0000000000000000     
  0.93750000000000000       0.71875000000000000        0.0000000000000000     
  0.96875000000000000       0.71875000000000000        0.0000000000000000     
   1.0000000000000000       0.71875000000000000        0.0000000000000000     
  0.87500000000000000       0.75000000000000000        0.0000000000000000     
  0.90625000000000000       0.75000000000000000        0.0000000000000000     
  0.93750000000000000       0.75000000000000000        0.0000000000000000     
  0.96875000000000000       0.75000000000000000        0.0000000000000000     
   1.0000000000000000       0.75000000000000000        0.0000000000000000     
   0.0000000000000000       0.75000000000000000        0.0000000000000000     
   3.1250000000000000E-002  0.75000000000000000        0.0000000000000000     
   6.2500000000000000E-002  0.75000000000000000        0.0000000000000000     
   9.3750000000000000E-002  0.75000000000000000        0.0000000000000000     
  0.12500000000000000       0.75000000000000000        0.0000000000000000     
   0.0000000000000000       0.78125000000000000        0.0000000000000000     
   3.1250000000000000E-002  0.78125000000000000        0.0000000000000000     
   6.2500000000000000E-002  0.78125000000000000        0.0000000000000000     
   9.3750000000000000E-002  0.78125000000000000        0.0000000000000000     
  0.12500000000000000       0.78125000000000000        0.0000000000000000     
   0.0000000000000000       0.81250000000000000        0.0000000000000000     
   3.1250000000000000E-002  0.81250000000000000        0.0000000000000000     
   6.2500000000000000E-002  0.81250000000000000        0.0000000000000000     
   9.3750000000000000E-002  0.81250000000000000        0.0000000000000000     
  0.12500000000000000       0.81250000000000000        0.0000000000000000     
   0.0000000000000000       0.84375000000000000        0.0000000000000000     
   3.1250000000000000E-002  0.84375000000000000        0.0000000000000000     
   6.2500000000000000E-002  0.84375000000000000        0.0000000000000000     
   9.3750000000000000E-002  0.84375000000000000        0.0000000000000000     
  0.12500000000000000       0.84375000000000000        0.0000000000000000     
   0.0000000000000000       0.87500000000000000        0.0000000000000000     
   3.1250000000000000E-002  0.87500000000000000        0.0000000000000000     
   6.2500000000000000E-002  0.87500000000000000        0.0000000000000000     
   9.3750000000000000E-002  0.87500000000000000        0.0000000000000000     
  0.12500000000000000       0.87500000000000000        0.0000000000000000     
  0.12500000000000000       0.75000000000000000        0.0000000000000000     
  0.15625000000000000       0.75000000000000000        0.0000000000000000     
  0.18750000000000000       0.75000000000000000        0.0000000000000000     
  0.21875000000000000       0.75000000000000000        0.0000000000000000     
  0.25000000000000000       0.75000000000000000        0.0000000000000000     
  0.12500000000000000       0.78125000000000000        0.0000000000000000     
  0.15625000000000000       0.78125000000000000        0.0000000000000000     
  0.18750000000000000       0.78125000000000000        0.0000000000000000     
  0.21875000000000000       0.78125000000000000        0.0000000000000000     
  0.25000000000000000       0.78125000000000000        0.0000000000000000     
  0.12500000000000000       0.81250000000000000        0.0000000000000000     
  0.15625000000000000       0.81250000000000000        0.0000000000000000     
  0.18750000000000000       0.81250000000000000        0.0000000000000000     
  0.21875000000000000       0.81250000000000000        0.0000000000000000     
  0.25000000000000000       0.81250000000000000        0.0000000000000000     
  0.12500000000000000       0.84375000000000000        0.0000000000000000     
  0.15625000000000000       0.84375000000000000        0.0000000000000000     
  0.18750000000000000       0.84375000000000000        0.0000000000000000     
  0.21875000000000000       0.84375000000000000        0.0000000000000000     
  0.25000000000000000       0.84375000000000000        0.0000000000000000     
  0.12500000000000000       0.87500000000000000        0.0000000000000000     
  0.15625000000000000       0.87500000000000000        0.0000000000000000     
  0.18750000000000000       0.87500000000000000        0.0000000000000000     
  0.21875000000000000       0.87500000000000000        0.0000000000000000     
  0.25000000000000000       0.87500000000000000        0.0000000000000000     
  0.25000000000000000       0.75000000000000000        0.0000000000000000     
  0.28125000000000000       0.75000000000000000        0.0000000000000000     
  0.31250000000000000       0.75000000000000000        0.0000000000000000     
  0.34375000000000000       0.75000000000000000        0.0000000000000000     
  0.37500000000000000       0.75000000000000000        0.0000000000000000     
  0.25000000000000000       0.78125000000000000        0.0000000000000000     
  0.28125000000000000       0.78125000000000000        0.0000000000000000     
  0.31250000000000000       0.78125000000000000        0.0000000000000000     
  0.34375000000000000       0.78125000000000000        0.0000000000000000     
  0.37500000000000000       0.78125000000000000        0.0000000000000000     
  0.25000000000000000       0.81250000000000000        0.0000000000000000     
  0.28125000000000000       0.81250000000000000        0.0000000000000000     
  0.31250000000000000       0.81250000000000000        0.0000000000000000     
  0.34375000000000000       0.81250000000000000        0.0000000000000000     
  0.37500000000000000       0.81250000000000000        0.0000000000000000     
  0.25000000000000000       0.84375000000000000        0.0000000000000000     
  0.28125000000000000       0.84375000000000000        0.0000000000000000     
  0.31250000000000000       0.84375000000000000        0.0000000000000000     
  0.34375000000000000       0.84375000000000000        0.0000000000000000     
  0.37500000000000000       0.84375000000000000        0.0000000000000000     
  0.25000000000000000       0.87500000000000000        0.0000000000000000     
  0.28125000000000000       0.87500000000000000        0.0000000000000000     
  0.31250000000000000       0.87500000000000000        0.0000000000000000     
  0.34375000000000000       0.87500000000000000        0.0000000000000000     
  0.37500000000000000       0.87500000000000000        0.0000000000000000     
  0.37500000000000000       0.75000000000000000        0.0000000000000000     
  0.40625000000000000       0.75000000000000000        0.0000000000000000     
  0.43750000000000000       0.75000000000000000        0.0000000000000000     
  0.46875000000000000       0.75000000000000000        0.0000000000000000     
  0.50000000000000000       0.75000000000000000        0.0000000000000000     
  0.37500000000000000       0.78125000000000000        0.0000000000000000     
  0.40625000000000000       0.78125000000000000        0.0000000000000000     
  0.43750000000000000       0.78125000000000000        0.0000000000000000     
  0.46875000000000000       0.78125000000000000        0.0000000000000000     
  0.50000000000000000       0.78125000000000000        0.0000000000000000     
  0.37500000000000000       0.81250000000000000        0.0000000000000000     
  0.40625000000000000       0.81250000000000000        0.0000000000000000     
  0.43750000000000000       0.81250000000000000        0.0000000000000000     
  0.46875000000000000       0.81250000000000000        0.0000000000000000     
  0.50000000000000000       0.81250000000000000        0.0000000000000000     
  0.37500000000000000       0.84375000000000000        0.0000000000000000     
  0.40625000000000000       0.84375000000000000        0.0000000000000000     
  0.43750000000000000       0.84375000000000000        0.0000000000000000     
  0.46875000000000000       0.84375000000000000        0.0000000000000000     
  0.50000000000000000       0.84375000000000000        0.0000000000000000     
  0.37500000000000000       0.87500000000000000        0.0000000000000000     
  0.40625000000000000       0.87500000000000000        0.0000000000000000     
  0.43750000000000000       0.87500000000000000        0.0000000000000000     
  0.46875000000000000       0.87500000000000000        0.0000000000000000     
  0.50000000000000000       0.87500000000000000        0.0000000000000000     
  0.50000000000000000       0.75000000000000000        0.0000000000000000     
  0.53125000000000000       0.75000000000000000        0.0000000000000000     
  0.56250000000000000       0.75000000000000000        0.0000000000000000     
  0.59375000000000000       0.75000000000000000        0.0000000000000000     
  0.62500000000000000       0.75000000000000000        0.0000000000000000     
  0.50000000000000000       0.78125000000000000        0.0000000000000000     
  0.53125000000000000       0.78125000000000000        0.0000000000000000     
  0.56250000000000000       0.78125000000000000        0.0000000000000000     
  0.59375000000000000       0.78125000000000000        0.0000000000000000     
  0.62500000000000000       0.78125000000000000        0.0000000000000000     
  0.50000000000000000       0.81250000000000000        0.0000000000000000     
  0.53125000000000000       0.81250000000000000        0.0000000000000000     
  0.56250000000000000       0.81250000000000000        0.0000000000000000     
  0.59375000000000000       0.81250000000000000        0.0000000000000000     
  0.62500000000000000       0.81250000000000000        0.0000000000000000     
  0.50000000000000000       0.84375000000000000        0.0000000000000000     
  0.53125000000000000       0.84375000000000000        0.0000000000000000     
  0.56250000000000000       0.84375000000000000        0.0000000000000000     
  0.59375000000000000       0.84375000000000000        0.0000000000000000     
  0.62500000000000000       0.84375000000000000        0.0000000000000000     
  0.50000000000000000       0.87500000000000000        0.0000000000000000     
  0.53125000000000000       0.87500000000000000        0.0000000000000000     
  0.56250000000000000       0.87500000000000000        0.0000000000000000     
  0.59375000000000000       0.87500000000000000        0.0000000000000000     
  0.62500000000000000       0.87500000000000000        0.0000000000000000     
  0.62500000000000000       0.75000000000000000        0.0000000000000000     
  0.65625000000000000       0.75000000000000000        0.0000000000000000     
  0.68750000000000000       0.75000000000000000        0.0000000000000000     
  0.71875000000000000       0.75000000000000000        0.0000000000000000     
  0.75000000000000000       0.75000000000000000        0.0000000000000000     
  0.62500000000000000       0.78125000000000000        0.0000000000000000     
  0.65625000000000000       0.78125000000000000        0.0000000000000000     
  0.68750000000000000       0.78125000000000000        0.0000000000000000     
  0.71875000000000000       0.78125000000000000        0.0000000000000000     
  0.75000000000000000       0.78125000000000000        0.0000000000000000     
  0.62500000000000000       0.81250000000000000        0.0000000000000000     
  0.65625000000000000       0.81250000000000000        0.0000000000000000     
  0.68750000000000000       0.81250000000000000        0.0000000000000000     
  0.71875000000000000       0.81250000000000000        0.0000000000000000     
  0.75000000000000000       0.81250000000000000        0.0000000000000000     
  0.62500000000000000       0.84375000000000000        0.0000000000000000     
  0.65625000000000000       0.84375000000000000        0.0000000000000000     
  0.68750000000000000       0.84375000000000000        0.0000000000000000     
  0.71875000000000000       0.84375000000000000        0.0000000000000000     
  0.75000000000000000       0.84375000000000000        0.0000000000000000     
  0.62500000000000000       0.87500000000000000        0.0000000000000000     
  0.65625000000000000       0.87500000000000000        0.0000000000000000     
  0.68750000000000000       0.87500000000000000        0.0000000000000000     
  0.71875000000000000       0.87500000000000000        0.0000000000000000     
  0.75000000000000000       0.87500000000000000        0.0000000000000000     
  0.75000000000000000       0.75000000000000000        0.0000000000000000     
  0.78125000000000000       0.75000000000000000        0.0000000000000000     
  0.81250000000000000       0.75000000000000000        0.0000000000000000     
  0.84375000000000000       0.75000000000000000        0.0000000000000000     
  0.87500000000000000       0.75000000000000000        0.0000000000000000     
  0.75000000000000000       0.78125000000000000        0.0000000000000000     
  0.78125000000000000       0.78125000000000000        0.0000000000000000     
  0.81250000000000000       0.78125000000000000        0.0000000000000000     
  0.84375000000000000       0.78125000000000000        0.0000000000000000     
  0.87500000000000000       0.78125000000000000        0.0000000000000000     
  0.75000000000000000       0.81250000000000000        0.0000000000000000     
  0.78125000000000000       0.81250000000000000        0.0000000000000000     
  0.81250000000000000       0.81250000000000000        0.0000000000000000     
  0.84375000000000000       0.81250000000000000        0.0000000000000000     
  0.87500000000000000       0.81250000000000000        0.0000000000000000     
  0.75000000000000000       0.84375000000000000        0.0000000000000000     
  0.78125000000000000       0.84375000000000000        0.0000000000000000     
  0.81250000000000000       0.84375000000000000        0.0000000000000000     
  0.84375000000000000       0.84375000000000000        0.0000000000000000     
  0.87500000000000000       0.84375000000000000        0.0000000000000000     
  0.75000000000000000       0.87500000000000000        0.0000000000000000     
  0.78125000000000000       0.87500000000000000        0.0000000000000000     
  0.81250000000000000       0.87500000000000000        0.0000000000000000     
  0.84375000000000000       0.87500000000000000        0.0000000000000000     
  0.87500000000000000       0.87500000000000000        0.0000000000000000     
  0.87500000000000000       0.75000000000000000        0.0000000000000000     
  0.90625000000000000       0.75000000000000000        0.0000000000000000     
  0.93750000000000000       0.75000000000000000        0.0000000000000000     
  0.96875000000000000       0.75000000000000000        0.0000000000000000     
   1.0000000000000000       0.75000000000000000        0.0000000000000000     
  0.87500000000000000       0.78125000000000000        0.0000000000000000     
  0.90625000000000000       0.78125000000000000        0.0000000000000000     
  0.93750000000000000       0.78125000000000000        0.0000000000000000     
  0.96875000000000000       0.78125000000000000        0.0000000000000000     
   1.0000000000000000       0.78125000000000000        0.0000000000000000     
  0.87500000000000000       0.81250000000000000        0.0000000000000000     
  0.90625000000000000       0.81250000000000000        0.0000000000000000     
  0.93750000000000000       0.81250000000000000        0.0000000000000000     
  0.96875000000000000       0.81250000000000000        0.0000000000000000     
   1.0000000000000000       0.81250000000000000        0.0000000000000000     
  0.87500000000000000       0.84375000000000000        0.0000000000000000     
  0.90625000000000000       0.84375000000000000        0.0000000000000000     
  0.93750000000000000       0.84375000000000000        0.0000000000000000     
  0.96875000000000000       0.84375000000000000        0.0000000000000000     
   1.0000000000000000       0.84375000000000000        0.0000000000000000     
  0.87500000000000000       0.87500000000000000        0.0000000000000000     
  0.90625000000000000       0.87500000000000000        0.0000000000000000     
  0.93750000000000000       0.87500000000000000        0.0000000000000000     
  0.96875000000000000       0.87500000000000000        0.0000000000000000     
   1.0000000000000000       0.87500000000000000        0.0000000000000000     
   0.0000000000000000       0.87500000000000000        0.0000000000000000     
   3.1250000000000000E-002  0.87500000000000000        0.0000000000000000     
   6.2500000000000000E-002  0.87500000000000000        0.0000000000000000     
   9.3750000000000000E-002  0.87500000000000000        0.0000000000000000     
  0.12500000000000000       0.87500000000000000        0.0000000000000000     
   0.0000000000000000       0.90625000000000000        0.0000000000000000     
   3.1250000000000000E-002  0.90625000000000000        0.0000000000000000     
   6.2500000000000000E-002  0.90625000000000000        0.0000000000000000     
   9.3750000000000000E-002  0.90625000000000000        0.0000000000000000     
  0.12500000000000000       0.90625000000000000        0.0000000000000000     
   0.0000000000000000       0.93750000000000000        0.0000000000000000     
   3.1250000000000000E-002  0.93750000000000000        0.0000000000000000     
   6.2500000000000000E-002  0.93750000000000000        0.0000000000000000     
   9.3750000000000000E-002  0.93750000000000000        0.0000000000000000     
  0.12500000000000000       0.93750000000000000        0.0000000000000000     
   0.0000000000000000       0.96875000000000000        0.0000000000000000     
   3.1250000000000000E-002  0.96875000000000000        0.0000000000000000     
   6.2500000000000000E-002  0.96875000000000000        0.0000000000000000     
   9.3750000000000000E-002  0.96875000000000000        0.0000000000000000     
  0.12500000000000000       0.96875000000000000        0.0000000000000000     
   0.0000000000000000        1.0000000000000000        0.0000000000000000     
   3.1250000000000000E-002   1.0000000000000000        0.0000000000000000     
   6.2500000000000000E-002   1.0000000000000000        0.0000000000000000     
   9.3750000000000000E-002   1.0000000000000000        0.0000000000000000     
  0.12500000000000000        1.0000000000000000        0.0000000000000000     
  0.12500000000000000       0.87500000000000000        0.0000000000000000     
  0.15625000000000000       0.87500000000000000        0.0000000000000000     
  0.18750000000000000       0.87500000000000000        0.0000000000000000     
  0.21875000000000000       0.87500000000000000        0.0000000000000000     
  0.25000000000000000       0.87500000000000000        0.0000000000000000     
  0.12500000000000000       0.90625000000000000        0.0000000000000000     
  0.15625000000000000       0.90625000000000000        0.0000000000000000     
  0.18750000000000000       0.90625000000000000        0.0000000000000000     
  0.21875000000000000       0.90625000000000000        0.0000000000000000     
  0.25000000000000000       0.90625000000000000        0.0000000000000000     
  0.12500000000000000       0.93750000000000000        0.0000000000000000     
  0.15625000000000000       0.93750000000000000        0.0000000000000000     
  0.18750000000000000       0.93750000000000000        0.0000000000000000     
  0.21875000000000000       0.93750000000000000        0.0000000000000000     
  0.25000000000000000       0.93750000000000000        0.0000000000000000     
  0.12500000000000000       0.96875000000000000        0.0000000000000000     
  0.15625000000000000       0.96875000000000000        0.0000000000000000     
  0.18750000000000000       0.96875000000000000        0.0000000000000000     
  0.21875000000000000       0.96875000000000000        0.0000000000000000     
  0.25000000000000000       0.96875000000000000        0.0000000000000000     
  0.12500000000000000        1.0000000000000000        0.0000000000000000     
  0.15625000000000000        1.0000000000000000        0.0000000000000000     
  0.18750000000000000        1.0000000000000000        0.0000000000000000     
  0.21875000000000000        1.0000000000000000        0.0000000000000000     
  0.25000000000000000        1.0000000000000000        0.0000000000000000     
  0.25000000000000000       0.87500000000000000        0.0000000000000000     
  0.28125000000000000       0.87500000000000000        0.0000000000000000     
  0.31250000000000000       0.87500000000000000        0.0000000000000000     
  0.34375000000000000       0.87500000000000000        0.0000000000000000     
  0.37500000000000000       0.87500000000000000        0.0000000000000000     
  0.25000000000000000       0.90625000000000000        0.0000000000000000     
  0.28125000000000000       0.90625000000000000        0.0000000000000000     
  0.31250000000000000       0.90625000000000000        0.0000000000000000     
  0.34375000000000000       0.90625000000000000        0.0000000000000000     
  0.37500000000000000       0.90625000000000000        0.0000000000000000     
  0.25000000000000000       0.93750000000000000        0.0000000000000000     
  0.28125000000000000       0.93750000000000000        0.0000000000000000     
  0.31250000000000000       0.93750000000000000        0.0000000000000000     
  0.34375000000000000       0.93750000000000000        0.0000000000000000     
  0.37500000000000000       0.93750000000000000        0.0000000000000000     
  0.25000000000000000       0.96875000000000000        0.0000000000000000     
  0.28125000000000000       0.96875000000000000        0.0000000000000000     
  0.31250000000000000       0.96875000000000000        0.0000000000000000     
  0.34375000000000000       0.96875000000000000        0.0000000000000000     
  0.37500000000000000       0.96875000000000000        0.0000000000000000     
  0.25000000000000000        1.0000000000000000        0.0000000000000000     
  0.28125000000000000        1.0000000000000000        0.0000000000000000     
  0.31250000000000000        1.0000000000000000        0.0000000000000000     
  0.34375000000000000        1.0000000000000000        0.0000000000000000     
  0.37500000000000000        1.0000000000000000        0.0000000000000000     
  0.37500000000000000       0.87500000000000000        0.0000000000000000     
  0.40625000000000000       0.87500000000000000        0.0000000000000000     
  0.43750000000000000       0.87500000000000000        0.0000000000000000     
  0.46875000000000000       0.87500000000000000        0.0000000000000000     
  0.50000000000000000       0.87500000000000000        0.0000000000000000     
  0.37500000000000000       0.90625000000000000        0.0000000000000000     
  0.40625000000000000       0.90625000000000000        0.0000000000000000     
  0.43750000000000000       0.90625000000000000        0.0000000000000000     
  0.46875000000000000       0.90625000000000000        0.0000000000000000     
  0.50000000000000000       0.90625000000000000        0.0000000000000000     
  0.37500000000000000       0.93750000000000000        0.0000000000000000     
  0.40625000000000000       0.93750000000000000        0.0000000000000000     
  0.43750000000000000       0.93750000000000000        0.0000000000000000     
  0.46875000000000000       0.93750000000000000        0.0000000000000000     
  0.50000000000000000       0.93750000000000000        0.0000000000000000     
  0.37500000000000000       0.96875000000000000        0.0000000000000000     
  0.40625000000000000       0.96875000000000000        0.0000000000000000     
  0.43750000000000000       0.96875000000000000        0.0000000000000000     
  0.46875000000000000       0.96875000000000000        0.0000000000000000     
  0.50000000000000000       0.96875000000000000        0.0000000000000000     
  0.37500000000000000        1.0000000000000000        0.0000000000000000     
  0.40625000000000000        1.0000000000000000        0.0000000000000000     
  0.43750000000000000        1.0000000000000000        0.0000000000000000     
  0.46875000000000000        1.0000000000000000        0.0000000000000000     
  0.50000000000000000        1.0000000000000000        0.0000000000000000     
  0.50000000000000000       0.87500000000000000        0.0000000000000000     
  0.53125000000000000       0.87500000000000000        0.0000000000000000     
  0.56250000000000000       0.87500000000000000        0.0000000000000000     
  0.59375000000000000       0.87500000000000000        0.0000000000000000     
  0.62500000000000000       0.87500000000000000        0.0000000000000000     
  0.50000000000000000       0.90625000000000000        0.0000000000000000     
  0.53125000000000000       0.90625000000000000        0.0000000000000000     
  0.56250000000000000       0.90625000000000000        0.0000000000000000     
  0.59375000000000000       0.90625000000000000        0.0000000000000000     
  0.62500000000000000       0.90625000000000000        0.0000000000000000     
  0.50000000000000000       0.93750000000000000        0.0000000000000000     
  0.53125000000000000       0.93750000000000000        0.0000000000000000     
  0.56250000000000000       0.93750000000000000        0.0000000000000000     
  0.59375000000000000       0.93750000000000000        0.0000000000000000     
  0.62500000000000000       0.93750000000000000        0.0000000000000000     
  0.50000000000000000       0.96875000000000000        0.0000000000000000     
  0.53125000000000000       0.96875000000000000        0.0000000000000000     
  0.56250000000000000       0.96875000000000000        0.0000000000000000     
  0.59375000000000000       0.96875000000000000        0.0000000000000000     
  0.62500000000000000       0.96875000000000000        0.0000000000000000     
  0.50000000000000000        1.0000000000000000        0.0000000000000000     
  0.53125000000000000        1.0000000000000000        0.0000000000000000     
  0.56250000000000000        1.0000000000000000        0.0000000000000000     
  0.59375000000000000        1.0000000000000000        0.0000000000000000     
  0.62500000000000000        1.0000000000000000        0.0000000000000000     
  0.62500000000000000       0.87500000000000000        0.0000000000000000     
  0.65625000000000000       0.87500000000000000        0.0000000000000000     
  0.68750000000000000       0.87500000000000000        0.0000000000000000     
  0.71875000000000000       0.87500000000000000        0.0000000000000000     
  0.75000000000000000       0.87500000000000000        0.0000000000000000     
  0.62500000000000000       0.90625000000000000        0.0000000000000000     
  0.65625000000000000       0.90625000000000000        0.0000000000000000     
  0.68750000000000000       0.90625000000000000        0.0000000000000000     
  0.71875000000000000       0.90625000000000000        0.0000000000000000     
  0.75000000000000000       0.90625000000000000        0.0000000000000000     
  0.62500000000000000       0.93750000000000000        0.0000000000000000     
  0.65625000000000000       0.93750000000000000        0.0000000000000000     
  0.68750000000000000       0.93750000000000000        0.0000000000000000     
  0.71875000000000000       0.93750000000000000        0.0000000000000000     
  0.75000000000000000       0.93750000000000000        0.0000000000000000     
  0.62500000000000000       0.96875000000000000        0.0000000000000000     
  0.65625000000000000       0.96875000000000000        0.0000000000000000     
  0.68750000000000000       0.96875000000000000        0.0000000000000000     
  0.71875000000000000       0.96875000000000000        0.0000000000000000     
  0.75000000000000000       0.96875000000000000        0.0000000000000000     
  0.62500000000000000        1.0000000000000000        0.0000000000000000     
  0.65625000000000000        1.0000000000000000        0.0000000000000000     
  0.68750000000000000        1.0000000000000000        0.0000000000000000     
  0.71875000000000000        1.0000000000000000        0.0000000000000000     
  0.75000000000000000        1.0000000000000000        0.0000000000000000     
  0.75000000000000000       0.87500000000000000        0.0000000000000000     
  0.78125000000000000       0.87500000000000000        0.0000000000000000     
  0.81250000000000000       0.87500000000000000        0.0000000000000000     
  0.84375000000000000       0.87500000000000000        0.0000000000000000     
  0.87500000000000000       0.87500000000000000        0.0000000000000000     
  0.75000000000000000       0.90625000000000000        0.0000000000000000     
  0.78125000000000000       0.90625000000000000        0.0000000000000000     
  0.81250000000000000       0.90625000000000000        0.0000000000000000     
  0.84375000000000000       0.90625000000000000        0.0000000000000000     
  0.87500000000000000       0.90625000000000000        0.0000000000000000     
  0.75000000000000000       0.93750000000000000        0.0000000000000000     
  0.78125000000000000       0.93750000000000000        0.0000000000000000     
  0.81250000000000000       0.93750000000000000        0.0000000000000000     
  0.84375000000000000       0.93750000000000000        0.0000000000000000     
  0.87500000000000000       0.93750000000000000        0.0000000000000000     
  0.75000000000000000       0.96875000000000000        0.0000000000000000     
  0.78125000000000000       0.96875000000000000        0.0000000000000000     
  0.81250000000000000       0.96875000000000000        0.0000000000000000     
  0.84375000000000000       0.96875000000000000        0.0000000000000000     
  0.87500000000000000       0.96875000000000000        0.0000000000000000     
  0.75000000000000000        1.0000000000000000        0.0000000000000000     
  0.78125000000000000        1.0000000000000000        0.0000000000000000     
  0.81250000000000000        1.0000000000000000        0.0000000000000000     
  0.84375000000000000        1.0000000000000000        0.0000000000000000     
  0.87500000000000000        1.0000000000000000        0.0000000000000000     
  0.87500000000000000       0.87500000000000000        0.0000000000000000     
  0.90625000000000000       0.87500000000000000        0.0000000000000000     
  0.93750000000000000       0.87500000000000000        0.0000000000000000     
  0.96875000000000000       0.87500000000000000        0.0000000000000000     
   1.0000000000000000       0.87500000000000000        0.0000000000000000     
  0.87500000000000000       0.90625000000000000        0.0000000000000000     
  0.90625000000000000       0.90625000000000000        0.0000000000000000     
  0.93750000000000000       0.90625000000000000        0.0000000000000000     
  0.96875000000000000       0.90625000000000000        0.0000000000000000     
   1.0000000000000000       0.90625000000000000        0.0000000000000000     
  0.87500000000000000       0.93750000000000000        0.0000000000000000     
  0.90625000000000000       0.93750000000000000        0.0000000000000000     
  0.93750000000000000       0.93750000000000000        0.0000000000000000     
  0.96875000000000000       0.93750000000000000        0.0000000000000000     
   1.0000000000000000       0.93750000000000000        0.0000000000000000     
  0.87500000000000000       0.96875000000000000        0.0000000000000000     
  0.90625000000000000       0.96875000000000000        0.0000000000000000     
  0.93750000000000000       0.96875000000000000        0.0000000000000000     
  0.96875000000000000       0.96875000000000000        0.0000000000000000     
   1.0000000000000000       0.96875000000000000        0.0000000000000000     
  0.87500000000000000        1.0000000000000000        0.0000000000000000     
  0.90625000000000000        1.0000000000000000        0.0000000000000000     
  0.93750000000000000        1.0000000000000000        0.0000000000000000     
  0.96875000000000000        1.0000000000000000        0.0000000000000000     
   1.0000000000000000        1.0000000000000000        0.0000000000000000     
 </DataArray>
 </Points>
 <Cells>
 <DataArray  type="Int32"  Name="connectivity"  format="ascii">
           0           1           6           5
           1           2           7           6
           2           3           8           7
           3           4           9           8
           5           6          11          10
           6           7          12          11
           7           8          13          12
           8           9          14          13
          10          11          16          15
          11          12          17          16
          12          13          18          17
          13          14          19          18
          15          16          21          20
          16          17          22          21
          17          18          23          22
          18          19          24          23
          25          26          31          30
          26          27          32          31
          27          28          33          32
          28          29          34          33
          30          31          36          35
          31          32          37          36
          32          33          38          37
          33          34          39          38
          35          36          41          40
          36          37          42          41
          37          38          43          42
          38          39          44          43
          40          41          46          45
          41          42          47          46
          42          43          48          47
          43          44          49          48
          50          51          56          55
          51          52          57          56
          52          53          58          57
          53          54          59          58
          55          56          61          60
          56          57          62          61
          57          58          63          62
          58          59          64          63
          60          61          66          65
          61          62          67          66
          62          63          68          67
          63          64          69          68
          65          66          71          70
          66          67          72          71
          67          68          73          72
          68          69          74          73
          75          76          81          80
          76          77          82          81
          77          78          83          82
          78          79          84          83
          80          81          86          85
          81          82          87          86
          82          83          88          87
          83          84          89          88
          85          86          91          90
          86          87          92          91
          87          88          93          92
          88          89          94          93
          90          91          96          95
          91          92          97          96
          92          93          98          97
          93          94          99          98
         100         101         106         105
         101         102         107         106
         102         103         108         107
         103         104         109         108
         105         106         111         110
         106         107         112         111
         107         108         113         112
         108         109         114         113
         110         111         116         115
         111         112         117         116
         112         113         118         117
         113         114         119         118
         115         116         121         120
         116         117         122         121
         117         118         123         122
         118         119         124         123
         125         126         131         130
         126         127         132         131
         127         128         133         132
         128         129         134         133
         130         131         136         135
         131         132         137         136
         132         133         138         137
         133         134         139         138
         135         136         141         140
         136         137         142         141
         137         138         143         142
         138         139         144         143
         140         141         146         145
         141         142         147         146
         142         143         148         147
         143         144         149         148
         150         151         156         155
         151         152         157         156
         152         153         158         157
         153         154         159         158
         155         156         161         160
         156         157         162         161
         157         158         163         162
         158         159         164         163
         160         161         166         165
         161         162         167         166
         162         163         168         167
         163         164         169         168
         165         166         171         170
         166         167         172         171
         167         168         173         172
         168         169         174         173
         175         176         181         180
         176         177         182         181
         177         178         183         182
         178         179         184         183
         180         181         186         185
         181         182         187         186
         182         183         188         187
         183         184         189         188
         185         186         191         190
         186         187         192         191
         187         188         193         192
         188         189         194         193
         190         191         196         195
         191         192         197         196
         192         193         198         197
         193         194         199         198
         200         201         206         205
         201         202         207         206
         202         203         208         207
         203         204         209         208
         205         206         211         210
         206         207         212         211
         207         208         213         212
         208         209         214         213
         210         211         216         215
         211         212         217         216
         212         213         218         217
         213         214         219         218
         215         216         221         220
         216         217         222         221
         217         218         223         222
         218         219         224         223
         225         226         231         230
         226         227         232         231
         227         228         233         232
         228         229         234         233
         230         231         236         235
         231         232         237         236
         232         233         238         237
         233         234         239         238
         235         236         241         240
         236         237         242         241
         237         238         243         242
         238         239         244         243
         240         241         246         245
         241         242         247         246
         242         243         248         247
         243         244         249         248
         250         251         256         255
         251         252         257         256
         252         253         258         257
         253         254         259         258
         255         256         261         260
         256         257         262         261
         257         258         263         262
         258         259         264         263
         260         261         266         265
         261         262         267         266
         262         263         268         267
         263         264         269         268
         265         266         271         270
         266         267         272         271
         267         268         273         272
         268         269         274         273
         275         276         281         280
         276         277         282         281
         277         278         283         282
         278         279         284         283
         280         281         286         285
         281         282         287         286
         282         283         288         287
         283         284         289         288
         285         286         291         290
         286         287         292         291
         287         288         293         292
         288         289         294         293
         290         291         296         295
         291         292         297         296
         292         293         298         297
         293         294         299         298
         300         301         306         305
         301         302         307         306
         302         303         308         307
         303         304         309         308
         305         306         311         310
         306         307         312         311
         307         308         313         312
         308         309         314         313
         310         311         316         315
         311         312         317         316
         312         313         318         317
         313         314         319         318
         315         316         321         320
         316         317         322         321
         317         318         323         322
         318         319         324         323
         325         326         331         330
         326         327         332         331
         327         328         333         332
         328         329         334         333
         330         331         336         335
         331         332         337         336
         332         333         338         337
         333         334         339         338
         335         336         341         340
         336         337         342         341
         337         338         343         342
         338         339         344         343
         340         341         346         345
         341         342         347         346
         342         343         348         347
         343         344         349         348
         350         351         356         355
         351         352         357         356
         352         353         358         357
         353         354         359         358
         355         356         361         360
         356         357         362         361
         357         358         363         362
         358         359         364         363
         360         361         366         365
         361         362         367         366
         362         363         368         367
         363         364         369         368
         365         366         371         370
         366         367         372         371
         367         368         373         372
         368         369         374         373
         375         376         381         380
         376         377         382         381
         377         378         383         382
         378         379         384         383
         380         381         386         385
         381         382         387         386
         382         383         388         387
         383         384         389         388
         385         386         391         390
         386         387         392         391
         387         388         393         392
         388         389         394         393
         390         391         396         395
         391         392         397         396
         392         393         398         397
         393         394         399         398
         400         401         406         405
         401         402         407         406
         402         403         408         407
         403         404         409         408
         405         406         411         410
         406         407         412         411
         407         408         413         412
         408         409         414         413
         410         411         416         415
         411         412         417         416
         412         413         418         417
         413         414         419         418
         415         416         421         420
         416         417         422         421
         417         418         423         422
         418         419         424         423
         425         426         431         430
         426         427         432         431
         427         428         433         432
         428         429         434         433
         430         431         436         435
         431         432         437         436
         432         433         438         437
         433         434         439         438
         435         436         441         440
         436         437         442         441
         437         438         443         442
         438         439         444         443
         440         441         446         445
         441         442         447         446
         442         443         448         447
         443         444         449         448
         450         451         456         455
         451         452         457         456
         452         453         458         457
         453         454         459         458
         455         456         461         460
         456         457         462         461
         457         458         463         462
         458         459         464         463
         460         461         466         465
         461         462         467         466
         462         463         468         467
         463         464         469         468
         465         466         471         470
         466         467         472         471
         467         468         473         472
         468         469         474         473
         475         476         481         480
         476         477         482         481
         477         478         483         482
         478         479         484         483
         480         481         486         485
         481         482         487         486
         482         483         488         487
         483         484         489         488
         485         486         491         490
         486         487         492         491
         487         488         493         492
         488         489         494         493
         490         491         496         495
         491         492         497         496
         492         493         498         497
         493         494         499         498
         500         501         506         505
         501         502         507         506
         502         503         508         507
         503         504         509         508
         505         506         511         510
         506         507         512         511
         507         508         513         512
         508         509         514         513
         510         511         516         515
         511         512         517         516
         512         513         518         517
         513         514         519         518
         515         516         521         520
         516         517         522         521
         517         518         523         522
         518         519         524         523
         525         526         531         530
         526         527         532         531
         527         528         533         532
         528         529         534         533
         530         531         536         535
         531         532         537         536
         532         533         538         537
         533         534         539         538
         535         536         541         540
         536         537         542         541
         537         538         543         542
         538         539         544         543
         540         541         546         545
         541         542         547         546
         542         543         548         547
         543         544         549         548
         550         551         556         555
         551         552         557         556
         552         553         558         557
         553         554         559         558
         555         556         561         560
         556         557         562         561
         557         558         563         562
         558         559         564         563
         560         561         566         565
         561         562         567         566
         562         563         568         567
         563         564         569         568
         565         566         571         570
         566         567         572         571
         567         568         573         572
         568         569         574         573
         575         576         581         580
         576         577         582         581
         577         578         583         582
         578         579         584         583
         580         581         586         585
         581         582         587         586
         582         583         588         587
         583         584         589         588
         585         586         591         590
         586         587         592         591
         587         588         593         592
         588         589         594         593
         590         591         596         595
         591         592         597         596
         592         593         598         597
         593         594         599         598
         600         601         606         605
         601         602         607         606
         602         603         608         607
         603         604         609         608
         605         606         611         610
         606         607         612         611
         607         608         613         612
         608         609         614         613
         610         611         616         615
         611         612         617         616
         612         613         618         617
         613         614         619         618
         615         616         621         620
         616         617         622         621
         617         618         623         622
         618         619         624         623
         625         626         631         630
         626         627         632         631
         627         628         633         632
         628         629         634         633
         630         631         636         635
         631         632         637         636
         632         633         638         637
         633         634         639         638
         635         636         641         640
         636         637         642         641
         637         638         643         642
         638         639         644         643
         640         641         646         645
         641         642         647         646
         642         643         648         647
         643         644         649         648
         650         651         656         655
         651         652         657         656
         652         653         658         657
         653         654         659         658
         655         656         661         660
         656         657         662         661
         657         658         663         662
         658         659         664         663
         660         661         666         665
         661         662         667         666
         662         663         668         667
         663         664         669         668
         665         666         671         670
         666         667         672         671
         667         668         673         672
         668         669         674         673
         675         676         681         680
         676         677         682         681
         677         678         683         682
         678         679         684         683
         680         681         686         685
         681         682         687         686
         682         683         688         687
         683         684         689         688
         685         686         691         690
         686         687         692         691
         687         688         693         692
         688         689         694         693
         690         691         696         695
         691         692         697         696
         692         693         698         697
         693         694         699         698
         700         701         706         705
         701         702         707         706
         702         703         708         707
         703         704         709         708
         705         706         711         710
         706         707         712         711
         707         708         713         712
         708         709         714         713
         710         711         716         715
         711         712         717         716
         712         713         718         717
         713         714         719         718
         715         716         721         720
         716         717         722         721
         717         718         723         722
         718         719         724         723
         725         726         731         730
         726         727         732         731
         727         728         733         732
         728         729         734         733
         730         731         736         735
         731         732         737         736
         732         733         738         737
         733         734         739         738
         735         736         741         740
         736         737         742         741
         737         738         743         742
         738         739         744         743
         740         741         746         745
         741         742         747         746
         742         743         748         747
         743         744         749         748
         750         751         756         755
         751         752         757         756
         752         753         758         757
         753         754         759         758
         755         756         761         760
         756         757         762         761
         757         758         763         762
         758         759         764         763
         760         761         766         765
         761         762         767         766
         762         763         768         767
         763         764         769         768
         765         766         771         770
         766         767         772         771
         767         768         773         772
         768         769         774         773
         775         776         781         780
         776         777         782         781
         777         778         783         782
         778         779         784         783
         780         781         786         785
         781         782         787         786
         782         783         788         787
         783         784         789         788
         785         786         791         790
         786         787         792         791
         787         788         793         792
         788         789         794         793
         790         791         796         795
         791         792         797         796
         792         793         798         797
         793         794         799         798
         800         801         806         805
         801         802         807         806
         802         803         808         807
         803         804         809         808
         805         806         811         810
         806         807         812         811
         807         808         813         812
         808         809         814         813
         810         811         816         815
         811         812         817         816
         812         813         818         817
         813         814         819         818
         815         816         821         820
         816         817         822         821
         817         818         823         822
         818         819         824         823
         825         826         831         830
         826         827         832         831
         827         828         833         832
         828         829         834         833
         830         831         836         835
         831         832         837         836
         832         833         838         837
         833         834         839         838
         835         836         841         840
         836         837         842         841
         837         838         843         842
         838         839         844         843
         840         841         846         845
         841         842         847         846
         842         843         848         847
         843         844         849         848
         850         851         856         855
         851         852         857         856
         852         853         858         857
         853         854         859         858
         855         856         861         860
         856         857         862         861
         857         858         863         862
         858         859         864         863
         860         861         866         865
         861         862         867         866
         862         863         868         867
         863         864         869         868
         865         866         871         870
         866         867         872         871
         867         868         873         872
         868         869         874         873
         875         876         881         880
         876         877         882         881
         877         878         883         882
         878         879         884         883
         880         881         886         885
         881         882         887         886
         882         883         888         887
         883         884         889         888
         885         886         891         890
         886         887         892         891
         887         888         893         892
         888         889         894         893
         890         891         896         895
         891         892         897         896
         892         893         898         897
         893         894         899         898
         900         901         906         905
         901         902         907         906
         902         903         908         907
         903         904         909         908
         905         906         911         910
         906         907         912         911
         907         908         913         912
         908         909         914         913
         910         911         916         915
         911         912         917         916
         912         913         918         917
         913         914         919         918
         915         916         921         920
         916         917         922         921
         917         918         923         922
         918         919         924         923
         925         926         931         930
         926         927         932         931
         927         928         933         932
         928         929         934         933
         930         931         936         935
         931         932         937         936
         932         933         938         937
         933         934         939         938
         935         936         941         940
         936         937         942         941
         937         938         943         942
         938         939         944         943
         940         941         946         945
         941         942         947         946
         942         943         948         947
         943         944         949         948
         950         951         956         955
         951         952         957         956
         952         953         958         957
         953         954         959         958
         955         956         961         960
         956         957         962         961
         957         958         963         962
         958         959         964         963
         960         961         966         965
         961         962         967         966
         962         963         968         967
         963         964         969         968
         965         966         971         970
         966         967         972         971
         967         968         973         972
         968         969         974         973
         975         976         981         980
         976         977         982         981
         977         978         983         982
         978         979         984         983
         980         981         986         985
         981         982         987         986
         982         983         988         987
         983         984         989         988
         985         986         991         990
         986         987         992         991
         987         988         993         992
         988         989         994         993
         990         991         996         995
         991         992         997         996
         992         993         998         997
         993         994         999         998
        1000        1001        1006        1005
        1001        1002        1007        1006
        1002        1003        1008        1007
        1003        1004        1009        1008
        1005        1006        1011        1010
        1006        1007        1012        1011
        1007        1008        1013        1012
        1008        1009        1014        1013
        1010        1011        1016        1015
        1011        1012        1017        1016
        1012        1013        1018        1017
        1013        1014        1019        1018
        1015        1016        1021        1020
        1016        1017        1022        1021
        1017        1018        1023        1022
        1018        1019        1024        1023
        1025        1026        1031        1030
        1026        1027        1032        1031
        1027        1028        1033        1032
        1028        1029        1034        1033
        1030        1031        1036        1035
        1031        1032        1037        1036
        1032        1033        1038        1037
        1033        1034        1039        1038
        1035        1036        1041        1040
        1036        1037        1042        1041
        1037        1038        1043        1042
        1038        1039        1044        1043
        1040        1041        1046        1045
        1041        1042        1047        1046
        1042        1043        1048        1047
        1043        1044        1049        1048
        1050        1051        1056        1055
        1051        1052        1057        1056
        1052        1053        1058        1057
        1053        1054        1059        1058
        1055        1056        1061        1060
        1056        1057        1062        1061
        1057        1058        1063        1062
        1058        1059        1064        1063
        1060        1061        1066        1065
        1061        1062        1067        1066
        1062        1063        1068        1067
        1063        1064        1069        1068
        1065        1066        1071        1070
        1066        1067        1072        1071
        1067        1068        1073        1072
        1068        1069        1074        1073
        1075        1076        1081        1080
        1076        1077        1082        1081
        1077        1078        1083        1082
        1078        1079        1084        1083
        1080        1081        1086        1085
        1081        1082        1087        1086
        1082        1083        1088        1087
        1083        1084        1089        1088
        1085        1086        1091        1090
        1086        1087        1092        1091
        1087        1088        1093        1092
        1088        1089        1094        1093
        1090        1091        1096        1095
        1091        1092        1097        1096
        1092        1093        1098        1097
        1093        1094        1099        1098
        1100        1101        1106        1105
        1101        1102        1107        1106
        1102        1103        1108        1107
        1103        1104        1109        1108
        1105        1106        1111        1110
        1106        1107        1112        1111
        1107        1108        1113        1112
        1108        1109        1114        1113
        1110        1111        1116        1115
        1111        1112        1117        1116
        1112        1113        1118        1117
        1113        1114        1119        1118
        1115        1116        1121        1120
        1116        1117        1122        1121
        1117        1118        1123        1122
        1118        1119        1124        1123
        1125        1126        1131        1130
        1126        1127        1132        1131
        1127        1128        1133        1132
        1128        1129        1134        1133
        1130        1131        1136        1135
        1131        1132        1137        1136
        1132        1133        1138        1137
        1133        1134        1139        1138
        1135        1136        1141        1140
        1136        1137        1142        1141
        1137        1138        1143        1142
        1138        1139        1144        1143
        1140        1141        1146        1145
        1141        1142        1147        1146
        1142        1143        1148        1147
        1143        1144        1149        1148
        1150        1151        1156        1155
        1151        1152        1157        1156
        1152        1153        1158        1157
        1153        1154        1159        1158
        1155        1156        1161        1160
        1156        1157        1162        1161
        1157        1158        1163        1162
        1158        1159        1164        1163
        1160        1161        1166        1165
        1161        1162        1167        1166
        1162        1163        1168        1167
        1163        1164        1169        1168
        1165        1166        1171        1170
        1166        1167        1172        1171
        1167        1168        1173        1172
        1168        1169        1174        1173
        1175        1176        1181        1180
        1176        1177        1182        1181
        1177        1178        1183        1182
        1178        1179        1184        1183
        1180        1181        1186        1185
        1181        1182        1187        1186
        1182        1183        1188        1187
        1183        1184        1189        1188
        1185        1186        1191        1190
        1186        1187        1192        1191
        1187        1188        1193        1192
        1188        1189        1194        1193
        1190        1191        1196        1195
        1191        1192        1197        1196
        1192        1193        1198        1197
        1193        1194        1199        1198
        1200        1201        1206        1205
        1201        1202        1207        1206
        1202        1203        1208        1207
        1203        1204        1209        1208
        1205        1206        1211        1210
        1206        1207        1212        1211
        1207        1208        1213        1212
        1208        1209        1214        1213
        1210        1211        1216        1215
        1211        1212        1217        1216
        1212        1213        1218        1217
        1213        1214        1219        1218
        1215        1216        1221        1220
        1216        1217        1222        1221
        1217        1218        1223        1222
        1218        1219        1224        1223
        1225        1226        1231        1230
        1226        1227        1232        1231
        1227        1228        1233        1232
        1228        1229        1234        1233
        1230        1231        1236        1235
        1231        1232        1237        1236
        1232        1233        1238        1237
        1233        1234        1239        1238
        1235        1236        1241        1240
        1236        1237        1242        1241
        1237        1238        1243        1242
        1238        1239        1244        1243
        1240        1241        1246        1245
        1241        1242        1247        1246
        1242        1243        1248        1247
        1243        1244        1249        1248
        1250        1251        1256        1255
        1251        1252        1257        1256
        1252        1253        1258        1257
        1253        1254        1259        1258
        1255        1256        1261        1260
        1256        1257        1262        1261
        1257        1258        1263        1262
        1258        1259        1264        1263
        1260        1261        1266        1265
        1261        1262        1267        1266
        1262        1263        1268        1267
        1263        1264        1269        1268
        1265        1266        1271        1270
        1266        1267        1272        1271
        1267        1268        1273        1272
        1268        1269        1274        1273
        1275        1276        1281        1280
        1276        1277        1282        1281
        1277        1278        1283        1282
        1278        1279        1284        1283
        1280        1281        1286        1285
        1281        1282        1287        1286
        1282        1283        1288        1287
        1283        1284        1289        1288
        1285        1286        1291        1290
        1286        1287        1292        1291
        1287        1288        1293        1292
        1288        1289        1294        1293
        1290        1291        1296        1295
        1291        1292        1297        1296
        1292        1293        1298        1297
        1293        1294        1299        1298
        1300        1301        1306        1305
        1301        1302        1307        1306
        1302        1303        1308        1307
        1303        1304        1309        1308
        1305        1306        1311        1310
        1306        1307        1312        1311
        1307        1308        1313        1312
        1308        1309        1314        1313
        1310        1311        1316        1315
        1311        1312        1317        1316
        1312        1313        1318        1317
        1313        1314        1319        1318
        1315        1316        1321        1320
        1316        1317        1322        1321
        1317        1318        1323        1322
        1318        1319        1324        1323
        1325        1326        1331        1330
        1326        1327        1332        1331
        1327        1328        1333        1332
        1328        1329        1334        1333
        1330        1331        1336        1335
        1331        1332        1337        1336
        1332        1333        1338        1337
        1333        1334        1339        1338
        1335        1336        1341        1340
        1336        1337        1342        1341
        1337        1338        1343        1342
        1338        1339        1344        1343
        1340        1341        1346        1345
        1341        1342        1347        1346
        1342        1343        1348        1347
        1343        1344        1349        1348
        1350        1351        1356        1355
        1351        1352        1357        1356
        1352        1353        1358        1357
        1353        1354        1359        1358
        1355        1356        1361        1360
        1356        1357        1362        1361
        1357        1358        1363        1362
        1358        1359        1364        1363
        1360        1361        1366        1365
        1361        1362        1367        1366
        1362        1363        1368        1367
        1363        1364        1369        1368
        1365        1366        1371        1370
        1366        1367        1372        1371
        1367        1368        1373        1372
        1368        1369        1374        1373
        1375        1376        1381        1380
        1376        1377        1382        1381
        1377        1378        1383        1382
        1378        1379        1384        1383
        1380        1381        1386        1385
        1381        1382        1387        1386
        1382        1383        1388        1387
        1383        1384        1389        1388
        1385        1386        1391        1390
        1386        1387        1392        1391
        1387        1388        1393        1392
        1388        1389        1394        1393
        1390        1391        1396        1395
        1391        1392        1397        1396
        1392        1393        1398        1397
        1393        1394        1399        1398
        1400        1401        1406        1405
        1401        1402        1407        1406
        1402        1403        1408        1407
        1403        1404        1409        1408
        1405        1406        1411        1410
        1406        1407        1412        1411
        1407        1408        1413        1412
        1408        1409        1414        1413
        1410        1411        1416        1415
        1411        1412        1417        1416
        1412        1413        1418        1417
        1413        1414        1419        1418
        1415        1416        1421        1420
        1416        1417        1422        1421
        1417        1418        1423        1422
        1418        1419        1424        1423
        1425        1426        1431        1430
        1426        1427        1432        1431
        1427        1428        1433        1432
        1428        1429        1434        1433
        1430        1431        1436        1435
        1431        1432        1437        1436
        1432        1433        1438        1437
        1433        1434        1439        1438
        1435        1436        1441        1440
        1436        1437        1442        1441
        1437        1438        1443        1442
        1438        1439        1444        1443
        1440        1441        1446        1445
        1441        1442        1447        1446
        1442        1443        1448        1447
        1443        1444        1449        1448
        1450        1451        1456        1455
        1451        1452        1457        1456
        1452        1453        1458        1457
        1453        1454        1459        1458
        1455        1456        1461        1460
        1456        1457        1462        1461
        1457        1458        1463        1462
        1458        1459        1464        1463
        1460        1461        1466        1465
        1461        1462        1467        1466
        1462        1463        1468        1467
        1463        1464        1469        1468
        1465        1466        1471        1470
        1466        1467        1472        1471
        1467        1468        1473        1472
        1468        1469        1474        1473
        1475        1476        1481        1480
        1476        1477        1482        1481
        1477        1478        1483        1482
        1478        1479        1484        1483
        1480        1481        1486        1485
        1481        1482        1487        1486
        1482        1483        1488        1487
        1483        1484        1489        1488
        1485        1486        1491        1490
        1486        1487        1492        1491
        1487        1488        1493        1492
        1488        1489        1494        1493
        1490        1491        1496        1495
        1491        1492        1497        1496
        1492        1493        1498        1497
        1493        1494        1499        1498
        1500        1501        1506        1505
        1501        1502        1507        1506
        1502        1503        1508        1507
        1503        1504        1509        1508
        1505        1506        1511        1510
        1506        1507        1512        1511
        1507        1508        1513        1512
        1508        1509        1514        1513
        1510        1511        1516        1515
        1511        1512        1517        1516
        1512        1513        1518        1517
        1513        1514        1519        1518
        1515        1516        1521        1520
        1516        1517        1522        1521
        1517        1518        1523        1522
        1518        1519        1524        1523
        1525        1526        1531        1530
        1526        1527        1532        1531
        1527        1528        1533        1532
        1528        1529        1534        1533
        1530        1531        1536        1535
        1531        1532        1537        1536
        1532        1533        1538        1537
        1533        1534        1539        1538
        1535        1536        1541        1540
        1536        1537        1542        1541
        1537        1538        1543        1542
        1538        1539        1544        1543
        1540        1541        1546        1545
        1541        1542        1547        1546
        1542        1543        1548        1547
        1543        1544        1549        1548
        1550        1551        1556        1555
        1551        1552        1557        1556
        1552        1553        1558        1557
        1553        1554        1559        1558
        1555        1556        1561        1560
        1556        1557        1562        1561
        1557        1558        1563        1562
        1558        1559        1564        1563
        1560        1561        1566        1565
        1561        1562        1567        1566
        1562        1563        1568        1567
        1563        1564        1569        1568
        1565        1566        1571        1570
        1566        1567        1572        1571
        1567        1568        1573        1572
        1568        1569        1574        1573
        1575        1576        1581        1580
        1576        1577        1582        1581
        1577        1578        1583        1582
        1578        1579        1584        1583
        1580        1581        1586        1585
        1581        1582        1587        1586
        1582        1583        1588        1587
        1583        1584        1589        1588
        1585        1586        1591        1590
        1586        1587        1592        1591
        1587        1588        1593        1592
        1588        1589        1594        1593
        1590        1591        1596        1595
        1591        1592        1597        1596
        1592        1593        1598        1597
        1593        1594        1599        1598
 </DataArray>
 <DataArray  type="Int32"  Name="offsets"  format="ascii"> 
           4
           8
          12
          16
          20
          24
          28
          32
          36
          40
          44
          48
          52
          56
          60
          64
          68
          72
          76
          80
          84
          88
          92
          96
         100
         104
         108
         112
         116
         120
         124
         128
         132
         136
         140
         144
         148
         152
         156
         160
         164
         168
         172
         176
         180
         184
         188
         192
         196
         200
         204
         208
         212
         216
         220
         224
         228
         232
         236
         240
         244
         248
         252
         256
         260
         264
         268
         272
         276
         280
         284
         288
         292
         296
         300
         304
         308
         312
         316
         320
         324
         328
         332
         336
         340
         344
         348
         352
         356
         360
         364
         368
         372
         376
         380
         384
         388
         392
         396
         400
         404
         408
         412
         416
         420
         424
         428
         432
         436
         440
         444
         448
         452
         456
         460
         464
         468
         472
         476
         480
         484
         488
         492
         496
         500
         504
         508
         512
         516
         520
         524
         528
         532
         536
         540
         544
         548
         552
         556
         560
         564
         568
         572
         576
         580
         584
         588
         592
         596
         600
         604
         608
         612
         616
         620
         624
         628
         632
         636
         640
         644
         648
         652
         656
         660
         664
         668
         672
         676
         680
         684
         688
         692
         696
         700
         704
         708
         712
         716
         720
         724
         728
         732
         736
         740
         744
         748
         752
         756
         760
         764
         768
         772
         776
         780
         784
         788
         792
         796
         800
         804
         808
         812
         816
         820
         824
         828
         832
         836
         840
         844
         848
         852
         856
         860
         864
         868
         872
         876
         880
         884
         888
         892
         896
         900
         904
         908
         912
         916
         920
         924
         928
         932
         936
         940
         944
         948
         952
         956
         960
         964
         968
         972
         976
         980
         984
         988
         992
         996
        1000
        1004
        1008
        1012
        1016
        1020
        1024
        1028
        1032
        1036
        1040
        1044
        1048
        1052
        1056
        1060
        1064
        1068
        1072
        1076
        1080
        1084
        1088
        1092
        1096
        1100
        1104
        1108
        1112
        1116
        1120
        1124
        1128
        1132
        1136
        1140
        1144
        1148
        1152
        1156
        1160
        1164
        1168
        1172
        1176
        1180
        1184
        1188
        1192
        1196
        1200
        1204
        1208
        1212
        1216
        1220
        1224
        1228
        1232
        1236
        1240
        1244
        1248
        1252
        1256
        1260
        1264
        1268
        1272
        1276
        1280
        1284
        1288
        1292
        1296
        1300
        1304
        1308
        1312
        1316
        1320
        1324
        1328
        1332
        1336
        1340
        1344
        1348
        1352
        1356
        1360
        1364
        1368
        1372
        1376
        1380
        1384
        1388
        1392
        1396
        1400
        1404
        1408
        1412
        1416
        1420
        1424
        1428
        1432
        1436
        1440
        1444
        1448
        1452
        1456
        1460
        1464
        1468
        1472
        1476
        1480
        1484
        1488
        1492
        1496
        1500
        1504
        1508
        1512
        1516
        1520
        1524
        1528
        1532
        1536
        1540
        1544
        1548
        1552
        1556
        1560
        1564
        1568
        1572
        1576
        1580
        1584
        1588
        1592
        1596
        1600
        1604
        1608
        1612
        1616
        1620
        1624
        1628
        1632
        1636
        1640
        1644
        1648
        1652
        1656
        1660
        1664
        1668
        1672
        1676
        1680
        1684
        1688
        1692
        1696
        1700
        1704
        1708
        1712
        1716
        1720
        1724
        1728
        1732
        1736
        1740
        1744
        1748
        1752
        1756
        1760
        1764
        1768
        1772
        1776
        1780
        1784
        1788
        1792
        1796
        1800
        1804
        1808
        1812
        1816
        1820
        1824
        1828
        1832
        1836
        1840
        1844
        1848
        1852
        1856
        1860
        1864
        1868
        1872
        1876
        1880
        1884
        1888
        1892
        1896
        1900
        1904
        1908
        1912
        1916
        1920
        1924
        1928
        1932
        1936
        1940
        1944
        1948
        1952
        1956
        1960
        1964
        1968
        1972
        1976
        1980
        1984
        1988
        1992
        1996
        2000
        2004
        2008
        2012
        2016
        2020
        2024
        2028
        2032
        2036
        2040
        2044
        2048
        2052
        2056
        2060
        2064
        2068
        2072
        2076
        2080
        2084
        2088
        2092
        2096
        2100
        2104
        2108
        2112
        2116
        2120
        2124
        2128
        2132
        2136
        2140
        2144
        2148
        2152
        2156
        2160
        2164
        2168
        2172
        2176
        2180
        2184
        2188
        2192
        2196
        2200
        2204
        2208
        2212
        2216
        2220
        2224
        2228
        2232
        2236
        2240
        2244
        2248
        2252
        2256
        2260
        2264
        2268
        2272
        2276
        2280
        2284
        2288
        2292
        2296
        2300
        2304
        2308
        2312
        2316
        2320
        2324
        2328
        2332
        2336
        2340
        2344
        2348
        2352
        2356
        2360
        2364
        2368
        2372
        2376
        2380
        2384
        2388
        2392
        2396
        2400
        2404
        2408
        2412
        2416
        2420
        2424
        2428
        2432
        2436
        2440
        2444
        2448
        2452
        2456
        2460
        2464
        2468
        2472
        2476
        2480
        2484
        2488
        2492
        2496
        2500
        2504
        2508
        2512
        2516
        2520
        2524
        2528
        2532
        2536
        2540
        2544
        2548
        2552
        2556
        2560
        2564
        2568
        2572
        2576
        2580
        2584
        2588
        2592
        2596
        2600
        2604
        2608
        2612
        2616
        2620
        2624
        2628
        2632
        2636
        2640
        2644
        2648
        2652
        2656
        2660
        2664
        2668
        2672
        2676
        2680
        2684
        2688
        2692
        2696
        2700
        2704
        2708
        2712
        2716
        2720
        2724
        2728
        2732
        2736
        2740
        2744
        2748
        2752
        2756
        2760
        2764
        2768
        2772
        2776
        2780
        2784
        2788
        2792
        2796
        2800
        2804
        2808
        2812
        2816
        2820
        2824
        2828
        2832
        2836
        2840
        2844
        2848
        2852
        2856
        2860
        2864
        2868
        2872
        2876
        2880
        2884
        2888
        2892
        2896
        2900
        2904
        2908
        2912
        2916
        2920
        2924
        2928
        2932
        2936
        2940
        2944
        2948
        2952
        2956
        2960
        2964
        2968
        2972
        2976
        2980
        2984
        2988
        2992
        2996
        3000
        3004
        3008
        3012
        3016
        3020
        3024
        3028
        3032
        3036
        3040
        3044
        3048
        3052
        3056
        3060
        3064
        3068
        3072
        3076
        3080
        3084
        3088
        3092
        3096
        3100
        3104
        3108
        3112
        3116
        3120
        3124
        3128
        3132
        3136
        3140
        3144
        3148
        3152
        3156
        3160
        3164
        3168
        3172
        3176
        3180
        3184
        3188
        3192
        3196
        3200
        3204
        3208
        3212
        3216
        3220
        3224
        3228
        3232
        3236
        3240
        3244
        3248
        3252
        3256
        3260
        3264
        3268
        3272
        3276
        3280
        3284
        3288
        3292
        3296
        3300
        3304
        3308
        3312
        3316
        3320
        3324
        3328
        3332
        3336
        3340
        3344
        3348
        3352
        3356
        3360
        3364
        3368
        3372
        3376
        3380
        3384
        3388
        3392
        3396
        3400
        3404
        3408
        3412
        3416
        3420
        3424
        3428
        3432
        3436
        3440
        3444
        3448
        3452
        3456
        3460
        3464
        3468
        3472
        3476
        3480
        3484
        3488
        3492
        3496
        3500
        3504
        3508
        3512
        3516
        3520
        3524
        3528
        3532
        3536
        3540
        3544
        3548
        3552
        3556
        3560
        3564
        3568
        3572
        3576
        3580
        3584
        3588
        3592
        3596
        3600
        3604
        3608
        3612
        3616
        3620
        3624
        3628
        3632
        3636
        3640
        3644
        3648
        3652
        3656
        3660
        3664
        3668
        3672
        3676
        3680
        3684
        3688
        3692
        3696
        3700
        3704
        3708
        3712
        3716
        3720
        3724
        3728
        3732
        3736
        3740
        3744
        3748
        3752
        3756
        3760
        3764
        3768
        3772
        3776
        3780
        3784
        3788
        3792
        3796
        3800
        3804
        3808
        3812
        3816
        3820
        3824
        3828
        3832
        3836
        3840
        3844
        3848
        3852
        3856
        3860
        3864
        3868
        3872
        3876
        3880
        3884
        3888
        3892
        3896
        3900
        3904
        3908
        3912
        3916
        3920
        3924
        3928
        3932
        3936
        3940
        3944
        3948
        3952
        3956
        3960
        3964
        3968
        3972
        3976
        3980
        3984
        3988
        3992
        3996
        4000
        4004
        4008
        4012
        4016
        4020
        4024
        4028
        4032
        4036
        4040
        4044
        4048
        4052
        4056
        4060
        4064
        4068
        4072
        4076
        4080
        4084
        4088
        4092
        4096
 </DataArray>
 <DataArray  type="UInt8"  Name="types"  format="ascii">
 9
 9
 9
 9
 9
 9
 9
 9
 9
 9
 9
 9
 9
 9
 9
 9
 9
 9
 9
 9
 9
 9
 9
 9
 9
 9
 9
 9
 9
 9
 9
 9
 9
 9
 9
 9
 9
 9
 9
 9
 9
 9
 9
 9
 9
 9
 9
 9
 9
 9
 9
 9
 9
 9
 9
 9
 9
 9
 9
 9
 9
 9
 9
 9
 9
 9
 9
 9
 9
 9
 9
 9
 9
 9
 9
 9
 9
 9
 9
 9
 9
 9
 9
 9
 9
 9
 9
 9
 9
 9
 9
 9
 9
 9
 9
 9
 9
 9
 9
 9
 9
 9
 9
 9
 9
 9
 9
 9
 9
 9
 9
 9
 9
 9
 9
 9
 9
 9
 9
 9
 9
 9
 9
 9
 9
 9
 9
 9
 9
 9
 9
 9
 9
 9
 9
 9
 9
 9
 9
 9
 9
 9
 9
 9
 9
 9
 9
 9
 9
 9
 9
 9
 9
 9
 9
 9
 9
 9
 9
 9
 9
 9
 9
 9
 9
 9
 9
 9
 9
 9
 9
 9
 9
 9
 9
 9
 9
 9
 9
 9
 9
 9
 9
 9
 9
 9
 9
 9
 9
 9
 9
 9
 9
 9
 9
 9
 9
 9
 9
 9
 9
 9
 9
 9
 9
 9
 9
 9
 9
 9
 9
 9
 9
 9
 9
 9
 9
 9
 9
 9
 9
 9
 9
 9
 9
 9
 9
 9
 9
 9
 9
 9
 9
 9
 9
 9
 9
 9
 9
 9
 9
 9
 9
 9
 9
 9
 9
 9
 9
 9
 9
 9
 9
 9
 9
 9
 9
 9
 9
 9
 9
 9
 9
 9
 9
 9
 9
 9
 9
 9
 9
 9
 9
 9
 9
 9
 9
 9
 9
 9
 9
 9
 9
 9
 9
 9
 9
 9
 9
 9
 9
 9
 9
 9
 9
 9
 9
 9
 9
 9
 9
 9
 9
 9
 9
 9
 9
 9
 9
 9
 9
 9
 9
 9
 9
 9
 9
 9
 9
 9
 9
 9
 9
 9
 9
 9
 9
 9
 9
 9
 9
 9
 9
 9
 9
 9
 9
 9
 9
 9
 9
 9
 9
 9
 9
 9
 9
 9
 9
 9
 9
 9
 9
 9
 9
 9
 9
 9
 9
 9
 9
 9
 9
 9
 9
 9
 9
 9
 9
 9
 9
 9
 9
 9
 9
 9
 9
 9
 9
 9
 9
 9
 9
 9
 9
 9
 9
 9
 9
 9
 9
 9
 9
 9
 9
 9
 9
 9
 9
 9
 9
 9
 9
 9
 9
 9
 9
 9
 9
 9
 9
 9
 9
 9
 9
 9
 9
 9
 9
 9
 9
 9
 9
 9
 9
 9
 9
 9
 9
 9
 9
 9
 9
 9
 9
 9
 9
 9
 9
 9
 9
 9
 9
 9
 9
 9
 9
 9
 9
 9
 9
 9
 9
 9
 9
 9
 9
 9
 9
 9
 9
 9
 9
 9
 9
 9
 9
 9
 9
 9
 9
 9
 9
 9
 9
 9
 9
 9
 9
 9
 9
 9
 9
 9
 9
 9
 9
 9
 9
 9
 9
 9
 9
 9
 9
 9
 9
 9
 9
 9
 9
 9
 9
 9
 9
 9
 9
 9
 9
 9
 9
 9
 9
 9
 9
 9
 9
 9
 9
 9
 9
 9
 9
 9
 9
 9
 9
 9
 9
 9
 9
 9
 9
 9
 9
 9
 9
 9
 9
 9
 9
 9
 9
 9
 9
 9
 9
 9
 9
 9
 9
 9
 9
 9
 9
 9
 9
 9
 9
 9
 9
 9
 9
 9
 9
 9
 9
 9
 9
 9
 9
 9
 9
 9
 9
 9
 9
 9
 9
 9
 9
 9
 9
 9
 9
 9
 9
 9
 9
 9
 9
 9
 9
 9
 9
 9
 9
 9
 9
 9
 9
 9
 9
 9
 9
 9
 9
 9
 9
 9
 9
 9
 9
 9
 9
 9
 9
 9
 9
 9
 9
 9
 9
 9
 9
 9
 9
 9
 9
 9
 9
 9
 9
 9
 9
 9
 9
 9
 9
 9
 9
 9
 9
 9
 9
 9
 9
 9
 9
 9
 9
 9
 9
 9
 9
 9
 9
 9
 9
 9
 9
 9
 9
 9
 9
 9
 9
 9
 9
 9
 9
 9
 9
 9
 9
 9
 9
 9
 9
 9
 9
 9
 9
 9
 9
 9
 9
 9
 9
 9
 9
 9
 9
 9
 9
 9
 9
 9
 9
 9
 9
 9
 9
 9
 9
 9
 9
 9
 9
 9
 9
 9
 9
 9
 9
 9
 9
 9
 9
 9
 9
 9
 9
 9
 9
 9
 9
 9
 9
 9
 9
 9
 9
 9
 9
 9
 9
 9
 9
 9
 9
 9
 9
 9
 9
 9
 9
 9
 9
 9
 9
 9
 9
 9
 9
 9
 9
 9
 9
 9
 9
 9
 9
 9
 9
 9
 9
 9
 9
 9
 9
 9
 9
 9
 9
 9
 9
 9
 9
 9
 9
 9
 9
 9
 9
 9
 9
 9
 9
 9
 9
 9
 9
 9
 9
 9
 9
 9
 9
 9
 9
 9
 9
 9
 9
 9
 9
 9
 9
 9
 9
 9
 9
 9
 9
 9
 9
 9
 9
 9
 9
 9
 9
 9
 9
 9
 9
 9
 9
 9
 9
 9
 9
 9
 9
 9
 9
 9
 9
 9
 9
 9
 9
 9
 9
 9
 9
 9
 9
 9
 9
 9
 9
 9
 9
 9
 9
 9
 9
 9
 9
 9
 9
 9
 9
 9
 9
 9
 9
 9
 9
 9
 9
 9
 9
 9
 9
 9
 9
 9
 9
 9
 9
 9
 9
 9
 9
 9
 9
 9
 9
 9
 9
 9
 9
 9
 9
 9
 9
 9
 9
 9
 9
 9
 9
 9
 9
 9
 9
 9
 9
 9
 9
 9
 9
 9
 9
 9
 9
 9
 9
 9
 9
 9
 9
 9
 9
 9
 9
 9
 9
 9
 9
 9
 9
 9
 9
 9
 9
 9
 9
 9
 9
 9
 9
 9
 9
 9
 9
 9
 9
 9
 9
 9
 9
 9
 9
 9
 9
 9
 9
 9
 9
 9
 9
 9
 9
 9
 9
 9
 9
 9
 9
 9
 9
 9
 9
 9
 9
 9
 9
 9
 9
 9
 9
 9
 9
 9
 9
 9
 9
 9
 9
 9
 9
 9
 9
 9
 9
 9
 9
 9
 9
 9
 9
 9
 9
 9
 9
 9
 9
 9
 9
 9
 9
 9
 9
 9
 9
 9
 9
 9
 9
 9
 </DataArray>
 </Cells> 
 <PointData>
 <DataArray  type="Float64" Name="disp" NumberOfComponents="3" format="ascii">
   0.0000000000000000        0.0000000000000000        0.0000000000000000     
   6.0960924616730401E-003   3.7904756435625103E-003   0.0000000000000000     
   1.1666171912952966E-002   7.3240813369477888E-003   0.0000000000000000     
   1.6710238353839779E-002   1.0600817080155832E-002   0.0000000000000000     
   2.1228291784333476E-002   1.3620682873186647E-002   0.0000000000000000     
   0.0000000000000000        0.0000000000000000        0.0000000000000000     
   4.8911473597046048E-003   3.0222933886640329E-003   0.0000000000000000     
   9.5735980366888334E-003   6.0608963718555139E-003   0.0000000000000000     
   1.4047352030952684E-002   9.1158089495744429E-003   0.0000000000000000     
   1.8312409342496158E-002   1.2187031121820822E-002   0.0000000000000000     
   0.0000000000000000        0.0000000000000000        0.0000000000000000     
   3.9534831177811848E-003   2.4253325036375372E-003   0.0000000000000000     
   7.9104665074219340E-003   5.0633327417750765E-003   0.0000000000000000     
   1.1870950168922248E-002   7.9140007144126185E-003   0.0000000000000000     
   1.5834934102282126E-002   1.0977336421550162E-002   0.0000000000000000     
   0.0000000000000000        0.0000000000000000        0.0000000000000000     
   3.2830997359027782E-003   1.9995929884830221E-003   0.0000000000000000     
   6.6767773251522698E-003   4.3313904467064740E-003   0.0000000000000000     
   1.0181032767748474E-002   6.9953923746703551E-003   0.0000000000000000     
   1.3795866063691388E-002   9.9915987723746685E-003   0.0000000000000000     
   0.0000000000000000        0.0000000000000000        0.0000000000000000     
   2.8799972140693855E-003   1.7450748432004887E-003   0.0000000000000000     
   5.8725304898798372E-003   3.8650694866497080E-003   0.0000000000000000     
   8.9775998274313588E-003   6.3599839303476596E-003   0.0000000000000000     
   1.2195205226723944E-002   9.2298181742943384E-003   0.0000000000000000     
   2.1228291784333476E-002   1.3620682873186647E-002   0.0000000000000000     
   2.5433257718866193E-002   1.6614137636693015E-002   0.0000000000000000     
   2.9538061671870050E-002   1.9811640291327731E-002   0.0000000000000000     
   3.3542703643345051E-002   2.3213190837090791E-002   0.0000000000000000     
   3.7447183633291192E-002   2.6818789273982194E-002   0.0000000000000000     
   1.8312409342496158E-002   1.2187031121820822E-002   0.0000000000000000     
   2.2406964487779419E-002   1.5342891306985436E-002   0.0000000000000000     
   2.6369211983262635E-002   1.8651717923459085E-002   0.0000000000000000     
   3.0199151828945808E-002   2.2113510971241767E-002   0.0000000000000000     
   3.3896784024828930E-002   2.5728270450333473E-002   0.0000000000000000     
   1.5834934102282126E-002   1.0977336421550162E-002   0.0000000000000000     
   1.9730587468391854E-002   1.4212219161215569E-002   0.0000000000000000     
   2.3486079428141710E-002   1.7577528231436702E-002   0.0000000000000000     
   2.7101409981531696E-002   2.1073263632213558E-002   0.0000000000000000     
   3.0576579128561810E-002   2.4699425363546145E-002   0.0000000000000000     
   1.3795866063691388E-002   9.9915987723746685E-003   0.0000000000000000     
   1.7404126660703501E-002   1.3222121199383409E-002   0.0000000000000000     
   2.0888664006507272E-002   1.6589071215260577E-002   0.0000000000000000     
   2.4249478101102721E-002   2.0092448820006180E-002   0.0000000000000000     
   2.7486568944489843E-002   2.3732254013620200E-002   0.0000000000000000     
   1.2195205226723944E-002   9.2298181742943384E-003   0.0000000000000000     
   1.5427582064714351E-002   1.2372597421488957E-002   0.0000000000000000     
   1.8576965718359335E-002   1.5686346874930715E-002   0.0000000000000000     
   2.1643356187658884E-002   1.9171066534619613E-002   0.0000000000000000     
   2.4626753472613009E-002   2.2826756400555648E-002   0.0000000000000000     
   3.7447183633291192E-002   2.6818789273982194E-002   0.0000000000000000     
   4.1255237936299850E-002   3.0624368312834542E-002   0.0000000000000000     
   4.4970602846962381E-002   3.4625860664480423E-002   0.0000000000000000     
   4.8593278365278790E-002   3.8823266328919845E-002   0.0000000000000000     
   5.2123264491249079E-002   4.3216585306152799E-002   0.0000000000000000     
   3.3896784024828930E-002   2.5728270450333473E-002   0.0000000000000000     
   3.7485017465766914E-002   2.9525144278454922E-002   0.0000000000000000     
   4.0986761046614646E-002   3.3533280373326799E-002   0.0000000000000000     
   4.4402014767372128E-002   3.7752678734949120E-002   0.0000000000000000     
   4.7730778628039372E-002   4.2183339363321866E-002   0.0000000000000000     
   3.0576579128561810E-002   2.4699425363546145E-002   0.0000000000000000     
   3.3940998290067352E-002   2.8500656125833218E-002   0.0000000000000000     
   3.7224078886883623E-002   3.2521598619473527E-002   0.0000000000000000     
   4.0425820919010598E-002   3.6762252844467082E-002   0.0000000000000000     
   4.3546224386448312E-002   4.1222618800813883E-002   0.0000000000000000     
   2.7486568944489843E-002   2.3732254013620200E-002   0.0000000000000000     
   3.0623180409201176E-002   2.7550903854969423E-002   0.0000000000000000     
   3.3682556367769297E-002   3.1590815402920601E-002   0.0000000000000000     
   3.6664696820194215E-002   3.5851988657473743E-002   0.0000000000000000     
   3.9569601766475906E-002   4.0334423618628837E-002   0.0000000000000000     
   2.4626753472613009E-002   2.2826756400555648E-002   0.0000000000000000     
   2.7531563823168386E-002   2.6675887465863544E-002   0.0000000000000000     
   3.0362193489271702E-002   3.0740930723668028E-002   0.0000000000000000     
   3.3118642470922957E-002   3.5021886173969091E-002   0.0000000000000000     
   3.5800910768122141E-002   3.9518753816766734E-002   0.0000000000000000     
   5.2123264491249079E-002   4.3216585306152799E-002   0.0000000000000000     
   5.5555206313422298E-002   4.7806870258814256E-002   0.0000000000000000     
   5.8883748920347506E-002   5.2595173849539177E-002   0.0000000000000000     
   6.2108892312024704E-002   5.7581496078327549E-002   0.0000000000000000     
   6.5230636488453883E-002   6.2765836945179385E-002   0.0000000000000000     
   4.7730778628039372E-002   4.2183339363321866E-002   0.0000000000000000     
   5.0968827717935108E-002   4.6816188307820680E-002   0.0000000000000000     
   5.4111937126378108E-002   5.1642151617821173E-002   0.0000000000000000     
   5.7160106853368357E-002   5.6661229293323331E-002   0.0000000000000000     
   6.0113336898905856E-002   6.1873421334327161E-002   0.0000000000000000     
   4.3546224386448312E-002   4.1222618800813883E-002   0.0000000000000000     
   4.6582455195894858E-002   4.5888436549345414E-002   0.0000000000000000     
   4.9531679254048382E-002   5.0745446150893180E-002   0.0000000000000000     
   5.2393896560908877E-002   5.5793647605457186E-002   0.0000000000000000     
   5.5169107116476337E-002   6.1033040913037413E-002   0.0000000000000000     
   3.9569601766475906E-002   4.0334423618628837E-002   0.0000000000000000     
   4.2396088747301545E-002   4.5023614983388478E-002   0.0000000000000000     
   4.5142975303358333E-002   4.9905057448755237E-002   0.0000000000000000     
   4.7810261434646256E-002   5.4978751014729120E-002   0.0000000000000000     
   5.0397947141165321E-002   6.0244695681310134E-002   0.0000000000000000     
   3.5800910768122141E-002   3.9518753816766734E-002   0.0000000000000000     
   3.8409728372155179E-002   4.4221723609949845E-002   0.0000000000000000     
   4.0945825274307963E-002   4.9120985511407311E-002   0.0000000000000000     
   4.3409201474580508E-002   5.4216539521139147E-002   0.0000000000000000     
   4.5799856972972799E-002   5.9508385639145331E-002   0.0000000000000000     
   6.5230636488453883E-002   6.2765836945179385E-002   0.0000000000000000     
   6.8257626818585854E-002   6.8143068301184412E-002   0.0000000000000000     
   7.1198508671371397E-002   7.3708061997432350E-002   0.0000000000000000     
   7.4053282046810526E-002   7.9460818033923200E-002   0.0000000000000000     
   7.6821946944903241E-002   8.5401336410656961E-002   0.0000000000000000     
   6.0113336898905856E-002   6.1873421334327161E-002   0.0000000000000000     
   6.2976178377383327E-002   6.7276214889960134E-002   0.0000000000000000     
   6.5753182403193486E-002   7.2867097109349688E-002   0.0000000000000000     
   6.8444348976336333E-002   7.8646067992495836E-002   0.0000000000000000     
   7.1049678096811855E-002   8.4613127539398578E-002   0.0000000000000000     
   5.5169107116476337E-002   6.1033040913037413E-002   0.0000000000000000     
   5.7858887683176152E-002   6.6461791986021326E-002   0.0000000000000000     
   6.0464815023433691E-002   7.2078066736796356E-002   0.0000000000000000     
   6.2986889137248953E-002   7.7881865165362510E-002   0.0000000000000000     
   6.5425110024621938E-002   8.3873187271719787E-002   0.0000000000000000     
   5.0397947141165321E-002   6.0244695681310134E-002   0.0000000000000000     
   5.2905754735964296E-002   6.5699799589367974E-002   0.0000000000000000     
   5.5333406532091983E-002   7.1340970879772328E-002   0.0000000000000000     
   5.7680902529548404E-002   7.7168209552523195E-002   0.0000000000000000     
   5.9948242728333510E-002   8.3181515607620590E-002   0.0000000000000000     
   4.5799856972972799E-002   5.9508385639145331E-002   0.0000000000000000     
   4.8116779535747792E-002   6.4990237700000078E-002   0.0000000000000000     
   5.0358956929168405E-002   7.0655809538277603E-002   0.0000000000000000     
   5.2526389153234668E-002   7.6505101153977920E-002   0.0000000000000000     
   5.4619076207946565E-002   8.2538112547101014E-002   0.0000000000000000     
   7.6821946944903241E-002   8.5401336410656961E-002   0.0000000000000000     
   7.9496450797631249E-002   9.1510800284041960E-002   0.0000000000000000     
   8.2068741036976256E-002   9.7770392810486537E-002   0.0000000000000000     
   8.4538817662938290E-002  0.10418011398999065        0.0000000000000000     
   8.6906680675517337E-002  0.11073996382255430        0.0000000000000000     
   7.1049678096811855E-002   8.4613127539398578E-002   0.0000000000000000     
   7.3565187057910736E-002   9.0749516117862153E-002   0.0000000000000000     
   7.5986893152923660E-002   9.7036474095690828E-002   0.0000000000000000     
   7.8314796381850640E-002  0.10347400147288463        0.0000000000000000     
   8.0548896744691637E-002  0.11006209824944352        0.0000000000000000     
   6.5425110024621938E-002   8.3873187271719787E-002   0.0000000000000000     
   6.7778328109932992E-002   9.0034079587922422E-002   0.0000000000000000     
   7.0045393817562404E-002   9.6346588646024675E-002   0.0000000000000000     
   7.2226307147510216E-002  0.10281071444602657        0.0000000000000000     
   7.4321068099776386E-002  0.10942645698792811        0.0000000000000000     
   5.9948242728333510E-002   8.3181515607620590E-002   0.0000000000000000     
   6.2135873953697997E-002   8.9364490694222795E-002   0.0000000000000000     
   6.4244243030892503E-002   9.5700736461488106E-002   0.0000000000000000     
   6.6273349959917044E-002  0.10219025290941650        0.0000000000000000     
   6.8223194740771598E-002  0.10883304003800799        0.0000000000000000     
   5.4619076207946565E-002   8.2538112547101014E-002   0.0000000000000000     
   5.6637824589205757E-002   8.8740749436763258E-002   0.0000000000000000     
   5.8583440792913936E-002   9.5098917542081052E-002   0.0000000000000000     
   6.0455924819071090E-002  0.10161261686305438        0.0000000000000000     
   6.2255276667677217E-002  0.10828184739968327        0.0000000000000000     
   8.6906680675517337E-002  0.11073996382255430        0.0000000000000000     
   8.9172008941908742E-002  0.11744529564070204        0.0000000000000000     
   9.1334481329307896E-002  0.12429146277695832        0.0000000000000000     
   9.3394097837714768E-002  0.13127846523132314        0.0000000000000000     
   9.5350858467129374E-002  0.13840630300379653        0.0000000000000000     
   8.0548896744691637E-002  0.11006209824944352        0.0000000000000000     
   8.2691123774149375E-002  0.11679575952974310        0.0000000000000000     
   8.4743407002926471E-002  0.12366998041815892        0.0000000000000000     
   8.6705746431022981E-002  0.13068476091469106        0.0000000000000000     
   8.8578142058438863E-002  0.13784010101933938        0.0000000000000000     
   7.4321068099776386E-002  0.10942645698792811        0.0000000000000000     
   7.6332705695001613E-002  0.11618779664895994        0.0000000000000000     
   7.8264248953826526E-002  0.12308871380635283        0.0000000000000000     
   8.0115697876251127E-002  0.13012920846010678        0.0000000000000000     
   8.1887052462275442E-002  0.13730928061022180        0.0000000000000000     
   6.8223194740771598E-002  0.10883304003800799        0.0000000000000000     
   7.0096754704465483E-002  0.11562140699835251        0.0000000000000000     
   7.1897007182008033E-002  0.12254766294153999        0.0000000000000000     
   7.3623952173399260E-002  0.12961180786757040        0.0000000000000000     
   7.5277589678639123E-002  0.13681384177644371        0.0000000000000000     
   6.2255276667677217E-002  0.10828184739968327        0.0000000000000000     
   6.3983270802540987E-002  0.11509659057792089        0.0000000000000000     
   6.5641681687471018E-002  0.12204682782372041        0.0000000000000000     
   6.7230509322467311E-002  0.12913255913708183        0.0000000000000000     
   6.8749753707529893E-002  0.13635378451800517        0.0000000000000000     
   9.5350858467129374E-002  0.13840630300379653        0.0000000000000000     
   9.7164643432835943E-002  0.14565257949989449        0.0000000000000000     
   9.8795332950118664E-002  0.15299489812513303        0.0000000000000000     
  0.10024292701897757       0.16043325887951221        0.0000000000000000     
  0.10150742563941263       0.16796766176303196        0.0000000000000000     
   8.8578142058438863E-002  0.13784010101933938        0.0000000000000000     
   9.0346810695114424E-002  0.14511379655398715        0.0000000000000000     
   9.1997969150990011E-002  0.15248364334051737        0.0000000000000000     
   9.3531617426065569E-002  0.15994964137893011        0.0000000000000000     
   9.4947755520341154E-002  0.16751179066922534        0.0000000000000000     
   8.1887052462275442E-002  0.13730928061022180        0.0000000000000000     
   8.3581010530162370E-002  0.14460804806470212        0.0000000000000000     
   8.5200269898174835E-002  0.15200462863155206        0.0000000000000000     
   8.6744830566312853E-002  0.15949902231077157        0.0000000000000000     
   8.8214692534576436E-002  0.16709122910236068        0.0000000000000000     
   7.5277589678639123E-002  0.13681384177644371        0.0000000000000000     
   7.6867242937979710E-002  0.14413533403203946        0.0000000000000000     
   7.8402235191673136E-002  0.15155785399823710        0.0000000000000000     
   7.9882566439719388E-002  0.15908140167503657        0.0000000000000000     
   8.1308236682118465E-002  0.16670597706243798        0.0000000000000000     
   6.8749753707529893E-002  0.13635378451800517        0.0000000000000000     
   7.0205507918566515E-002  0.14369565445599913        0.0000000000000000     
   7.1603865031484942E-002  0.15114331944057247        0.0000000000000000     
   7.2944825046285189E-002  0.15869677947172517        0.0000000000000000     
   7.4228387962967227E-002  0.16635603454945724        0.0000000000000000     
   0.0000000000000000        0.0000000000000000        0.0000000000000000     
   2.8799972140693855E-003   1.7450748432004887E-003   0.0000000000000000     
   5.8725304898798372E-003   3.8650694866497080E-003   0.0000000000000000     
   8.9775998274313588E-003   6.3599839303476596E-003   0.0000000000000000     
   1.2195205226723944E-002   9.2298181742943384E-003   0.0000000000000000     
   0.0000000000000000        0.0000000000000000        0.0000000000000000     
   2.6103009956444799E-003   1.5891324820528189E-003   0.0000000000000000     
   5.2896966068558624E-003   3.5570729925184768E-003   0.0000000000000000     
   8.0381868336341488E-003   5.9038215313969725E-003   0.0000000000000000     
   1.0855771675979335E-002   8.6293780986883076E-003   0.0000000000000000     
   0.0000000000000000        0.0000000000000000        0.0000000000000000     
   2.3401365239915355E-003   1.4591203193028957E-003   0.0000000000000000     
   4.7202462813315657E-003   3.3001040952264772E-003   0.0000000000000000     
   7.1403292720200913E-003   5.5229513277707436E-003   0.0000000000000000     
   9.6003854960571115E-003   8.1276620169356949E-003   0.0000000000000000     
   0.0000000000000000        0.0000000000000000        0.0000000000000000     
   2.0695037991105506E-003   1.3550383549507186E-003   0.0000000000000000     
   4.1641795133069461E-003   3.0941627947737092E-003   0.0000000000000000     
   6.2840271425891863E-003   5.2173733194689721E-003   0.0000000000000000     
   8.4290466869572696E-003   7.7246699290365083E-003   0.0000000000000000     
   0.0000000000000000        0.0000000000000000        0.0000000000000000     
   1.7984028210015278E-003   1.2768865889962878E-003   0.0000000000000000     
   3.6214963027820053E-003   2.9392490911601746E-003   0.0000000000000000     
   5.4692804453414321E-003   4.9870875064916597E-003   0.0000000000000000     
   7.3417552486798104E-003   7.4204018349907433E-003   0.0000000000000000     
   1.2195205226723944E-002   9.2298181742943384E-003   0.0000000000000000     
   1.5427582064714351E-002   1.2372597421488957E-002   0.0000000000000000     
   1.8576965718359335E-002   1.5686346874930715E-002   0.0000000000000000     
   2.1643356187658884E-002   1.9171066534619613E-002   0.0000000000000000     
   2.4626753472613009E-002   2.2826756400555648E-002   0.0000000000000000     
   1.0855771675979335E-002   8.6293780986883076E-003   0.0000000000000000     
   1.3689126380704882E-002   1.1651555075828171E-002   0.0000000000000000     
   1.6484926194624241E-002   1.4888164844252257E-002   0.0000000000000000     
   1.9243171117737410E-002   1.8339207403960570E-002   0.0000000000000000     
   2.1963861150044391E-002   2.2004682754953098E-002   0.0000000000000000     
   9.6003854960571115E-003   8.1276620169356949E-003   0.0000000000000000     
   1.2076932308955559E-002   1.1046901410697009E-002   0.0000000000000000     
   1.4546487066228365E-002   1.4213334757030361E-002   0.0000000000000000     
   1.7009049767875532E-002   1.7626962055935752E-002   0.0000000000000000     
   1.9464620413897057E-002   2.1287783307413176E-002   0.0000000000000000     
   8.4290466869572696E-003   7.7246699290365083E-003   0.0000000000000000     
   1.0590999849466381E-002   1.0558636426095471E-002   0.0000000000000000     
   1.2761648333171709E-002   1.3661856613265022E-002   0.0000000000000000     
   1.4940992138073247E-002   1.7034330490545160E-002   0.0000000000000000     
   1.7129031264171000E-002   2.0676058057935879E-002   0.0000000000000000     
   7.3417552486798104E-003   7.4204018349907433E-003   0.0000000000000000     
   9.2313290022373509E-003   1.0186760122023559E-002   0.0000000000000000     
   1.1130409995454268E-002   1.3233730412956243E-002   0.0000000000000000     
   1.3038998228330559E-002   1.6561312707788791E-002   0.0000000000000000     
   1.4957093700866227E-002   2.0169507006521207E-002   0.0000000000000000     
   2.4626753472613009E-002   2.2826756400555648E-002   0.0000000000000000     
   2.7531563823168386E-002   2.6675887465863544E-002   0.0000000000000000     
   3.0362193489271702E-002   3.0740930723668028E-002   0.0000000000000000     
   3.3118642470922957E-002   3.5021886173969091E-002   0.0000000000000000     
   3.5800910768122141E-002   3.9518753816766734E-002   0.0000000000000000     
   2.1963861150044391E-002   2.2004682754953098E-002   0.0000000000000000     
   2.4630661483754129E-002   2.5882255587569101E-002   0.0000000000000000     
   2.7227237311075559E-002   2.9969590592147825E-002   0.0000000000000000     
   2.9753588632008679E-002   3.4266687768689269E-002   0.0000000000000000     
   3.2209715446553495E-002   3.8773547117193434E-002   0.0000000000000000     
   1.9464620413897057E-002   2.1287783307413176E-002   0.0000000000000000     
   2.1884986342743544E-002   2.5176656849139611E-002   0.0000000000000000     
   2.4241934892865597E-002   2.9274441018792025E-002   0.0000000000000000     
   2.6535466064263224E-002   3.3581135816370421E-002   0.0000000000000000     
   2.8765579856936414E-002   3.8096741241874801E-002   0.0000000000000000     
   1.7129031264171000E-002   2.0676058057935879E-002   0.0000000000000000     
   1.9294538400136643E-002   2.4559091250575073E-002   0.0000000000000000     
   2.1406286234641837E-002   2.8655482003600630E-002   0.0000000000000000     
   2.3464274767686595E-002   3.2965230317012546E-002   0.0000000000000000     
   2.5468503999270906E-002   3.7488336190810830E-002   0.0000000000000000     
   1.4957093700866227E-002   2.0169507006521207E-002   0.0000000000000000     
   1.6859317655933414E-002   2.4029558791875488E-002   0.0000000000000000     
   1.8720291336404269E-002   2.8112713546573635E-002   0.0000000000000000     
   2.0540014742278782E-002   3.2418971270615646E-002   0.0000000000000000     
   2.2318487873556964E-002   3.6948331964001532E-002   0.0000000000000000     
   3.5800910768122141E-002   3.9518753816766734E-002   0.0000000000000000     
   3.8409728372155179E-002   4.4221723609949845E-002   0.0000000000000000     
   4.0945825274307963E-002   4.9120985511407311E-002   0.0000000000000000     
   4.3409201474580508E-002   5.4216539521139147E-002   0.0000000000000000     
   4.5799856972972799E-002   5.9508385639145331E-002   0.0000000000000000     
   3.2209715446553495E-002   3.8773547117193434E-002   0.0000000000000000     
   3.4597637660112417E-002   4.3485822599672465E-002   0.0000000000000000     
   3.6919375178087854E-002   4.8399168178138503E-002   0.0000000000000000     
   3.9174928000479815E-002   5.3513583852591556E-002   0.0000000000000000     
   4.1364296127288300E-002   5.8829069623031624E-002   0.0000000000000000     
   2.8765579856936414E-002   3.8096741241874801E-002   0.0000000000000000     
   3.0934080200829949E-002   4.2818972123199246E-002   0.0000000000000000     
   3.3042771025888616E-002   4.7745543288237886E-002   0.0000000000000000     
   3.5091652332112394E-002   5.2876454736990673E-002   0.0000000000000000     
   3.7080724119501307E-002   5.8211706469457662E-002   0.0000000000000000     
   2.5468503999270906E-002   3.7488336190810830E-002   0.0000000000000000     
   2.7419055994307783E-002   4.2221172180530217E-002   0.0000000000000000     
   2.9316012817710232E-002   4.7160110841705440E-002   0.0000000000000000     
   3.1159374469478255E-002   5.2305152174336525E-002   0.0000000000000000     
   3.2949140949611849E-002   5.7656296178423438E-002   0.0000000000000000     
   2.2318487873556964E-002   3.6948331964001532E-002   0.0000000000000000     
   2.4052565040545905E-002   4.1692422771665349E-002   0.0000000000000000     
   2.5739100553552711E-002   4.6642870838541205E-002   0.0000000000000000     
   2.7378094412577384E-002   5.1799676164629077E-002   0.0000000000000000     
   2.8969546617619919E-002   5.7162838749928974E-002   0.0000000000000000     
   4.5799856972972799E-002   5.9508385639145331E-002   0.0000000000000000     
   4.8116779535747792E-002   6.4990237700000078E-002   0.0000000000000000     
   5.0358956929168405E-002   7.0655809538277603E-002   0.0000000000000000     
   5.2526389153234668E-002   7.6505101153977920E-002   0.0000000000000000     
   5.4619076207946565E-002   8.2538112547101014E-002   0.0000000000000000     
   4.1364296127288300E-002   5.8829069623031624E-002   0.0000000000000000     
   4.3486349343909554E-002   6.4335840402332714E-002   0.0000000000000000     
   4.5539957435739881E-002   7.0024111103368869E-002   0.0000000000000000     
   4.7525120402779265E-002   7.5893881726140089E-002   0.0000000000000000     
   4.9441838245027694E-002   8.1945152270646360E-002   0.0000000000000000     
   3.7080724119501307E-002   5.8211706469457662E-002   0.0000000000000000     
   3.9008851421832552E-002   6.3739341780780973E-002   0.0000000000000000     
   4.0874899272883340E-002   6.9447403966102800E-002   0.0000000000000000     
   4.2678867672653678E-002   7.5335893025423123E-002   0.0000000000000000     
   4.4420756621143566E-002   8.1404808958741984E-002   0.0000000000000000     
   3.2949140949611849E-002   5.7656296178423438E-002   0.0000000000000000     
   3.4684285769516786E-002   6.3200741835344854E-002   0.0000000000000000     
   3.6363782440598805E-002   6.8925688126479395E-002   0.0000000000000000     
   3.7987630962857927E-002   7.4831135051827077E-002   0.0000000000000000     
   3.9555831336294138E-002   8.0917082611387900E-002   0.0000000000000000     
   2.8969546617619919E-002   5.7162838749928974E-002   0.0000000000000000     
   3.0512652386962238E-002   6.2720040566024343E-002   0.0000000000000000     
   3.2006606938886260E-002   6.8458963584498669E-002   0.0000000000000000     
   3.3451410273391997E-002   7.4379607805351897E-002   0.0000000000000000     
   3.4847062390479432E-002   8.0481973228584067E-002   0.0000000000000000     
   5.4619076207946565E-002   8.2538112547101014E-002   0.0000000000000000     
   5.6637824589205757E-002   8.8740749436763258E-002   0.0000000000000000     
   5.8583440792913936E-002   9.5098917542081052E-002   0.0000000000000000     
   6.0455924819071090E-002  0.10161261686305438        0.0000000000000000     
   6.2255276667677217E-002  0.10828184739968327        0.0000000000000000     
   4.9441838245027694E-002   8.1945152270646360E-002   0.0000000000000000     
   5.1290633953903590E-002   8.8166007076576292E-002   0.0000000000000000     
   5.3072030520825292E-002   9.4544530483618508E-002   0.0000000000000000     
   5.4786027945792841E-002  0.10108072249177302        0.0000000000000000     
   5.6432626228806196E-002  0.10777458310103981        0.0000000000000000     
   4.4420756621143566E-002   8.1404808958741984E-002   0.0000000000000000     
   4.6100755985238794E-002   8.7643414874694417E-002   0.0000000000000000     
   4.7719055631825186E-002   9.4040973881915471E-002   0.0000000000000000     
   4.9275655560902729E-002  0.10059748598040516        0.0000000000000000     
   5.0770555772471436E-002  0.10731295117016350        0.0000000000000000     
   3.9555831336294138E-002   8.0917082611387900E-002   0.0000000000000000     
   4.1068190683211388E-002   8.7172972831117593E-002   0.0000000000000000     
   4.2524516125913604E-002   9.3588247736971886E-002   0.0000000000000000     
   4.3924807664400774E-002  0.10016290732895081        0.0000000000000000     
   4.5269065298672917E-002  0.10689695160705436        0.0000000000000000     
   3.4847062390479432E-002   8.0481973228584067E-002   0.0000000000000000     
   3.6192938047821352E-002   8.6754680945845833E-002   0.0000000000000000     
   3.7488412003090527E-002   9.3186352048787779E-002   0.0000000000000000     
   3.8733484256286962E-002   9.9776986537409976E-002   0.0000000000000000     
   3.9928154807410646E-002  0.10652658441171237        0.0000000000000000     
   6.2255276667677217E-002  0.10828184739968327        0.0000000000000000     
   6.3983270802540987E-002  0.11509659057792089        0.0000000000000000     
   6.5641681687471018E-002  0.12204682782372041        0.0000000000000000     
   6.7230509322467311E-002  0.12913255913708183        0.0000000000000000     
   6.8749753707529893E-002  0.13635378451800517        0.0000000000000000     
   5.6432626228806196E-002  0.10777458310103981        0.0000000000000000     
   5.8012141734364593E-002  0.11461393293760162        0.0000000000000000     
   5.9524890826967172E-002  0.12158659262764120        0.0000000000000000     
   6.0970873506613989E-002  0.12869256217115857        0.0000000000000000     
   6.2350089773304987E-002  0.13593184156815374        0.0000000000000000     
   5.0770555772471436E-002  0.10731295117016350        0.0000000000000000     
   5.2203255245072779E-002  0.11417401962733134        0.0000000000000000     
   5.3573252957248255E-002  0.12116734152804953        0.0000000000000000     
   5.4880548908997837E-002  0.12829291687231811        0.0000000000000000     
   5.6125143100321573E-002  0.13555074566013706        0.0000000000000000     
   4.5269065298672917E-002  0.10689695160705436        0.0000000000000000     
   4.6556611334665557E-002  0.11377685064711004        0.0000000000000000     
   4.7786768078314230E-002  0.12078907452494540        0.0000000000000000     
   4.8959535529618937E-002  0.12793362324056043        0.0000000000000000     
   5.0074913688579671E-002  0.13521049679395516        0.0000000000000000     
   3.9928154807410646E-002  0.10652658441171237        0.0000000000000000     
   4.1072210003142914E-002  0.11342242599693772        0.0000000000000000     
   4.2165436190165120E-002  0.12045179161832877        0.0000000000000000     
   4.3207833368477236E-002  0.12761468127588554        0.0000000000000000     
   4.4199401538079275E-002  0.13491109496960801        0.0000000000000000     
   6.8749753707529893E-002  0.13635378451800517        0.0000000000000000     
   7.0205507918566515E-002  0.14369565445599913        0.0000000000000000     
   7.1603865031484942E-002  0.15114331944057247        0.0000000000000000     
   7.2944825046285189E-002  0.15869677947172517        0.0000000000000000     
   7.4228387962967227E-002  0.16635603454945724        0.0000000000000000     
   6.2350089773304987E-002  0.13593184156815374        0.0000000000000000     
   6.3661855448693211E-002  0.14329296449400883        0.0000000000000000     
   6.4905486354431691E-002  0.15076446462410609        0.0000000000000000     
   6.6080982490520412E-002  0.15834634195844549        0.0000000000000000     
   6.7188343856959376E-002  0.16603859649702701        0.0000000000000000     
   5.6125143100321573E-002  0.13555074566013706        0.0000000000000000     
   5.7302335505130295E-002  0.14293121930349637        0.0000000000000000     
   5.8407426097334854E-002  0.15042472921438590        0.0000000000000000     
   5.9440414876935285E-002  0.15803127539280568        0.0000000000000000     
   6.0401301843931568E-002  0.16575085783875576        0.0000000000000000     
   5.0074913688579671E-002  0.13521049679395516        0.0000000000000000     
   5.1126948087877745E-002  0.14261041888446163        0.0000000000000000     
   5.2109684260194460E-002  0.15012411321141181        0.0000000000000000     
   5.3023122205529807E-002  0.15775157977480578        0.0000000000000000     
   5.3867261923883795E-002  0.16549281857464351        0.0000000000000000     
   4.4199401538079275E-002  0.13491109496960801        0.0000000000000000     
   4.5135693196935570E-002  0.14233056323690466        0.0000000000000000     
   4.6012260843010466E-002  0.14986261661518388        0.0000000000000000     
   4.6829104476303965E-002  0.15750725510444574        0.0000000000000000     
   4.7586224096816065E-002  0.16526447870469030        0.0000000000000000     
   0.0000000000000000        0.0000000000000000        0.0000000000000000     
   1.7984028210015278E-003   1.2768865889962878E-003   0.0000000000000000     
   3.6214963027820053E-003   2.9392490911601746E-003   0.0000000000000000     
   5.4692804453414321E-003   4.9870875064916597E-003   0.0000000000000000     
   7.3417552486798104E-003   7.4204018349907433E-003   0.0000000000000000     
   0.0000000000000000        0.0000000000000000        0.0000000000000000     
   1.5351089640620163E-003   1.2175561911512110E-003   0.0000000000000000     
   3.0995504553537820E-003   2.8208602189769834E-003   0.0000000000000000     
   4.6933244738752954E-003   4.8099120834773157E-003   0.0000000000000000     
   6.3164310196265581E-003   7.1847117846522094E-003   0.0000000000000000     
   0.0000000000000000        0.0000000000000000        0.0000000000000000     
   1.2878976026895689E-003   1.1699383311270957E-003   0.0000000000000000     
   2.6056957766193148E-003   2.7244934128152478E-003   0.0000000000000000     
   3.9533945217892366E-003   4.6636652450644548E-003   0.0000000000000000     
   5.3309938381993363E-003   6.9874538278747178E-003   0.0000000000000000     
   0.0000000000000000        0.0000000000000000        0.0000000000000000     
   1.0567687368841852E-003   1.1340330089239425E-003   0.0000000000000000     
   2.1399322665786040E-003   2.6501486726749676E-003   0.0000000000000000     
   3.2494905890832577E-003   4.5483469912530761E-003   0.0000000000000000     
   4.3854437043981450E-003   6.8286279646582659E-003   0.0000000000000000     
   0.0000000000000000        0.0000000000000000        0.0000000000000000     
   8.4172236664586519E-004   1.1098402245417506E-003   0.0000000000000000     
   1.7022599252316511E-003   2.5978259985561438E-003   0.0000000000000000     
   2.5816126757573572E-003   4.4639573220431788E-003   0.0000000000000000     
   3.4797806182229845E-003   6.7082341950028563E-003   0.0000000000000000     
   7.3417552486798104E-003   7.4204018349907433E-003   0.0000000000000000     
   9.2313290022373509E-003   1.0186760122023559E-002   0.0000000000000000     
   1.1130409995454268E-002   1.3233730412956243E-002   0.0000000000000000     
   1.3038998228330559E-002   1.6561312707788791E-002   0.0000000000000000     
   1.4957093700866227E-002   2.0169507006521207E-002   0.0000000000000000     
   6.3164310196265581E-003   7.1847117846522094E-003   0.0000000000000000     
   7.9562483996205233E-003   9.8956564220761233E-003   0.0000000000000000     
   9.6001549208701437E-003   1.2893143095323509E-002   0.0000000000000000     
   1.1248150583375419E-002   1.6177171804394368E-002   0.0000000000000000     
   1.2900235387136350E-002   1.9747742549288700E-002   0.0000000000000000     
   5.3309938381993363E-003   6.9874538278747178E-003   0.0000000000000000     
   6.7240866739679550E-003   9.6497092498480114E-003   0.0000000000000000     
   8.1182659772134364E-003   1.2604281599586308E-002   0.0000000000000000     
   9.5135317479357866E-003   1.5851170877089611E-002   0.0000000000000000     
   1.0909883986134995E-002   1.9390377082357909E-002   0.0000000000000000     
   4.3854437043981450E-003   6.8286279646582659E-003   0.0000000000000000     
   5.5348438252796495E-003   9.4489186053392273E-003   0.0000000000000000     
   6.6847431644841519E-003   1.2367145925744640E-002   0.0000000000000000     
   7.8351417220116557E-003   1.5583309925874511E-002   0.0000000000000000     
   8.9860394978621555E-003   1.9097410605728837E-002   0.0000000000000000     
   3.4797806182229845E-003   6.7082341950028563E-003   0.0000000000000000     
   4.3885198535556034E-003   9.2932844885497672E-003   0.0000000000000000     
   5.2995864826822841E-003   1.2181736073798509E-002   0.0000000000000000     
   6.2129805056030272E-003   1.5373588950749075E-002   0.0000000000000000     
   7.1287019223178344E-003   1.8868843119401471E-002   0.0000000000000000     
   1.4957093700866227E-002   2.0169507006521207E-002   0.0000000000000000     
   1.6859317655933414E-002   2.4029558791875488E-002   0.0000000000000000     
   1.8720291336404269E-002   2.8112713546573635E-002   0.0000000000000000     
   2.0540014742278782E-002   3.2418971270615646E-002   0.0000000000000000     
   2.2318487873556964E-002   3.6948331964001532E-002   0.0000000000000000     
   1.2900235387136350E-002   1.9747742549288700E-002   0.0000000000000000     
   1.4539912045777089E-002   2.3578678621756600E-002   0.0000000000000000     
   1.6150683272921774E-002   2.7643803313548158E-002   0.0000000000000000     
   1.7732549068570417E-002   3.1943116624663363E-002   0.0000000000000000     
   1.9285509432723009E-002   3.6476618555102230E-002   0.0000000000000000     
   1.0909883986134995E-002   1.9390377082357909E-002   0.0000000000000000     
   1.2296909505310883E-002   2.3197069888934167E-002   0.0000000000000000     
   1.3664195118963253E-002   2.7246418970361310E-002   0.0000000000000000     
   1.5011740827092116E-002   3.1538424326639357E-002   0.0000000000000000     
   1.6339546629697461E-002   3.6073085957768293E-002   0.0000000000000000     
   8.9860394978621555E-003   1.9097410605728837E-002   0.0000000000000000     
   1.0130310034534792E-002   2.2884732593408175E-002   0.0000000000000000     
   1.1260826874528698E-002   2.6920560517013109E-002   0.0000000000000000     
   1.2377590017843875E-002   3.1204894376543620E-002   0.0000000000000000     
   1.3480599464480322E-002   3.5737734171999706E-002   0.0000000000000000     
   7.1287019223178344E-003   1.8868843119401471E-002   0.0000000000000000     
   8.0401136334488209E-003   2.2641666735178641E-002   0.0000000000000000     
   8.9405785396181100E-003   2.6666227953503530E-002   0.0000000000000000     
   9.8300966408257015E-003   3.0942526774376145E-002   0.0000000000000000     
   1.0708667937071592E-002   3.5470563197796484E-002   0.0000000000000000     
   2.2318487873556964E-002   3.6948331964001532E-002   0.0000000000000000     
   2.4052565040545905E-002   4.1692422771665349E-002   0.0000000000000000     
   2.5739100553552711E-002   4.6642870838541205E-002   0.0000000000000000     
   2.7378094412577384E-002   5.1799676164629077E-002   0.0000000000000000     
   2.8969546617619919E-002   5.7162838749928974E-002   0.0000000000000000     
   1.9285509432723009E-002   3.6476618555102230E-002   0.0000000000000000     
   2.0803283446994447E-002   4.1230358983637520E-002   0.0000000000000000     
   2.2279590192999636E-002   4.6190387789041977E-002   0.0000000000000000     
   2.3714429670738564E-002   5.1356704971315600E-002   0.0000000000000000     
   2.5107801880211240E-002   5.6729310530458411E-002   0.0000000000000000     
   1.6339546629697461E-002   3.6073085957768293E-002   0.0000000000000000     
   1.7639887321103540E-002   4.0832615903479565E-002   0.0000000000000000     
   1.8905037695634577E-002   4.5799226203504580E-002   0.0000000000000000     
   2.0134997753290584E-002   5.0972916857843366E-002   0.0000000000000000     
   2.1329767494071551E-002   5.6353687866495909E-002   0.0000000000000000     
   1.3480599464480322E-002   3.5737734171999706E-002   0.0000000000000000     
   1.4562376662873168E-002   4.0499193531191489E-002   0.0000000000000000     
   1.5615443061457540E-002   4.5469386081929034E-002   0.0000000000000000     
   1.6639798660233431E-002   5.0648311824212359E-002   0.0000000000000000     
   1.7635443459200848E-002   5.6035970758041467E-002   0.0000000000000000     
   1.0708667937071592E-002   3.5470563197796484E-002   0.0000000000000000     
   1.1570751472303346E-002   4.0230091866773295E-002   0.0000000000000000     
   1.2410806290468521E-002   4.5200867424315332E-002   0.0000000000000000     
   1.3228832391567120E-002   5.0382889870422602E-002   0.0000000000000000     
   1.4024829775599141E-002   5.5776159205095086E-002   0.0000000000000000     
   2.8969546617619919E-002   5.7162838749928974E-002   0.0000000000000000     
   3.0512652386962238E-002   6.2720040566024343E-002   0.0000000000000000     
   3.2006606938886260E-002   6.8458963584498669E-002   0.0000000000000000     
   3.3451410273391997E-002   7.4379607805351897E-002   0.0000000000000000     
   3.4847062390479432E-002   8.0481973228584067E-002   0.0000000000000000     
   2.5107801880211240E-002   5.6729310530458411E-002   0.0000000000000000     
   2.6459085739321323E-002   6.2296706006778425E-002   0.0000000000000000     
   2.7767660165972471E-002   6.8047392940583706E-002   0.0000000000000000     
   2.9033525160164685E-002   7.3981371331874254E-002   0.0000000000000000     
   3.0256680721897976E-002   8.0098641180650063E-002   0.0000000000000000     
   2.1329767494071551E-002   5.6353687866495909E-002   0.0000000000000000     
   2.2488720291746436E-002   6.1930206191566070E-002   0.0000000000000000     
   2.3611229520084188E-002   6.7691138795157688E-002   0.0000000000000000     
   2.4697295179084807E-002   7.3636485677270769E-002   0.0000000000000000     
   2.5746917268748292E-002   7.9766246837905327E-002   0.0000000000000000     
   1.7635443459200848E-002   5.6035970758041467E-002   0.0000000000000000     
   1.8601556044237584E-002   6.1620541120387250E-002   0.0000000000000000     
   1.9537315001221411E-002   6.7390201148220572E-002   0.0000000000000000     
   2.0442720330152347E-002   7.3344950841541495E-002   0.0000000000000000     
   2.1317772031030378E-002   7.9484790200349931E-002   0.0000000000000000     
   1.4024829775599141E-002   5.5776159205095086E-002   0.0000000000000000     
   1.4797592996794758E-002   6.1367710793241971E-002   0.0000000000000000     
   1.5545916609384149E-002   6.7144579999772400E-002   0.0000000000000000     
   1.6269800613367309E-002   7.3106766824686337E-002   0.0000000000000000     
   1.6969245008744242E-002   7.9254271267983845E-002   0.0000000000000000     
   3.4847062390479432E-002   8.0481973228584067E-002   0.0000000000000000     
   3.6192938047821352E-002   8.6754680945845833E-002   0.0000000000000000     
   3.7488412003090527E-002   9.3186352048787779E-002   0.0000000000000000     
   3.8733484256286962E-002   9.9776986537409976E-002   0.0000000000000000     
   3.9928154807410646E-002  0.10652658441171237        0.0000000000000000     
   3.0256680721897976E-002   8.0098641180650063E-002   0.0000000000000000     
   3.1436154582324044E-002   8.6386716598663219E-002   0.0000000000000000     
   3.2570974472594612E-002   9.2833111697665879E-002   0.0000000000000000     
   3.3661140392709669E-002   9.9437826477657990E-002   0.0000000000000000     
   3.4706652342669231E-002  0.10620086093863959        0.0000000000000000     
   2.5746917268748292E-002   7.9766246837905327E-002   0.0000000000000000     
   2.6758996789974787E-002   8.6067257169353872E-002   0.0000000000000000     
   2.7732434743664450E-002   9.2526351563908857E-002   0.0000000000000000     
   2.8667231129817276E-002   9.9143530021570267E-002   0.0000000000000000     
   2.9563385948433274E-002  0.10591879254233813        0.0000000000000000     
   2.1317772031030378E-002   7.9484790200349931E-002   0.0000000000000000     
   2.2161464670773588E-002   8.5796302657917739E-002   0.0000000000000000     
   2.2972792816300058E-002   9.2266071647516698E-002   0.0000000000000000     
   2.3751756467609780E-002   9.8894097169146752E-002   0.0000000000000000     
   2.4498355624702765E-002  0.10568037922280796        0.0000000000000000     
   1.6969245008744242E-002   7.9254271267983845E-002   0.0000000000000000     
   1.7643558224720447E-002   8.5573853064354888E-002   0.0000000000000000     
   1.8292048690501429E-002   9.2052271948489417E-002   0.0000000000000000     
   1.8914716406087179E-002   9.8689527920387501E-002   0.0000000000000000     
   1.9511561371477710E-002  0.10548562098004907        0.0000000000000000     
   3.9928154807410646E-002  0.10652658441171237        0.0000000000000000     
   4.1072210003142914E-002  0.11342242599693772        0.0000000000000000     
   4.2165436190165120E-002  0.12045179161832877        0.0000000000000000     
   4.3207833368477236E-002  0.12761468127588554        0.0000000000000000     
   4.4199401538079275E-002  0.13491109496960801        0.0000000000000000     
   3.4706652342669231E-002  0.10620086093863959        0.0000000000000000     
   3.5707906217573609E-002  0.11311056539372538        0.0000000000000000     
   3.6665297912523126E-002  0.12015529015603005        0.0000000000000000     
   3.7578827427517759E-002  0.12733503522555362        0.0000000000000000     
   3.8448494762557545E-002  0.13464980060229603        0.0000000000000000     
   2.9563385948433274E-002  0.10591879254233813        0.0000000000000000     
   3.0421554945026349E-002  0.11284108855438406        0.0000000000000000     
   3.1242393865110442E-002  0.11989936748587961        0.0000000000000000     
   3.2025902708685550E-002  0.12709362933682483        0.0000000000000000     
   3.2772081475751662E-002  0.13442387410721970        0.0000000000000000     
   2.4498355624702765E-002  0.10568037922280796        0.0000000000000000     
   2.5213156185501146E-002  0.11261399547891372        0.0000000000000000     
   2.5896724047927089E-002  0.11968402360787748        0.0000000000000000     
   2.6549059211980582E-002  0.12689046360969924        0.0000000000000000     
   2.7170161677661626E-002  0.13423331548437900        0.0000000000000000     
   1.9511561371477710E-002  0.10548562098004907        0.0000000000000000     
   2.0082709938998005E-002  0.11242928616731440        0.0000000000000000     
   2.0628288460973056E-002  0.11950925852202364        0.0000000000000000     
   2.1148296937402868E-002  0.12672553804417680        0.0000000000000000     
   2.1642735368287435E-002  0.13407812473377395        0.0000000000000000     
   4.4199401538079275E-002  0.13491109496960801        0.0000000000000000     
   4.5135693196935570E-002  0.14233056323690466        0.0000000000000000     
   4.6012260843010466E-002  0.14986261661518388        0.0000000000000000     
   4.6829104476303965E-002  0.15750725510444574        0.0000000000000000     
   4.7586224096816065E-002  0.16526447870469030        0.0000000000000000     
   3.8448494762557545E-002  0.13464980060229603        0.0000000000000000     
   3.9272238654390147E-002  0.14208750817408791        0.0000000000000000     
   4.0047997839763261E-002  0.14963607982875976        0.0000000000000000     
   4.0775772318676885E-002  0.15729551556631155        0.0000000000000000     
   4.1455562091131021E-002  0.16506581538674331        0.0000000000000000     
   3.2772081475751662E-002  0.13442387410721970        0.0000000000000000     
   3.3480252282327871E-002  0.14187710950927390        0.0000000000000000     
   3.4149737244433209E-002  0.14944034325519692        0.0000000000000000     
   3.4780536362067689E-002  0.15711357534498890        0.0000000000000000     
   3.5372649635231318E-002  0.16489680577864982        0.0000000000000000     
   2.7170161677661626E-002  0.13423331548437900        0.0000000000000000     
   2.7759734080748708E-002  0.14169936724246249        0.0000000000000000     
   2.8317479057020287E-002  0.14927540689449548        0.0000000000000000     
   2.8843396606476376E-002  0.15696143444047789        0.0000000000000000     
   2.9337486729116961E-002  0.16475744988040980        0.0000000000000000     
   2.1642735368287435E-002  0.13407812473377395        0.0000000000000000     
   2.2110684049652676E-002  0.14155428137365383        0.0000000000000000     
   2.2551223277524513E-002  0.14914127074665537        0.0000000000000000     
   2.2964353051902933E-002  0.15683909285277853        0.0000000000000000     
   2.3350073372787945E-002  0.16464774769202331        0.0000000000000000     
   0.0000000000000000        0.0000000000000000        0.0000000000000000     
   8.4172236664586519E-004   1.1098402245417506E-003   0.0000000000000000     
   1.7022599252316511E-003   2.5978259985561438E-003   0.0000000000000000     
   2.5816126757573572E-003   4.4639573220431788E-003   0.0000000000000000     
   3.4797806182229845E-003   6.7082341950028563E-003   0.0000000000000000     
   0.0000000000000000        0.0000000000000000        0.0000000000000000     
   6.3386087688316816E-004   1.0937957735185418E-003   0.0000000000000000     
   1.2781486121455378E-003   2.5616783126021074E-003   0.0000000000000000     
   1.9328632057871091E-003   4.4036476172506977E-003   0.0000000000000000     
   2.5980046578078816E-003   6.6197036874643105E-003   0.0000000000000000     
   0.0000000000000000        0.0000000000000000        0.0000000000000000     
   4.2428665250465313E-004   1.0823354513923376E-003   0.0000000000000000     
   8.5306818688734817E-004   2.5358585369561933E-003   0.0000000000000000     
   1.2863446031480853E-003   4.3605692566915655E-003   0.0000000000000000     
   1.7241159012868642E-003   6.5564676105984571E-003   0.0000000000000000     
   0.0000000000000000        0.0000000000000000        0.0000000000000000     
   2.1299969351032025E-004   1.0754592581631382E-003   0.0000000000000000     
   4.2701864945708212E-004   2.5203666716183998E-003   0.0000000000000000     
   6.4205686784028564E-004   4.3347222403657846E-003   0.0000000000000000     
   8.5811434865993089E-004   6.5185259644052907E-003   0.0000000000000000     
   0.0000000000000000        0.0000000000000000        0.0000000000000000     
  -9.9830598431979722E-014   1.0731671938309434E-003   0.0000000000000000     
  -1.4526043128765265E-013   2.5152027165887274E-003   0.0000000000000000     
  -1.3628936304174721E-013   4.3261065682733526E-003   0.0000000000000000     
  -7.2917475009426358E-014   6.5058787488848175E-003   0.0000000000000000     
   3.4797806182229845E-003   6.7082341950028563E-003   0.0000000000000000     
   4.3885198535556034E-003   9.2932844885497672E-003   0.0000000000000000     
   5.2995864826822841E-003   1.2181736073798509E-002   0.0000000000000000     
   6.2129805056030272E-003   1.5373588950749075E-002   0.0000000000000000     
   7.1287019223178344E-003   1.8868843119401471E-002   0.0000000000000000     
   2.5980046578078816E-003   6.6197036874643105E-003   0.0000000000000000     
   3.2705889627749054E-003   9.1768606171965701E-003   0.0000000000000000     
   3.9476321152552285E-003   1.2042132500401101E-002   0.0000000000000000     
   4.6291341152488496E-003   1.5215519337077902E-002   0.0000000000000000     
   5.3150949627557703E-003   1.8697021127226970E-002   0.0000000000000000     
   1.7241159012868642E-003   6.5564676105984571E-003   0.0000000000000000     
   2.1665253569166415E-003   9.0937007089965695E-003   0.0000000000000000     
   2.6137162456503740E-003   1.1942415662205611E-002   0.0000000000000000     
   3.0656885674880618E-003   1.5102612470225580E-002   0.0000000000000000     
   3.5224423224297038E-003   1.8574291133056475E-002   0.0000000000000000     
   8.5811434865993089E-004   6.5185259644052907E-003   0.0000000000000000     
   1.0763290359808119E-003   9.0438047639497636E-003   0.0000000000000000     
   1.2978388738677227E-003   1.1882585559212037E-002   0.0000000000000000     
   1.5226438623206638E-003   1.5034868350192110E-002   0.0000000000000000     
   1.7507440013396342E-003   1.8500653136889988E-002   0.0000000000000000     
  -7.2917475009426358E-014   6.5058787488848175E-003   0.0000000000000000     
  -3.2583392364435304E-014   9.0271727820561507E-003   0.0000000000000000     
  -9.2725415019867530E-014   1.1862642191420377E-002   0.0000000000000000     
  -2.5334354297572304E-013   1.5012286976977499E-002   0.0000000000000000     
  -5.1443810149265357E-013   1.8476107138727514E-002   0.0000000000000000     
   7.1287019223178344E-003   1.8868843119401471E-002   0.0000000000000000     
   8.0401136334488209E-003   2.2641666735178641E-002   0.0000000000000000     
   8.9405785396181100E-003   2.6666227953503530E-002   0.0000000000000000     
   9.8300966408257015E-003   3.0942526774376145E-002   0.0000000000000000     
   1.0708667937071592E-002   3.5470563197796484E-002   0.0000000000000000     
   5.3150949627557703E-003   1.8697021127226970E-002   0.0000000000000000     
   5.9986103816246084E-003   2.2459290363199706E-002   0.0000000000000000     
   6.6727760957039795E-003   2.6474979537347502E-002   0.0000000000000000     
   7.3375921049938855E-003   3.0744088649670358E-002   0.0000000000000000     
   7.9930584094943264E-003   3.5266617700168271E-002   0.0000000000000000     
   3.5224423224297038E-003   1.8574291133056475E-002   0.0000000000000000     
   3.9780903586337860E-003   2.2329021526425512E-002   0.0000000000000000     
   4.4267455242587919E-003   2.6338373526059899E-002   0.0000000000000000     
   4.8684078193047221E-003   3.0602347131959647E-002   0.0000000000000000     
   5.3030772437715765E-003   3.5120942344124745E-002   0.0000000000000000     
   1.7507440013396342E-003   1.8500653136889988E-002   0.0000000000000000     
   1.9785535644763555E-003   2.2250860224856072E-002   0.0000000000000000     
   2.2024868252825481E-003   2.6256409919640747E-002   0.0000000000000000     
   2.4225437837582116E-003   3.0517302221244016E-002   0.0000000000000000     
   2.6387244399033462E-003   3.5033537129665886E-002   0.0000000000000000     
  -5.1443810149265357E-013   1.8476107138727514E-002   0.0000000000000000     
  -8.4768265540616228E-013   2.2224806458491373E-002   0.0000000000000000     
  -1.2247518537539248E-012   2.6229088718090026E-002   0.0000000000000000     
  -1.6456459133763757E-012   3.0488953917523470E-002   0.0000000000000000     
  -2.1103648342735148E-012   3.5004402056791714E-002   0.0000000000000000     
   1.0708667937071592E-002   3.5470563197796484E-002   0.0000000000000000     
   1.1570751472303346E-002   4.0230091866773295E-002   0.0000000000000000     
   1.2410806290468521E-002   4.5200867424315332E-002   0.0000000000000000     
   1.3228832391567120E-002   5.0382889870422602E-002   0.0000000000000000     
   1.4024829775599141E-002   5.5776159205095086E-002   0.0000000000000000     
   7.9930584094943264E-003   3.5266617700168271E-002   0.0000000000000000     
   8.6360676626022932E-003   4.0022768219679081E-002   0.0000000000000000     
   9.2635125177147823E-003   4.4992741739040609E-002   0.0000000000000000     
   9.8753929748317901E-003   5.0176538258252884E-002   0.0000000000000000     
   1.0471709033953322E-002   5.5574157777315877E-002   0.0000000000000000     
   5.3030772437715765E-003   3.5120942344124745E-002   0.0000000000000000     
   5.7293811469782347E-003   3.9874679899362948E-002   0.0000000000000000     
   6.1459468782435753E-003   4.4844080534482050E-002   0.0000000000000000     
   6.5527744375675984E-003   5.0029144249482030E-002   0.0000000000000000     
   6.9498638249503048E-003   5.5429871044362915E-002   0.0000000000000000     
   2.6387244399033462E-003   3.5033537129665886E-002   0.0000000000000000     
   2.8506919254311707E-003   3.9785826905824904E-002   0.0000000000000000     
   3.0581093720549015E-003   4.4754883810639641E-002   0.0000000000000000     
   3.2609767797745401E-003   4.9940707844110074E-002   0.0000000000000000     
   3.4592941485900850E-003   5.5343299006236218E-002   0.0000000000000000     
  -2.1103648342735148E-012   3.5004402056791714E-002   0.0000000000000000     
  -2.0388984554517431E-012   3.9756209239064942E-002   0.0000000000000000     
  -8.5123829643082849E-013   4.4725151567513367E-002   0.0000000000000000     
   1.4526162526529510E-012   4.9911229042136976E-002   0.0000000000000000     
   4.8726649885116879E-012   5.5314441662935782E-002   0.0000000000000000     
   1.4024829775599141E-002   5.5776159205095086E-002   0.0000000000000000     
   1.4797592996794758E-002   6.1367710793241971E-002   0.0000000000000000     
   1.5545916609384149E-002   6.7144579999772400E-002   0.0000000000000000     
   1.6269800613367309E-002   7.3106766824686337E-002   0.0000000000000000     
   1.6969245008744242E-002   7.9254271267983845E-002   0.0000000000000000     
   1.0471709033953322E-002   5.5574157777315877E-002   0.0000000000000000     
   1.1050971599434370E-002   6.1171349458577273E-002   0.0000000000000000     
   1.1611691575629924E-002   6.6953862464384784E-002   0.0000000000000000     
   1.2153868962539987E-002   7.2921696794738353E-002   0.0000000000000000     
   1.2677503760164558E-002   7.9074852449638050E-002   0.0000000000000000     
   6.9498638249503048E-003   5.5429871044362915E-002   0.0000000000000000     
   7.3358323021728211E-003   6.1031091364840195E-002   0.0000000000000000     
   7.7092971310162772E-003   6.6817635656629376E-002   0.0000000000000000     
   8.0702583114806731E-003   7.2789503919730505E-002   0.0000000000000000     
   8.4187158435660072E-003   7.8946696154143500E-002   0.0000000000000000     
   3.4592941485900850E-003   5.5343299006236218E-002   0.0000000000000000     
   3.6521751050101162E-003   6.0946936512030717E-002   0.0000000000000000     
   3.8387332755432106E-003   6.6735899576506233E-002   0.0000000000000000     
   4.0189686601893688E-003   7.2710188199662726E-002   0.0000000000000000     
   4.1928812589485899E-003   7.8869802381500237E-002   0.0000000000000000     
   4.8726649885116879E-012   5.5314441662935782E-002   0.0000000000000000     
   7.9462520547954330E-012   6.0918884900148865E-002   0.0000000000000000     
   9.2107211072632589E-012   6.6708654224015285E-002   0.0000000000000000     
   8.6660730539344852E-012   7.2683749634535083E-002   0.0000000000000000     
   6.3123061465331087E-012   7.8844171131708232E-002   0.0000000000000000     
   1.6969245008744242E-002   7.9254271267983845E-002   0.0000000000000000     
   1.7643558224720447E-002   8.5573853064354888E-002   0.0000000000000000     
   1.8292048690501429E-002   9.2052271948489417E-002   0.0000000000000000     
   1.8914716406087179E-002   9.8689527920387501E-002   0.0000000000000000     
   1.9511561371477710E-002  0.10548562098004907        0.0000000000000000     
   1.2677503760164558E-002   7.9074852449638050E-002   0.0000000000000000     
   1.3182265628719998E-002   8.5400430572538988E-002   0.0000000000000000     
   1.3667824228422661E-002   9.1885532306896472E-002   0.0000000000000000     
   1.4134179559272552E-002   9.8530157652710351E-002   0.0000000000000000     
   1.4581331621269667E-002  0.10533430660998076        0.0000000000000000     
   8.4187158435660072E-003   7.8946696154143500E-002   0.0000000000000000     
   8.7545750596768716E-003   8.5276557366343902E-002   0.0000000000000000     
   9.0777412922178596E-003   9.1766432562807171E-002   0.0000000000000000     
   9.3882145411889641E-003   9.8416321743533319E-002   0.0000000000000000     
   9.6859948065901903E-003  0.10522622490852232        0.0000000000000000     
   4.1928812589485899E-003   7.8869802381500237E-002   0.0000000000000000     
   4.3604865175910735E-003   8.5202233445769562E-002   0.0000000000000000     
   4.5217998818870174E-003   9.1694972716221609E-002   0.0000000000000000     
   4.6768213518364205E-003   9.8348020192856309E-002   0.0000000000000000     
   4.8255509274392839E-003  0.10516137587567369        0.0000000000000000     
   6.3123061465331087E-012   7.8844171131708232E-002   0.0000000000000000     
   2.4626017371132125E-012   8.5177458810816037E-002   0.0000000000000000     
  -2.5698600148935102E-012   9.1671152767139732E-002   0.0000000000000000     
  -8.7850791908022224E-012   9.8325253000679375E-002   0.0000000000000000     
  -1.6183057064550477E-011  0.10513975951143495        0.0000000000000000     
   1.9511561371477710E-002  0.10548562098004907        0.0000000000000000     
   2.0082709938998005E-002  0.11242928616731440        0.0000000000000000     
   2.0628288460973056E-002  0.11950925852202364        0.0000000000000000     
   2.1148296937402868E-002  0.12672553804417680        0.0000000000000000     
   2.1642735368287435E-002  0.13407812473377395        0.0000000000000000     
   1.4581331621269667E-002  0.10533430660998076        0.0000000000000000     
   1.5008938074016523E-002  0.11228620841071038        0.0000000000000000     
   1.5416656577115630E-002  0.11937409228690198        0.0000000000000000     
   1.5804487130566990E-002  0.12659795823855555        0.0000000000000000     
   1.6172429734370605E-002  0.13395780626567105        0.0000000000000000     
   9.6859948065901903E-003  0.10522622490852232        0.0000000000000000     
   9.9705624590563108E-003  0.11218401000022606        0.0000000000000000     
   1.0241397869222096E-002  0.11927754496109645        0.0000000000000000     
   1.0498501037087545E-002  0.12650682979113342        0.0000000000000000     
   1.0741871962652656E-002  0.13387186449033711        0.0000000000000000     
   4.8255509274392839E-003  0.10516137587567369        0.0000000000000000     
   4.9675830941173730E-003  0.11212269093586137        0.0000000000000000     
   5.1025123372924518E-003  0.11921961654460697        0.0000000000000000     
   5.2303386569645229E-003  0.12645215270191051        0.0000000000000000     
   5.3510620531335871E-003  0.13382029940777193        0.0000000000000000     
  -1.6183057064550477E-011  0.10513975951143495        0.0000000000000000     
  -2.0800295513767608E-011  0.11210225121761638        0.0000000000000000     
  -1.8673299451849035E-011  0.11920030703743364        0.0000000000000000     
  -9.8020659514488906E-012  0.12643392697088671        0.0000000000000000     
   5.8134009758847860E-012  0.13380311101797562        0.0000000000000000     
   2.1642735368287435E-002  0.13407812473377395        0.0000000000000000     
   2.2110684049652676E-002  0.14155428137365383        0.0000000000000000     
   2.2551223277524513E-002  0.14914127074665537        0.0000000000000000     
   2.2964353051902933E-002  0.15683909285277853        0.0000000000000000     
   2.3350073372787945E-002  0.16464774769202331        0.0000000000000000     
   1.6172429734370605E-002  0.13395780626567105        0.0000000000000000     
   1.6518779338278295E-002  0.14144161840880984        0.0000000000000000     
   1.6841830892041887E-002  0.14903737670853298        0.0000000000000000     
   1.7141584395661384E-002  0.15674508116484059        0.0000000000000000     
   1.7418039849136778E-002  0.16456473177773262        0.0000000000000000     
   1.0741871962652656E-002  0.13387186449033711        0.0000000000000000     
   1.0969697095864067E-002  0.14136114485389251        0.0000000000000000     
   1.1180162886668423E-002  0.14896316667698481        0.0000000000000000     
   1.1373269335065718E-002  0.15667792995961399        0.0000000000000000     
   1.1549016441055956E-002  0.16450543470178008        0.0000000000000000     
   5.3510620531335871E-003  0.13382029940777193        0.0000000000000000     
   5.4634373224099987E-003  0.14131286070890184        0.0000000000000000     
   5.5662192614041187E-003  0.14891864065201071        0.0000000000000000     
   5.6594078701159454E-003  0.15663763923709870        0.0000000000000000     
   5.7430031485454789E-003  0.16446985646416568        0.0000000000000000     
   5.8134009758847860E-012  0.13380311101797562        0.0000000000000000     
   1.7916086583052993E-011  0.14129676597383783        0.0000000000000000     
   1.6248973412451295E-011  0.14890379863361086        0.0000000000000000     
   8.1206024435225010E-013  0.15662420899729473        0.0000000000000000     
  -2.8394652948349197E-011  0.16445799706488939        0.0000000000000000     
   0.0000000000000000        0.0000000000000000        0.0000000000000000     
  -9.9830598431979722E-014   1.0731671938309434E-003   0.0000000000000000     
  -1.4526043128765265E-013   2.5152027165887274E-003   0.0000000000000000     
  -1.3628936304174721E-013   4.3261065682733526E-003   0.0000000000000000     
  -7.2917475009426358E-014   6.5058787488848175E-003   0.0000000000000000     
   0.0000000000000000        0.0000000000000000        0.0000000000000000     
  -2.1299969369625377E-004   1.0754592583567624E-003   0.0000000000000000     
  -4.2701864972838875E-004   2.5203666718269886E-003   0.0000000000000000     
  -6.4205686809640499E-004   4.3347222404106784E-003   0.0000000000000000     
  -8.5811434880030211E-004   6.5185259641078325E-003   0.0000000000000000     
   0.0000000000000000        0.0000000000000000        0.0000000000000000     
  -4.2428665264940382E-004   1.0823354517016047E-003   0.0000000000000000     
  -8.5306818710101232E-004   2.5358585372929959E-003   0.0000000000000000     
  -1.2863446033548258E-003   4.3605692567741730E-003   0.0000000000000000     
  -1.7241159014108440E-003   6.5564676101451374E-003   0.0000000000000000     
   0.0000000000000000        0.0000000000000000        0.0000000000000000     
  -6.3386087695928067E-004   1.0937957738654707E-003   0.0000000000000000     
  -1.2781486122631315E-003   2.5616783129867489E-003   0.0000000000000000     
  -1.9328632059115523E-003   4.4036476173638355E-003   0.0000000000000000     
  -2.5980046579045435E-003   6.6197036869967297E-003   0.0000000000000000     
   0.0000000000000000        0.0000000000000000        0.0000000000000000     
  -8.4172236662588432E-004   1.1098402248483597E-003   0.0000000000000000     
  -1.7022599252147453E-003   2.5978259989082484E-003   0.0000000000000000     
  -2.5816126757665838E-003   4.4639573221796659E-003   0.0000000000000000     
  -3.4797806182814001E-003   6.7082341946626111E-003   0.0000000000000000     
  -7.2917475009426358E-014   6.5058787488848175E-003   0.0000000000000000     
  -3.2583392364435304E-014   9.0271727820561507E-003   0.0000000000000000     
  -9.2725415019867530E-014   1.1862642191420377E-002   0.0000000000000000     
  -2.5334354297572304E-013   1.5012286976977499E-002   0.0000000000000000     
  -5.1443810149265357E-013   1.8476107138727514E-002   0.0000000000000000     
  -8.5811434880030211E-004   6.5185259641078325E-003   0.0000000000000000     
  -1.0763290360495984E-003   9.0438047634358708E-003   0.0000000000000000     
  -1.2978388740538113E-003   1.1882585558912211E-002   0.0000000000000000     
  -1.5226438628129402E-003   1.5034868350536855E-002   0.0000000000000000     
  -1.7507440023269859E-003   1.8500653138309803E-002   0.0000000000000000     
  -1.7241159014108440E-003   6.5564676101451374E-003   0.0000000000000000     
  -2.1665253569962870E-003   9.0937007082090588E-003   0.0000000000000000     
  -2.6137162458383743E-003   1.1942415661769117E-002   0.0000000000000000     
  -3.0656885679371058E-003   1.5102612470825297E-002   0.0000000000000000     
  -3.5224423232924820E-003   1.8574291135377615E-002   0.0000000000000000     
  -2.5980046579045435E-003   6.6197036869967297E-003   0.0000000000000000     
  -3.2705889628726497E-003   9.1768606163757198E-003   0.0000000000000000     
  -3.9476321154464158E-003   1.2042132499991082E-002   0.0000000000000000     
  -4.6291341156258397E-003   1.5215519337842830E-002   0.0000000000000000     
  -5.3150949634109268E-003   1.8697021129930956E-002   0.0000000000000000     
  -3.4797806182814001E-003   6.7082341946626111E-003   0.0000000000000000     
  -4.3885198536786846E-003   9.2932844879358451E-003   0.0000000000000000     
  -5.2995864828779340E-003   1.2181736073578125E-002   0.0000000000000000     
  -6.2129805058791449E-003   1.5373588951589450E-002   0.0000000000000000     
  -7.1287019226823189E-003   1.8868843121969823E-002   0.0000000000000000     
  -5.1443810149265357E-013   1.8476107138727514E-002   0.0000000000000000     
  -8.4768265540616228E-013   2.2224806458491373E-002   0.0000000000000000     
  -1.2247518537539248E-012   2.6229088718090026E-002   0.0000000000000000     
  -1.6456459133763757E-012   3.0488953917523470E-002   0.0000000000000000     
  -2.1103648342735148E-012   3.5004402056791714E-002   0.0000000000000000     
  -1.7507440023269859E-003   1.8500653138309803E-002   0.0000000000000000     
  -1.9785535660925557E-003   2.2250860226937178E-002   0.0000000000000000     
  -2.2024868276062544E-003   2.6256409921125119E-002   0.0000000000000000     
  -2.4225437868680842E-003   3.0517302220873625E-002   0.0000000000000000     
  -2.6387244438780431E-003   3.5033537126182679E-002   0.0000000000000000     
  -3.5224423232924820E-003   1.8574291135377615E-002   0.0000000000000000     
  -3.9780903600124869E-003   2.2329021529799254E-002   0.0000000000000000     
  -4.4267455262051040E-003   2.6338373528463403E-002   0.0000000000000000     
  -4.8684078218703330E-003   3.0602347131370077E-002   0.0000000000000000     
  -5.3030772470081767E-003   3.5120942338519257E-002   0.0000000000000000     
  -5.3150949634109268E-003   1.8697021129930956E-002   0.0000000000000000     
  -5.9986103826074793E-003   2.2459290367077597E-002   0.0000000000000000     
  -6.6727760970213016E-003   2.6474979540104891E-002   0.0000000000000000     
  -7.3375921066523983E-003   3.0744088649012836E-002   0.0000000000000000     
  -7.9930584115007631E-003   3.5266617693801433E-002   0.0000000000000000     
  -7.1287019226823189E-003   1.8868843121969823E-002   0.0000000000000000     
  -8.0401136338775301E-003   2.2641666738772204E-002   0.0000000000000000     
  -8.9405785400548474E-003   2.6666227956049570E-002   0.0000000000000000     
  -9.8300966412142709E-003   3.0942526773801913E-002   0.0000000000000000     
  -1.0708667937355807E-002   3.5470563192029229E-002   0.0000000000000000     
  -2.1103648342735148E-012   3.5004402056791714E-002   0.0000000000000000     
  -2.0388984554517431E-012   3.9756209239064942E-002   0.0000000000000000     
  -8.5123829643082849E-013   4.4725151567513367E-002   0.0000000000000000     
   1.4526162526529510E-012   4.9911229042136976E-002   0.0000000000000000     
   4.8726649885116879E-012   5.5314441662935782E-002   0.0000000000000000     
  -2.6387244438780431E-003   3.5033537126182679E-002   0.0000000000000000     
  -2.8506919292771138E-003   3.9785826900164446E-002   0.0000000000000000     
  -3.0581093737062754E-003   4.4754883805931074E-002   0.0000000000000000     
  -3.2609767771655277E-003   4.9940707843482555E-002   0.0000000000000000     
  -3.4592941396548709E-003   5.5343299012818876E-002   0.0000000000000000     
  -5.3030772470081767E-003   3.5120942338519257E-002   0.0000000000000000     
  -5.7293811501286174E-003   3.9874679890204809E-002   0.0000000000000000     
  -6.1459468797416417E-003   4.4844080526720578E-002   0.0000000000000000     
  -6.5527744358472488E-003   5.0029144248066572E-002   0.0000000000000000     
  -6.9498638184454396E-003   5.5429871054242789E-002   0.0000000000000000     
  -7.9930584115007631E-003   3.5266617693801433E-002   0.0000000000000000     
  -8.6360676645934106E-003   4.0022768209186023E-002   0.0000000000000000     
  -9.2635125189573370E-003   4.4992741729881887E-002   0.0000000000000000     
  -9.8753929745925475E-003   5.0176538255889053E-002   0.0000000000000000     
  -1.0471709031499039E-002   5.5574157787207520E-002   0.0000000000000000     
  -1.0708667937355807E-002   3.5470563192029229E-002   0.0000000000000000     
  -1.1570751472671488E-002   4.0230091857108075E-002   0.0000000000000000     
  -1.2410806291353361E-002   4.5200867415415000E-002   0.0000000000000000     
  -1.3228832393401424E-002   5.0382889866949991E-002   0.0000000000000000     
  -1.4024829778815671E-002   5.5776159211713063E-002   0.0000000000000000     
   4.8726649885116879E-012   5.5314441662935782E-002   0.0000000000000000     
   7.9462520547954330E-012   6.0918884900148865E-002   0.0000000000000000     
   9.2107211072632589E-012   6.6708654224015285E-002   0.0000000000000000     
   8.6660730539344852E-012   7.2683749634535083E-002   0.0000000000000000     
   6.3123061465331087E-012   7.8844171131708232E-002   0.0000000000000000     
  -3.4592941396548709E-003   5.5343299012818876E-002   0.0000000000000000     
  -3.6521750903711434E-003   6.0946936525999577E-002   0.0000000000000000     
  -3.8387332585111812E-003   6.6735899595084164E-002   0.0000000000000000     
  -4.0189686440749873E-003   7.2710188220072622E-002   0.0000000000000000     
  -4.1928812470625604E-003   7.8869802400964972E-002   0.0000000000000000     
  -6.9498638184454396E-003   5.5429871054242789E-002   0.0000000000000000     
  -7.3358322912944456E-003   6.1031091386387862E-002   0.0000000000000000     
  -7.7092971181524934E-003   6.6817635685640420E-002   0.0000000000000000     
  -8.0702582990195872E-003   7.2789503952000470E-002   0.0000000000000000     
  -8.4187158338957218E-003   7.8946696185467999E-002   0.0000000000000000     
  -1.0471709031499039E-002   5.5574157787207520E-002   0.0000000000000000     
  -1.1050971594823648E-002   6.1171349481313704E-002   0.0000000000000000     
  -1.1611691569713211E-002   6.6953862495684052E-002   0.0000000000000000     
  -1.2153868956167720E-002   7.2921696830318558E-002   0.0000000000000000     
  -1.2677503754187183E-002   7.9074852485217229E-002   0.0000000000000000     
  -1.4024829778815671E-002   5.5776159211713063E-002   0.0000000000000000     
  -1.4797593000958759E-002   6.1367710810777111E-002   0.0000000000000000     
  -1.5545916613193335E-002   6.7144580025215075E-002   0.0000000000000000     
  -1.6269800615519393E-002   7.3106766855026942E-002   0.0000000000000000     
  -1.6969245007936940E-002   7.9254271300212731E-002   0.0000000000000000     
   6.3123061465331087E-012   7.8844171131708232E-002   0.0000000000000000     
   2.4626017371132125E-012   8.5177458810816037E-002   0.0000000000000000     
  -2.5698600148935102E-012   9.1671152767139732E-002   0.0000000000000000     
  -8.7850791908022224E-012   9.8325253000679375E-002   0.0000000000000000     
  -1.6183057064550477E-011  0.10513975951143495        0.0000000000000000     
  -4.1928812470625604E-003   7.8869802400964972E-002   0.0000000000000000     
  -4.3604865126793471E-003   8.5202233459297463E-002   0.0000000000000000     
  -4.5217998861307954E-003   9.1694972716606343E-002   0.0000000000000000     
  -4.6768213674169071E-003   9.8348020172891598E-002   0.0000000000000000     
  -4.8255509565376829E-003  0.10516137582815324        0.0000000000000000     
  -8.4187158338957218E-003   7.8946696185467999E-002   0.0000000000000000     
  -8.7545750548055738E-003   8.5276557389028174E-002   0.0000000000000000     
  -9.0777412937738129E-003   9.1766432565666203E-002   0.0000000000000000     
  -9.3882145508004354E-003   9.8416321715382060E-002   0.0000000000000000     
  -9.6859948258854450E-003  0.10522622483817577        0.0000000000000000     
  -1.2677503754187183E-002   7.9074852485217229E-002   0.0000000000000000     
  -1.3182265623916081E-002   8.5400430600008126E-002   0.0000000000000000     
  -1.3667824225498912E-002   9.1885532314319313E-002   0.0000000000000000     
  -1.4134179558935664E-002   9.8530157628150788E-002   0.0000000000000000     
  -1.4581331624226345E-002  0.10533430654150255        0.0000000000000000     
  -1.6969245007936940E-002   7.9254271300212731E-002   0.0000000000000000     
  -1.7643558220010871E-002   8.5573853092237320E-002   0.0000000000000000     
  -1.8292048681306090E-002   9.2052271962565671E-002   0.0000000000000000     
  -1.8914716391822593E-002   9.8689527911197755E-002   0.0000000000000000     
  -1.9511561351560378E-002  0.10548562093813357        0.0000000000000000     
  -1.6183057064550477E-011  0.10513975951143495        0.0000000000000000     
  -2.0800295513767608E-011  0.11210225121761638        0.0000000000000000     
  -1.8673299451849035E-011  0.11920030703743364        0.0000000000000000     
  -9.8020659514488906E-012  0.12643392697088671        0.0000000000000000     
   5.8134009758847860E-012  0.13380311101797562        0.0000000000000000     
  -4.8255509565376829E-003  0.10516137582815324        0.0000000000000000     
  -4.9675831316696450E-003  0.11212269086393957        0.0000000000000000     
  -5.1025123709893252E-003  0.11921961646179895        0.0000000000000000     
  -5.2303386744967199E-003  0.12645215262173137        0.0000000000000000     
  -5.3510620421918301E-003  0.13382029934373679        0.0000000000000000     
  -9.6859948258854450E-003  0.10522622483817577        0.0000000000000000     
  -9.9705624844636329E-003  0.11218400989327953        0.0000000000000000     
  -1.0241397891969792E-002  0.11927754483992550        0.0000000000000000     
  -1.0498501048403925E-002  0.12650682967811369        0.0000000000000000     
  -1.0741871953766031E-002  0.13387186440784415        0.0000000000000000     
  -1.4581331624226345E-002  0.10533430654150255        0.0000000000000000     
  -1.5008938079182252E-002  0.11228620830563620        0.0000000000000000     
  -1.5416656581614698E-002  0.11937409217181325        0.0000000000000000     
  -1.5804487131523683E-002  0.12659795814003377        0.0000000000000000     
  -1.6172429728909206E-002  0.13395780621029771        0.0000000000000000     
  -1.9511561351560378E-002  0.10548562093813357        0.0000000000000000     
  -2.0082709915825510E-002  0.11242928610100961        0.0000000000000000     
  -2.0628288439924050E-002  0.11950925845746223        0.0000000000000000     
  -2.1148296923855996E-002  0.12672553800749151        0.0000000000000000     
  -2.1642735367621346E-002  0.13407812475109743        0.0000000000000000     
   5.8134009758847860E-012  0.13380311101797562        0.0000000000000000     
   1.7916086583052993E-011  0.14129676597383783        0.0000000000000000     
   1.6248973412451295E-011  0.14890379863361086        0.0000000000000000     
   8.1206024435225010E-013  0.15662420899729473        0.0000000000000000     
  -2.8394652948349197E-011  0.16445799706488939        0.0000000000000000     
  -5.3510620421918301E-003  0.13382029934373679        0.0000000000000000     
  -5.4634372895423491E-003  0.14131286066747897        0.0000000000000000     
  -5.5662192320159697E-003  0.14891864063262159        0.0000000000000000     
  -5.6594078696126917E-003  0.15663763923916463        0.0000000000000000     
  -5.7430032023325171E-003  0.16446985648710813        0.0000000000000000     
  -1.0741871953766031E-002  0.13387186440784415        0.0000000000000000     
  -1.0969697071889986E-002  0.14136114480860373        0.0000000000000000     
  -1.1180162866609661E-002  0.14896316665987938        0.0000000000000000     
  -1.1373269337925066E-002  0.15667792996167104        0.0000000000000000     
  -1.1549016485836189E-002  0.16450543471397877        0.0000000000000000     
  -1.6172429728909206E-002  0.13395780621029771        0.0000000000000000     
  -1.6518779329126820E-002  0.14144161839721217        0.0000000000000000     
  -1.6841830887532109E-002  0.14903737671538425        0.0000000000000000     
  -1.7141584404125058E-002  0.15674508116481395        0.0000000000000000     
  -1.7418039878905674E-002  0.16456473174550126        0.0000000000000000     
  -2.1642735367621346E-002  0.13407812475109743        0.0000000000000000     
  -2.2110684061252869E-002  0.14155428143330423        0.0000000000000000     
  -2.2551223294783304E-002  0.14914127079913622        0.0000000000000000     
  -2.2964353068212675E-002  0.15683909284859335        0.0000000000000000     
  -2.3350073381540964E-002  0.16464774758167566        0.0000000000000000     
   0.0000000000000000        0.0000000000000000        0.0000000000000000     
  -8.4172236662588432E-004   1.1098402248483597E-003   0.0000000000000000     
  -1.7022599252147453E-003   2.5978259989082484E-003   0.0000000000000000     
  -2.5816126757665838E-003   4.4639573221796659E-003   0.0000000000000000     
  -3.4797806182814001E-003   6.7082341946626111E-003   0.0000000000000000     
   0.0000000000000000        0.0000000000000000        0.0000000000000000     
  -1.0567687367765354E-003   1.1340330091496468E-003   0.0000000000000000     
  -2.1399322664370194E-003   2.6501486729497209E-003   0.0000000000000000     
  -3.2494905889814516E-003   4.5483469914002241E-003   0.0000000000000000     
  -4.3854437044098318E-003   6.8286279645011529E-003   0.0000000000000000     
   0.0000000000000000        0.0000000000000000        0.0000000000000000     
  -1.2878976025385545E-003   1.1699383312687062E-003   0.0000000000000000     
  -2.6056957764111158E-003   2.7244934130033955E-003   0.0000000000000000     
  -3.9533945216176838E-003   4.6636652452040697E-003   0.0000000000000000     
  -5.3309938381582581E-003   6.9874538278707253E-003   0.0000000000000000     
   0.0000000000000000        0.0000000000000000        0.0000000000000000     
  -1.5351089639119417E-003   1.2175561912055378E-003   0.0000000000000000     
  -3.0995504551370348E-003   2.8208602190692715E-003   0.0000000000000000     
  -4.6933244736752809E-003   4.8099120835912021E-003   0.0000000000000000     
  -6.3164310195266814E-003   7.1847117847713277E-003   0.0000000000000000     
   0.0000000000000000        0.0000000000000000        0.0000000000000000     
  -1.7984028208966967E-003   1.2768865889601418E-003   0.0000000000000000     
  -3.6214963026147779E-003   2.9392490911473493E-003   0.0000000000000000     
  -5.4692804451542450E-003   4.9870875065616219E-003   0.0000000000000000     
  -7.3417552485150958E-003   7.4204018352029598E-003   0.0000000000000000     
  -3.4797806182814001E-003   6.7082341946626111E-003   0.0000000000000000     
  -4.3885198536786846E-003   9.2932844879358451E-003   0.0000000000000000     
  -5.2995864828779340E-003   1.2181736073578125E-002   0.0000000000000000     
  -6.2129805058791449E-003   1.5373588951589450E-002   0.0000000000000000     
  -7.1287019226823189E-003   1.8868843121969823E-002   0.0000000000000000     
  -4.3854437044098318E-003   6.8286279645011529E-003   0.0000000000000000     
  -5.5348438254061751E-003   9.4489186050318134E-003   0.0000000000000000     
  -6.6847431646544992E-003   1.2367145925771511E-002   0.0000000000000000     
  -7.8351417221547998E-003   1.5583309926720241E-002   0.0000000000000000     
  -8.9860394979070814E-003   1.9097410607878011E-002   0.0000000000000000     
  -5.3309938381582581E-003   6.9874538278707253E-003   0.0000000000000000     
  -6.7240866740469040E-003   9.6497092498059982E-003   0.0000000000000000     
  -8.1182659772976815E-003   1.2604281599812521E-002   0.0000000000000000     
  -9.5135317479105915E-003   1.5851170877890296E-002   0.0000000000000000     
  -1.0909883985885634E-002   1.9390377084039317E-002   0.0000000000000000     
  -6.3164310195266814E-003   7.1847117847713277E-003   0.0000000000000000     
  -7.9562483996008654E-003   9.8956564222583941E-003   0.0000000000000000     
  -9.6001549208074785E-003   1.2893143095701153E-002   0.0000000000000000     
  -1.1248150583146516E-002   1.6177171805099602E-002   0.0000000000000000     
  -1.2900235386617973E-002   1.9747742550453744E-002   0.0000000000000000     
  -7.3417552485150958E-003   7.4204018352029598E-003   0.0000000000000000     
  -9.2313290020680661E-003   1.0186760122389006E-002   0.0000000000000000     
  -1.1130409995183893E-002   1.3233730413437414E-002   0.0000000000000000     
  -1.3038998227862574E-002   1.6561312708348173E-002   0.0000000000000000     
  -1.4957093700104106E-002   2.0169507007121286E-002   0.0000000000000000     
  -7.1287019226823189E-003   1.8868843121969823E-002   0.0000000000000000     
  -8.0401136338775301E-003   2.2641666738772204E-002   0.0000000000000000     
  -8.9405785400548474E-003   2.6666227956049570E-002   0.0000000000000000     
  -9.8300966412142709E-003   3.0942526773801913E-002   0.0000000000000000     
  -1.0708667937355807E-002   3.5470563192029229E-002   0.0000000000000000     
  -8.9860394979070814E-003   1.9097410607878011E-002   0.0000000000000000     
  -1.0130310034388825E-002   2.2884732596302658E-002   0.0000000000000000     
  -1.1260826874077508E-002   2.6920560519052051E-002   0.0000000000000000     
  -1.2377590016973136E-002   3.1204894376126172E-002   0.0000000000000000     
  -1.3480599463075704E-002   3.5737734167525036E-002   0.0000000000000000     
  -1.0909883985885634E-002   1.9390377084039317E-002   0.0000000000000000     
  -1.2296909504707541E-002   2.3197069891088551E-002   0.0000000000000000     
  -1.3664195117861046E-002   2.7246418971866946E-002   0.0000000000000000     
  -1.5011740825346152E-002   3.1538424326374513E-002   0.0000000000000000     
  -1.6339546627162856E-002   3.6073085954611249E-002   0.0000000000000000     
  -1.2900235386617973E-002   1.9747742550453744E-002   0.0000000000000000     
  -1.4539912044833684E-002   2.3578678623129862E-002   0.0000000000000000     
  -1.6150683271405470E-002   2.7643803314494259E-002   0.0000000000000000     
  -1.7732549066333328E-002   3.1943116624546936E-002   0.0000000000000000     
  -1.9285509429617261E-002   3.6476618553287869E-002   0.0000000000000000     
  -1.4957093700104106E-002   2.0169507007121286E-002   0.0000000000000000     
  -1.6859317654767250E-002   2.4029558792426610E-002   0.0000000000000000     
  -1.8720291334710770E-002   2.8112713546933985E-002   0.0000000000000000     
  -2.0540014739934664E-002   3.2418971270643415E-002   0.0000000000000000     
  -2.2318487870438931E-002   3.6948331963554910E-002   0.0000000000000000     
  -1.0708667937355807E-002   3.5470563192029229E-002   0.0000000000000000     
  -1.1570751472671488E-002   4.0230091857108075E-002   0.0000000000000000     
  -1.2410806291353361E-002   4.5200867415415000E-002   0.0000000000000000     
  -1.3228832393401424E-002   5.0382889866949991E-002   0.0000000000000000     
  -1.4024829778815671E-002   5.5776159211713063E-002   0.0000000000000000     
  -1.3480599463075704E-002   3.5737734167525036E-002   0.0000000000000000     
  -1.4562376661625541E-002   4.0499193523522908E-002   0.0000000000000000     
  -1.5615443061862981E-002   4.5469386074394054E-002   0.0000000000000000     
  -1.6639798663788008E-002   5.0648311820138500E-002   0.0000000000000000     
  -1.7635443467400636E-002   5.6035970760756212E-002   0.0000000000000000     
  -1.6339546627162856E-002   3.6073085954611249E-002   0.0000000000000000     
  -1.7639887318718257E-002   4.0832615897982386E-002   0.0000000000000000     
  -1.8905037695419454E-002   4.5799226197893193E-002   0.0000000000000000     
  -2.0134997757266449E-002   5.0972916854343658E-002   0.0000000000000000     
  -2.1329767504259235E-002   5.6353687867333774E-002   0.0000000000000000     
  -1.9285509429617261E-002   3.6476618553287869E-002   0.0000000000000000     
  -2.0803283443949636E-002   4.1230358980486548E-002   0.0000000000000000     
  -2.2279590192022795E-002   4.6190387785912425E-002   0.0000000000000000     
  -2.3714429673836742E-002   5.1356704969565486E-002   0.0000000000000000     
  -2.5107801889391476E-002   5.6729310531445760E-002   0.0000000000000000     
  -2.2318487870438931E-002   3.6948331963554910E-002   0.0000000000000000     
  -2.4052565037319673E-002   4.1692422771035374E-002   0.0000000000000000     
  -2.5739100551672982E-002   4.6642870838451735E-002   0.0000000000000000     
  -2.7378094413498876E-002   5.1799676165803991E-002   0.0000000000000000     
  -2.8969546622797347E-002   5.7162838753092138E-002   0.0000000000000000     
  -1.4024829778815671E-002   5.5776159211713063E-002   0.0000000000000000     
  -1.4797593000958759E-002   6.1367710810777111E-002   0.0000000000000000     
  -1.5545916613193335E-002   6.7144580025215075E-002   0.0000000000000000     
  -1.6269800615519393E-002   7.3106766855026942E-002   0.0000000000000000     
  -1.6969245007936940E-002   7.9254271300212731E-002   0.0000000000000000     
  -1.7635443467400636E-002   5.6035970760756212E-002   0.0000000000000000     
  -1.8601556056296063E-002   6.1620541130761382E-002   0.0000000000000000     
  -1.9537315014069481E-002   6.7390201164668137E-002   0.0000000000000000     
  -2.0442720340720897E-002   7.3344950862476499E-002   0.0000000000000000     
  -2.1317772036250311E-002   7.9484790224186488E-002   0.0000000000000000     
  -2.1329767504259235E-002   5.6353687867333774E-002   0.0000000000000000     
  -2.2488720307431841E-002   6.1930206197249787E-002   0.0000000000000000     
  -2.3611229537818270E-002   6.7691138804477899E-002   0.0000000000000000     
  -2.4697295195418523E-002   7.3636485689018136E-002   0.0000000000000000     
  -2.5746917280232606E-002   7.9766246850870512E-002   0.0000000000000000     
  -2.5107801889391476E-002   5.6729310531445760E-002   0.0000000000000000     
  -2.6459085754366094E-002   6.2296706010242335E-002   0.0000000000000000     
  -2.7767660184439696E-002   6.8047392944644375E-002   0.0000000000000000     
  -2.9033525179612277E-002   7.3981371334651838E-002   0.0000000000000000     
  -3.0256680739883839E-002   8.0098641180264801E-002   0.0000000000000000     
  -2.8969546622797347E-002   5.7162838753092138E-002   0.0000000000000000     
  -3.0512652397098827E-002   6.2720040569739038E-002   0.0000000000000000     
  -3.2006606953933765E-002   6.8458963585167537E-002   0.0000000000000000     
  -3.3451410293302154E-002   7.4379607799377648E-002   0.0000000000000000     
  -3.4847062415203987E-002   8.0481973212369357E-002   0.0000000000000000     
  -1.6969245007936940E-002   7.9254271300212731E-002   0.0000000000000000     
  -1.7643558220010871E-002   8.5573853092237320E-002   0.0000000000000000     
  -1.8292048681306090E-002   9.2052271962565671E-002   0.0000000000000000     
  -1.8914716391822593E-002   9.8689527911197755E-002   0.0000000000000000     
  -1.9511561351560378E-002  0.10548562093813357        0.0000000000000000     
  -2.1317772036250311E-002   7.9484790224186488E-002   0.0000000000000000     
  -2.2161464668137707E-002   8.5796302681153264E-002   0.0000000000000000     
  -2.2972792803863069E-002   9.2266071664731983E-002   0.0000000000000000     
  -2.3751756443426399E-002   9.8894097174922743E-002   0.0000000000000000     
  -2.4498355586827700E-002  0.10568037921172549        0.0000000000000000     
  -2.5746917280232606E-002   7.9766246850870512E-002   0.0000000000000000     
  -2.6758996793344342E-002   8.6067257182193338E-002   0.0000000000000000     
  -2.7732434735837572E-002   9.2526351575144994E-002   0.0000000000000000     
  -2.8667231107712268E-002   9.9143530029725493E-002   0.0000000000000000     
  -2.9563385908968454E-002  0.10591879254593484        0.0000000000000000     
  -3.0256680739883839E-002   8.0098641180264801E-002   0.0000000000000000     
  -3.1436154595630796E-002   8.6386716595357599E-002   0.0000000000000000     
  -3.2570974477229585E-002   9.2833111693804690E-002   0.0000000000000000     
  -3.3661140384680203E-002   9.9437826475606048E-002   0.0000000000000000     
  -3.4706652317982652E-002  0.10620086094076168        0.0000000000000000     
  -3.4847062415203987E-002   8.0481973212369357E-002   0.0000000000000000     
  -3.6192938074997051E-002   8.6754680920646046E-002   0.0000000000000000     
  -3.7488412028039125E-002   9.3186352020711044E-002   0.0000000000000000     
  -3.8733484274330196E-002   9.9776986512564378E-002   0.0000000000000000     
  -3.9928154813870270E-002  0.10652658439620602        0.0000000000000000     
  -1.9511561351560378E-002  0.10548562093813357        0.0000000000000000     
  -2.0082709915825510E-002  0.11242928610100961        0.0000000000000000     
  -2.0628288439924050E-002  0.11950925845746223        0.0000000000000000     
  -2.1148296923855996E-002  0.12672553800749151        0.0000000000000000     
  -2.1642735367621346E-002  0.13407812475109743        0.0000000000000000     
  -2.4498355586827700E-002  0.10568037921172549        0.0000000000000000     
  -2.5213156139188585E-002  0.11261399545974472        0.0000000000000000     
  -2.5896724005630690E-002  0.11968402360358502        0.0000000000000000     
  -2.6549059186153998E-002  0.12689046364324644        0.0000000000000000     
  -2.7170161680758517E-002  0.13423331557872889        0.0000000000000000     
  -2.9563385908968454E-002  0.10591879254593484        0.0000000000000000     
  -3.0421554894066668E-002  0.11284108856218657        0.0000000000000000     
  -3.1242393817467462E-002  0.11989936751689430        0.0000000000000000     
  -3.2025902679170819E-002  0.12709362941005797        0.0000000000000000     
  -3.2772081479176755E-002  0.13442387424167765        0.0000000000000000     
  -3.4706652317982652E-002  0.10620086094076168        0.0000000000000000     
  -3.5707906180459763E-002  0.11311056540833515        0.0000000000000000     
  -3.6665297875434363E-002  0.12015529019738996        0.0000000000000000     
  -3.7578827402906474E-002  0.12733503530792617        0.0000000000000000     
  -3.8448494762876088E-002  0.13464980073994373        0.0000000000000000     
  -3.9928154813870270E-002  0.10652658439620602        0.0000000000000000     
  -4.1072209998367845E-002  0.11342242599819045        0.0000000000000000     
  -4.2165436179531404E-002  0.12045179164507210        0.0000000000000000     
  -4.3207833357360947E-002  0.12761468133685100        0.0000000000000000     
  -4.4199401531856482E-002  0.13491109507352708        0.0000000000000000     
  -2.1642735367621346E-002  0.13407812475109743        0.0000000000000000     
  -2.2110684061252869E-002  0.14155428143330423        0.0000000000000000     
  -2.2551223294783304E-002  0.14914127079913622        0.0000000000000000     
  -2.2964353068212675E-002  0.15683909284859335        0.0000000000000000     
  -2.3350073381540964E-002  0.16464774758167566        0.0000000000000000     
  -2.7170161680758517E-002  0.13423331557872889        0.0000000000000000     
  -2.7759734109451744E-002  0.14169936737327188        0.0000000000000000     
  -2.8317479092241193E-002  0.14927540699011493        0.0000000000000000     
  -2.8843396629126852E-002  0.15696143442925803        0.0000000000000000     
  -2.9337486720108726E-002  0.16475744969070114        0.0000000000000000     
  -3.2772081479176755E-002  0.13442387424167765        0.0000000000000000     
  -3.3480252314907102E-002  0.14187710967350708        0.0000000000000000     
  -3.4149737283783697E-002  0.14944034336730011        0.0000000000000000     
  -3.4780536385806533E-002  0.15711357532305675        0.0000000000000000     
  -3.5372649620975610E-002  0.16489680554077693        0.0000000000000000     
  -3.8448494762876088E-002  0.13464980073994373        0.0000000000000000     
  -3.9272238677618941E-002  0.14208750833400985        0.0000000000000000     
  -4.0047997869410816E-002  0.14963607993069181        0.0000000000000000     
  -4.0775772338251713E-002  0.15729551552998952        0.0000000000000000     
  -4.1455562084141619E-002  0.16506581513190305        0.0000000000000000     
  -4.4199401531856482E-002  0.13491109507352708        0.0000000000000000     
  -4.5135693197587264E-002  0.14233056335478014        0.0000000000000000     
  -4.6012260849122563E-002  0.14986261668028988        0.0000000000000000     
  -4.6829104486462408E-002  0.15750725505005633        0.0000000000000000     
  -4.7586224109606765E-002  0.16526447846407949        0.0000000000000000     
   0.0000000000000000        0.0000000000000000        0.0000000000000000     
  -1.7984028208966967E-003   1.2768865889601418E-003   0.0000000000000000     
  -3.6214963026147779E-003   2.9392490911473493E-003   0.0000000000000000     
  -5.4692804451542450E-003   4.9870875065616219E-003   0.0000000000000000     
  -7.3417552485150958E-003   7.4204018352029598E-003   0.0000000000000000     
   0.0000000000000000        0.0000000000000000        0.0000000000000000     
  -2.0695037990605806E-003   1.3550383548449469E-003   0.0000000000000000     
  -4.1641795132076392E-003   3.0941627946769342E-003   0.0000000000000000     
  -6.2840271424411771E-003   5.2173733194959618E-003   0.0000000000000000     
  -8.4290466867611921E-003   7.7246699293020320E-003   0.0000000000000000     
   0.0000000000000000        0.0000000000000000        0.0000000000000000     
  -2.3401365239713542E-003   1.4591203191723816E-003   0.0000000000000000     
  -4.7202462812789151E-003   3.3001040950973340E-003   0.0000000000000000     
  -7.1403292719226840E-003   5.5229513277748584E-003   0.0000000000000000     
  -9.6003854959026604E-003   8.1276620172049535E-003   0.0000000000000000     
   0.0000000000000000        0.0000000000000000        0.0000000000000000     
  -2.6103009956290170E-003   1.5891324819424463E-003   0.0000000000000000     
  -5.2896966068286047E-003   3.5570729924085487E-003   0.0000000000000000     
  -8.0381868335987622E-003   5.9038215313983065E-003   0.0000000000000000     
  -1.0855771675939494E-002   8.6293780989117261E-003   0.0000000000000000     
   0.0000000000000000        0.0000000000000000        0.0000000000000000     
  -2.8799972140335700E-003   1.7450748431551404E-003   0.0000000000000000     
  -5.8725304898567081E-003   3.8650694866105774E-003   0.0000000000000000     
  -8.9775998274694152E-003   6.3599839303663122E-003   0.0000000000000000     
  -1.2195205226871692E-002   9.2298181744223436E-003   0.0000000000000000     
  -7.3417552485150958E-003   7.4204018352029598E-003   0.0000000000000000     
  -9.2313290020680661E-003   1.0186760122389006E-002   0.0000000000000000     
  -1.1130409995183893E-002   1.3233730413437414E-002   0.0000000000000000     
  -1.3038998227862574E-002   1.6561312708348173E-002   0.0000000000000000     
  -1.4957093700104106E-002   2.0169507007121286E-002   0.0000000000000000     
  -8.4290466867611921E-003   7.7246699293020320E-003   0.0000000000000000     
  -1.0590999849186928E-002   1.0558636426570433E-002   0.0000000000000000     
  -1.2761648332737614E-002   1.3661856613776452E-002   0.0000000000000000     
  -1.4940992137413255E-002   1.7034330490920093E-002   0.0000000000000000     
  -1.7129031263213849E-002   2.0676058058001351E-002   0.0000000000000000     
  -9.6003854959026604E-003   8.1276620172049535E-003   0.0000000000000000     
  -1.2076932308695868E-002   1.1046901411175262E-002   0.0000000000000000     
  -1.4546487065779332E-002   1.4213334757473429E-002   0.0000000000000000     
  -1.7009049767153051E-002   1.7626962056099454E-002   0.0000000000000000     
  -1.9464620412817026E-002   2.1287783307053332E-002   0.0000000000000000     
  -1.0855771675939494E-002   8.6293780989117261E-003   0.0000000000000000     
  -1.3689126380594888E-002   1.1651555076203501E-002   0.0000000000000000     
  -1.6484926194309045E-002   1.4888164844528344E-002   0.0000000000000000     
  -1.9243171117081966E-002   1.8339207403886258E-002   0.0000000000000000     
  -2.1963861148913646E-002   2.2004682754277239E-002   0.0000000000000000     
  -1.2195205226871692E-002   9.2298181744223436E-003   0.0000000000000000     
  -1.5427582064883989E-002   1.2372597421655147E-002   0.0000000000000000     
  -1.8576965718326757E-002   1.5686346874941200E-002   0.0000000000000000     
  -2.1643356187199991E-002   1.9171066534280502E-002   0.0000000000000000     
  -2.4626753471503698E-002   2.2826756399673055E-002   0.0000000000000000     
  -1.4957093700104106E-002   2.0169507007121286E-002   0.0000000000000000     
  -1.6859317654767250E-002   2.4029558792426610E-002   0.0000000000000000     
  -1.8720291334710770E-002   2.8112713546933985E-002   0.0000000000000000     
  -2.0540014739934664E-002   3.2418971270643415E-002   0.0000000000000000     
  -2.2318487870438931E-002   3.6948331963554910E-002   0.0000000000000000     
  -1.7129031263213849E-002   2.0676058058001351E-002   0.0000000000000000     
  -1.9294538398824359E-002   2.4559091250400469E-002   0.0000000000000000     
  -2.1406286232929745E-002   2.8655482003497688E-002   0.0000000000000000     
  -2.3464274765530011E-002   3.2965230317292996E-002   0.0000000000000000     
  -2.5468503996625154E-002   3.7488336191786403E-002   0.0000000000000000     
  -1.9464620412817026E-002   2.1287783307053332E-002   0.0000000000000000     
  -2.1884986341321119E-002   2.5176656848473131E-002   0.0000000000000000     
  -2.4241934891215188E-002   2.9274441018496911E-002   0.0000000000000000     
  -2.6535466062499232E-002   3.3581135817124665E-002   0.0000000000000000     
  -2.8765579855173251E-002   3.8096741244356393E-002   0.0000000000000000     
  -2.1963861148913646E-002   2.2004682754277239E-002   0.0000000000000000     
  -2.4630661482257541E-002   2.5882255586644594E-002   0.0000000000000000     
  -2.7227237309567096E-002   2.9969590591931661E-002   0.0000000000000000     
  -2.9753588630842324E-002   3.4266687770138422E-002   0.0000000000000000     
  -3.2209715446083212E-002   3.8773547121264892E-002   0.0000000000000000     
  -2.4626753471503698E-002   2.2826756399673055E-002   0.0000000000000000     
  -2.7531563821633610E-002   2.6675887464914862E-002   0.0000000000000000     
  -3.0362193487985474E-002   3.0740930723801942E-002   0.0000000000000000     
  -3.3118642470559276E-002   3.5021886176334283E-002   0.0000000000000000     
  -3.5800910769355043E-002   3.9518753822511882E-002   0.0000000000000000     
  -2.2318487870438931E-002   3.6948331963554910E-002   0.0000000000000000     
  -2.4052565037319673E-002   4.1692422771035374E-002   0.0000000000000000     
  -2.5739100551672982E-002   4.6642870838451735E-002   0.0000000000000000     
  -2.7378094413498876E-002   5.1799676165803991E-002   0.0000000000000000     
  -2.8969546622797347E-002   5.7162838753092138E-002   0.0000000000000000     
  -2.5468503996625154E-002   3.7488336191786403E-002   0.0000000000000000     
  -2.7419055991485954E-002   4.2221172182382007E-002   0.0000000000000000     
  -2.9316012815383177E-002   4.7160110844483870E-002   0.0000000000000000     
  -3.1159374468316830E-002   5.2305152178092014E-002   0.0000000000000000     
  -3.2949140950286906E-002   5.7656296183206425E-002   0.0000000000000000     
  -2.8765579855173251E-002   3.8096741244356393E-002   0.0000000000000000     
  -3.0934080199106064E-002   4.2818972127279552E-002   0.0000000000000000     
  -3.3042771024166494E-002   4.7745543292981564E-002   0.0000000000000000     
  -3.5091652330354543E-002   5.2876454741462409E-002   0.0000000000000000     
  -3.7080724117670223E-002   5.8211706472722120E-002   0.0000000000000000     
  -3.2209715446083212E-002   3.8773547121264892E-002   0.0000000000000000     
  -3.4597637660180015E-002   4.3485822605728031E-002   0.0000000000000000     
  -3.6919375178022955E-002   4.8399168183944789E-002   0.0000000000000000     
  -3.9174927999612051E-002   5.3513583855915189E-002   0.0000000000000000     
  -4.1364296124947277E-002   5.8829069621639210E-002   0.0000000000000000     
  -3.5800910769355043E-002   3.9518753822511882E-002   0.0000000000000000     
  -3.8409728374707776E-002   4.4221723617727422E-002   0.0000000000000000     
  -4.0945825276952535E-002   4.9120985517373567E-002   0.0000000000000000     
  -4.3409201476089301E-002   5.4216539521450335E-002   0.0000000000000000     
  -4.5799856972118080E-002   5.9508385629957708E-002   0.0000000000000000     
  -2.8969546622797347E-002   5.7162838753092138E-002   0.0000000000000000     
  -3.0512652397098827E-002   6.2720040569739038E-002   0.0000000000000000     
  -3.2006606953933765E-002   6.8458963585167537E-002   0.0000000000000000     
  -3.3451410293302154E-002   7.4379607799377648E-002   0.0000000000000000     
  -3.4847062415203987E-002   8.0481973212369357E-002   0.0000000000000000     
  -3.2949140950286906E-002   5.7656296183206425E-002   0.0000000000000000     
  -3.4684285773625631E-002   6.3200741838807598E-002   0.0000000000000000     
  -3.6363782450665218E-002   6.8925688123875964E-002   0.0000000000000000     
  -3.7987630981405666E-002   7.4831135038411573E-002   0.0000000000000000     
  -3.9555831365846963E-002   8.0917082582414396E-002   0.0000000000000000     
  -3.7080724117670223E-002   5.8211706472722120E-002   0.0000000000000000     
  -3.9008851421942103E-002   6.3739341780515726E-002   0.0000000000000000     
  -4.0874899278998823E-002   6.9447403958598261E-002   0.0000000000000000     
  -4.2678867688840341E-002   7.5335893006969704E-002   0.0000000000000000     
  -4.4420756651466678E-002   8.1404808925630068E-002   0.0000000000000000     
  -4.1364296124947277E-002   5.8829069621639210E-002   0.0000000000000000     
  -4.3486349342048251E-002   6.4335840394863425E-002   0.0000000000000000     
  -4.5539957438934540E-002   7.0024111089334373E-002   0.0000000000000000     
  -4.7525120415606165E-002   7.5893881705052013E-002   0.0000000000000000     
  -4.9441838272063103E-002   8.1945152242016414E-002   0.0000000000000000     
  -4.5799856972118080E-002   5.9508385629957708E-002   0.0000000000000000     
  -4.8116779533944054E-002   6.4990237681850693E-002   0.0000000000000000     
  -5.0358956930472418E-002   7.0655809516084300E-002   0.0000000000000000     
  -5.2526389161703151E-002   7.6505101132658557E-002   0.0000000000000000     
  -5.4619076227636260E-002   8.2538112531573421E-002   0.0000000000000000     
  -3.4847062415203987E-002   8.0481973212369357E-002   0.0000000000000000     
  -3.6192938074997051E-002   8.6754680920646046E-002   0.0000000000000000     
  -3.7488412028039125E-002   9.3186352020711044E-002   0.0000000000000000     
  -3.8733484274330196E-002   9.9776986512564378E-002   0.0000000000000000     
  -3.9928154813870270E-002  0.10652658439620602        0.0000000000000000     
  -3.9555831365846963E-002   8.0917082582414396E-002   0.0000000000000000     
  -4.1068190722422654E-002   8.7172972788518432E-002   0.0000000000000000     
  -4.2524516169566227E-002   9.3588247689357709E-002   0.0000000000000000     
  -4.3924807707277684E-002  0.10016290728493223        0.0000000000000000     
  -4.5269065335557038E-002  0.10689695157524197        0.0000000000000000     
  -4.4420756651466678E-002   8.1404808925630068E-002   0.0000000000000000     
  -4.6100756028887108E-002   8.7643414829434552E-002   0.0000000000000000     
  -4.7719055683110918E-002   9.4040973833238298E-002   0.0000000000000000     
  -4.9275655614138096E-002  0.10059748593704131        0.0000000000000000     
  -5.0770555821968648E-002  0.10731295114084360        0.0000000000000000     
  -4.9441838272063103E-002   8.1945152242016414E-002   0.0000000000000000     
  -5.1290633994390433E-002   8.8166007043394418E-002   0.0000000000000000     
  -5.3072030568673219E-002   9.4544530452352810E-002   0.0000000000000000     
  -5.4786027994911446E-002  0.10108072246889167        0.0000000000000000     
  -5.6432626273105108E-002  0.10777458309301095        0.0000000000000000     
  -5.4619076227636260E-002   8.2538112531573421E-002   0.0000000000000000     
  -5.6637824618932631E-002   8.8740749430397975E-002   0.0000000000000000     
  -5.8583440826253115E-002   9.5098917546701259E-002   0.0000000000000000     
  -6.0455924849597685E-002  0.10161261688048327        0.0000000000000000     
  -6.2255276688966396E-002  0.10828184743174402        0.0000000000000000     
  -3.9928154813870270E-002  0.10652658439620602        0.0000000000000000     
  -4.1072209998367845E-002  0.11342242599819045        0.0000000000000000     
  -4.2165436179531404E-002  0.12045179164507210        0.0000000000000000     
  -4.3207833357360947E-002  0.12761468133685100        0.0000000000000000     
  -4.4199401531856482E-002  0.13491109507352708        0.0000000000000000     
  -4.5269065335557038E-002  0.10689695157524197        0.0000000000000000     
  -4.6556611361586842E-002  0.11377685063278217        0.0000000000000000     
  -4.7786768092549628E-002  0.12078907453004809        0.0000000000000000     
  -4.8959535528445411E-002  0.12793362326703975        0.0000000000000000     
  -5.0074913669274176E-002  0.13521049684375708        0.0000000000000000     
  -5.0770555821968648E-002  0.10731295114084360        0.0000000000000000     
  -5.2203255283912633E-002  0.11417401961314003        0.0000000000000000     
  -5.3573252977280085E-002  0.12116734152242538        0.0000000000000000     
  -5.4880548902071002E-002  0.12829291686869973        0.0000000000000000     
  -5.6125143058285414E-002  0.13555074565196301        0.0000000000000000     
  -5.6432626273105108E-002  0.10777458309301095        0.0000000000000000     
  -5.8012141765345214E-002  0.11461393293926396        0.0000000000000000     
  -5.9524890833722768E-002  0.12158659262220395        0.0000000000000000     
  -6.0970873478237757E-002  0.12869256214183092        0.0000000000000000     
  -6.2350089698890179E-002  0.13593184149814488        0.0000000000000000     
  -6.2255276688966396E-002  0.10828184743174402        0.0000000000000000     
  -6.3983270805884604E-002  0.11509659061115403        0.0000000000000000     
  -6.5641681661877671E-002  0.12204682782938378        0.0000000000000000     
  -6.7230509256945639E-002  0.12913255908643337        0.0000000000000000     
  -6.8749753591088467E-002  0.13635378438230267        0.0000000000000000     
  -4.4199401531856482E-002  0.13491109507352708        0.0000000000000000     
  -4.5135693197587264E-002  0.14233056335478014        0.0000000000000000     
  -4.6012260849122563E-002  0.14986261668028988        0.0000000000000000     
  -4.6829104486462408E-002  0.15750725505005633        0.0000000000000000     
  -4.7586224109606765E-002  0.16526447846407949        0.0000000000000000     
  -5.0074913669274176E-002  0.13521049684375708        0.0000000000000000     
  -5.1126948058512950E-002  0.14261041893781981        0.0000000000000000     
  -5.2109684239638736E-002  0.15012411322684752        0.0000000000000000     
  -5.3023122212651555E-002  0.15775157971084020        0.0000000000000000     
  -5.3867261977551373E-002  0.16549281838979793        0.0000000000000000     
  -5.6125143058285414E-002  0.13555074565196301        0.0000000000000000     
  -5.7302335444096915E-002  0.14293121928513056        0.0000000000000000     
  -5.8407426057679138E-002  0.15042472918111757        0.0000000000000000     
  -5.9440414899032082E-002  0.15803127533992403        0.0000000000000000     
  -6.0401301968155768E-002  0.16575085776155007        0.0000000000000000     
  -6.2350089698890179E-002  0.13593184149814488        0.0000000000000000     
  -6.3661855354339145E-002  0.14329296439671241        0.0000000000000000     
  -6.4905486303243762E-002  0.15076446454310008        0.0000000000000000     
  -6.6080982545604044E-002  0.15834634193730787        0.0000000000000000     
  -6.7188344081419965E-002  0.16603859657933581        0.0000000000000000     
  -6.8749753591088467E-002  0.13635378438230267        0.0000000000000000     
  -7.0205507789239646E-002  0.14369565427256537        0.0000000000000000     
  -7.1603864976332615E-002  0.15114331931279504        0.0000000000000000     
  -7.2944825152367387E-002  0.15869677950299166        0.0000000000000000     
  -7.4228388317343963E-002  0.16635603484315528        0.0000000000000000     
   0.0000000000000000        0.0000000000000000        0.0000000000000000     
  -2.8799972140335700E-003   1.7450748431551404E-003   0.0000000000000000     
  -5.8725304898567081E-003   3.8650694866105774E-003   0.0000000000000000     
  -8.9775998274694152E-003   6.3599839303663122E-003   0.0000000000000000     
  -1.2195205226871692E-002   9.2298181744223436E-003   0.0000000000000000     
   0.0000000000000000        0.0000000000000000        0.0000000000000000     
  -3.2830997358630474E-003   1.9995929885181498E-003   0.0000000000000000     
  -6.6767773251442813E-003   4.3313904467569865E-003   0.0000000000000000     
  -1.0181032767843701E-002   6.9953923747165117E-003   0.0000000000000000     
  -1.3795866063961309E-002   9.9915987723967238E-003   0.0000000000000000     
   0.0000000000000000        0.0000000000000000        0.0000000000000000     
  -3.9534831177954859E-003   2.4253325037391594E-003   0.0000000000000000     
  -7.9104665074723798E-003   5.0633327419013436E-003   0.0000000000000000     
  -1.1870950169030682E-002   7.9140007144865507E-003   0.0000000000000000     
  -1.5834934102470392E-002   1.0977336421494783E-002   0.0000000000000000     
   0.0000000000000000        0.0000000000000000        0.0000000000000000     
  -4.8911473598308832E-003   3.0222933888181696E-003   0.0000000000000000     
  -9.5735980368409999E-003   6.0608963720436447E-003   0.0000000000000000     
  -1.4047352031030351E-002   9.1158089496764273E-003   0.0000000000000000     
  -1.8312409342398937E-002   1.2187031121716515E-002   0.0000000000000000     
   0.0000000000000000        0.0000000000000000        0.0000000000000000     
  -6.0960924619692415E-003   3.7904756437551800E-003   0.0000000000000000     
  -1.1666171913250145E-002   7.3240813371838942E-003   0.0000000000000000     
  -1.6710238353842714E-002   1.0600817080286141E-002   0.0000000000000000     
  -2.1228291783746946E-002   1.3620682873061923E-002   0.0000000000000000     
  -1.2195205226871692E-002   9.2298181744223436E-003   0.0000000000000000     
  -1.5427582064883989E-002   1.2372597421655147E-002   0.0000000000000000     
  -1.8576965718326757E-002   1.5686346874941200E-002   0.0000000000000000     
  -2.1643356187199991E-002   1.9171066534280502E-002   0.0000000000000000     
  -2.4626753471503698E-002   2.2826756399673055E-002   0.0000000000000000     
  -1.3795866063961309E-002   9.9915987723967238E-003   0.0000000000000000     
  -1.7404126661064841E-002   1.3222121199317382E-002   0.0000000000000000     
  -2.0888664006722027E-002   1.6589071214998245E-002   0.0000000000000000     
  -2.4249478100932864E-002   2.0092448819439307E-002   0.0000000000000000     
  -2.7486568943697363E-002   2.3732254012640574E-002   0.0000000000000000     
  -1.5834934102470392E-002   1.0977336421494783E-002   0.0000000000000000     
  -1.9730587468639104E-002   1.4212219160977389E-002   0.0000000000000000     
  -2.3486079428384411E-002   1.7577528230985726E-002   0.0000000000000000     
  -2.7101409981706324E-002   2.1073263631519790E-002   0.0000000000000000     
  -3.0576579128604828E-002   2.4699425362579581E-002   0.0000000000000000     
  -1.8312409342398937E-002   1.2187031121716515E-002   0.0000000000000000     
  -2.2406964487606783E-002   1.5342891306635168E-002   0.0000000000000000     
  -2.6369211983313920E-002   1.8651717922903641E-002   0.0000000000000000     
  -3.0199151829520359E-002   2.2113510970521943E-002   0.0000000000000000     
  -3.3896784026226090E-002   2.5728270449490064E-002   0.0000000000000000     
  -2.1228291783746946E-002   1.3620682873061923E-002   0.0000000000000000     
  -2.5433257717967880E-002   1.6614137636290716E-002   0.0000000000000000     
  -2.9538061671510553E-002   1.9811640290751997E-002   0.0000000000000000     
  -3.3542703644374977E-002   2.3213190836445772E-002   0.0000000000000000     
  -3.7447183636561139E-002   2.6818789273372036E-002   0.0000000000000000     
  -2.4626753471503698E-002   2.2826756399673055E-002   0.0000000000000000     
  -2.7531563821633610E-002   2.6675887464914862E-002   0.0000000000000000     
  -3.0362193487985474E-002   3.0740930723801942E-002   0.0000000000000000     
  -3.3118642470559276E-002   3.5021886176334283E-002   0.0000000000000000     
  -3.5800910769355043E-002   3.9518753822511882E-002   0.0000000000000000     
  -2.7486568943697363E-002   2.3732254012640574E-002   0.0000000000000000     
  -3.0623180408051162E-002   2.7550903854150467E-002   0.0000000000000000     
  -3.3682556367029902E-002   3.1590815403517415E-002   0.0000000000000000     
  -3.6664696820633592E-002   3.5851988660741407E-002   0.0000000000000000     
  -3.9569601768862227E-002   4.0334423625822451E-002   0.0000000000000000     
  -3.0576579128604828E-002   2.4699425362579581E-002   0.0000000000000000     
  -3.3940998290112018E-002   2.8500656125217953E-002   0.0000000000000000     
  -3.7224078887259988E-002   3.2521598620487757E-002   0.0000000000000000     
  -4.0425820920048747E-002   3.6762252848389007E-002   0.0000000000000000     
  -4.3546224388478272E-002   4.1222618808921682E-002   0.0000000000000000     
  -3.3896784026226090E-002   2.5728270449490064E-002   0.0000000000000000     
  -3.7485017467816184E-002   2.9525144278117317E-002   0.0000000000000000     
  -4.0986761048675720E-002   3.3533280374712988E-002   0.0000000000000000     
  -4.4402014768804725E-002   3.7752678739277075E-002   0.0000000000000000     
  -4.7730778628203172E-002   4.2183339371809576E-002   0.0000000000000000     
  -3.7447183636561139E-002   2.6818789273372036E-002   0.0000000000000000     
  -4.1255237941163647E-002   3.0624368312848552E-002   0.0000000000000000     
  -4.4970602851277117E-002   3.4625860666193067E-002   0.0000000000000000     
  -4.8593278366901534E-002   3.8823266333405597E-002   0.0000000000000000     
  -5.2123264488036905E-002   4.3216585314486133E-002   0.0000000000000000     
  -3.5800910769355043E-002   3.9518753822511882E-002   0.0000000000000000     
  -3.8409728374707776E-002   4.4221723617727422E-002   0.0000000000000000     
  -4.0945825276952535E-002   4.9120985517373567E-002   0.0000000000000000     
  -4.3409201476089301E-002   5.4216539521450335E-002   0.0000000000000000     
  -4.5799856972118080E-002   5.9508385629957708E-002   0.0000000000000000     
  -3.9569601768862227E-002   4.0334423625822451E-002   0.0000000000000000     
  -4.2396088751354283E-002   4.5023614992470963E-002   0.0000000000000000     
  -4.5142975307748211E-002   4.9905057454397370E-002   0.0000000000000000     
  -4.7810261438044031E-002   5.4978751011601656E-002   0.0000000000000000     
  -5.0397947142241724E-002   6.0244695664083837E-002   0.0000000000000000     
  -4.3546224388478272E-002   4.1222618808921682E-002   0.0000000000000000     
  -4.6582455198784407E-002   4.5888436559151868E-002   0.0000000000000000     
  -4.9531679257202949E-002   5.0745446156145624E-002   0.0000000000000000     
  -5.2393896563733909E-002   5.5793647599902949E-002   0.0000000000000000     
  -5.5169107118377303E-002   6.1033040890423843E-002   0.0000000000000000     
  -4.7730778628203172E-002   4.2183339371809576E-002   0.0000000000000000     
  -5.0968827716998143E-002   4.6816188317770124E-002   0.0000000000000000     
  -5.4111937125316735E-002   5.1642151622618343E-002   0.0000000000000000     
  -5.7160106853158969E-002   5.6661229286354205E-002   0.0000000000000000     
  -6.0113336900524804E-002   6.1873421308977737E-002   0.0000000000000000     
  -5.2123264488036905E-002   4.3216585314486133E-002   0.0000000000000000     
  -5.5555206305995503E-002   4.7806870268325752E-002   0.0000000000000000     
  -5.8883748912089591E-002   5.2595173853815506E-002   0.0000000000000000     
  -6.2108892306319177E-002   5.7581496070955432E-002   0.0000000000000000     
  -6.5230636488684254E-002   6.2765836919745494E-002   0.0000000000000000     
  -4.5799856972118080E-002   5.9508385629957708E-002   0.0000000000000000     
  -4.8116779533944054E-002   6.4990237681850693E-002   0.0000000000000000     
  -5.0358956930472418E-002   7.0655809516084300E-002   0.0000000000000000     
  -5.2526389161703151E-002   7.6505101132658557E-002   0.0000000000000000     
  -5.4619076227636260E-002   8.2538112531573421E-002   0.0000000000000000     
  -5.0397947142241724E-002   6.0244695664083837E-002   0.0000000000000000     
  -5.2905754735670302E-002   6.5699799560621455E-002   0.0000000000000000     
  -5.5333406533658730E-002   7.1340970849992066E-002   0.0000000000000000     
  -5.7680902536207050E-002   7.7168209532195622E-002   0.0000000000000000     
  -5.9948242743315235E-002   8.3181515607232220E-002   0.0000000000000000     
  -5.5169107118377303E-002   6.1033040890423843E-002   0.0000000000000000     
  -5.7858887685267743E-002   6.6461791950319621E-002   0.0000000000000000     
  -6.0464815028539842E-002   7.2078066702201557E-002   0.0000000000000000     
  -6.2986889148193642E-002   7.7881865146069637E-002   0.0000000000000000     
  -6.5425110044229101E-002   8.3873187281923903E-002   0.0000000000000000     
  -6.0113336900524804E-002   6.1873421308977737E-002   0.0000000000000000     
  -6.2976178382736364E-002   6.7276214850945176E-002   0.0000000000000000     
  -6.5753182415115755E-002   7.2867097072712786E-002   0.0000000000000000     
  -6.8444348997662913E-002   7.8646067974280559E-002   0.0000000000000000     
  -7.1049678130377894E-002   8.4613127555648537E-002   0.0000000000000000     
  -6.5230636488684254E-002   6.2765836919745494E-002   0.0000000000000000     
  -6.8257626828076207E-002   6.8143068262498135E-002   0.0000000000000000     
  -7.1198508693386411E-002   7.3708061961525781E-002   0.0000000000000000     
  -7.4053282084614869E-002   7.9460818016828416E-002   0.0000000000000000     
  -7.6821947001761565E-002   8.5401336428406055E-002   0.0000000000000000     
  -5.4619076227636260E-002   8.2538112531573421E-002   0.0000000000000000     
  -5.6637824618932631E-002   8.8740749430397975E-002   0.0000000000000000     
  -5.8583440826253115E-002   9.5098917546701259E-002   0.0000000000000000     
  -6.0455924849597685E-002  0.10161261688048327        0.0000000000000000     
  -6.2255276688966396E-002  0.10828184743174402        0.0000000000000000     
  -5.9948242743315235E-002   8.3181515607232220E-002   0.0000000000000000     
  -6.2135873974590104E-002   8.9364490717323497E-002   0.0000000000000000     
  -6.4244243049638480E-002   9.5700736504691256E-002   0.0000000000000000     
  -6.6273349968460363E-002  0.10219025296933547        0.0000000000000000     
  -6.8223194731055731E-002  0.10883304011125614        0.0000000000000000     
  -6.5425110044229101E-002   8.3873187281923903E-002   0.0000000000000000     
  -6.7778328133439300E-002   9.0034079631049202E-002   0.0000000000000000     
  -7.0045393832617223E-002   9.6346588714730438E-002   0.0000000000000000     
  -7.2226307141762883E-002  0.10281071453296756        0.0000000000000000     
  -7.4321068060876294E-002  0.10942645708576063        0.0000000000000000     
  -7.1049678130377894E-002   8.4613127555648537E-002   0.0000000000000000     
  -7.3565187095480197E-002   9.0749516171575131E-002   0.0000000000000000     
  -7.5986893175189321E-002   9.7036474176818821E-002   0.0000000000000000     
  -7.8314796369505280E-002  0.10347400157137959        0.0000000000000000     
  -8.0548896678428086E-002  0.11006209835525751        0.0000000000000000     
  -7.6821947001761565E-002   8.5401336428406055E-002   0.0000000000000000     
  -7.9496450860712789E-002   9.1510800338901216E-002   0.0000000000000000     
  -8.2068741077354790E-002   9.7770392890956390E-002   0.0000000000000000     
  -8.4538817651687553E-002  0.10418011408457156        0.0000000000000000     
  -8.6906680583711107E-002  0.11073996391974679        0.0000000000000000     
  -6.2255276688966396E-002  0.10828184743174402        0.0000000000000000     
  -6.3983270805884604E-002  0.11509659061115403        0.0000000000000000     
  -6.5641681661877671E-002  0.12204682782938378        0.0000000000000000     
  -6.7230509256945639E-002  0.12913255908643337        0.0000000000000000     
  -6.8749753591088467E-002  0.13635378438230267        0.0000000000000000     
  -6.8223194731055731E-002  0.10883304011125614        0.0000000000000000     
  -7.0096754668867667E-002  0.11562140706389229        0.0000000000000000     
  -7.1897007113339281E-002  0.12254766296068302        0.0000000000000000     
  -7.3623952064470505E-002  0.12961180780162826        0.0000000000000000     
  -7.5277589522261379E-002  0.13681384158672805        0.0000000000000000     
  -7.4321068060876294E-002  0.10942645708576063        0.0000000000000000     
  -7.6332705617631363E-002  0.11618779673256088        0.0000000000000000     
  -7.8264248839701997E-002  0.12308871383281966        0.0000000000000000     
  -8.0115697727088209E-002  0.13012920838653691        0.0000000000000000     
  -8.1887052279789971E-002  0.13730928039371273        0.0000000000000000     
  -8.0548896678428086E-002  0.11006209835525751        0.0000000000000000     
  -8.2691123652175638E-002  0.11679575961715978        0.0000000000000000     
  -8.4743406840965860E-002  0.12366998044579373        0.0000000000000000     
  -8.6705746244798723E-002  0.13068476084115938        0.0000000000000000     
  -8.8578141863674242E-002  0.13784010080325662        0.0000000000000000     
  -8.6906680583711107E-002  0.11073996391974679        0.0000000000000000     
  -8.9172008772500505E-002  0.11744529571768901        0.0000000000000000     
  -9.1334481117130800E-002  0.12429146279960528        0.0000000000000000     
  -9.3394097617602034E-002  0.13127846516549552        0.0000000000000000     
  -9.5350858273914194E-002  0.13840630281535982        0.0000000000000000     
  -6.8749753591088467E-002  0.13635378438230267        0.0000000000000000     
  -7.0205507789239646E-002  0.14369565427256537        0.0000000000000000     
  -7.1603864976332615E-002  0.15114331931279504        0.0000000000000000     
  -7.2944825152367387E-002  0.15869677950299166        0.0000000000000000     
  -7.4228388317343963E-002  0.16635603484315528        0.0000000000000000     
  -7.5277589522261379E-002  0.13681384158672805        0.0000000000000000     
  -7.6867242784931664E-002  0.14413533377914661        0.0000000000000000     
  -7.8402235150701133E-002  0.15155785384204815        0.0000000000000000     
  -7.9882566619569786E-002  0.15908140177543262        0.0000000000000000     
  -8.1308237191537625E-002  0.16670597757930009        0.0000000000000000     
  -8.1887052279789971E-002  0.13730928039371273        0.0000000000000000     
  -8.3581010377548420E-002  0.14460804778291331        0.0000000000000000     
  -8.5200269900104722E-002  0.15200462848270505        0.0000000000000000     
  -8.6744830847458834E-002  0.15949902249308792        0.0000000000000000     
  -8.8214693219610785E-002  0.16709122981406194        0.0000000000000000     
  -8.8578141863674242E-002  0.13784010080325662        0.0000000000000000     
  -9.0346810567089958E-002  0.14511379628386545        0.0000000000000000     
  -9.1997969224543411E-002  0.15248364323476576        0.0000000000000000     
  -9.3531617836034586E-002  0.15994964165595751        0.0000000000000000     
  -9.4947756401563471E-002  0.16751179154744081        0.0000000000000000     
  -9.5350858273914194E-002  0.13840630281535982        0.0000000000000000     
  -9.7164643353556235E-002  0.14565257928200306        0.0000000000000000     
  -9.8795333124017184E-002  0.15299489809823030        0.0000000000000000     
 -0.10024292758529699       0.16043325926404151        0.0000000000000000     
 -0.10150742673739568       0.16796766277943670        0.0000000000000000     
 </DataArray>
 <DataArray  type="Float64" Name="stress" NumberOfComponents="3" format="ascii">
   13417000018.010578        4025100005.4031734        2893964764.5423703     
   11766747585.813400        1890741831.2618415        1715782254.6335649     
   10313721507.806055        413804837.75328732        810738955.22504187     
   9057921783.9885445       -405710975.12248564        178834866.31680259     
   7999348414.3608675       -567805607.36548328       -179930012.09115344     
   10539946973.675171        3161984092.1025515        2225825421.3417664     
   9667574605.4097652        1589734967.2949560        1446752133.4019663     
   8943803174.7125435        512822301.04796028        863191441.98623168     
   8368632681.5834999       -68753906.638436794        475143347.09456265     
   7942063126.0226345       -154993655.76423454        282607848.72695988     
   8337722335.3348255        2501316700.6004477        1712491300.7169495     
   8021439705.3548632        1424639527.4326887        1275797582.0208919     
   7805132596.3214254        681214090.75334883        956989845.87268329     
   7688801008.2345152        271040390.56243181        756068092.27232277     
   7672444941.0941296        194118426.85993099        673032321.21981156     
   6810326102.9895487        2043097830.8968647        1353962402.6679192     
   6828342885.6486912        1395455511.6750412        1202918600.4903417     
   6897709772.6327028        918980206.86945820        1092134166.8843956     
   7018426763.9415913        613671916.48011661        1021609101.8500812     
   7190493859.5753498        479530640.50701642        991343405.38739824     
   5957758276.6393347        1787327482.9918005        1150238727.1946757     
   6088284146.2912464        1502182920.0220118        1228115188.8103151     
   6221534703.6463795        1226120649.3962855        1268624405.0213695     
   6357509948.7047291        959140671.11462128        1271766375.8278382     
   6496209881.4662971        701242985.17701888        1237541101.2297215     
   7999348414.3608675       -567805607.36548328       -179930012.09115344     
   7917204221.0433903       -200582903.30573034       -78109017.500924885     
   7793694277.9820232        28753968.274398327       -8995683.8043890167     
   7628818585.1767750        120205007.37491894        27409988.998462968     
   7422577142.6276417        73770213.995819569        31108000.907623541     
   7942063126.0226345       -154993655.76423454        282607848.72695988     
   7739316499.1190262        15953213.277358055        281359957.35283303     
   7513269861.8363905        109233381.05552912        265343047.57956484     
   7263923214.1747274        124846847.57027769        234557119.40715188     
   6991276556.1340380        62793612.821604729        189002172.83559421     
   7672444941.0941296        194118426.85993099        673032321.21981156     
   7400349144.8745213        184165440.16440773        589792239.80699873     
   7123019077.6407452        156764883.42165565        509721782.48958677     
   6840454739.3928022        111916756.63167548        432820949.26757938     
   6552656130.1306858        49621059.794462919        359089740.14097095     
   7190493859.5753498        479530640.50701642        991343405.38739824     
   6900302158.3098736        304053777.35541368        847187829.86156619     
   6622941925.3950872        171348475.37277842        724140520.92568254     
   6358413160.8309917        81414734.559105158        622201478.57974589     
   6106715864.6175842        34252554.914397478        541370702.82375824     
   6496209881.4662971        701242985.17701888        1237541101.2297215     
   6239175539.4250851        375618224.85037780        1053546727.5165386     
   6013038405.0994186        152984156.90889621        908599262.88784873     
   5817798478.4893007        33340781.352572441        802698707.34365225     
   5653455759.5947304        16688098.181407213        735845060.88395190     
   7422577142.6276417        73770213.995819569        31108000.907623541     
   7217368645.4674683       -17045998.856229305        14927687.851923760     
   7024059104.8052711       -68199023.381708145        3712532.2239185153     
   6842648520.6410398       -79688859.580632687       -2537465.9764009998     
   6673136892.9747763       -51515507.452981472       -3822306.7490295027     
   6991276556.1340380        62793612.821604729        189002172.83559421     
   6807416297.8658247        3461189.8384737968        181207486.80399626     
   6631087846.7901373       -30765209.169579983        177603875.59954438     
   6462291202.9069653       -39885584.202565670        178191339.22223186     
   6301026366.2163229       -23899935.260466099        182969877.67206463     
   6552656130.1306858        49621059.794462919        359089740.14097095     
   6387932446.1814384        21108927.308352947        354585673.61045521     
   6226373420.1192694        3145654.4458320141        353498599.30653363     
   6067979051.9441738       -4268758.7931103706        355828517.22920793     
   5912749341.6561527       -1134312.4084672928        361575427.37848026     
   6106715864.6175842        34252554.914397478        541370702.82375824     
   5958917090.4143105        35897213.553412437        535062248.27129775     
   5809915824.7926664        33533567.464519501        531396703.34488690     
   5659712067.7526512        27161616.647720814        530374068.04452461     
   5508305819.2942619        16781361.103013039        531994342.37020934     
   5653455759.5947304        16688098.181407213        735845060.88395190     
   5520370230.5644426        47826048.573648691        722637210.78652740     
   5381715060.8103323        60398529.886491776        711298187.71460509     
   5237490250.3324032        54405542.119935751        701827991.66818452     
   5087695799.1306553        29847085.273982048        694226622.64726353     
   6673136892.9747763       -51515507.452981472       -3822306.7490295027     
   6484954233.7548532       -17036060.598791838        2150872.2332536941     
   6292723653.7683554        3950317.0334975719        14565529.822087415     
   6096445153.0153065        11443625.443938971        33421666.017480306     
   5896118731.4956846        5443864.6324796677        58719280.819414116     
   6301026366.2163229       -23899935.260466099        182969877.67206463     
   6124618956.1298504       -4310674.2511332035        179468727.49730358     
   5946050981.1053524        8076703.6314556599        182020179.39822611     
   5765322441.1428328        13262198.387300491        190624233.37483263     
   5582433336.2422886        11245810.016393900        205280889.42712981     
   5912749341.6561527       -1134312.4084672928        361575427.37848026     
   5747006104.9006557        3231440.0152802467        350801863.17996889     
   5580989659.0356770        6686495.4074082375        345692024.52627605     
   5414700004.0612144        9230853.7679314613        346245911.41740417     
   5248137139.9772663        10864515.096834183        352463523.85334712     
   5508305819.2942619        16781361.103013039        531994342.37020934     
   5352115680.0672703        5590282.2004334927        516150279.28125054     
   5197539687.5593290       -220307.63863801956        505581065.20623702     
   5044577841.7704458       -650408.41419053078        500286700.14517981     
   4893230142.7006149        4299979.8737752438        500267184.09807098     
   5087695799.1306553        29847085.273982048        694226622.64726353     
   4939947681.6296835        2765852.3043198586        675513975.80114615     
   4795701066.6763067       -12643705.506690741        661687301.43811214     
   4654955954.2705231       -16381588.159052610        652746599.55816340     
   4517712344.4123363       -8447795.6527717113        648691870.16129744     
   5896118731.4956846        5443864.6324796677        58719280.819414116     
   5730494224.8762903        4456430.9182600975        79447540.745567992     
   5565358355.0413637        5097786.4855840206        99743375.248558506     
   5400711121.9909067        7367931.3344810009        119606784.32839336     
   5236552525.7249193        11266865.464943409        139037767.98506099     
   5582433336.2422886        11245810.016393900        205280889.42712981     
   5417630884.9990683        11264002.943156958        219668913.08781049     
   5252752901.0238552        11030420.096607208        234889644.77464315     
   5087799384.3166437        10545061.476725340        250943084.48761791     
   4922770334.8774385        9807927.0835313797        267829232.22673762     
   5248137139.9772663        10864515.096834183        352463523.85334712     
   5087771411.1082516        12972734.763996840        359853113.47935021     
   4926765979.9907761        12948613.602956533        369340544.58080465     
   4765120846.6248398        10792151.613716841        380925817.15772277     
   4602836011.0104446        6503348.7962789536        394608931.21009058     
   4893230142.7006149        4299979.8737752438        500267184.09807098     
   4740915803.2038307        9582626.3807449341        500000141.92018157     
   4587397591.9421253        10852367.004642248        503096074.66706061     
   4432675508.9154911        8109201.7454376221        509554982.33869874     
   4276749554.1239290        1353130.6031529903        519376864.93510824     
   4517712344.4123363       -8447795.6527717113        648691870.16129744     
   4377064061.2858105        1093677.7934203148        640109998.41030729     
   4234647736.8778996        4741680.3016500473        636156235.03339458     
   4090463371.1885943        2496211.8719015121        636830580.03055692     
   3944510964.2178988       -5642727.4958138466        642133033.40179360     
   5236552525.7249193        11266865.464943409        139037767.98506099     
   5038701680.6960201        5931174.3530633450        133707370.57689951     
   4840937835.8408155        885483.82015514374        134868697.53309748     
   4643260991.1592884       -3870206.1338248253        142521748.85362542     
   4445671146.6514559       -8335895.5088224411        156666524.53848973     
   4922770334.8774385        9807927.0835313797        267829232.22673762     
   4741132849.8735313        4687986.6872982979        260390351.48086351     
   4559966320.4585648        1137898.2542021275        258881773.14780146     
   4379270746.6325407       -842338.21574354172        263303497.22754982     
   4199046128.3954663       -1252722.7225258350        273655523.72010833     
   4602836011.0104446        6503348.7962789536        394608931.21009058     
   4435807823.3128767        1117940.3000862598        385509515.11095423     
   4269634546.6195054       -1417764.8487787247        381778979.47310168     
   4104316180.9303374       -1103766.6503057480        383417324.29653537     
   3939852726.2453709        2059934.8955152035        390424549.58125967     
   4276749554.1239290        1353130.6031529903        519376864.93510824     
   4122726601.0140557       -4778964.8085839748        509064861.46717709     
   3969942514.3236413       -6781505.4887948036        503560316.50900596     
   3818397294.0526752       -4654491.4374949932        502863230.06059480     
   3668090940.2011743        1602077.3453314304        506973602.12194431     
   3944510964.2178988       -5642727.4958138466        642133033.40179360     
   3801889182.9770751       -13002728.638693571        631056390.54953873     
   3660890223.5709610       -14953323.665868282        624225784.25550950     
   3521514085.9995642       -11494512.577326298        621641214.51971829     
   3383760770.2628779       -2626295.3730728626        623302681.34216213     
   4445671146.6514559       -8335895.5088224411        156666524.53848973     
   4246794216.9626107       -12981368.921096087        172527334.25487772     
   4047966336.4519591       -17463345.072739363        199054028.52067235     
   3849187505.1195126       -21781823.963698626        236246607.33588201     
   3650457722.9652414       -25936805.594061613        284105070.70049447     
   4199046128.3954663       -1252722.7225258350        273655523.72010833     
   4027000151.9601307        901013.51561903954        283782986.51382697     
   3854556095.6750364        1727816.9212520123        302314711.18765479     
   3681713959.5401878        1227687.4943573475        329250697.74159724     
   3508473743.5555768       -599374.76506924629        364590946.17564946     
   3939852726.2453709        2059934.8955152035        390424549.58125967     
   3788175924.0083966        9074347.0675697327        394297014.91970825     
   3635653912.8937140        13271396.313917637        404312119.46895283     
   3482286692.9013152        14651082.634562016        420469863.22901398     
   3328074264.0312138        13213406.029513836        442770246.19988102     
   3668090940.2011743        1602077.3453314304        506973602.12194431     
   3530321533.1074104        11538631.734732389        504069419.47249854     
   3391259788.1079874        17167393.105251789        505046253.36455703     
   3250905705.2029028        18488361.456911564        509904103.79812485     
   3109259284.3921499        15501536.789673328        518642970.77319998     
   3383760770.2628779       -2626295.3730728626        623302681.34216213     
   3253436979.2571797        8293867.5171263218        613100200.17221570     
   3121373721.3178711        13415807.295296311        604517112.87447250     
   2987570996.4449396        12739523.961385965        597553419.44893122     
   2852028804.6383948        6265017.5154318810        592209119.89559686     
   3650457722.9652414       -25936805.594061613        284105070.70049447     
   3282244619.0327964       -81502948.789718866        332638919.30735296     
   2913609170.2967448       -138476907.99738586        438013748.32502705     
   2544551376.7570877       -196858683.21709394        600229557.75349760     
   2175071238.4137988       -256648274.44887614        819286347.59278131     
   3508473743.5555768       -599374.76506924629        364590946.17564946     
   3277152698.3667078       -19604368.274645567        391351169.90931398     
   3046392140.1777849       -36741071.784410596        458134808.49198896     
   2816192068.9887986       -52009485.294364691        564941861.92366087     
   2586552484.7997570       -65409608.804526448        711772330.20434964     
   3328074264.0312138        13213406.029513836        442770246.19988102     
   3185595090.2664690        16354506.010172367        448903482.16450453     
   3044659235.3052320        24640002.002493739        478242567.41633707     
   2905266699.1474938        38069894.006473422        530787501.95536196     
   2767417481.7932420        56644182.022108078        606538285.78158045     
   3109259284.3921499        15501536.789673328        518642970.77319998     
   3007571794.7320967        26373674.064748526        505295856.07293046     
   2908410455.6790867        45666313.363330483        498337025.09806186     
   2811775267.2331238        73379454.685391784        497766477.84857005     
   2717666229.3942189        109513098.03097677        503584214.32447022     
   2852028804.6383948        6265017.5154318810        592209119.89559686     
   2743082811.7635641        10453135.889076948        560528291.63458812     
   2637645801.2993436        26337862.298082590        518418181.53715366     
   2535717773.2457185        53919196.742410183        465878789.60329974     
   2437298727.6027012        93197139.222097158        402910115.83302516     
   5957758276.6393347        1787327482.9918005        1150238727.1946757     
   6088284146.2912464        1502182920.0220118        1228115188.8103151     
   6221534703.6463795        1226120649.3962855        1268624405.0213695     
   6357509948.7047291        959140671.11462128        1271766375.8278382     
   6496209881.4662971        701242985.17701888        1237541101.2297215     
   5434557231.5309610        1630367169.4592884        1033645637.7942646     
   5489839384.2847481        1372435472.3437352        1114047619.3626931     
   5547319089.8243847        1121828951.1810133        1167657171.9861715     
   5606996348.1498728        878547605.97112346        1194474295.6647003     
   5668871159.2612085        642591436.71406460        1194498990.3982794     
   4895261342.9111996        1468578402.8733599        936508497.96373141     
   4905513540.0801077        1246923700.0060158        1018821008.7480180     
   4917436155.1174946        1030837056.7002723        1084915907.0469904     
   4931029188.0233622        820318472.95612931        1134793192.8606486     
   4946292638.7977123        615367948.77358747        1168452866.1889930     
   4339870610.7800522        1301961183.2340157        858827307.70307636     
   4335306613.6773243        1125647603.0088539        942435356.96628988     
   4331885899.5257082        953144965.95406187        1020400610.2038252     
   4329608468.3252029        784453272.06963992        1092723067.4156823     
   4328474320.0758066        619572521.35558736        1159402728.6018617     
   3768385035.1375179        1130515510.5412552        800602067.01229918     
   3779218605.0763998        1008607181.3522494        884890664.01750958     
   3790668323.0490236        888752678.94238222        974111281.45667732     
   3802734189.0553899        770952003.31165528        1068263919.3298019     
   3815416203.0954971        655205154.46006644        1167348577.6368849     
   6496209881.4662971        701242985.17701888        1237541101.2297215     
   6239175539.4250851        375618224.85037780        1053546727.5165386     
   6013038405.0994186        152984156.90889621        908599262.88784873     
   5817798478.4893007        33340781.352572441        802698707.34365225     
   5653455759.5947304        16688098.181407213        735845060.88395190     
   5668871159.2612085        642591436.71406460        1194498990.3982794     
   5518887787.6824455        382998165.94446445        1073773657.7742128     
   5393027975.3801384        203816759.42970371        981110280.36975932     
   5291291722.3542795        105047217.16977739        916508858.18491912     
   5213679028.6048717        86689539.164689064        879969391.21969306     
   4946292638.7977123        615367948.77358747        1168452866.1889930     
   4871974655.2103157        412390492.81970310        1103093984.8084300     
   4815006582.4602747        267246072.99033618        1054812104.7826002     
   4775388420.5475845        179934689.28548121        1023607226.1115028     
   4753120169.4722538        150456341.70514393        1009479348.7951382     
   4328474320.0758066        619572521.35558736        1159402728.6018617     
   4298436142.0086899        463795205.47609484        1141507708.6191895     
   4278974226.3398294        343272097.59079421        1129704736.1263700     
   4270088573.0692272        258003197.69968724        1123993811.1234033     
   4271779182.1968837        207988505.80277324        1124374933.6102884     
   3815416203.0954971        655205154.46006644        1167348577.6368849     
   3798272248.0775690        537212303.91363633        1189014829.2064917     
   3784930907.0188036        431894833.23107827        1205788174.4010699     
   3775392179.9191985        339252742.41238940        1217668613.2206206     
   3769656066.7787547        259286031.45757377        1224656145.6651425     
   5653455759.5947304        16688098.181407213        735845060.88395190     
   5520370230.5644426        47826048.573648691        722637210.78652740     
   5381715060.8103323        60398529.886491776        711298187.71460509     
   5237490250.3324032        54405542.119935751        701827991.66818452     
   5087695799.1306553        29847085.273982048        694226622.64726353     
   5213679028.6048717        86689539.164689064        879969391.21969306     
   5078090875.7949696        84165870.683514595        855998900.96118724     
   4940286843.2088814        74255936.281707287        836002554.35596204     
   4800266930.8466024        56959735.959264040        819980351.40401661     
   4658031138.7081308        32277269.716183424        807932292.10534739     
   4753120169.4722538        150456341.70514393        1009479348.7951382     
   4621044583.2478256        116075611.46007919        978658939.48111904     
   4490106878.1948347        85487818.453143120        953917990.44815731     
   4360307054.3132830        58692962.684331894        935256501.69625378     
   4231645111.6031685        35691044.153651714        922674473.22540593     
   4271779182.1968837        207988505.80277324        1124374933.6102884     
   4149231352.9230037        143555270.90334129        1090617326.3463216     
   4031175165.7681947        94094176.400799751        1065044495.9911911     
   3917610620.7324495        59605222.295149088        1047656442.5448960     
   3808537717.8157744        40088408.586392403        1038453166.0074358     
   3769656066.7787547        259286031.45757377        1224656145.6651425     
   3662651184.8205080        166604849.01329994        1191874061.5567963     
   3563491705.9289570        100075010.12468004        1169382070.9850628     
   3472177630.1040988        59696514.791707993        1157180173.9499435     
   3388708957.3459415        45469363.014397860        1155268370.4514370     
   5087695799.1306553        29847085.273982048        694226622.64726353     
   4939947681.6296835        2765852.3043198586        675513975.80114615     
   4795701066.6763067       -12643705.506690741        661687301.43811214     
   4654955954.2705231       -16381588.159052610        652746599.55816340     
   4517712344.4123363       -8447795.6527717113        648691870.16129744     
   4658031138.7081308        32277269.716183424        807932292.10534739     
   4524484520.9767227        10703929.012449980        793836143.85963547     
   4393485018.1097860       -2379028.8097233772        784507201.66144657     
   4265032630.1073165       -6971603.7503275871        779945465.51077318     
   4139127356.9693217       -3073795.8093588352        780150935.40762734     
   4231645111.6031685        35691044.153651714        922674473.22540593     
   4111960660.9682903        19523795.913928986        912081371.28311872     
   3993868937.5147552        8665638.2786927223        906136708.95278847     
   3877369941.2425680        3116571.2479374409        904840486.23442078     
   3762463672.1517253        2876594.8216695786        908192703.12800860     
   3808537717.8157744        40088408.586392403        1038453166.0074358     
   3702376101.6043868        29225453.008773565        1030249658.0715950     
   3596852824.8912210        20490295.758556604        1026575823.3121505     
   3491967887.6762738        13882936.835740566        1027431661.7291002     
   3387721289.9595499        9403376.2403280735        1032817173.3224493     
   3388708957.3459415        45469363.014397860        1155268370.4514370     
   3295730842.8850126        39808900.296973348        1148341004.2250640     
   3202436680.2391787        33094943.629868388        1145824544.7395256     
   3108826469.4084377        25327493.013078570        1147718991.9948196     
   3014900210.3927979        16506548.446613908        1154024345.9909470     
   4517712344.4123363       -8447795.6527717113        648691870.16129744     
   4377064061.2858105        1093677.7934203148        640109998.41030729     
   4234647736.8778996        4741680.3016500473        636156235.03339458     
   4090463371.1885943        2496211.8719015121        636830580.03055692     
   3944510964.2178988       -5642727.4958138466        642133033.40179360     
   4139127356.9693217       -3073795.8093588352        780150935.40762734     
   4009205309.2070584        1901510.3117830753        770626473.75582469     
   3878241111.7896423        3402984.2490839958        765778584.93130922     
   3746234764.7170725        1430626.0025391579        765607268.93409073     
   3613186267.9893494       -4015564.4278509617        770112525.76416206     
   3762463672.1517253        2876594.8216695786        908192703.12800860     
   3643406329.6200504        3327274.5776674747        898572525.13933539     
   3524032729.0594664        2723760.9039487839        893677384.43117023     
   3404342870.4699626        1066053.8005018234        893507281.00351274     
   3284336753.8515425       -1645846.7326622009        898062214.85635662     
   3387721289.9595499        9403376.2403280735        1032817173.3224493     
   3279667122.5247979        5370970.5910754204        1023948152.5608506     
   3172022588.6873674        2704010.2662318945        1019852633.5329773     
   3064787688.4472599        1402495.2657910585        1020530616.2388219     
   2957962421.8044696        1466425.5897471905        1025982100.6783905     
   3014900210.3927979        16506548.446613908        1154024345.9909470     
   2917987687.9212976        8032598.3520177603        1146753356.0203667     
   2822210690.6733513        3343732.3359436989        1144304332.2367251     
   2727569218.6489644        2439950.3983960152        1146677274.6400170     
   2634063271.8481383        5321252.5393787622        1153872183.2302480     
   3944510964.2178988       -5642727.4958138466        642133033.40179360     
   3801889182.9770751       -13002728.638693571        631056390.54953873     
   3660890223.5709610       -14953323.665868282        624225784.25550950     
   3521514085.9995642       -11494512.577326298        621641214.51971829     
   3383760770.2628779       -2626295.3730728626        623302681.34216213     
   3613186267.9893494       -4015564.4278509617        770112525.76416206     
   3482365088.8899636       -8731652.9190969467        761468163.32499969     
   3352626877.0175762       -9837850.6536870003        757045016.90140438     
   3223971632.3721919       -7334157.6315972805        756843086.49338830     
   3096399354.9538064       -1220573.8528454304        760862372.10094237     
   3284336753.8515425       -1645846.7326622009        898062214.85635662     
   3165245261.0574207       -3739297.3231338263        891220302.45462668     
   3046696880.8825831       -4022372.5159887075        888574785.52580273     
   2928691613.3270354       -2495072.3112103939        890125664.06989312     
   2811229458.3907785        842603.29119646549        895872938.08689988     
   2957962421.8044696        1466425.5897471905        1025982100.6783905     
   2850529699.4794378        1974338.1491942406        1020312807.9384211     
   2743100235.1659837        2493110.7472345829        1018815090.1287060     
   2635674028.8641028        3022743.3838553429        1021488947.2492361     
   2528251080.5737967        3563236.0590516329        1028334379.3000263     
   2634063271.8481383        5321252.5393787622        1153872183.2302480     
   2538218404.1560249        8409253.4979068041        1148745679.7763798     
   2441836939.8677707        9708599.1359630823        1147765930.7101038     
   2344918878.9833813        9219289.4535669088        1150932936.0314174     
   2247464221.5028577        6941324.4507226944        1158246695.7403204     
   3383760770.2628779       -2626295.3730728626        623302681.34216213     
   3253436979.2571797        8293867.5171263218        613100200.17221570     
   3121373721.3178711        13415807.295296311        604517112.87447250     
   2987570996.4449396        12739523.961385965        597553419.44893122     
   2852028804.6383948        6265017.5154318810        592209119.89559686     
   3096399354.9538064       -1220573.8528454304        760862372.10094237     
   2970190747.7634597        5389111.7630707026        750274696.29533672     
   2842956536.4903336        8580117.1030703783        742227878.15416682     
   2714696721.1344423        8352442.1671746969        736721917.67743599     
   2585411301.6957779        4706086.9553720951        733756814.86514449     
   2811229458.3907785        842603.29119646549        895872938.08689988     
   2691768788.7078724        3931637.7404392958        885732907.63828266     
   2571996377.7930470        5981534.7499328852        879055198.64634323     
   2451912225.6462874        6992294.3196594715        875839811.11107326     
   2331516332.2676091        6963916.4496504068        876086745.03247869     
   2528251080.5737967        3563236.0590516329        1028334379.3000263     
   2418171102.0904379        3921445.4492547512        1019474834.2010574     
   2308493245.2260008        5620060.2358576059        1014999074.3509932     
   2199217509.9804811        8659080.4188619852        1014907099.7498429     
   2090343896.3538837        13038505.998263001        1019198910.3975992     
   2247464221.5028577        6941324.4507226944        1158246695.7403204     
   2149397687.9111481        5358534.8895254135        1151500475.9836547     
   2052447138.7891979        7495693.5608636141        1150059505.2681279     
   1956612574.1370130        13352800.464748144        1153923783.5937428     
   1861893993.9545994        22929855.601204634        1163093310.9605026     
   2852028804.6383948        6265017.5154318810        592209119.89559686     
   2743082811.7635641        10453135.889076948        560528291.63458812     
   2637645801.2993436        26337862.298082590        518418181.53715366     
   2535717773.2457185        53919196.742410183        465878789.60329974     
   2437298727.6027012        93197139.222097158        402910115.83302516     
   2585411301.6957779        4706086.9553720951        733756814.86514449     
   2453871861.4954233        2303812.0459479094        712412544.92903769     
   2324624148.3652468        7540627.3704607487        685638841.95195878     
   2197668162.3052392        20416532.928867817        653435705.93390548     
   2073003903.3154128        40931528.721200466        615803136.87489629     
   2331516332.2676091        6963916.4496504068        876086745.03247869     
   2191668727.0144525        2256832.9389865398        863658902.19077337     
   2052895593.4910395        1131321.8608015776        850801475.10354757     
   1915196931.6973727        3587383.2150989771        837514463.77080262     
   1778572741.6334558        9625017.0018965006        823797868.19255161     
   2090343896.3538837        13038505.998263001        1019198910.3975992     
   1956473408.3206401        10312198.568157673        1014267363.4197940     
   1822460136.6767125        7109945.7691053152        1013906080.9919202     
   1688304081.4221063        3431747.6011219025        1018115063.1139807     
   1554005242.5568151       -722395.93580585718        1026894309.7859849     
   1861893993.9545994        22929855.601204634        1163093310.9605026     
   1748285905.4139934        26469908.933481932        1164237928.6160972     
   1633317777.9222751        25476499.095384955        1174952659.6170793     
   1516989611.4794443        19949626.086913526        1195237503.9634488     
   1399301406.0855064        9889289.9080847502        1225092461.6552100     
   3768385035.1375179        1130515510.5412552        800602067.01229918     
   3779218605.0763998        1008607181.3522494        884890664.01750958     
   3790668323.0490236        888752678.94238222        974111281.45667732     
   3802734189.0553899        770952003.31165528        1068263919.3298019     
   3815416203.0954971        655205154.46006644        1167348577.6368849     
   3207967016.3280358        962390104.89841080        756688447.61644101     
   3236008064.6959376        868132091.85435700        853054154.09170139     
   3263777202.2608891        772967709.46713674        951343519.81418347     
   3291274429.0228901        676896957.73675060        1051556544.7838882     
   3318499744.9819422        579919836.66319823        1153693229.0008149     
   2685778954.6960473        805733686.40881407        721942121.24054253     
   2722432163.8165812        736547394.20679641        829348868.54304600     
   2757925403.2974734        663494536.53930724        935670913.90603638     
   2792258673.1387243        586575113.40634656        1040908257.3295139     
   2825431973.3403344        505789124.80791438        1145060898.8134778     
   2201820850.2415504        660546255.07246518        696363087.88460374     
   2238490902.4383302        613853088.40956759        813774807.37154377     
   2273112926.1587772        560333160.15889335        927093463.73223484     
   2305686921.4028907        499986470.32044190        1036319056.9666780     
   2336212888.1706734        432813018.89421439        1141451587.0748730     
   1756092702.9645464        526827810.88936394        679951347.54862475     
   1784184280.5611863        500049174.46267068        806331970.57719409     
   1809339770.8448012        463483580.32589543        925611169.29277968     
   1831559173.8153913        417131028.47903752        1037788943.6953813     
   1850842489.4729574        360991518.92209822        1142865293.7849998     
   3815416203.0954971        655205154.46006644        1167348577.6368849     
   3798272248.0775690        537212303.91363633        1189014829.2064917     
   3784930907.0188036        431894833.23107827        1205788174.4010699     
   3775392179.9191985        339252742.41238940        1217668613.2206206     
   3769656066.7787547        259286031.45757377        1224656145.6651425     
   3318499744.9819422        579919836.66319823        1153693229.0008149     
   3294180542.8651471        472685325.57101727        1181977470.4253175     
   3273565756.2133627        377798866.02887177        1207152503.6593544     
   3256655385.0265880        295260458.03676021        1229218328.7029231     
   3243449429.3048244        225070101.59468508        1248174945.5560284     
   2825431973.3403344        505789124.80791438        1145060898.8134778     
   2799033804.6519909        410841837.32817787        1179848565.1830330     
   2776241852.9345078        327915273.08464003        1213310721.5466850     
   2757056118.1878853        257009432.07730281        1245447367.9044328     
   2741476600.4121213        198124314.30616474        1276258504.2562764     
   2336212888.1706734        432813018.89421439        1141451587.0748730     
   2312832033.4381022        351681839.18511856        1182628113.4796391     
   2292959197.1822410        282244054.39838612        1224262828.0630636     
   2276594379.4030886        224499664.53401661        1266355730.8251467     
   2263737580.1006446        178448669.59201205        1308906821.7658868     
   1850842489.4729574        360991518.92209822        1142865293.7849998     
   1835575229.2234797        295205331.14183903        1190316115.3151343     
   1823717788.9565599        240785209.97010607        1240008823.2084892     
   1815270168.6721985        197731155.40690285        1291943417.4650640     
   1810232368.3703959        166043167.45222789        1346119898.0848591     
   3769656066.7787547        259286031.45757377        1224656145.6651425     
   3662651184.8205080        166604849.01329994        1191874061.5567963     
   3563491705.9289570        100075010.12468004        1169382070.9850628     
   3472177630.1040988        59696514.791707993        1157180173.9499435     
   3388708957.3459415        45469363.014397860        1155268370.4514370     
   3243449429.3048244        225070101.59468508        1248174945.5560284     
   3165574908.0295677        150483125.58520126        1230887118.8813241     
   3093888685.6400514        96523812.528187275        1221541582.3258164     
   3028390762.1362758        63192162.423642516        1220138335.8895044     
   2969081137.5182419        50488175.271570444        1226677379.5723891     
   2741476600.4121213        198124314.30616474        1276258504.2562764     
   2686024430.0558052        139619141.80225623        1272531646.8041005     
   2635103454.4042749        96217951.647634625        1274399276.0537040     
   2588713673.4575300        67920743.842297912        1281861392.0050859     
   2546855087.2155709        54727518.386249065        1294917994.6582475     
   2263737580.1006446        178448669.59201205        1308906821.7658868     
   2223999750.8992200        134012897.66446447        1316807645.3251252     
   2187136012.2216258        99157427.483018637        1327955152.1687250     
   2153146364.0678644        73882259.047680020        1342349342.2966869     
   2122030806.4379320        58187392.358439326        1359990215.7090101     
   1810232368.3703959        166043167.45222789        1346119898.0848591     
   1779500870.5598137        133664393.17182535        1363715114.4443970     
   1749986359.0921080        105342240.03434569        1382209210.6708794     
   1721688833.9672763        81076708.039781332        1401602186.7643061     
   1694608295.1853220        60867797.188136637        1421894042.7246773     
   3388708957.3459415        45469363.014397860        1155268370.4514370     
   3295730842.8850126        39808900.296973348        1148341004.2250640     
   3202436680.2391787        33094943.629868388        1145824544.7395256     
   3108826469.4084377        25327493.013078570        1147718991.9948196     
   3014900210.3927979        16506548.446613908        1154024345.9909470     
   2969081137.5182419        50488175.271570444        1226677379.5723891     
   2886475991.0198383        40528203.847590685        1218864559.1990290     
   2804099692.2019854        31331058.025445104        1215612232.5267518     
   2721952241.0646787        22896737.805124402        1216920399.5555575     
   2640033637.6079202        15225243.186629295        1222789060.2854483     
   2546855087.2155709        54727518.386249065        1294917994.6582475     
   2475050299.9946947        40596255.650220513        1286855431.9809268     
   2404019256.3198218        29044138.067526937        1283502949.9649386     
   2333761956.1909480        20071165.638173819        1284860548.6102855     
   2264278399.6080766        13677338.362157583        1290928227.9169657     
   2122030806.4379320        58187392.358439326        1359990215.7090101     
   2061453769.8095837        40013055.704857469        1352313622.5707567     
   2002195372.5926907        26234183.756122231        1349496697.0540891     
   1944255614.7872510        16850776.512234211        1351539439.1590023     
   1887634496.3932643        11862833.973191381        1358441848.8855045     
   1694608295.1853220        60867797.188136637        1421894042.7246773     
   1645686400.4645035        38778604.011506319        1415239130.9685218     
   1598628041.0205894        22901195.091222107        1413593473.7942002     
   1553433216.8535864        13235570.427306592        1416957071.2017124     
   1510101927.9634876        9781730.0197409987        1425329923.1910579     
   3014900210.3927979        16506548.446613908        1154024345.9909470     
   2917987687.9212976        8032598.3520177603        1146753356.0203667     
   2822210690.6733513        3343732.3359436989        1144304332.2367251     
   2727569218.6489644        2439950.3983960152        1146677274.6400170     
   2634063271.8481383        5321252.5393787622        1153872183.2302480     
   2640033637.6079202        15225243.186629295        1222789060.2854483     
   2556034785.1503239        8569436.0651408434        1216301654.7358191     
   2472888246.9004745        4754676.3028070927        1214506303.8623111     
   2390594022.8583736        3780963.8996310234        1217403007.6649170     
   2309152113.0240211        5648298.8556234837        1224991766.1436510     
   2264278399.6080766        13677338.362157583        1290928227.9169657     
   2192822041.4191966        8728321.4902157784        1284893993.9365063     
   2121934786.4222541        5676315.2580636740        1283421903.1213512     
   2051616634.6172490        4521319.6657077074        1286511955.4715016     
   1981867586.0041828        5263334.7131433487        1294164150.9869535     
   1887634496.3932643        11862833.973191381        1358441848.8855045     
   1828349456.7279136        8509254.6272459030        1352530373.6224363     
   1769350309.2386882        6108649.2017168999        1351051130.0138562     
   1710637053.9255912        4661017.6966201067        1354004118.0597665     
   1652209690.7886233        4166360.1119525433        1361389337.7601635     
   1510101927.9634876        9781730.0197409987        1425329923.1910579     
   1462617031.0764749        7912235.4762267470        1419210793.7936039     
   1415134815.3497806        6051678.1337732673        1417393984.5398228     
   1367655280.7834027        4200057.9923739433        1419879495.4297154     
   1320178427.3773441        2357375.0520394444        1426667326.4632764     
   2634063271.8481383        5321252.5393787622        1153872183.2302480     
   2538218404.1560249        8409253.4979068041        1148745679.7763798     
   2441836939.8677707        9708599.1359630823        1147765930.7101038     
   2344918878.9833813        9219289.4535669088        1150932936.0314174     
   2247464221.5028577        6941324.4507226944        1158246695.7403204     
   2309152113.0240211        5648298.8556234837        1224991766.1436510     
   2223894453.8891029        7241510.7344487906        1218656957.2317219     
   2138358503.6539156        7907085.6123757362        1216664351.8407474     
   2052544262.3184640        7645023.4894280434        1219013949.9707243     
   1966451729.8827403        6455324.3655624390        1225705751.6216488     
   1981867586.0041828        5263334.7131433487        1294164150.9869535     
   1907755561.5217781        5529285.3408781290        1286922393.0288143     
   1833623551.4349744        5728617.2872796059        1284218287.7249901     
   1759471555.7437682        5861330.5523456335        1286051835.0754719     
   1685299574.4481642        5927425.1360763311        1292423035.0802670     
   1652209690.7886233        4166360.1119525433        1361389337.7601635     
   1589801727.0540454        3272577.3171826601        1353541987.1676595     
   1527632083.2109377        3173194.1606446505        1350427738.3628252     
   1465700759.2592955        3868210.6423285007        1352046591.3456635     
   1404007755.1991241        5357626.7622484565        1358398546.1161740     
   1320178427.3773441        2357375.0520394444        1426667326.4632764     
   1270032950.4859073        471386.66336220503        1418515739.6482530     
   1220384098.9818108        240816.23248678446        1415292703.7542586     
   1171231872.8650475        1665663.7593905926        1416998218.7812972     
   1122576272.1356208        4745929.2440782785        1423632284.7293677     
   2247464221.5028577        6941324.4507226944        1158246695.7403204     
   2149397687.9111481        5358534.8895254135        1151500475.9836547     
   2052447138.7891979        7495693.5608636141        1150059505.2681279     
   1956612574.1370130        13352800.464748144        1153923783.5937428     
   1861893993.9545994        22929855.601204634        1163093310.9605026     
   1966451729.8827403        6455324.3655624390        1225705751.6216488     
   1882279740.2244802        6599977.2158340216        1219855074.1934311     
   1798885946.5945470        9338616.8271852732        1218988617.8856184     
   1716270348.9929338        14671243.199609399        1223106382.6982062     
   1634432947.4196486        22597856.333123565        1232208368.6311948     
   1685299574.4481642        5927425.1360763311        1292423035.0802670     
   1614104906.0926676        7524353.6086066365        1287073813.4654875     
   1543350645.3240554        10589307.370750368        1286387785.0503716     
   1473036792.1423283        15122286.422508895        1290364949.8349173     
   1403163346.5474865        21123290.763890803        1299005307.8191237     
   1404007755.1991241        5357626.7622484565        1358398546.1161740     
   1344873185.5157034        8131664.0678366423        1353156693.7998216     
   1285841234.9777303        11247765.191579163        1352257006.7623878     
   1226911903.5851948        14705930.133451879        1355699485.0038788     
   1168085191.3381102        18506158.893494487        1363484128.5242896     
   1122576272.1356208        4745929.2440782785        1423632284.7293677     
   1074584578.4935861        8421908.5935108066        1418103715.1964281     
   1026357715.5555586        11313990.289632380        1416596283.0216670     
   977895683.32153368        13422174.332430243        1419109988.2050869     
   929198481.79151750        14746460.721923351        1425644830.7466893     
   1861893993.9545994        22929855.601204634        1163093310.9605026     
   1748285905.4139934        26469908.933481932        1164237928.6160972     
   1633317777.9222751        25476499.095384955        1174952659.6170793     
   1516989611.4794443        19949626.086913526        1195237503.9634488     
   1399301406.0855064        9889289.9080847502        1225092461.6552100     
   1634432947.4196486        22597856.333123565        1232208368.6311948     
   1543877231.3844180        27847590.889765143        1229847992.0699046     
   1452502846.1967196        30368428.271514833        1235255554.5771241     
   1360309791.8565519        30160368.478363454        1248431056.1528435     
   1267298068.3639169        27223411.510321081        1269374496.7970726     
   1403163346.5474865        21123290.763890803        1299005307.8191237     
   1330510933.6551185        26537985.736142755        1293771535.1393626     
   1257581221.4089224        31028349.528972626        1294503527.2512312     
   1184374209.8089049        34594382.142388642        1301201284.1547241     
   1110889898.8550508        37236083.576367795        1313864805.8498442     
   1168085191.3381102        18506158.893494487        1363484128.5242896     
   1108187012.2260895        22541093.472599149        1356008557.8244712     
   1048552903.5588841        27456262.867754519        1352696577.6394053     
   989182865.33649719        33251667.078968287        1353548187.9690788     
   930076897.55892527        39927306.106243253        1358563388.8135126     
   929198481.79151750        14746460.721923351        1425644830.7466893     
   876905467.09733391        15856914.099137366        1416559060.1252315     
   825417892.64660716        19652168.287873894        1409834705.7416427     
   774735758.43933845        26132223.288143069        1405471767.5959220     
   724859064.47553039        35297079.099931329        1403470245.6880748     
   1756092702.9645464        526827810.88936394        679951347.54862475     
   1784184280.5611863        500049174.46267068        806331970.57719409     
   1809339770.8448012        463483580.32589543        925611169.29277968     
   1831559173.8153913        417131028.47903752        1037788943.6953813     
   1850842489.4729574        360991518.92209822        1142865293.7849998     
   1326377032.4963179        397913109.74889535        669601765.46660650     
   1339671750.5414124        375496942.93898749        791720344.04709995     
   1350764403.0846126        345740557.78943139        908551423.52782261     
   1359654990.1259186        308643954.30022782        1020095003.9087750     
   1366343511.6653297        264207132.47137490        1126351085.1899562     
   890456358.46814704        267136907.54044411        662209206.87255061     
   894136860.42801976        250638003.38721848        780922099.78461981     
   896349318.69712842        229245620.26477876        896161418.81013143     
   897093733.27547264        202959758.17312509        1007927163.9490855     
   896370104.16305304        171780417.11225739        1116219335.2014821     
   448330680.88003391        134499204.26401016        657773671.76645648     
   447579610.22100794        125472355.80736378        773937237.78975344     
   446094517.68234807        113998767.75193743        888441155.13970590     
   443875403.26405400        100078440.09773073        1001285423.8163143     
   440922266.96612620        83711372.844744682        1112470043.8195784     
 -0.26802146811468119       -8.0406440434404355E-002   656295160.14832461     
  -7.9623018343468341E-002  0.19942331897559396        770765758.06250119     
   4.0271689371541068E-002  0.25090692458688574        885390632.51654673     
   9.1662723656770334E-002   7.4045125571257905E-002   1000169783.5104607     
   7.4549724223497496E-002 -0.33116327903369608        1115103211.0442436     
   1850842489.4729574        360991518.92209822        1142865293.7849998     
   1835575229.2234797        295205331.14183903        1190316115.3151343     
   1823717788.9565599        240785209.97010607        1240008823.2084892     
   1815270168.6721985        197731155.40690285        1291943417.4650640     
   1810232368.3703959        166043167.45222789        1346119898.0848591     
   1366343511.6653297        264207132.47137490        1126351085.1899562     
   1360617835.8660774        216584922.38875234        1181698824.4791982     
   1357449525.0947604        177487262.39924547        1237952670.5905545     
   1356838579.3513780        146914152.50285649        1295112623.5240254     
   1358784998.6359308        124865592.69958371        1353178683.2796104     
   896370104.16305304        171780417.11225739        1116219335.2014821     
   896369499.83943796        141177230.83489490        1178469461.4694378     
   898073805.58913434        116257078.13523701        1240289915.0184019     
   901483021.41214228        97019959.013285100        1301680695.8483741     
   906597147.30846190        83465873.469037563        1362641803.9593551     
   440922266.96612620        83711372.844744682        1112470043.8195784     
   442830221.14355993        68982256.480265468        1180628026.2858534     
   445590630.43968177        57094657.178080395        1247020556.4920309     
   449203494.85449177        48048574.938189164        1311647634.4381111     
   453668814.38798934        41844009.760590374        1374509260.1240923     
   7.4549724223497496E-002 -0.33116327903369608        1115103211.0442436     
 -0.22155605532437883      -0.67513529679822715        1188174518.9284444     
 -0.35359704089880789      -0.47222397409521044        1258144595.0114415     
 -0.32157345446337743       0.27756890836264303        1325013439.2932348     
 -0.12548540503401995        1.5742433341335860        1388781051.7738247     
   1810232368.3703959        166043167.45222789        1346119898.0848591     
   1779500870.5598137        133664393.17182535        1363715114.4443970     
   1749986359.0921080        105342240.03434569        1382209210.6708794     
   1721688833.9672763        81076708.039781332        1401602186.7643061     
   1694608295.1853220        60867797.188136637        1421894042.7246773     
   1358784998.6359308        124865592.69958371        1353178683.2796104     
   1333331942.3179998        99860182.292396963        1372037588.4204888     
   1308791625.6381772        77897237.345568419        1392356407.7949529     
   1285164048.5964606        58976757.859095156        1414135141.4029996     
   1262449211.1928511        43098743.832979739        1437373789.2446303     
   906597147.30846190        83465873.469037563        1362641803.9593551     
   888025487.81643665        66314713.535039485        1382409443.3926790     
   870062321.25775099        51191863.378840089        1404198031.4262269     
   852707647.63240349        38097323.000434875        1428007568.0599985     
   835961466.94039583        27031092.399829119        1453838053.2939906     
   453668814.38798934        41844009.760590374        1374509260.1240923     
   443581507.05512524        33027986.899760097        1394830679.3609669     
   433798445.95083094        25226118.134164095        1417734081.5647032     
   424319631.07510811        18438403.463804737        1443219466.7353001     
   415145062.42795527        12664842.888680473        1471286834.8727601     
 -0.12548540503401995        1.5742433341335860        1388781051.7738247     
   3.4064886900286750E-002   2.3865548445434568        1409301296.3253510     
 -0.28258273697203051        1.6115401424035953        1432964558.2103786     
  -1.0754275046037105      -0.75079819879512755        1459770837.4289076     
  -2.3444694445890959       -4.7004609682565794        1489720133.9809375     
   1694608295.1853220        60867797.188136637        1421894042.7246773     
   1645686400.4645035        38778604.011506319        1415239130.9685218     
   1598628041.0205894        22901195.091222107        1413593473.7942002     
   1553433216.8535864        13235570.427306592        1416957071.2017124     
   1510101927.9634876        9781730.0197409987        1425329923.1910579     
   1262449211.1928511        43098743.832979739        1437373789.2446303     
   1227777249.7554500        27137686.212708116        1434370601.9251320     
   1194502940.0750937        15835467.782583296        1435905462.0365000     
   1162626282.1517792        9192088.5425976515        1441978369.5787320     
   1132147275.9855101        7207548.4927657843        1452589324.5518320     
   835961466.94039583        27031092.399829119        1453838053.2939906     
   814193132.64078784        16794278.492230952        1453943059.6379778     
   793356566.57835853        9663358.7085642815        1458114906.2618616     
   773451768.75311160        5638333.0488373041        1466353593.1656408     
   754478739.16504574        4719201.5130461752        1478659120.3493173     
   415145062.42795527        12664842.888680473        1471286834.8727601     
   404934049.12051302        7748380.8500672877        1473956504.1070588     
   395188920.53038931        4384867.8691825718        1480221806.4702847     
   385909676.65758127        2574303.9460172802        1490082741.9624379     
   377096317.50209218        2316689.0805814713        1503539310.5835187     
  -2.3444694445890959       -4.7004609682565794        1489720133.9809375     
 -0.80537122300831432       -6.7137758379299921        1494410935.3323739     
   1.9311804444965341       -4.7355795681345434        1502226162.6617684     
   5.8651876338747515        1.2341352813778155        1513165815.9691210     
   10.996649287135648        11.195365010499099        1527229895.2544322     
   1510101927.9634876        9781730.0197409987        1425329923.1910579     
   1462617031.0764749        7912235.4762267470        1419210793.7936039     
   1415134815.3497806        6051678.1337732673        1417393984.5398228     
   1367655280.7834027        4200057.9923739433        1419879495.4297154     
   1320178427.3773441        2357375.0520394444        1426667326.4632764     
   1132147275.9855101        7207548.4927657843        1452589324.5518320     
   1096084444.6481597        5670682.1287449002        1446625474.1342621     
   1060023623.9079206        4140517.7550918460        1445068747.4928796     
   1023964813.7647927        2617055.3718110919        1447919144.6276803     
   987908014.21877682        1100294.9789058566        1455176665.5386665     
   754478739.16504574        4719201.5130461752        1478659120.3493173     
   730137412.32739222        3604795.0135245323        1472849766.5878944     
   705797425.52364433        2494855.2936893702        1471552340.2351694     
   681458778.75380003        1389382.3535319269        1474766841.2911398     
   657121472.01786232        288376.19306311011        1482493269.7558088     
   377096317.50209218        2316689.0805814713        1503539310.5835187     
   364775934.11417031        1714574.1305676252        1497883671.1545005     
   352456220.19694972        1114690.7495577633        1496844762.7666891     
   340137175.75042802        517038.93754303455        1500422585.4200914     
   327818800.77460253       -78381.305480733514        1508617139.1147001     
   10.996649287135648        11.195365010499099        1527229895.2544322     
   10.008497327610407        19.479878699113371        1521727187.8340766     
   7.9278404354108893        24.122709278813385        1520946015.0874429     
   4.7546716449551356        25.123834051409656        1524886377.0145323     
  0.48899702968160152        22.483271700445904        1533548273.6153426     
   1320178427.3773441        2357375.0520394444        1426667326.4632764     
   1270032950.4859073        471386.66336220503        1418515739.6482530     
   1220384098.9818108        240816.23248678446        1415292703.7542586     
   1171231872.8650475        1665663.7593905926        1416998218.7812972     
   1122576272.1356208        4745929.2440782785        1423632284.7293677     
   987908014.21877682        1100294.9789058566        1455176665.5386665     
   950644492.85782504       -210522.23317843676        1448011086.3562472     
   913753439.83952105       -279778.30310410261        1445693421.0047228     
   877234855.16386938        892526.76914495230        1448223669.4840970     
   841088738.83086920        3306392.9835656881        1455601831.7943666     
   657121472.01786232        288376.19306311011        1482493269.7558088     
   632509514.50129712       -516387.34826263785        1476168848.3205264     
   608145868.28269506       -493446.56304293871        1474611703.6260030     
   584030533.36205733        357198.54872223735        1477821835.6722443     
   560163509.73938179        2035547.9870307148        1485799244.4592509     
   327818800.77460253       -78381.305480733514        1508617139.1147001     
   315628015.41632813       -446208.68187254667        1502989025.5410855     
   303561384.31132782       -400188.54735061526        1502047551.6180980     
   291618907.45960605        59679.098101183772        1505792717.3457403     
   279800584.86116344        933394.25448058546        1514224522.7240117     
  0.48899702968160152        22.483271700445904        1533548273.6153426     
  -4.3970848939944602        13.765981029082893        1528471618.0179281     
  -12.074581078581357       -4.2560224575374566        1528000964.9810088     
  -22.543479331451231       -31.582700545935140        1532136314.5045850     
  -35.803792439994268       -68.214094126020669        1540877666.5886564     
   1122576272.1356208        4745929.2440782785        1423632284.7293677     
   1074584578.4935861        8421908.5935108066        1418103715.1964281     
   1026357715.5555586        11313990.289632380        1416596283.0216670     
   977895683.32153368        13422174.332430243        1419109988.2050869     
   929198481.79151750        14746460.721923351        1425644830.7466893     
   841088738.83086920        3306392.9835656881        1455601831.7943666     
   803596067.57217777        5613699.8668447137        1450204872.7308998     
   765927020.59496558        7333087.6883841157        1449178794.8655503     
   728081597.89921451        8464556.4481305480        1452523598.1983206     
   690059799.48493552        9008106.1461143494        1460239282.7292082     
   560163509.73938179        2035547.9870307148        1485799244.4592509     
   534169128.97814727        3273962.8384002745        1480602488.3722990     
   508057166.07584864        4120437.2195545435        1480126357.3234019     
   481827621.03248608        4574971.1304978728        1484370851.3125603     
   455480493.84805763        4637564.5712215602        1493335970.3397820     
   279800584.86116344        933394.25448058546        1514224522.7240117     
   266303762.71148953        1402697.5081585348        1509296562.1206198     
   252748151.99822184        1676038.8831874430        1509438970.3952188     
   239133752.72135493        1753418.3795528263        1514651747.5478158     
   225460564.88088471        1634835.9972411096        1524934893.5784097     
  -35.803792439994268       -68.214094126020669        1540877666.5886564     
  -31.227790774491648       -96.123861663395544        1536287093.9758620     
  -21.637923183983954       -107.32074347797625        1537116634.0810051     
  -7.0341864201538158       -101.80472735425946        1543366286.9040806     
   12.583414347141531       -79.575831912881299        1555036052.4450901     
   929198481.79151750        14746460.721923351        1425644830.7466893     
   876905467.09733391        15856914.099137366        1416559060.1252315     
   825417892.64660716        19652168.287873894        1409834705.7416427     
   774735758.43933845        26132223.288143069        1405471767.5959220     
   724859064.47553039        35297079.099931329        1403470245.6880748     
   690059799.48493552        9008106.1461143494        1460239282.7292082     
   645056916.12436306        8106015.8664376438        1454246211.3501408     
   600658113.21169686        9217527.0797804296        1451963950.2183447     
   556863390.74693632        12342639.786139548        1453392499.3338153     
   513672748.73008007        17481353.985513449        1458531858.6965563     
   455480493.84805763        4637564.5712215602        1493335970.3397820     
   421623153.27652001        2879554.0712728500        1490200678.4416301     
   388168533.35733855        2463945.7458462417        1492125590.8001456     
   355116634.09050930        3390739.5949253291        1499110707.4153264     
   322467455.47603858        5659935.6185315698        1511156028.2871728     
   225460564.88088471        1634835.9972411096        1524934893.5784097     
   206604178.55380619        177528.71365188062        1524422461.3996925     
   187949153.08353141       -608575.71392280608        1530319627.4870465     
   169495488.47005820       -723477.28549116105        1542626391.8404636     
   151243184.71339199       -167176.00104182214        1561342754.4599462     
   12.583414347141531       -79.575831912881299        1555036052.4450901     
  -8.0437837709294246       -60.206441938164708        1556911560.2243364     
  -27.609720736782698       -37.299516177167959        1566546060.2790494     
  -46.114416177575336       -10.855119012913779        1583939552.6092243     
  -63.557852021682557        19.126812221959980        1609092037.2148654     
 -0.26802146811468119       -8.0406440434404355E-002   656295160.14832461     
  -7.9623018343468341E-002  0.19942331897559396        770765758.06250119     
   4.0271689371541068E-002  0.25090692458688574        885390632.51654673     
   9.1662723656770334E-002   7.4045125571257905E-002   1000169783.5104607     
   7.4549724223497496E-002 -0.33116327903369608        1115103211.0442436     
  -448330681.37841904       -134499204.41352570        657773671.97540712     
  -447579610.40934360       -125472355.56696805        773937237.88704562     
  -446094517.64979744       -113998767.41884135        888441155.11316836     
  -443875403.09978074       -100078439.96914586        1001285423.6537751     
  -440922266.75929326       -83711373.217881650        1112470043.5088661     
  -890456358.85355902       -267136907.65606773        662209207.20495617     
  -894136860.60490525       -250638003.29311168        780922099.94952714     
  -896349318.70680666       -229245620.09867188        896161418.78319728     
  -897093733.15926278       -202959758.07274830        1007927163.7059669     
  -896370103.96227360       -171780417.21534082        1116219334.7178364     
  -1326377032.6934412       -397913109.80803239        669601765.83697236     
  -1339671750.6663084       -375496942.97900778        791720344.24994540     
  -1350764403.1307564       -345740557.78858447        908551423.52663350     
  -1359654990.0867839       -308643954.23676264        1020095003.6670359     
  -1366343511.5343924       -264207132.32354170        1126351084.6711535     
  -1756092702.8980658       -526827810.86941969        679951347.87145507     
  -1784184280.5935524       -500049174.62465608        806331970.78830051     
  -1809339770.9216456       -463483580.48857903        925611169.34347630     
  -1831559173.8823442       -417131028.46118844        1037788943.5369827     
  -1850842489.4756489       -360991518.54248393        1142865293.3688188     
   7.4549724223497496E-002 -0.33116327903369608        1115103211.0442436     
 -0.22155605532437883      -0.67513529679822715        1188174518.9284444     
 -0.35359704089880789      -0.47222397409521044        1258144595.0114415     
 -0.32157345446337743       0.27756890836264303        1325013439.2932348     
 -0.12548540503401995        1.5742433341335860        1388781051.7738247     
  -440922266.75929326       -83711373.217881650        1112470043.5088661     
  -442830221.44102269       -68982257.325514168        1180628026.2796335     
  -445590631.02458495       -57094657.772589222        1247020556.8081234     
  -449203495.50997961       -48048574.559105113        1311647635.0943360     
  -453668814.89720690       -41844007.685064331        1374509261.1382711     
  -896370103.96227360       -171780417.21534082        1116219334.7178364     
  -896369500.00412405       -141177231.17898411        1178469461.4649570     
  -898073806.01370370       -116257078.36839169        1240289915.5287268     
  -901483021.99101388       -97019958.783567339        1301680696.9091449     
  -906597147.93605375       -83465872.424507946        1362641805.6062112     
  -1366343511.5343924       -264207132.32354170        1126351084.6711535     
  -1360617835.9108605       -216584922.23554426        1181698824.4844146     
  -1357449525.3209546       -177487262.25963542        1237952671.1732502     
  -1356838579.7646766       -146914152.39581740        1295112624.7376609     
  -1358784999.2420254       -124865592.64408898        1353178685.1776454     
  -1850842489.4756489       -360991518.54248393        1142865293.3688188     
  -1835575229.1612303       -295205330.49519414        1190316115.3380060     
  -1823717788.9463365       -240785209.44631732        1240008823.7416949     
  -1815270168.8309679       -197731155.39585733        1291943418.5798841     
  -1810232368.8151221       -166043168.34380877        1346119899.8525739     
 -0.12548540503401995        1.5742433341335860        1388781051.7738247     
   3.4064886900286750E-002   2.3865548445434568        1409301296.3253510     
 -0.28258273697203051        1.6115401424035953        1432964558.2103786     
  -1.0754275046037105      -0.75079819879512755        1459770837.4289076     
  -2.3444694445890959       -4.7004609682565794        1489720133.9809375     
  -453668814.89720690       -41844007.685064331        1374509261.1382711     
  -443581507.39717299       -33027983.763585106        1394830679.5017278     
  -433798446.76590455       -25226116.071323216        1417734080.8453245     
  -424319633.00340152       -18438404.608278796        1443219465.1690609     
  -415145066.10966367       -12664849.374454230        1471286832.4729376     
  -906597147.93605375       -83465872.424507946        1362641805.6062112     
  -888025488.39085424       -66314711.982455790        1382409443.6569359     
  -870062322.10698843       -51191862.411516130        1404198030.3344398     
  -852707649.08445585       -38097323.711686045        1428007565.6387217     
  -835961469.32325602       -27031095.882966578        1453838049.5697818     
  -1358784999.2420254       -124865592.64408898        1353178685.1776454     
  -1333331942.9469781       -99860182.270059943        1372037588.7909753     
  -1308791626.3058326       -77897237.409035802        1392356406.6777229     
  -1285164049.3185878       -58976758.061011970        1414135138.8378870     
  -1262449211.9852459       -43098744.225999117        1437373785.2714686     
  -1810232368.8151221       -166043168.34380877        1346119899.8525739     
  -1779500871.0655463       -133664394.62639856        1363715114.9038465     
  -1749986359.3624396       -105342241.06388575        1382209209.8751757     
  -1721688833.7058024       -81076707.656270087        1401602184.7665601     
  -1694608294.0956326       -60867794.403548360        1421894039.5780003     
  -2.3444694445890959       -4.7004609682565794        1489720133.9809375     
 -0.80537122300831432       -6.7137758379299921        1494410935.3323739     
   1.9311804444965341       -4.7355795681345434        1502226162.6617684     
   5.8651876338747515        1.2341352813778155        1513165815.9691210     
   10.996649287135648        11.195365010499099        1527229895.2544322     
  -415145066.10966367       -12664849.374454230        1471286832.4729376     
  -404934049.56793600       -7748389.7761120945        1473956503.9970481     
  -395188916.17714369       -4384874.0142211765        1480221808.4040720     
  -385909665.93728358       -2574302.0887718350        1490082745.6940098     
  -377096298.84835982       -2316673.9997754097        1503539315.8668582     
  -835961469.32325602       -27031095.882966578        1453838049.5697818     
  -814193132.33616972       -16794283.040146530        1453943059.5267799     
  -793356562.84840739       -9663361.8617379367        1458114909.2716455     
  -773451760.85996962       -5638332.3477441967        1466353598.8043790     
  -754478726.37085533       -4719194.4981634021        1478659128.1249824     
  -1262449211.9852459       -43098744.225999117        1437373785.2714686     
  -1227777249.1100731       -27137686.505882263        1434370601.9215662     
  -1194502938.0826149       -15835468.278142869        1435905465.2644868     
  -1162626278.9028695       -9192089.5427802801        1441978375.3002312     
  -1132147271.5708365       -7207550.2997946143        1452589332.0287969     
  -1694608294.0956326       -60867794.403548360        1421894039.5780003     
  -1645686399.8896475       -38778600.173320591        1415239131.1814110     
  -1598628041.8797641       -22901193.263430059        1413593476.3825982     
  -1553433220.0659826       -13235573.673880398        1416957075.1815629     
  -1510101934.4483047       -9781741.4046752453        1425329927.5783055     
   10.996649287135648        11.195365010499099        1527229895.2544322     
   10.008497327610407        19.479878699113371        1521727187.8340766     
   7.9278404354108893        24.122709278813385        1520946015.0874429     
   4.7546716449551356        25.123834051409656        1524886377.0145323     
  0.48899702968160152        22.483271700445904        1533548273.6153426     
  -377096298.84835982       -2316673.9997754097        1503539315.8668582     
  -364775918.75299495       -1714548.8364546299        1497883673.7321551     
  -352456209.45895940       -1114659.6775623709        1496844763.0928633     
  -340137170.96625662       -517006.52311329544        1500422583.9489820     
  -327818803.27488446        78410.626898944378        1508617136.3005137     
  -754478726.37085533       -4719194.4981634021        1478659128.1249824     
  -730137402.84428823       -3604783.7517232299        1472849769.9489679     
  -705797419.82787585       -2494841.3724644482        1471552340.0900559     
  -681458777.32161808       -1389367.3603889942        1474766838.5482457     
  -657121475.32551515       -288361.71549519897        1482493265.3235366     
  -1132147271.5708365       -7207550.2997946143        1452589332.0287969     
  -1096084442.2653835       -5670685.2659332752        1446625476.4845130     
  -1060023623.1789116       -4140520.9620062113        1445068746.0790215     
  -1023964814.3114122       -2617057.3879903555        1447919140.8123219     
  -987908015.66289639       -1100294.5439178348        1455176660.6844091     
  -1510101934.4483047       -9781741.4046752453        1425329927.5783055     
  -1462617037.0162811       -7912253.3790857792        1419210793.3387921     
  -1415134819.5120630       -6051698.4461777806        1417393981.0597599     
  -1367655281.9356427       -4200076.6059303880        1419879490.7412052     
  -1320178424.2870252       -2357387.8583615422        1426667322.3831336     
  0.48899702968160152        22.483271700445904        1533548273.6153426     
  -4.3970848939944602        13.765981029082893        1528471618.0179281     
  -12.074581078581357       -4.2560224575374566        1528000964.9810088     
  -22.543479331451231       -31.582700545935140        1532136314.5045850     
  -35.803792439994268       -68.214094126020669        1540877666.5886564     
  -327818803.27488446        78410.626898944378        1508617136.3005137     
  -315628025.25319445        446227.50770793855        1502989018.4762499     
  -303561405.02465558        400185.07801075280        1502047540.5748336     
  -291618942.58927053       -59716.662199109793        1505792702.5962603     
  -279800637.94703966       -933477.71292206645        1514224504.5405326     
  -657121475.32551515       -288361.71549519897        1482493265.3235366     
  -632509521.93219590        516398.50256726146        1476168837.7703912     
  -608145881.33377254        493449.40431120992        1474611687.5024402     
  -584030553.53024137       -357209.01025155187        1477821814.5196869     
  -560163538.52160776       -2035576.7411412597        1485799218.8221264     
  -987908015.66289639       -1100294.5439178348        1455176660.6844091     
  -950644494.43408918        210526.75056570768        1448011075.9003499     
  -913753441.00192046        279788.72292077541        1445693405.7638335     
  -877234855.36639166       -892508.62685787678        1448223650.2748635     
  -841088737.52750039       -3306365.2987586260        1455601809.4334350     
  -1320178424.2870252       -2357387.8583615422        1426667322.3831336     
  -1270032942.7588789       -471387.74831813574        1418515732.8661244     
  -1220384084.0291100       -240796.96619969606        1415292695.3590093     
  -1171231848.0977221       -1665615.5120167136        1416998209.8617897     
  -1122576234.9647167       -4745843.3857765198        1423632276.3744638     
  -35.803792439994268       -68.214094126020669        1540877666.5886564     
  -31.227790774491648       -96.123861663395544        1536287093.9758620     
  -21.637923183983954       -107.32074347797625        1537116634.0810051     
  -7.0341864201538158       -101.80472735425946        1543366286.9040806     
   12.583414347141531       -79.575831912881299        1555036052.4450901     
  -279800637.94703966       -933477.71292206645        1514224504.5405326     
  -266303801.40944383       -1402811.7862225473        1509296555.0704195     
  -252748169.22674549       -1676160.3758494556        1509438972.7367210     
  -239133741.39893541       -1753523.4817708582        1514651757.5394385     
  -225460517.92601857       -1634901.1040024161        1524934909.4785693     
  -560163538.52160776       -2035576.7411412597        1485799218.8221264     
  -534169143.11247414       -3273998.9050024450        1480602481.5644722     
  -508057161.42699546       -4120466.8143795431        1480126365.8617167     
  -481827593.46516317       -4574980.4692478180        1484370871.7138596     
  -455480439.22698534       -4637539.8696280718        1493335999.1208961     
  -841088737.52750039       -3306365.2987586260        1455601809.4334350     
  -803596056.33688402       -5613657.4802049696        1450204873.4580257     
  -765926998.23867619       -7333026.6363460124        1449178813.4559925     
  -728081563.23287857       -8464472.7671861053        1452523629.4273376     
  -690059751.31948709       -9007995.8727167249        1460239321.3720627     
  -1122576234.9647167       -4745843.3857765198        1423632276.3744638     
  -1074584541.0826633       -8421787.5117965937        1418103730.7510767     
  -1026357679.6617833       -11313839.841729522        1416596315.5195484     
  -977895650.70206976       -13422000.375550330        1419110030.6798828     
  -929198454.20352662       -14746269.113270044        1425644876.2320738     
   12.583414347141531       -79.575831912881299        1555036052.4450901     
  -8.0437837709294246       -60.206441938164708        1556911560.2243364     
  -27.609720736782698       -37.299516177167959        1566546060.2790494     
  -46.114416177575336       -10.855119012913779        1583939552.6092243     
  -63.557852021682557        19.126812221959980        1609092037.2148654     
  -225460517.92601857       -1634901.1040024161        1524934909.4785693     
  -206604173.42701963       -177570.65281942487        1524422473.5059862     
  -187949192.63977495        608547.42584929615        1530319638.9515197     
  -169495575.56428793        723453.13199190795        1542626405.8151755     
  -151243322.20055637        167146.46561489999        1561342774.0969486     
  -455480439.22698534       -4637539.8696280718        1493335999.1208961     
  -421623132.05134743       -2879519.0715361536        1490200693.8279638     
  -388168553.36046773       -2463926.5559730530        1492125599.0958104     
  -355116703.15435511       -3390762.3229640126        1499110714.9244325     
  -322467581.43300438       -5660026.3724988699        1511156041.3138332     
  -690059751.31948709       -9007995.8727167249        1460239321.3720627     
  -645056883.91675830       -8105905.4625652730        1454246221.1902783     
  -600658109.77180243       -9217459.2449898422        1451963940.7119267     
  -556863428.88461447       -12342657.219980180        1453392479.9370081     
  -513672841.25520015       -17481499.387540281        1458531838.8655288     
  -929198454.20352662       -14746269.113270044        1425644876.2320738     
  -876905429.02326095       -15856729.825935304        1416559055.5929248     
  -825417861.87377572       -19652050.641199023        1409834663.7998643     
  -774735752.75506175       -26132231.559039533        1405471700.8528936     
  -724859101.66713738       -35297272.579504162        1403470166.7520170     
  -1756092702.8980658       -526827810.86941969        679951347.87145507     
  -1784184280.5935524       -500049174.62465608        806331970.78830051     
  -1809339770.9216456       -463483580.48857903        925611169.34347630     
  -1831559173.8823442       -417131028.46118844        1037788943.5369827     
  -1850842489.4756489       -360991518.54248393        1142865293.3688188     
  -2201820849.9366565       -660546254.98099697        696363088.11650431     
  -2238490902.3411856       -613853088.53882313        813774807.52137280     
  -2273112926.2168317       -560333160.33370805        927093463.77386081     
  -2305686921.5635958       -499986470.36565179        1036319056.8739687     
  -2336212888.3814774       -432813018.63465422        1141451586.8216965     
  -2685778954.2784371       -805733686.28353107        721942121.38021982     
  -2722432163.6511812       -736547394.32169890        829348868.62818086     
  -2757925403.3335533       -663494536.72529757        935670913.93305111     
  -2792258673.3255553       -586575113.49432778        1040908257.2948303     
  -2825431973.6271868       -505789124.62878907        1145060898.7135191     
  -3207967015.9234080       -962390104.77702236        756688447.66260159     
  -3236008064.5235381       -868132091.97328317        853054154.10872459     
  -3263777202.2718115       -772967709.66334832        951343519.82104659     
  -3291274429.1682239       -676896957.84721613        1051556544.7995670     
  -3318499745.2127786       -579919836.52488828        1153693229.0442865     
  -3768385034.8715687       -1130515510.4614706        800602066.96364987     
  -3779218604.9582596       -1008607181.4935770        884890663.96300459     
  -3790668323.0316033       -888752679.14785910        974111281.43784785     
  -3802734189.0916009       -770952003.42431784        1068263919.3881794     
  -3815416203.1382513       -655205154.32295203        1167348577.8139989     
  -1850842489.4756489       -360991518.54248393        1142865293.3688188     
  -1835575229.1612303       -295205330.49519414        1190316115.3380060     
  -1823717788.9463365       -240785209.44631732        1240008823.7416949     
  -1815270168.8309679       -197731155.39585733        1291943418.5798841     
  -1810232368.8151221       -166043168.34380877        1346119899.8525739     
  -2336212888.3814774       -432813018.63465422        1141451586.8216965     
  -2312832033.4244795       -351681838.63199729        1182628113.5638666     
  -2292959197.0584321       -282244053.93250930        1224262828.5299742     
  -2276594379.2833362       -224499664.53619021        1266355731.7200196     
  -2263737580.0991898       -178448670.44304061        1308906823.1340022     
  -2825431973.6271868       -505789124.62878907        1145060898.7135191     
  -2799033804.6292195       -410841836.85124749        1179848565.3220079     
  -2776241852.7136288       -327915272.68163037        1213310721.9438703     
  -2757056117.8804150       -257009432.11993718        1245447368.5791073     
  -2741476600.1295800       -198124315.16616988        1276258505.2277179     
  -3318499745.2127786       -579919836.52488828        1153693229.0442865     
  -3294180542.7754507       -472685325.15294552        1181977470.6124294     
  -3273565755.9119248       -377798865.69368136        1207152503.9833827     
  -3256655384.6222048       -295260458.14709854        1229218329.1571472     
  -3243449428.9062877       -225070102.51319492        1248174946.1337218     
  -3815416203.1382513       -655205154.32295203        1167348577.8139989     
  -3798272247.8631716       -537212303.53708935        1189014829.4351320     
  -3784930906.6533232       -431894832.96866417        1205788174.6485116     
  -3775392179.5087047       -339252742.61766994        1217668613.4541388     
  -3769656066.4293170       -259286032.48411465        1224656145.8520129     
  -1810232368.8151221       -166043168.34380877        1346119899.8525739     
  -1779500871.0655463       -133664394.62639856        1363715114.9038465     
  -1749986359.3624396       -105342241.06388575        1382209209.8751757     
  -1721688833.7058024       -81076707.656270087        1401602184.7665601     
  -1694608294.0956326       -60867794.403548360        1421894039.5780003     
  -2263737580.0991898       -178448670.44304061        1308906823.1340022     
  -2223999750.8313203       -134012899.02570558        1316807645.6654878     
  -2187136011.7863011       -99157428.351207614        1327955151.5140846     
  -2153146362.9641323       -73882258.419541955        1342349340.6797915     
  -2122030804.3648124       -58187389.230709195        1359990213.1626110     
  -2741476600.1295800       -198124315.16616988        1276258505.2277179     
  -2686024429.6375427       -139619143.13714838        1272531647.0336378     
  -2635103453.5447369       -96217952.438899994        1274399275.5537241     
  -2588713671.8511643       -67920743.071424365        1281861390.7879767     
  -2546855084.5568228       -54727515.034719586        1294917992.7363954     
  -3243449428.9062877       -225070102.51319492        1248174946.1337218     
  -3165574907.4842129       -150483126.96072507        1230887119.0082979     
  -3093888684.6377487       -96523813.326965213        1221541581.9940956     
  -3028390760.3669014       -63192161.611919999        1220138335.0911143     
  -2969081134.6716633       -50488171.815580487        1226677378.2993557     
  -3769656066.4293170       -259286032.48411465        1224656145.8520129     
  -3662651184.3713298       -166604850.49643493        1191874061.5894668     
  -3563491705.0653372       -100075011.01540542        1169382070.8351970     
  -3472177628.5113401       -59696514.041023731        1157180173.5892055     
  -3388708954.7093358       -45469359.573286772        1155268369.8514903     
  -1694608294.0956326       -60867794.403548360        1421894039.5780003     
  -1645686399.8896475       -38778600.173320591        1415239131.1814110     
  -1598628041.8797641       -22901193.263430059        1413593476.3825982     
  -1553433220.0659826       -13235573.673880398        1416957075.1815629     
  -1510101934.4483047       -9781741.4046752453        1425329927.5783055     
  -2122030804.3648124       -58187389.230709195        1359990213.1626110     
  -2061453770.3999803       -40013051.880655050        1352313622.4574473     
  -2002195376.6178548       -26234181.806290507        1349496698.7875054     
  -1944255623.0184360       -16850779.007615209        1351539442.1527870     
  -1887634509.6017272       -11862843.484633684        1358441852.5532885     
  -2546855084.5568228       -54727515.034719586        1294917992.7363954     
  -2475050301.0118723       -40596251.618459344        1286855431.7382855     
  -2404019261.6362343       -29044135.433235884        1283502951.2128434     
  -2333761966.4299078       -20071166.479053855        1284860551.1600680     
  -2264278415.3928914       -13677344.755909562        1290928231.5799603     
  -2969081134.6716633       -50488171.815580487        1226677378.2993557     
  -2886475991.7253251       -40528199.386732459        1218864559.0239277     
  -2804099696.9349012       -31331054.144266605        1215612233.6586120     
  -2721952250.3003955       -22896736.088197231        1216920402.2034078     
  -2640033651.8218055       -15225245.218514800        1222789064.6583171     
  -3388708954.7093358       -45469359.573286772        1155268369.8514903     
  -3295730842.5403366       -39808895.185471177        1148341004.3143723     
  -3202436682.5138559       -33094937.939387679        1145824546.1248116     
  -3108826474.6299014       -25327487.835047841        1147718995.2828064     
  -3014900218.8884630       -16506544.872439384        1154024351.7883596     
  -1510101934.4483047       -9781741.4046752453        1425329927.5783055     
  -1462617037.0162811       -7912253.3790857792        1419210793.3387921     
  -1415134819.5120630       -6051698.4461777806        1417393981.0597599     
  -1367655281.9356427       -4200076.6059303880        1419879490.7412052     
  -1320178424.2870252       -2357387.8583615422        1426667322.3831336     
  -1887634509.6017272       -11862843.484633684        1358441852.5532885     
  -1828349465.3823767       -8509268.6009544134        1352530374.4389608     
  -1769350312.7693963       -6108665.7385088205        1351051128.7717667     
  -1710637051.7627838       -4661034.8972890377        1354004115.5517087     
  -1652209682.3625386       -4166376.0772950649        1361389334.7787859     
  -2264278415.3928914       -13677344.755909562        1290928231.5799603     
  -2192822051.5672007       -8728331.1684373617        1284893995.9658198     
  -2121934791.0264435       -5676328.5307538509        1283421903.2854702     
  -2051616633.7706218       -4521336.8428533077        1286511953.5389144     
  -1981867579.7997363       -5263356.1047372818        1294164146.7261448     
  -2640033651.8218055       -15225245.218514800        1222789064.6583171     
  -2556034795.5707526       -8569441.0815386772        1216301657.9193711     
  -2472888254.2832074       -4754686.8229174614        1214506304.6008718     
  -2390594027.9591608       -3780982.4426243305        1217403004.7028193     
  -2309152116.5986152       -5648327.9406803846        1224991758.2252126     
  -3014900218.8884630       -16506544.872439384        1154024351.7883596     
  -2917987697.3930387       -8032598.3402632475        1146753360.2996142     
  -2822210702.5396843       -3343740.6149915457        1144304332.7179699     
  -2727569234.3284011       -2439971.6966211796        1146677269.0434287     
  -2634063292.7591825       -5321291.5851334333        1153872169.2759883     
  -1320178424.2870252       -2357387.8583615422        1426667322.3831336     
  -1270032942.7588789       -471387.74831813574        1418515732.8661244     
  -1220384084.0291100       -240796.96619969606        1415292695.3590093     
  -1171231848.0977221       -1665615.5120167136        1416998209.8617897     
  -1122576234.9647167       -4745843.3857765198        1423632276.3744638     
  -1652209682.3625386       -4166376.0772950649        1361389334.7787859     
  -1589801713.1878228       -3272587.5985798836        1353541981.7398324     
  -1527632061.3783522       -3173190.3373515606        1350427731.4109592     
  -1465700726.9341245       -3868184.2935943604        1352046583.7921660     
  -1404007709.8551426       -5357569.4673296213        1358398538.8834543     
  -1981867579.7997363       -5263356.1047372818        1294164146.7261448     
  -1907755549.5493495       -5529307.2286264896        1286922386.5039048     
  -1833623531.2310688       -5728631.4595386982        1284218279.6919310     
  -1759471524.8449018       -5861328.7974942923        1286051826.2902260     
  -1685299530.3908432       -5927399.2424784899        1292423026.2987859     
  -2309152116.5986152       -5648327.9406803846        1224991758.2252126     
  -2223894451.8434544       -7241546.6384428740        1218656947.1583443     
  -2138358493.5872664       -7907120.3327852488        1216664340.2019293     
  -2052544241.8300514       -7645049.0237010717        1219013937.3559659     
  -1966451696.5718074       -6455332.7111963034        1225705738.6204603     
  -2634063292.7591825       -5321291.5851334333        1153872169.2759883     
  -2538218420.0701404       -8409305.8280340433        1148745663.7031493     
  -2441836948.4469323       -9708656.9570509195        1147765912.9409497     
  -2344918877.8895717       -9219344.9722192287        1150932916.9893909     
  -2247464208.3980441       -6941369.8735060692        1158246675.8484695     
  -1122576234.9647167       -4745843.3857765198        1423632276.3744638     
  -1074584541.0826633       -8421787.5117965937        1418103730.7510767     
  -1026357679.6617833       -11313839.841729522        1416596315.5195484     
  -977895650.70206976       -13422000.375550330        1419110030.6798828     
  -929198454.20352662       -14746269.113270044        1425644876.2320738     
  -1404007709.8551426       -5357569.4673296213        1358398538.8834543     
  -1344873157.3976851       -8131584.4893933535        1353156706.5667982     
  -1285841226.3410563       -11247670.847552180        1352257036.0461395     
  -1226911916.6852417       -14705828.541761339        1355699527.3214786     
  -1168085228.4302573       -18506057.572064459        1363484180.3928218     
  -1685299530.3908432       -5927399.2424784899        1292423026.2987859     
  -1614104886.7747216       -7524315.3856005073        1287073820.1925945     
  -1543350653.4990792       -10589265.996983647        1286387807.2865446     
  -1473036830.5639122       -15122251.076618552        1290364987.5806317     
  -1403163417.9692252       -21123270.624521673        1299005361.0748589     
  -1966451696.5718074       -6455332.7111963034        1225705738.6204603     
  -1882279729.2137671       -6599980.2004008293        1219855071.6284695     
  -1798885961.1358616       -9338625.2900476456        1218988629.2407622     
  -1716270392.3380892       -14671267.980142713        1223106411.4573305     
  -1634433022.8204443       -22597908.270661771        1232208418.2781813     
  -2247464208.3980441       -6941369.8735060692        1158246675.8484695     
  -2149397684.7148294       -5358578.9338177443        1151500460.8744216     
  -2052447149.2513971       -7495748.7267360687        1150059501.9087939     
  -1956612602.0077546       -13352879.252287984        1153923798.9515827     
  -1861894042.9838984       -22929970.510462284        1163093352.0027955     
  -929198454.20352662       -14746269.113270044        1425644876.2320738     
  -876905429.02326095       -15856729.825935304        1416559055.5929248     
  -825417861.87377572       -19652050.641199023        1409834663.7998643     
  -774735752.75506175       -26132231.559039533        1405471700.8528936     
  -724859101.66713738       -35297272.579504162        1403470166.7520170     
  -1168085228.4302573       -18506057.572064459        1363484180.3928218     
  -1108187013.0164223       -22540993.310179412        1356008550.5471313     
  -1048552878.3042777       -27456198.053921282        1352696517.0408866     
  -989182824.29382014       -33251671.803292751        1353548079.8740952     
  -930076850.98504519       -39927414.558270037        1358563239.0467575     
  -1403163417.9692252       -21123270.624521673        1299005361.0748589     
  -1330510962.3407979       -26537966.393794358        1293771528.9065678     
  -1257581210.0849640       -31028340.071718514        1294503460.5710855     
  -1184374161.2017217       -34594391.658270419        1301201156.0684216     
  -1110889815.6910691       -37236121.153470755        1313864615.3985586     
  -1634433022.8204443       -22597908.270661771        1232208418.2781813     
  -1543877276.9963822       -27847649.076765418        1229847990.6712291     
  -1452502857.2158260       -30368476.694545209        1235255494.3904510     
  -1360309763.4787681       -30160391.123994172        1248430929.4358459     
  -1267297995.7852087       -27223392.365102828        1269374295.8074062     
  -1861894042.9838984       -22929970.510462284        1163093352.0027955     
  -1748285956.9831827       -26470041.359114408        1164237935.8411243     
  -1633317819.6968727       -25476607.922449887        1174952618.4989870     
  -1516989631.1249709       -19949670.200473785        1195237399.9763918     
  -1399301391.2674708       -9889228.1931782961        1225092280.2733212     
  -3768385034.8715687       -1130515510.4614706        800602066.96364987     
  -3779218604.9582596       -1008607181.4935770        884890663.96300459     
  -3790668323.0316033       -888752679.14785910        974111281.43784785     
  -3802734189.0916009       -770952003.42431784        1068263919.3881794     
  -3815416203.1382513       -655205154.32295203        1167348577.8139989     
  -4339870610.6739502       -1301961183.2021852        858827307.58259177     
  -4335306613.6024275       -1125647603.0769780        942435356.89930212     
  -4331885899.4590940       -953144966.04574275        1020400610.2105398     
  -4329608468.2439566       -784453272.10847962        1092723067.5163047     
  -4328474319.9570084       -619572521.26518881        1159402728.8165965     
  -4895261342.8815823       -1468578402.8644748        936508497.81865549     
  -4905513540.0260210       -1246923699.9942069        1018821008.6875927     
  -4917436155.0401888       -1030837056.6897070        1084915907.0700965     
  -4931029187.9240875       -820318472.95097482        1134793192.9661660     
  -4946292638.6777153       -615367948.77801073        1168452866.3758016     
  -5434557231.4944668       -1630367169.4483399        1033645637.6718408     
  -5489839384.2290392       -1372435472.2452636        1114047619.3278768     
  -5547319089.7748823       -1121828951.0797510        1167657172.0165174     
  -5606996348.1319923       -878547605.95180213        1194474295.7377632     
  -5668871159.3003740       -642591436.86141801        1194498990.4916139     
  -5957758276.5126009       -1787327482.9537804        1150238727.1421478     
  -6088284146.2114840       -1502182919.8301475        1228115188.8201535     
  -6221534703.6631746       -1226120649.2158754        1268624405.0498030     
  -6357509948.8676739       -959140671.11096239        1271766375.8310962     
  -6496209881.8249807       -701242985.51540995        1237541101.1640329     
  -3815416203.1382513       -655205154.32295203        1167348577.8139989     
  -3798272247.8631716       -537212303.53708935        1189014829.4351320     
  -3784930906.6533232       -431894832.96866417        1205788174.6485116     
  -3775392179.5087047       -339252742.61766994        1217668613.4541388     
  -3769656066.4293170       -259286032.48411465        1224656145.8520129     
  -4328474319.9570084       -619572521.26518881        1159402728.8165965     
  -4298436141.7218914       -463795205.28176272        1141507708.7433674     
  -4278974225.9504414       -343272097.51055562        1129704736.1554048     
  -4270088572.6426554       -258003197.95156765        1123993811.0527091     
  -4271779181.7985344       -207988506.60479546        1124374933.4352806     
  -4946292638.6777153       -615367948.77801073        1168452866.3758016     
  -4871974654.9310760       -412390492.83157635        1103093984.8100359     
  -4815006582.0465393       -267246073.09214401        1054812104.6225569     
  -4775388420.0241032       -179934689.55971265        1023607225.8133638     
  -4753120168.8637667       -150456342.23428154        1009479348.3824575     
  -5668871159.3003740       -642591436.86141801        1194498990.4916139     
  -5518887787.4907284       -382998166.18652940        1073773657.6351378     
  -5393027974.9416199       -203816759.71342468        981110280.04996872     
  -5291291721.6530466       -105047217.44210386        916508857.73610401     
  -5213679027.6250086       -86689539.372570038        879969390.69354665     
  -6496209881.8249807       -701242985.51540995        1237541101.1640329     
  -6239175539.4008465       -375618225.34662199        1053546727.2186728     
  -6013038404.6356831       -152984157.37440228        908599262.43763852     
  -5817798477.5294886       -33340781.598749399        802698706.82092953     
  -5653455758.0822639       -16688098.019662857        735845060.36854625     
  -3769656066.4293170       -259286032.48411465        1224656145.8520129     
  -3662651184.3713298       -166604850.49643493        1191874061.5894668     
  -3563491705.0653372       -100075011.01540542        1169382070.8351970     
  -3472177628.5113401       -59696514.041023731        1157180173.5892055     
  -3388708954.7093358       -45469359.573286772        1155268369.8514903     
  -4271779181.7985344       -207988506.60479546        1124374933.4352806     
  -4149231352.5119381       -143555271.94891882        1090617326.3787560     
  -4031175165.0849514       -94094176.825078964        1065044496.1433016     
  -3917610619.5175743       -59605221.233276606        1047656442.7289180     
  -3808537715.8098149       -40088405.173516273        1038453166.1356038     
  -4753120168.8637667       -150456342.23428154        1009479348.3824575     
  -4621044582.8834343       -116075612.07066822        978658939.57306957     
  -4490106877.8703308       -85487818.464481831        953917990.89754415     
  -4360307053.8244572       -58692961.415726423        935256502.35588241     
  -4231645110.7458105       -35691040.924398184        922674473.94808328     
  -5213679027.6250086       -86689539.372570038        879969390.69354665     
  -5078090875.4858198       -84165870.861682653        855998901.17240667     
  -4940286843.4214773       -74255935.933614254        836002555.09792352     
  -4800266931.4319801       -56959734.588364840        819980352.47009695     
  -4658031139.5173302       -32277266.825936079        807932293.28892529     
  -5653455758.0822639       -16688098.019662857        735845060.36854625     
  -5520370230.3190956       -47826048.321968794        722637211.17676973     
  -5381715061.7383890       -60398529.232478142        711298188.74444151     
  -5237490252.3401480       -54405540.751203060        701827993.07156312     
  -5087695802.1243677       -29847082.878132582        694226624.15813518     
  -3388708954.7093358       -45469359.573286772        1155268369.8514903     
  -3295730842.5403366       -39808895.185471177        1148341004.3143723     
  -3202436682.5138559       -33094937.939387679        1145824546.1248116     
  -3108826474.6299014       -25327487.835047841        1147718995.2828064     
  -3014900218.8884630       -16506544.872439384        1154024351.7883596     
  -3808537715.8098149       -40088405.173516273        1038453166.1356038     
  -3702376100.4498663       -29225448.140554190        1030249658.1825485     
  -3596852825.1132483       -20490291.185350180        1026575823.9568614     
  -3491967889.7999535       -13882934.307900429        1027431663.4585449     
  -3387721294.5099883       -9403377.5082082748        1032817176.6875960     
  -4231645110.7458105       -35691040.924398184        922674473.94808328     
  -4111960659.6811690       -19523791.492168427        912081371.05148244     
  -3993868936.5206609       -8665635.0737159252        906136708.26206374     
  -3877369941.2642851       -3116571.6690387726        904840485.57982481     
  -3762463673.9120440       -2876601.2781395912        908192703.00476670     
  -4658031139.5173302       -32277266.825936079        807932293.28892529     
  -4524484520.2342463       -10703925.240317822        793836142.92117512     
  -4393485016.7360983        2379030.3955094814        784507199.04041576     
  -4265032629.0228891        6971600.0815393925        779945461.64665055     
  -4139127357.0946221        3073783.8177723885        780150930.73987687     
  -5087695802.1243677       -29847082.878132582        694226624.15813518     
  -4939947682.1090879       -2765849.3849914074        675513973.79162455     
  -4795701065.7595615        12643705.222327471        661687296.29191935     
  -4654955953.0757713        16381580.943838596        652746591.65902007     
  -4517712344.0577297        8447777.7795290947        648691859.89292216     
  -3014900218.8884630       -16506544.872439384        1154024351.7883596     
  -2917987697.3930387       -8032598.3402632475        1146753360.2996142     
  -2822210702.5396843       -3343740.6149915457        1144304332.7179699     
  -2727569234.3284011       -2439971.6966211796        1146677269.0434287     
  -2634063292.7591825       -5321291.5851334333        1153872169.2759883     
  -3387721294.5099883       -9403377.5082082748        1032817176.6875960     
  -3279667133.6917486       -5370977.7619042397        1023948153.5358515     
  -3172022606.5063543       -2704023.4584228992        1019852630.5989895     
  -3064787712.9538112       -1402514.5977759361        1020530607.8770076     
  -2957962453.0341120       -1466451.1799490452        1025982085.3699065     
  -3762463673.9120440       -2876601.2781395912        908192703.00476670     
  -3643406341.4630437       -3327288.6253180504        898572523.36745107     
  -3524032749.6376753       -2723778.0512547493        893677380.25279546     
  -3404342898.4359293       -1066069.5559482574        893507273.66079724     
  -3284336787.8578138        1645836.8606035709        898062203.59146094     
  -4139127357.0946221        3073783.8177723885        780150930.73987687     
  -4009205320.7069297       -1901530.9305083752        770626469.79441214     
  -3878241131.9336395       -3403004.3934736252        765778581.67938745     
  -3746234790.7747579       -1430636.5711295605        765607266.39479673     
  -3613186297.2302837        4015572.5365238190        770112523.94064701     
  -4517712344.0577297        8447777.7795290947        648691859.89292216     
  -4377064071.4233999       -1093704.6774764061        640109992.81673360     
  -4234647753.3942561       -4741702.4850928783        636156234.87876379     
  -4090463389.9702992       -2496215.6433327198        636830586.07901120     
  -3944510981.1515231        5642755.8478167057        642133046.41747308     
  -2634063292.7591825       -5321291.5851334333        1153872169.2759883     
  -2538218420.0701404       -8409305.8280340433        1148745663.7031493     
  -2441836948.4469323       -9708656.9570509195        1147765912.9409497     
  -2344918877.8895717       -9219344.9722192287        1150932916.9893909     
  -2247464208.3980441       -6941369.8735060692        1158246675.8484695     
  -2957962453.0341120       -1466451.1799490452        1025982085.3699065     
  -2850529720.7026281       -1974363.7738240957        1020312794.9735112     
  -2743100245.5527310       -2493133.6396538019        1018815079.8801198     
  -2635674027.5844283       -3022760.7774627209        1021488940.0897306     
  -2528251066.7977123       -3563245.1872327328        1028334375.6023434     
  -3284336787.8578138        1645836.8606035709        898062203.59146094     
  -3165245280.1914210        3739300.6235010624        891220296.23646784     
  -3046696885.8223696        4022386.7285946608        888574784.67683840     
  -2928691604.7506628        2495095.1758702993        890125668.91257548     
  -2811229436.9762998       -842574.03465342522        895872948.94367397     
  -3613186297.2302837        4015572.5365238190        770112523.94064701     
  -3482365098.5365229        8731687.3639235497        761468167.49201238     
  -3352626869.2558527        9837904.1476845741        757045027.33110738     
  -3223971609.3882790        7334222.8877940178        756843103.45792496     
  -3096399318.9337955        1220643.5842590332        760862395.87247181     
  -3944510981.1515231        5642755.8478167057        642133046.41747308     
  -3801889175.7379246        13002796.447466135        631056408.74015319     
  -3660890195.8531756        14953418.617629290        624225807.84292042     
  -3521514041.4972692        11494622.358308792        621641243.72577798     
  -3383760712.6702108        2626407.6694991589        623302716.38872516     
  -2247464208.3980441       -6941369.8735060692        1158246675.8484695     
  -2149397684.7148294       -5358578.9338177443        1151500460.8744216     
  -2052447149.2513971       -7495748.7267360687        1150059501.9087939     
  -1956612602.0077546       -13352879.252287984        1153923798.9515827     
  -1861894042.9838984       -22929970.510462284        1163093352.0027955     
  -2528251066.7977123       -3563245.1872327328        1028334375.6023434     
  -2418171083.0850658       -3921454.5739387274        1019474831.7272729     
  -2308493225.8312993       -5620085.4902411699        1014999078.0955901     
  -2199217495.0364084       -8659137.9361348152        1014907114.7072943     
  -2090343890.7003975       -13038611.911623478        1019198941.5623894     
  -2811229436.9762998       -842574.03465342522        895872948.94367397     
  -2691768752.5628800       -3931611.5463540554        885732914.88864005     
  -2571996332.8474302       -5981531.3846160173        879055205.31196475     
  -2451912177.8299565       -6992333.5494570732        875839820.21364379     
  -2331516287.5104461       -6964018.0408511162        876086759.59368575     
  -3096399318.9337955        1220643.5842590332        760862395.87247181     
  -2970190693.1482639       -5389049.8510299921        750274710.35853004     
  -2842956470.2997894       -8580086.4098455906        742227883.55792058     
  -2714696650.3883891       -8352466.0922409296        736721915.47063458     
  -2585411233.4140439       -4706188.8981492519        733756806.09667683     
  -3383760712.6702108        2626407.6694991589        623302716.38872516     
  -3253436904.8412218       -8293769.4879812002        613100218.13693774     
  -3121373638.1883869       -13415750.565968275        604517112.83345211     
  -2987570912.7117119       -12739535.564485669        597553400.47826219     
  -2852028728.4111795       -6265124.4834924936        592209081.07136703     
  -1861894042.9838984       -22929970.510462284        1163093352.0027955     
  -1748285956.9831827       -26470041.359114408        1164237935.8411243     
  -1633317819.6968727       -25476607.922449887        1174952618.4989870     
  -1516989631.1249709       -19949670.200473785        1195237399.9763918     
  -1399301391.2674708       -9889228.1931782961        1225092280.2733212     
  -2090343890.7003975       -13038611.911623478        1019198941.5623894     
  -1956473450.1198552       -10312341.899579763        1014267373.5067433     
  -1822460206.3018594       -7110061.0960235596        1013906054.5712683     
  -1688304159.2464044       -3431769.5009366274        1018114984.7559626     
  -1554005308.9534914        722532.88567411900        1026894164.0608363     
  -2331516287.5104461       -6964018.0408511162        876086759.59368575     
  -2191668777.2053967       -2256992.6247158051        863658916.92123389     
  -2052895711.7110260       -1131449.9108450413        850801473.66959667     
  -1915197091.0273395       -3587389.8992568254        837514429.83876717     
  -1778572915.1543319       -9624812.5899260044        823797785.42875326     
  -2585411233.4140439       -4706188.8981492519        733756806.09667683     
  -2453871938.2398005       -2303993.5345054865        712412566.08459640     
  -2324624335.9243770       -7540774.3669283390        685638875.79396594     
  -2197668426.4677777       -20416531.395427823        653435735.22478402     
  -2073004209.8699865       -40931264.619963765        615803144.37705183     
  -2852028728.4111795       -6265124.4834924936        592209081.07136703     
  -2743082933.2230682       -10453344.628957391        560528320.99683285     
  -2637646078.9419122       -26338034.464266062        518418260.94437999     
  -2535718165.5677214       -53919193.989448547        465878900.91402483     
  -2437299193.1004739       -93196823.204457998        402910240.90575165     
  -5957758276.5126009       -1787327482.9537804        1150238727.1421478     
  -6088284146.2114840       -1502182919.8301475        1228115188.8201535     
  -6221534703.6631746       -1226120649.2158754        1268624405.0498030     
  -6357509948.8676739       -959140671.11096239        1271766375.8310962     
  -6496209881.8249807       -701242985.51540995        1237541101.1640329     
  -6810326102.8303204       -2043097830.8490963        1353962402.7011490     
  -6828342885.5937500       -1395455511.5174668        1202918600.4904881     
  -6897709772.7227335       -918980206.73768592        1092134166.8613019     
  -7018426764.2172747       -613671916.50975323        1021609101.8135905     
  -7190493860.0773649       -479530640.83366728        991343405.34735322     
  -8337722335.3419552       -2501316700.6025867        1712491300.8204167     
  -8021439705.3704166       -1424639527.3231058        1275797582.0062182     
  -7805132596.3771763       -681214090.63796067        956989845.80332541     
  -7688801008.3622379       -271040390.54715300        756068092.21173799     
  -7672444941.3256006       -194118427.05068159        673032321.23145652     
  -10539946974.047506       -3161984092.2142520        2225825421.4999509     
  -9667574605.5414791       -1589734967.2470639        1446752133.3673437     
  -8943803174.6264992       -512822300.91670084        863191441.87587333     
  -8368632681.3025694        68753906.776837349        475143347.02553999     
  -7942063125.5696812        154993655.83355045        282607848.81634223     
  -13417000018.946974       -4025100005.6840920        2893964764.7397513     
  -11766747586.106941       -1890741831.2893424        1715782254.5738649     
  -10313721507.470705       -413804837.57390499        810738955.07894659     
  -9057921783.0382614        405710975.46221733        178834866.25499448     
  -7999348412.8096113        567805607.81902933       -179930011.89798903     
  -6496209881.8249807       -701242985.51540995        1237541101.1640329     
  -6239175539.4008465       -375618225.34662199        1053546727.2186728     
  -6013038404.6356831       -152984157.37440228        908599262.43763852     
  -5817798477.5294886       -33340781.598749399        802698706.82092953     
  -5653455758.0822639       -16688098.019662857        735845060.36854625     
  -7190493860.0773649       -479530640.83366728        991343405.34735322     
  -6900302158.3796492       -304053777.76454282        847187829.72790301     
  -6622941924.9807510       -171348475.69148254        724140520.63911355     
  -6358413159.8806715       -81414734.614487410        622201478.08098543     
  -6106715863.0794115       -34252554.533558369        541370702.05351663     
  -7672444941.3256006       -194118427.05068159        673032321.23145652     
  -7400349145.0219116       -184165440.48150063        589792239.85809207     
  -7123019077.6568947       -156764883.70788527        509721782.38172251     
  -6840454739.2305479       -111916756.72983432        432820948.80234897     
  -6552656129.7428656       -49621059.547348976        359089739.11997122     
  -7942063125.5696812        154993655.83355045        282607848.81634223     
  -7739316499.3276405       -15953213.497500896        281359957.60923892     
  -7513269862.6641140       -109233381.42361021        265343047.66546616     
  -7263923215.5791101       -124846847.94478846        234557118.98502424     
  -6991276558.0726233       -62793613.061027050        189002171.56790912     
  -7999348412.8096113        567805607.81902933       -179930011.89798903     
  -7917204221.2968264        200582903.18746662       -78109017.018656328     
  -7793694280.0024109       -28753968.838660240       -8995683.5096591506     
  -7628818588.9263659       -120205008.25934935        27409988.629004996     
  -7422577148.0686865       -73770215.074601173        31107999.397334851     
  -5653455758.0822639       -16688098.019662857        735845060.36854625     
  -5520370230.3190956       -47826048.321968794        722637211.17676973     
  -5381715061.7383890       -60398529.232478142        711298188.74444151     
  -5237490252.3401480       -54405540.751203060        701827993.07156312     
  -5087695802.1243677       -29847082.878132582        694226624.15813518     
  -6106715863.0794115       -34252554.533558369        541370702.05351663     
  -5958917090.3647823       -35897213.218468428        535062248.27018923     
  -5809915826.1907902       -33533567.038847208        531396704.23990870     
  -5659712070.5574398       -27161615.994693518        530374069.96267587     
  -5508305823.4647312       -16781360.086007595        531994345.43849015     
  -6552656129.7428656       -49621059.547348976        359089739.11997122     
  -6387932446.3807764       -21108926.906062126        354585673.16055220     
  -6226373420.9175053       -3145653.9275097847        353498599.94777697     
  -6067979053.3530521        4268759.3883190155        355828519.48164809     
  -5912749343.6874208        1134313.0414137840        361575431.76216596     
  -6991276558.0726233       -62793613.061027050        189002171.56790912     
  -6807416298.3670835       -3461189.3847560883        181207485.84785673     
  -6631087845.9185371        30765210.101537228        177603875.86804742     
  -6462291200.7269859        39885585.397832870        178191341.62848371     
  -6301026362.7924385        23899936.504140377        182969883.12915820     
  -7422577148.0686865       -73770215.074601173        31107999.397334851     
  -7217368646.3236980        17045999.345468998        14927686.332106795     
  -7024059101.1938829        68199025.048281193        3712532.0007207729     
  -6842648512.6792459        79688862.033847809       -2537463.5968211335     
  -6673136880.7797785        51515510.302168846       -3822300.4605251700     
  -5087695802.1243677       -29847082.878132582        694226624.15813518     
  -4939947682.1090879       -2765849.3849914074        675513973.79162455     
  -4795701065.7595615        12643705.222327471        661687296.29191935     
  -4654955953.0757713        16381580.943838596        652746591.65902007     
  -4517712344.0577297        8447777.7795290947        648691859.89292216     
  -5508305823.4647312       -16781360.086007595        531994345.43849015     
  -5352115681.5387955       -5590280.6941704750        516150278.58398753     
  -5197539687.0942945        220307.09287452698        505581060.50964087     
  -5044577840.1312275        650403.27513837814        500286691.21545458     
  -4893230140.6496029       -4299992.1473903656        500267170.70142645     
  -5912749343.6874208        1134313.0414137840        361575431.76216596     
  -5747006105.8126707       -3231439.4566028118        350801863.96802968     
  -5580989659.2350492       -6686496.2783849239        345692020.86740422     
  -5414700003.9545536       -9230857.4239203930        346245902.46029007     
  -5248137139.9711876       -10864522.893219471        352463508.74668628     
  -6301026362.7924385        23899936.504140377        182969883.12915820     
  -6124618954.9307232        4310674.3277041912        179468729.94374982     
  -5946050982.1818247       -8076704.8914484978        182020177.36520517     
  -5765322444.5457487       -13262201.153344870        190624225.39352623     
  -5582433342.0224905       -11245814.457963943        205280874.02870831     
  -6673136880.7797785        51515510.302168846       -3822300.4605251700     
  -6484954228.8929453        17036060.658775806        2150876.5111522428     
  -6292723655.9346256       -3950318.7463295460        14565530.003044907     
  -6096445161.9048147       -11443627.913121700        33421660.015161552     
  -5896118746.8035135       -5443866.8416244984        58719266.547492012     
  -4517712344.0577297        8447777.7795290947        648691859.89292216     
  -4377064071.4233999       -1093704.6774764061        640109992.81673360     
  -4234647753.3942561       -4741702.4850928783        636156234.87876379     
  -4090463389.9702992       -2496215.6433327198        636830586.07901120     
  -3944510981.1515231        5642755.8478167057        642133046.41747308     
  -4893230140.6496029       -4299992.1473903656        500267170.70142645     
  -4740915809.2761440       -9582645.0526895523        500000135.84659934     
  -4587397603.2016716       -10852382.287952185        503096076.37172198     
  -4432675522.4262009       -8109203.8532156944        509554992.27679986     
  -4276749566.9497204       -1353109.7484469414        519376883.56182396     
  -5248137139.9711876       -10864522.893219471        352463508.74668628     
  -5087771417.7393532       -12972746.611029625        359853106.97044510     
  -4926765991.5003271       -12948623.638193130        369340546.81588888     
  -4765120861.2541056       -10792153.974698305        380925828.28301758     
  -4602836027.0006771       -6503337.6205389500        394608951.37183148     
  -5582433342.0224905       -11245814.457963943        205280874.02870831     
  -5417630896.8130512       -11264009.352534294        219668906.18827567     
  -5252752918.2902193       -11030426.535800219        234889646.21125993     
  -5087799406.4540024       -10545066.007787466        250943094.09766722     
  -4922770361.3043919       -9807927.7684497833        267829249.84749103     
  -5896118746.8035135       -5443866.8416244984        58719266.547492012     
  -5730494246.4972181       -4456433.2771680355        79447533.500091329     
  -5565358383.5713444       -5097790.9807729721        99743374.557840198     
  -5400711158.0258904       -7367939.9524512291        119606789.72075339     
  -5236552569.8608589       -11266880.192203283        139037778.98880890     
  -3944510981.1515231        5642755.8478167057        642133046.41747308     
  -3801889175.7379246        13002796.447466135        631056408.74015319     
  -3660890195.8531756        14953418.617629290        624225807.84292042     
  -3521514041.4972692        11494622.358308792        621641243.72577798     
  -3383760712.6702108        2626407.6694991589        623302716.38872516     
  -4276749566.9497204       -1353109.7484469414        519376883.56182396     
  -4122726589.3217053        4779015.8286888599        509064879.85933858     
  -3969942481.0143166        6781577.0037343502        503560336.85458845     
  -3818397242.0275602        4654573.7766635418        502863254.54757869     
  -3668090872.3614302       -1601993.8524873257        506973632.93830293     
  -4602836027.0006771       -6503337.6205389500        394608951.37183148     
  -4435807808.8221064       -1117906.5650711060        385509530.55376661     
  -4269634503.7559443        1417814.1156764030        381778994.35108292     
  -4104316111.8021927        1103824.4217264652        383417342.76378733     
  -3939852632.9608545       -2059875.6469235420        390424575.79187828     
  -4922770361.3043919       -9807927.7684497833        267829249.84749103     
  -4741132834.2391214       -4687970.7338187695        260390360.82343638     
  -4559966264.0780458       -1137870.0465021133        258881780.33240035     
  -4379270650.8211603        842374.29350996017        263303508.37440610     
  -4199045994.4684801        1252762.2861723900        273655544.94944662     
  -5236552569.8608589       -11266880.192203283        139037778.98880890     
  -5038701665.5727568       -5931176.6775557995        133707370.66833407     
  -4840937761.9806309       -885475.48284554482        134868694.79855379     
  -4643260859.0844822        3870223.3919358253        142521751.37944174     
  -4445670956.8843145        8335919.9468023777        156666540.41101611     
  -3383760712.6702108        2626407.6694991589        623302716.38872516     
  -3253436904.8412218       -8293769.4879812002        613100218.13693774     
  -3121373638.1883869       -13415750.565968275        604517112.83345211     
  -2987570912.7117119       -12739535.564485669        597553400.47826219     
  -2852028728.4111795       -6265124.4834924936        592209081.07136703     
  -3668090872.3614302       -1601993.8524873257        506973632.93830293     
  -3530321454.9747462       -11538559.941832304        504069429.29727417     
  -3391259704.1639376       -17167347.950755835        505046237.50583893     
  -3250905619.9290028       -18488357.879259944        509904057.56399727     
  -3109259202.2699389       -15501589.727336884        518642889.47174275     
  -3939852632.9608545       -2059875.6469235420        390424575.79187828     
  -3788175837.7270679       -9074300.1813275814        394297020.46194100     
  -3635653834.4688692       -13271364.634353638        404312095.88288450     
  -3482286623.1862683       -14651069.006039381        420469802.05471438     
  -3328074203.8792534       -13213413.296349764        442770138.97742993     
  -4199045994.4684801        1252762.2861723900        273655544.94944662     
  -4027000053.0981817       -900990.20645284653        283782991.63091964     
  -3854556029.1031861       -1727800.6167790890        302314687.96457809     
  -3681713922.4835072       -1227668.9448108673        329250633.95041054     
  -3508473733.2391300        599404.80947661400        364590829.58842778     
  -4445670956.8843145        8335919.9468023777        156666540.41101611     
  -4246794101.0880876        12981369.982771158        172527342.80423254     
  -4047966288.0668774        17463344.102013350        199054013.75092605     
  -3849187517.8207159        21781842.304429054        236246553.25109872     
  -3650457790.3495669        25936864.590134859        284104961.30473280     
  -2852028728.4111795       -6265124.4834924936        592209081.07136703     
  -2743082933.2230682       -10453344.628957391        560528320.99683285     
  -2637646078.9419122       -26338034.464266062        518418260.94437999     
  -2535718165.5677214       -53919193.989448547        465878900.91402483     
  -2437299193.1004739       -93196823.204457998        402910240.90575165     
  -3109259202.2699389       -15501589.727336884        518642889.47174275     
  -3007571947.6065483       -26373814.347936988        505295877.05032128     
  -2908410813.5368185       -45666440.947426081        498337134.46667475     
  -2811775800.0607686       -73379469.525832772        497766661.72080308     
  -2717666907.1783848       -109512900.08313978        503584458.81270885     
  -3328074203.8792534       -13213413.296349764        442770138.97742993     
  -3185595290.2671905       -16354582.550063372        448903497.90795273     
  -3044659676.9355049       -24640086.071720719        478242696.49193680     
  -2905267363.8842092       -38069923.861338496        530787734.72938949     
  -2767418351.1133046       -56644095.918910742        606538612.62029040     
  -3508473733.2391300        599404.80947661400        364590829.58842778     
  -3277152961.2050014        19604350.764665365        391351183.56972456     
  -3046392669.1379714        36741030.162864566        458134947.02017754     
  -2816192857.0380445        52009443.004045844        564942119.93977845     
  -2586553524.9052176        65409589.288230062        711772702.32851052     
  -3650457790.3495669        25936864.590134859        284104961.30473280     
  -3282244960.4199901        81502985.596247435        332638934.03564334     
  -2913609790.1442242        138476907.75630367        438013886.05138236     
  -2544552279.5222917        196858631.07028055        600229817.35196650     
  -2175072428.5541544        256648155.53823078        819286727.93737304     
 </DataArray>
 <DataArray  type="Float64" Name="VM" NumberOfComponents="1" format="ascii">
   12935905413.500906     
   11340859657.816004     
   10210196417.783407     
   9272615189.2541027     
   8303684578.2333918     
   10130369063.518980     
   9321998166.9575996     
   8826285663.4503384     
   8443423467.4029665     
   8035605809.0074577     
   7982280013.9180307     
   7734882744.3906126     
   7669072295.5320997     
   7669554425.7650690     
   7666397322.8533115     
   6491553777.8310747     
   6586801455.3260031     
   6757391293.2240238     
   6961246406.3509083     
   7171706540.0047703     
   5657747387.2627287     
   5890911785.5682983     
   6116431752.8705616     
   6331848573.6873159     
   6536940176.4436455     
   8303684578.2333918     
   8020518377.4723673     
   7779372752.2412186     
   7569580832.3535442     
   7386164871.0058317     
   8035605809.0074577     
   7746695920.7537756     
   7473397947.2005415     
   7213760490.1525679     
   6967786511.7249174     
   7666397322.8533115     
   7381040609.3022919     
   7101041165.9435358     
   6826476896.3318443     
   6557549175.7280893     
   7171706540.0047703     
   6910986709.3323812     
   6658154964.2456656     
   6409351121.8349066     
   6161430676.5408382     
   6536940176.4436455     
   6328880986.6463537     
   6143028020.7859840     
   5965475374.2935266     
   5787218585.3324480     
   7386164871.0058317     
   7225952981.8511391     
   7058408654.5338039     
   6882840348.6274471     
   6699046477.1727505     
   6967786511.7249174     
   6812919736.2063036     
   6653638759.6904745     
   6489669265.1499910     
   6320959778.8066788     
   6557549175.7280893     
   6406908546.3991060     
   6254840815.0659008     
   6101322195.8105068     
   5946387419.0905266     
   6161430676.5408382     
   6012898453.2924204     
   5865881566.8258018     
   5720423189.7583790     
   5576587817.3730774     
   5787218585.3324480     
   5637319481.2670307     
   5491747685.0054312     
   5350420841.2600708     
   5213399880.4429932     
   6699046477.1727505     
   6493490093.4179029     
   6290800012.5771646     
   6091006488.9716425     
   5894276199.9371033     
   6320959778.8066788     
   6134656000.8999929     
   5950374530.1130457     
   5768160077.6434116     
   5588141924.4499817     
   5946387419.0905266     
   5777430600.8905172     
   5609695352.6215038     
   5443228612.8939047     
   5278137419.5307636     
   5576587817.3730774     
   5423512422.7259235     
   5270901303.4271755     
   5118779874.8933582     
   4967240752.6297407     
   5213399880.4429932     
   5075271911.5341015     
   4936905333.3893023     
   4798267732.5962992     
   4659438198.9732065     
   5894276199.9371033     
   5729919903.8614807     
   5565493223.5664368     
   5401005479.4895706     
   5236468682.8916283     
   5588141924.4499817     
   5425365459.3728580     
   5262994781.8601475     
   5101086150.1293993     
   4939704372.3076229     
   5278137419.5307636     
   5119381476.7336788     
   4961716760.6399460     
   4805245121.8821774     
   4650092086.7807274     
   4967240752.6297407     
   4814659331.7401085     
   4664104126.1102076     
   4515713820.2721481     
   4369674880.6344175     
   4659438198.9732065     
   4514767582.6293955     
   4373358990.4482355     
   4235368428.1142173     
   4101031685.4959202     
   5236468682.8916283     
   5041061135.3698730     
   4846128561.9710464     
   4651751856.4917974     
   4458110954.3394260     
   4939704372.3076229     
   4760204377.4526272     
   4581393311.8886490     
   4403372344.4547539     
   4226335556.3883862     
   4650092086.7807274     
   4485229769.5378284     
   4321238257.3776016     
   4158241127.2534900     
   3996451162.5275817     
   4369674880.6344175     
   4218298345.3161530     
   4067939370.2328019     
   3918745531.6045189     
   3770952644.4371243     
   4101031685.4959202     
   3962153690.6221867     
   3824402802.5997190     
   3687951337.5903077     
   3553061961.2887316     
   4458110954.3394260     
   4263784220.9501867     
   4071350510.7343240     
   3881752001.4158921     
   3696395892.0716391     
   4226335556.3883862     
   4056439449.1292577     
   3889103787.0712957     
   3725012383.7101173     
   3565146691.6796780     
   3996451162.5275817     
   3844787947.3187966     
   3695985683.1716304     
   3550478941.4016366     
   3408872860.2308559     
   3770952644.4371243     
   3631091588.7664509     
   3493985365.4576902     
   3359856007.1974106     
   3229010203.0550070     
   3553061961.2887316     
   3418422583.1966457     
   3285970322.8957534     
   3155771346.1623850     
   3027932375.0008945     
   3696395892.0716391     
   3373311583.1250186     
   3080150965.6941404     
   2845213287.1761794     
   2714538978.7495337     
   3565146691.6796780     
   3356162669.2737699     
   3165982501.3184395     
   3006258368.4799104     
   2895440745.3554416     
   3408872860.2308559     
   3271196680.7034369     
   3143514663.4046741     
   3029294774.5975456     
   2934061359.0513945     
   3229010203.0550070     
   3119749134.0498118     
   3012165297.4848776     
   2906622191.0313187     
   2803725019.9663644     
   3027932375.0008945     
   2904912160.4662385     
   2773927060.5121574     
   2635749832.5219364     
   2491780730.6848741     
   5657747387.2627287     
   5890911785.5682983     
   6116431752.8705616     
   6331848573.6873159     
   6536940176.4436455     
   5151451798.5509529     
   5311381324.7734613     
   5467940740.1238413     
   5618233463.8904734     
   5760793298.3446560     
   4643530505.6003942     
   4755635546.9399300     
   4868865939.8838625     
   4980584673.3369150     
   5088864797.5110540     
   4134245977.0599475     
   4224510820.0761127     
   4320701071.6232071     
   4421157314.7178288     
   4524422655.0943136     
   3625115773.2990170     
   3719829182.6435928     
   3825801798.1315002     
   3942967431.6347885     
   4071231059.4866323     
   6536940176.4436455     
   6328880986.6463537     
   6143028020.7859840     
   5965475374.2935266     
   5787218585.3324480     
   5760793298.3446560     
   5652438032.5485229     
   5560111030.9006586     
   5474754149.6963596     
   5390828419.2342033     
   5088864797.5110540     
   5054453081.0438919     
   5030586743.2405043     
   5012062278.9309549     
   4995677836.9657784     
   4524422655.0943136     
   4539513710.9993916     
   4559309385.9631157     
   4581332975.0082607     
   4603860619.6067286     
   4071231059.4866323     
   4112938041.9513102     
   4152025816.3426967     
   4187602767.6437235     
   4218941214.5397410     
   5787218585.3324480     
   5637319481.2670307     
   5491747685.0054312     
   5350420841.2600708     
   5213399880.4429932     
   5390828419.2342033     
   5250227733.3453846     
   5112905556.0299816     
   4978904338.5117340     
   4848320446.2766523     
   4995677836.9657784     
   4868722211.4055805     
   4744933835.2162580     
   4624274786.8641148     
   4506777886.6161461     
   4603860619.6067286     
   4495489223.9392910     
   4391227181.4735174     
   4290742100.2786255     
   4193929344.4635534     
   4218941214.5397410     
   4134518927.9506378     
   4056382003.8489733     
   3983654368.8637333     
   3916027125.3062596     
   5213399880.4429932     
   5075271911.5341015     
   4936905333.3893023     
   4798267732.5962992     
   4659438198.9732065     
   4848320446.2766523     
   4723682087.4628735     
   4599948167.0930185     
   4477190061.2025347     
   4355572752.6708775     
   4506777886.6161461     
   4395906943.8207970     
   4287155929.7187195     
   4180685612.5733824     
   4076733991.0261574     
   4193929344.4635534     
   4096886913.2460241     
   4003204126.8205733     
   3913106330.4554729     
   3826881482.9535003     
   3916027125.3062596     
   3832530274.2066145     
   3753592035.2120156     
   3679467539.1788492     
   3610463505.1199594     
   4659438198.9732065     
   4514767582.6293955     
   4373358990.4482355     
   4235368428.1142173     
   4101031685.4959202     
   4355572752.6708775     
   4224654159.5778022     
   4097172028.5433202     
   3973333734.9049435     
   3853421858.7133675     
   4076733991.0261574     
   3960378250.7508988     
   3847751716.7971401     
   3739115949.9477897     
   3634807197.3194070     
   3826881482.9535003     
   3726129324.5981035     
   3629525535.8713684     
   3537382564.5623255     
   3450090436.5189991     
   3610463505.1199594     
   3526529090.3429794     
   3447280792.2011299     
   3373068481.1911464     
   3304325069.6097260     
   4101031685.4959202     
   3962153690.6221867     
   3824402802.5997190     
   3687951337.5903077     
   3553061961.2887316     
   3853421858.7133675     
   3727848031.8608375     
   3604516316.3960690     
   3483694355.8640318     
   3365739812.7435107     
   3634807197.3194070     
   3523272373.8939934     
   3415161557.1851368     
   3310818506.3844929     
   3210670956.3734231     
   3450090436.5189991     
   3353059831.5902333     
   3260631660.6930208     
   3173190628.5678148     
   3091192691.2776332     
   3304325069.6097260     
   3221820723.0014896     
   3145004765.7979650     
   3074256158.5115056     
   3010008215.1296272     
   3553061961.2887316     
   3418422583.1966457     
   3285970322.8957534     
   3155771346.1623850     
   3027932375.0008945     
   3365739812.7435107     
   3239566605.3395319     
   3116213929.7725210     
   2995872369.7151237     
   2878785119.7810216     
   3210670956.3734231     
   3096549686.4896336     
   2986307215.8151336     
   2880288889.4531283     
   2778914243.6010551     
   3091192691.2776332     
   2992669534.6068039     
   2899459973.8639274     
   2812063067.9216409     
   2731071566.8210750     
   3010008215.1296272     
   2930235750.0316529     
   2857467677.0029092     
   2792311784.2196541     
   2735478059.2392192     
   3027932375.0008945     
   2904912160.4662385     
   2773927060.5121574     
   2635749832.5219364     
   2491780730.6848741     
   2878785119.7810216     
   2745620888.4607568     
   2607049487.9316087     
   2462971393.9452314     
   2313397904.5014205     
   2778914243.6010551     
   2652581906.3873801     
   2526588324.6220264     
   2401127452.3129478     
   2276449786.0203905     
   2731071566.8210750     
   2625630181.5222931     
   2528333548.3245869     
   2440135951.1255741     
   2362115829.7665892     
   2735478059.2392192     
   2660315236.5325198     
   2601596827.6839414     
   2560697203.1134686     
   2539066510.4851937     
   3625115773.2990170     
   3719829182.6435928     
   3825801798.1315002     
   3942967431.6347885     
   4071231059.4866323     
   3138098723.5536318     
   3255644827.4745569     
   3382615821.4777284     
   3518541844.4412951     
   3662964365.6812816     
   2694845833.8316045     
   2830617825.0680318     
   2973709681.5744262     
   3123040091.6511130     
   3277698749.9955354     
   2298846785.9310884     
   2449538914.1527076     
   2604961026.1223278     
   2763193432.9743385     
   2922808511.0348234     
   1955313825.0444047     
   2119362306.8327048     
   2284774884.0386629     
   2448596499.0546308     
   2608872859.1532707     
   4071231059.4866323     
   4112938041.9513102     
   4152025816.3426967     
   4187602767.6437235     
   4218941214.5397410     
   3662964365.6812816     
   3702588052.3475294     
   3740837715.5565376     
   3776818048.7163448     
   3809782059.7325716     
   3277698749.9955354     
   3321076478.2115860     
   3364675893.4574647     
   3407673737.1018176     
   3449391443.7104478     
   2922808511.0348234     
   2975788781.4899626     
   3030941751.7223907     
   3087581238.4827504     
   3145171220.1342082     
   2608872859.1532707     
   2676783214.8740501     
   2749120853.1567931     
   2825371003.7898440     
   2905176618.5112853     
   4218941214.5397410     
   4134518927.9506378     
   4056382003.8489733     
   3983654368.8637333     
   3916027125.3062596     
   3809782059.7325716     
   3756646557.9399166     
   3709355958.3968048     
   3667422251.7706580     
   3630743801.0421619     
   3449391443.7104478     
   3423041147.0188017     
   3401729618.4865775     
   3385222332.0239625     
   3373502737.0080876     
   3145171220.1342082     
   3141343155.7340670     
   3141165390.3239136     
   3144538727.0879755     
   3151451290.6663995     
   2905176618.5112853     
   2919895606.7649574     
   2936104335.2779274     
   2953754065.6755271     
   2972810638.9456673     
   3916027125.3062596     
   3832530274.2066145     
   3753592035.2120156     
   3679467539.1788492     
   3610463505.1199594     
   3630743801.0421619     
   3559957153.6312304     
   3494172378.1812439     
   3433643868.1116576     
   3378676296.9303889     
   3373502737.0080876     
   3315876200.5248866     
   3263812026.9435167     
   3217546625.1783934     
   3177367071.5857387     
   3151451290.6663995     
   3107243799.0180192     
   3069262547.7772942     
   3037701136.4286766     
   3012806796.7563653     
   2972810638.9456673     
   2941882982.2115245     
   2917921368.5582557     
   2901046602.4675369     
   2891440519.1099944     
   3610463505.1199594     
   3526529090.3429794     
   3447280792.2011299     
   3373068481.1911464     
   3304325069.6097260     
   3378676296.9303889     
   3309025933.3224616     
   3244767756.2226386     
   3186240037.6195526     
   3133845414.8992472     
   3177367071.5857387     
   3121259803.3716884     
   3071174047.7891960     
   3027410490.4763837     
   2990314055.0422835     
   3012806796.7563653     
   2969072496.0786028     
   2931867486.7359157     
   2901432232.6976328     
   2878032888.4919486     
   2891440519.1099944     
   2858359047.4894142     
   2832154012.4495215     
   2812992662.7480259     
   2801053991.4172187     
   3304325069.6097260     
   3221820723.0014896     
   3145004765.7979650     
   3074256158.5115056     
   3010008215.1296272     
   3133845414.8992472     
   3063499463.7153349     
   2999424588.7359376     
   2941987368.5540814     
   2891598824.5399890     
   2990314055.0422835     
   2932152974.8105545     
   2880859914.9281511     
   2836767462.0568638     
   2800241455.2610946     
   2878032888.4919486     
   2831696527.7220082     
   2792809984.0894504     
   2761650592.4862576     
   2738518607.1253476     
   2801053991.4172187     
   2765672784.6619754     
   2738284833.7306547     
   2719096881.6970015     
   2708331403.1740909     
   3010008215.1296272     
   2930235750.0316529     
   2857467677.0029092     
   2792311784.2196541     
   2735478059.2392192     
   2891598824.5399890     
   2827496557.5338659     
   2770754139.8782787     
   2721871967.3625846     
   2681409971.0719490     
   2800241455.2610946     
   2750076939.2183552     
   2707412220.9351482     
   2672623337.0150275     
   2646113850.9851480     
   2738518607.1253476     
   2700169081.0108552     
   2669241163.7991982     
   2645987430.7572703     
   2630668285.4744844     
   2708331403.1740909     
   2679329642.4565349     
   2657472681.4478493     
   2642906375.8961558     
   2635775870.2243905     
   2735478059.2392192     
   2660315236.5325198     
   2601596827.6839414     
   2560697203.1134686     
   2539066510.4851937     
   2681409971.0719490     
   2622769029.7045012     
   2577623980.8178525     
   2546775459.0817699     
   2531051198.7607703     
   2646113850.9851480     
   2599459344.6511555     
   2563331965.1214781     
   2538176647.0796061     
   2524444471.2318249     
   2630668285.4744844     
   2592273989.1094508     
   2561404260.8018064     
   2538301504.2708368     
   2523209306.5039062     
   2635775870.2243905     
   2602926879.0639801     
   2574564302.2512255     
   2550824472.4397106     
   2531850574.3833833     
   1955313825.0444047     
   2119362306.8327048     
   2284774884.0386629     
   2448596499.0546308     
   2608872859.1532707     
   1653761663.1460660     
   1820203015.0561144     
   1988337002.4620557     
   2155470932.5488067     
   2319849693.5914841     
   1393543683.1352065     
   1570895742.6454091     
   1749236223.5250325     
   1926563626.2617807     
   2101629334.0628295     
   1206975113.8063610     
   1398874009.8967340     
   1590322253.7826884     
   1780543796.0577810     
   1969080655.1160753     
   1136736562.1384513     
   1335005453.6985931     
   1533541560.0642037     
   1732344881.2352827     
   1931415417.2118301     
   2608872859.1532707     
   2676783214.8740501     
   2749120853.1567931     
   2825371003.7898440     
   2905176618.5112853     
   2319849693.5914841     
   2406810534.8838282     
   2496161329.9838219     
   2587509619.5931644     
   2680578340.8061976     
   2101629334.0628295     
   2205273938.0413995     
   2308809661.2331152     
   2411999288.2224588     
   2514675540.5916624     
   1969080655.1160753     
   2086134544.5416303     
   2200352419.6065230     
   2311659016.4510303     
   2420002088.9462805     
   1931415417.2118301     
   2057978635.0427744     
   2179170361.8279853     
   2294990597.5674629     
   2405439342.2612076     
   2905176618.5112853     
   2919895606.7649574     
   2936104335.2779274     
   2953754065.6755271     
   2972810638.9456673     
   2680578340.8061976     
   2702232555.8161979     
   2726356789.9325762     
   2752937463.0241375     
   2781969763.9313922     
   2514675540.5916624     
   2543081862.6128149     
   2574957334.1419840     
   2610305097.6818185     
   2649132038.6358404     
   2420002088.9462805     
   2453540843.2254972     
   2491542529.4367023     
   2534010780.3586402     
   2580950004.4599385     
   2405439342.2612076     
   2440981448.4081898     
   2481967420.2658658     
   2528397257.8342357     
   2580270961.1132989     
   2972810638.9456673     
   2941882982.2115245     
   2917921368.5582557     
   2901046602.4675369     
   2891440519.1099944     
   2781969763.9313922     
   2765341112.1032190     
   2755657092.3797722     
   2752998775.4652505     
   2757480124.0063200     
   2649132038.6358404     
   2644119887.7550535     
   2645777536.5168180     
   2654143370.5221729     
   2669269241.5873337     
   2580950004.4599385     
   2584286626.1910057     
   2593767616.3887105     
   2609402075.2766776     
   2631202151.1489263     
   2580270961.1132989     
   2588395667.3821993     
   2601932038.1894116     
   2620880073.5349355     
   2645239773.4187713     
   2891440519.1099944     
   2858359047.4894142     
   2832154012.4495215     
   2812992662.7480259     
   2801053991.4172187     
   2757480124.0063200     
   2733750812.9319587     
   2717342311.0525608     
   2708364924.5123591     
   2706934400.5283465     
   2669269241.5873337     
   2652987173.8359628     
   2644389199.3975115     
   2643530385.5332594     
   2650467524.5271502     
   2631202151.1489263     
   2619810196.0689979     
   2616384238.1173501     
   2620939050.4185529     
   2633489678.0588222     
   2645239773.4187713     
   2635708804.5875292     
   2634355773.7008715     
   2641180680.7588005     
   2656183525.7613120     
   2801053991.4172187     
   2765672784.6619754     
   2738284833.7306547     
   2719096881.6970015     
   2708331403.1740909     
   2706934400.5283465     
   2682188182.5393825     
   2665574886.9784780     
   2657219265.0756721     
   2657252398.0772667     
   2650467524.5271502     
   2633935948.1121311     
   2625562941.0661068     
   2625405742.0901804     
   2633523352.0706697     
   2633489678.0588222     
   2622344392.3080325     
   2619296030.9883018     
   2624358837.8936572     
   2637547305.7201185     
   2656183525.7613120     
   2647390500.3340611     
   2646575305.3613801     
   2653737940.8432703     
   2668878406.7797298     
   2708331403.1740909     
   2679329642.4565349     
   2657472681.4478493     
   2642906375.8961558     
   2635775870.2243905     
   2657252398.0772667     
   2636393279.6499600     
   2623249683.7913671     
   2617916343.9842882     
   2620485418.6576080     
   2633523352.0706697     
   2619188750.9362464     
   2613114567.9586020     
   2615347952.3714805     
   2625933858.2706242     
   2637547305.7201185     
   2627636667.2844238     
   2626533616.3388023     
   2634251027.0849996     
   2650800980.2542148     
   2668878406.7797298     
   2660927301.7785368     
   2662364107.3875608     
   2673188823.6067944     
   2693401450.4362388     
   2635775870.2243905     
   2602926879.0639801     
   2574564302.2512255     
   2550824472.4397106     
   2531850574.3833833     
   2620485418.6576080     
   2599121278.5506868     
   2584557309.7823277     
   2576902265.0904655     
   2576263019.1559081     
   2625933858.2706242     
   2615082116.2301211     
   2613243347.1211667     
   2620479717.9433742     
   2636848455.0996323     
   2650800980.2542148     
   2648441081.5417385     
   2657268169.1194649     
   2677300958.9090223     
   2708555593.6355791     
   2693401450.4362388     
   2696649925.1998835     
   2713337368.8001709     
   2743463781.2370934     
   2787029162.5106583     
   1136736562.1384513     
   1335005453.6985931     
   1533541560.0642037     
   1732344881.2352827     
   1931415417.2118301     
   1206975114.2942297     
   1398874010.1269255     
   1590322253.7530887     
   1780543795.7560349     
   1969080654.5216148     
   1393543683.8036375     
   1570895742.9896824     
   1749236223.5087507     
   1926563625.8450055     
   2101629333.2012196     
   1653761663.7208440     
   1820203015.3933747     
   1988337002.4879019     
   2155470932.1946368     
   2319849692.7928405     
   1955313825.3340242     
   2119362307.0671220     
   2284774884.1219234     
   2448596498.9012413     
   2608872858.6901755     
   1931415417.2118301     
   2057978635.0427744     
   2179170361.8279853     
   2294990597.5674629     
   2405439342.2612076     
   1969080654.5216148     
   2086134544.5275335     
   2200352420.2100358     
   2311659017.7175822     
   2420002090.9240923     
   2101629333.2012196     
   2205273938.0479813     
   2308809662.1764054     
   2411999290.1782522     
   2514675543.6383009     
   2319849692.7928405     
   2406810534.9443321     
   2496161330.9937730     
   2587509621.6425080     
   2680578343.9852233     
   2608872858.6901755     
   2676783215.0157084     
   2749120853.9998360     
   2825371005.4183760     
   2905176621.0060945     
   2405439342.2612076     
   2440981448.4081898     
   2481967420.2658658     
   2528397257.8342357     
   2580270961.1132989     
   2420002090.9240923     
   2453540843.7663822     
   2491542528.5051608     
   2534010777.9109182     
   2580950000.4492140     
   2514675543.6383009     
   2543081863.4674444     
   2574957332.7785411     
   2610305094.0659819     
   2649132032.7300773     
   2680578343.9852233     
   2702232556.6839461     
   2726356788.5184107     
   2752937459.3577518     
   2781969758.0432558     
   2905176621.0060945     
   2919895607.3286915     
   2936104334.0405617     
   2953754062.7840667     
   2972810634.5571413     
   2580270961.1132989     
   2588395667.3821993     
   2601932038.1894116     
   2620880073.5349355     
   2645239773.4187713     
   2580950000.4492140     
   2584286625.3996553     
   2593767618.5821266     
   2609402080.2246952     
   2631202158.6082549     
   2649132032.7300773     
   2644119886.8074608     
   2645777539.9201078     
   2654143377.6768799     
   2669269251.8834491     
   2781969758.0432558     
   2765341111.7520919     
   2755657096.4633279     
   2752998782.8812628     
   2757480133.6494865     
   2972810634.5571413     
   2941882983.2239256     
   2917921373.2738085     
   2901046609.1575770     
   2891440526.0394135     
   2645239773.4187713     
   2635708804.5875292     
   2634355773.7008715     
   2641180680.7588005     
   2656183525.7613120     
   2631202158.6082549     
   2619810200.1009064     
   2616384239.3125625     
   2620939049.3685560     
   2633489675.3595533     
   2669269251.8834491     
   2652987178.3647928     
   2644389199.4823971     
   2643530382.4984565     
   2650467519.7027922     
   2757480133.6494865     
   2733750815.0877180     
   2717342307.8924704     
   2708364918.2203860     
   2706934393.3057265     
   2891440526.0394135     
   2858359045.3122487     
   2832154004.2685628     
   2812992651.7106004     
   2801053980.7204328     
   2656183525.7613120     
   2647390500.3340611     
   2646575305.3613801     
   2653737940.8432703     
   2668878406.7797298     
   2633489675.3595533     
   2622344382.4814267     
   2619296014.1904368     
   2624358814.3219914     
   2637547275.6274323     
   2650467519.7027922     
   2633935933.5005584     
   2625562917.2531381     
   2625405709.6932492     
   2633523311.7534370     
   2706934393.3057265     
   2682188166.9647975     
   2665574864.3660336     
   2657219236.7231383     
   2657252365.2656374     
   2801053980.7204328     
   2765672770.4296765     
   2738284818.3414783     
   2719096867.4531679     
   2708331392.2676964     
   2668878406.7797298     
   2660927301.7785368     
   2662364107.3875608     
   2673188823.6067944     
   2693401450.4362388     
   2637547275.6274323     
   2627636653.3173881     
   2626533616.2600727     
   2634251038.5954404     
   2650801000.9871840     
   2633523311.7534370     
   2619188738.6321225     
   2613114578.7369514     
   2615347981.2099128     
   2625933900.0456419     
   2657252365.2656374     
   2636393283.8068762     
   2623249716.8474321     
   2617916397.7462840     
   2620485484.7971144     
   2708331392.2676964     
   2679329676.1094255     
   2657472748.0437765     
   2642906463.6293712     
   2635775967.0848279     
   2693401450.4362388     
   2696649925.1998835     
   2713337368.8001709     
   2743463781.2370934     
   2787029162.5106583     
   2650801000.9871840     
   2648441100.4138222     
   2657268190.7220831     
   2677300987.8196445     
   2708555634.4497008     
   2625933900.0456419     
   2615082141.9062848     
   2613243365.7002378     
   2620479738.6346583     
   2636848487.4100161     
   2620485484.7971144     
   2599121300.4804859     
   2584557300.6079192     
   2576902238.6205602     
   2576262990.0997319     
   2635775967.0848279     
   2602926888.8709269     
   2574564241.5616698     
   2550824359.2474418     
   2531850428.5041733     
   1955313825.3340242     
   2119362307.0671220     
   2284774884.1219234     
   2448596498.9012413     
   2608872858.6901755     
   2298846785.9111290     
   2449538914.1987629     
   2604961026.1725173     
   2763193432.9789042     
   2922808510.9563890     
   2694845833.6150599     
   2830617824.9799466     
   2973709681.5846143     
   3123040091.7431235     
   3277698750.1654763     
   3138098723.2602510     
   3255644827.3121724     
   3382615821.4429879     
   3518541844.5469060     
   3662964365.9539671     
   3625115773.0483809     
   3719829182.4672132     
   3825801798.0478187     
   3942967431.6813207     
   4071231059.7177949     
   2608872858.6901755     
   2676783215.0157084     
   2749120853.9998360     
   2825371005.4183760     
   2905176621.0060945     
   2922808510.9563890     
   2975788781.7301788     
   3030941752.3331165     
   3087581239.4992452     
   3145171221.5833044     
   3277698750.1654763     
   3321076478.4839010     
   3364675893.8426437     
   3407673737.5903611     
   3449391444.2799354     
   3662964365.9539671     
   3702588052.5852532     
   3740837715.7344708     
   3776818048.7880182     
   3809782059.6361260     
   4071231059.7177949     
   4112938042.0902977     
   4152025816.3364272     
   4187602767.4180655     
   4218941214.0054631     
   2905176621.0060945     
   2919895607.3286915     
   2936104334.0405617     
   2953754062.7840667     
   2972810634.5571413     
   3145171221.5833044     
   3141343155.6916785     
   3141165388.9225655     
   3144538724.4748063     
   3151451286.9882317     
   3449391444.2799354     
   3423041146.4858298     
   3401729616.9868870     
   3385222329.7083287     
   3373502734.0200644     
   3809782059.6361260     
   3756646557.0916533     
   3709355956.9337916     
   3667422249.8491235     
   3630743798.8088465     
   4218941214.0054631     
   4134518926.9928598     
   4056382002.6020622     
   3983654367.4889464     
   3916027123.9579420     
   2972810634.5571413     
   2941882983.2239256     
   2917921373.2738085     
   2901046609.1575770     
   2891440526.0394135     
   3151451286.9882317     
   3107243800.4772758     
   3069262553.2916174     
   3037701144.8854170     
   3012806807.0250583     
   3373502734.0200644     
   3315876202.4507484     
   3263812033.2547112     
   3217546635.3279142     
   3177367085.0144958     
   3630743798.8088465     
   3559957155.7770677     
   3494172384.6620746     
   3433643878.8866544     
   3378676311.9679441     
   3916027123.9579420     
   3832530276.1369724     
   3753592040.7885756     
   3679467548.8012223     
   3610463519.2298994     
   2891440526.0394135     
   2858359045.3122487     
   2832154004.2685628     
   2812992651.7106004     
   2801053980.7204328     
   3012806807.0250583     
   2969072498.2490377     
   2931867482.1904259     
   2901432222.8699422     
   2878032874.8704634     
   3177367085.0144958     
   3121259809.6204486     
   3071174046.6111684     
   3027410481.6448345     
   2990314038.3525043     
   3378676311.9679441     
   3309025942.9442520     
   3244767758.6796937     
   3186240031.1140146     
   3133845397.5810642     
   3610463519.2298994     
   3526529102.3488812     
   3447280799.0084081     
   3373068479.5608659     
   3304325056.1438470     
   2801053980.7204328     
   2765672770.4296765     
   2738284818.3414783     
   2719096867.4531679     
   2708331392.2676964     
   2878032874.8704634     
   2831696509.2873788     
   2792809963.1165466     
   2761650571.2139096     
   2738518587.7344661     
   2990314038.3525043     
   2932152951.3616629     
   2880859886.8638930     
   2836767431.5163107     
   2800241424.3703213     
   3133845397.5810642     
   3063499437.2641397     
   2999424555.1242528     
   2941987329.7647719     
   2891598782.5716882     
   3304325056.1438470     
   3221820697.8485808     
   3145004730.7230763     
   3074256115.2848988     
   3010008165.5437579     
   2708331392.2676964     
   2679329676.1094255     
   2657472748.0437765     
   2642906463.6293712     
   2635775967.0848279     
   2738518587.7344661     
   2700169105.8206601     
   2669241226.4893818     
   2645987524.8295817     
   2630668404.2466989     
   2800241424.3703213     
   2750076948.4641705     
   2707412268.9055543     
   2672623422.2951050     
   2646113972.1834426     
   2891598782.5716882     
   2827496545.9105988     
   2770754161.5629206     
   2721872025.6676641     
   2681410069.7668009     
   3010008165.5437579     
   2930235713.8042607     
   2857467660.7803588     
   2792311795.4953246     
   2735478106.6143827     
   2635775967.0848279     
   2602926888.8709269     
   2574564241.5616698     
   2550824359.2474418     
   2531850428.5041733     
   2630668404.2466989     
   2592273998.5621958     
   2561404167.1627431     
   2538301314.7617621     
   2523209029.5175481     
   2646113972.1834426     
   2599459354.6335540     
   2563331860.8177905     
   2538176425.6480145     
   2524444130.1697826     
   2681410069.7668009     
   2622769037.8360915     
   2577623887.3610244     
   2546775251.9624219     
   2531050864.9965825     
   2735478106.6143827     
   2660315237.4559031     
   2601596764.9000282     
   2560697056.3403783     
   2539066256.5643926     
   3625115773.0483809     
   3719829182.4672132     
   3825801798.0478187     
   3942967431.6813207     
   4071231059.7177949     
   4134245976.8968716     
   4224510819.9475946     
   4320701071.5427904     
   4421157314.7079554     
   4524422655.1847372     
   4643530505.4879513     
   4755635546.8553886     
   4868865939.8325138     
   4980584673.3206301     
   5088864797.5287390     
   5151451798.4468451     
   5311381324.7266150     
   5467940740.1287298     
   5618233463.9272480     
   5760793298.3830070     
   5657747387.1252632     
   5890911785.5524063     
   6116431752.9592447     
   6331848573.8418264     
   6536940176.6117067     
   4071231059.7177949     
   4112938042.0902977     
   4152025816.3364272     
   4187602767.4180655     
   4218941214.0054631     
   4524422655.1847372     
   4539513710.9083033     
   4559309385.6655226     
   4581332974.4674482     
   4603860618.7820339     
   5088864797.5287390     
   5054453080.7824230     
   5030586742.7115011     
   5012062278.1381283     
   4995677835.9100399     
   5760793298.3830070     
   5652438032.1868010     
   5560111030.1868725     
   5474754148.6735744     
   5390828417.9395800     
   6536940176.6117067     
   6328880986.2592707     
   6143028019.9218321     
   5965475373.0304832     
   5787218583.7390556     
   4218941214.0054631     
   4134518926.9928598     
   4056382002.6020622     
   3983654367.4889464     
   3916027123.9579420     
   4603860618.7820339     
   4495489223.1409235     
   4391227180.7786398     
   4290742099.7826462     
   4193929344.2637272     
   4995677835.9100399     
   4868722210.8443127     
   4744933835.1779776     
   4624274787.3885164     
   4506777887.7488680     
   5390828417.9395800     
   5250227733.0688543     
   5112905556.7609215     
   4978904340.2446547     
   4848320449.0122614     
   5787218583.7390556     
   5637319481.2989807     
   5491747686.6232100     
   5350420844.4234877     
   5213399885.1148481     
   3916027123.9579420     
   3832530276.1369724     
   3753592040.7885756     
   3679467548.8012223     
   3610463519.2298994     
   4193929344.2637272     
   4096886914.4554896     
   4003204129.5465717     
   3913106334.8280129     
   3826881489.1426845     
   4506777887.7488680     
   4395906944.5239248     
   4287155929.8420429     
   4180685611.9735250     
   4076733989.5929699     
   4848320449.0122614     
   4723682088.0773945     
   4599948165.1977301     
   4477190056.3960295     
   4355572744.5754929     
   5213399885.1148481     
   5075271912.6173496     
   4936905330.2895470     
   4798267724.6869516     
   4659438185.6431417     
   3610463519.2298994     
   3526529102.3488812     
   3447280799.0084081     
   3373068479.5608659     
   3304325056.1438470     
   3826881489.1426845     
   3726129332.0773101     
   3629525543.2095566     
   3537382570.1858697     
   3450090438.6710057     
   4076733989.5929699     
   3960378253.9851165     
   3847751724.8851805     
   3739115962.9740911     
   3634807215.2401557     
   4355572744.5754929     
   4224654158.5464659     
   4097172036.2619119     
   3973333753.0222669     
   3853421888.8632851     
   4659438185.6431417     
   4514767577.0518360     
   4373358995.6484356     
   4235368447.1571703     
   4101031721.5827937     
   3304325056.1438470     
   3221820697.8485808     
   3145004730.7230763     
   3074256115.2848988     
   3010008165.5437579     
   3450090438.6710057     
   3353059826.9139972     
   3260631650.2084489     
   3173190613.3842645     
   3091192672.6055975     
   3634807215.2401557     
   3523272387.8610959     
   3415161567.2885480     
   3310818512.8307405     
   3210670959.5147152     
   3853421888.8632851     
   3727848059.6059570     
   3604516340.7615843     
   3483694375.9591856     
   3365739827.8217802     
   4101031721.5827937     
   3962153725.1112118     
   3824402833.3800640     
   3687951362.5514207     
   3553061978.4191575     
   3010008165.5437579     
   2930235713.8042607     
   2857467660.7803588     
   2792311795.4953246     
   2735478106.6143827     
   3091192672.6055975     
   2992669513.0596194     
   2899459952.3690262     
   2812063050.1383476     
   2731071557.3712211     
   3210670959.5147152     
   3096549672.6658473     
   2986307184.4789300     
   2880288840.5077624     
   2778914177.5145016     
   3365739827.8217802     
   3239566593.3610859     
   3116213887.2548923     
   2995872293.3063812     
   2878785006.1984863     
   3553061978.4191575     
   3418422568.5396743     
   3285970270.7895889     
   3155771250.8391638     
   3027932230.3452682     
   2735478106.6143827     
   2660315237.4559031     
   2601596764.9000282     
   2560697056.3403783     
   2539066256.5643926     
   2731071557.3712211     
   2625630171.4379082     
   2528333525.3877316     
   2440135899.2897325     
   2362115728.4934731     
   2778914177.5145016     
   2652581896.3906488     
   2526588367.2386174     
   2401127541.1170688     
   2276449910.3613162     
   2878785006.1984863     
   2745620892.5364170     
   2607049616.4908075     
   2462971652.5425382     
   2313398296.1357050     
   3027932230.3452682     
   2904912194.1334815     
   2773927287.4982071     
   2635750266.2333860     
   2491781380.7049894     
   5657747387.1252632     
   5890911785.5524063     
   6116431752.9592447     
   6331848573.8418264     
   6536940176.6117067     
   6491553777.7198992     
   6586801455.3232403     
   6757391293.3479395     
   6961246406.5883112     
   7171706540.3327990     
   7982280013.9905071     
   7734882744.4346876     
   7669072295.6088667     
   7669554425.8800564     
   7666397322.9944820     
   10130369063.929287     
   9321998167.0835114     
   8826285663.3921452     
   8443423467.1814413     
   8035605808.6004305     
   12935905414.400642     
   11340859658.059319     
   10210196417.499983     
   9272615188.4822540     
   8303684576.9228716     
   6536940176.6117067     
   6328880986.2592707     
   6143028019.9218321     
   5965475373.0304832     
   5787218583.7390556     
   7171706540.3327990     
   6910986709.1651106     
   6658154963.5950441     
   6409351120.7261534     
   6161430675.0041809     
   7666397322.9944820     
   7381040609.3094282     
   7101041165.7990894     
   6826476896.0345259     
   6557549175.2958908     
   8035605808.6004305     
   7746695920.8804016     
   7473397947.8561392     
   7213760491.3313103     
   6967786513.4401875     
   8303684576.9228716     
   8020518377.6502895     
   7779372753.9800062     
   7569580835.6670618     
   7386164875.8961706     
   5787218583.7390556     
   5637319481.2989807     
   5491747686.6232100     
   5350420844.4234877     
   5213399885.1148481     
   6161430675.0041809     
   6012898453.4071569     
   5865881568.6582050     
   5720423193.3802185     
   5576587822.8635454     
   6557549175.2958908     
   6406908546.7220507     
   6254840816.2267447     
   6101322197.9026594     
   5946387422.2249632     
   6967786513.4401875     
   6812919736.8571825     
   6653638759.3100243     
   6489669263.7731771     
   6320959776.4855900     
   7386164875.8961706     
   7225952982.9434252     
   7058408651.7675257     
   6882840341.9112720     
   6699046466.4082594     
   5213399885.1148481     
   5075271912.6173496     
   4936905330.2895470     
   4798267724.6869516     
   4659438185.6431417     
   5576587822.8635454     
   5423512424.7199097     
   5270901301.3480148     
   5118779868.1266117     
   4967240740.5277691     
   5946387422.2249632     
   5777430602.2185812     
   5609695351.7110910     
   5443228609.2663832     
   5278137412.6383600     
   6320959776.4855900     
   6134655999.9553947     
   5950374530.3736086     
   5768160078.8734694     
   5588141926.3118973     
   6699046466.4082594     
   6493490088.5903702     
   6290800013.8890715     
   6091006496.5308771     
   5894276213.7132359     
   4659438185.6431417     
   4514767577.0518360     
   4373358995.6484356     
   4235368447.1571703     
   4101031721.5827937     
   4967240740.5277691     
   4814659326.6653414     
   4664104130.2426825     
   4515713835.8558149     
   4369674910.0264978     
   5278137412.6383600     
   5119381476.0859356     
   4961716767.5964451     
   4805245137.8533325     
   4650092113.2455378     
   5588141926.3118973     
   5425365467.1328506     
   5262994796.0673323     
   5101086171.3542242     
   4939704401.1439943     
   5894276213.7132359     
   5729919923.9970455     
   5565493249.8021002     
   5401005511.5592632     
   5236468720.5252409     
   4101031721.5827937     
   3962153725.1112118     
   3824402833.3800640     
   3687951362.5514207     
   3553061978.4191575     
   4369674910.0264978     
   4218298365.5306802     
   4067939380.2690177     
   3918745530.5205641     
   3770952631.4635186     
   4650092113.2455378     
   4485229775.8637457     
   4321238243.3177080     
   4158241092.6474962     
   3996451107.4441986     
   4939704401.1439943     
   4760204371.3507824     
   4581393271.0276470     
   4403372269.1052847     
   4226335447.0959401     
   5236468720.5252409     
   5041061119.1108923     
   4846128492.1310797     
   4651751733.4629478     
   4458110778.8283520     
   3553061978.4191575     
   3418422568.5396743     
   3285970270.7895889     
   3155771250.8391638     
   3027932230.3452682     
   3770952631.4635186     
   3631091551.6900172     
   3493985299.0024719     
   3359855905.5844617     
   3229010059.7665582     
   3996451107.4441986     
   3844787887.1021295     
   3695985613.8948321     
   3550478858.0626316     
   3408872756.3215041     
   4226335447.0959401     
   4056439363.6345496     
   3889103723.7625279     
   3725012339.3357854     
   3565146660.5463238     
   4458110778.8283520     
   4263784106.9307613     
   4071350459.8702974     
   3881752013.3675981     
   3696395963.1758609     
   3027932230.3452682     
   2904912194.1334815     
   2773927287.4982071     
   2635750266.2333860     
   2491781380.7049894     
   3229010059.7665582     
   3119749224.5404959     
   3012165634.9252839     
   2906622787.4086537     
   2803725883.6528816     
   3408872756.3215041     
   3271196844.5660849     
   3143515108.2734571     
   3029295516.3587255     
   2934062412.2453456     
   3565146660.5463238     
   3356162922.8195720     
   3165983052.9968529     
   3006259238.4434128     
   2895441951.5242620     
   3696395963.1758609     
   3373311942.5729213     
   3080151624.5917478     
   2845214263.1439204     
   2714540274.1295090     
 </DataArray>
 <DataArray  type="Float64" Name="strain" NumberOfComponents="3" format="ascii">
  0.20349116693982711        0.0000000000000000       0.12540513979683604     
  0.18665875060724746       -2.7321374074702975E-002   7.4350564367454477E-002
  0.16982633427466781       -4.4671860243142146E-002   3.5132021393085147E-002
  0.15299391794208819       -5.2051458505317491E-002   7.7495108737281118E-003
  0.13616150160950855       -4.9460168861229059E-002  -7.7969671906166493E-003
  0.15985586243407343        0.0000000000000000        9.6452434924809885E-002
  0.15317756858702133       -2.1842290238799571E-002   6.2692592447418538E-002
  0.14649927473996927       -3.6171977522763382E-002   3.7404962486070038E-002
  0.13982098089291717       -4.2989061851891441E-002   2.0589545040764382E-002
  0.13314268704586507       -4.2293543226183748E-002   1.2246340111501594E-002
  0.12645545541924486        0.0000000000000000        7.4207956364401140E-002
  0.12656746411875094       -1.6363206402896173E-002   5.5284561887571984E-002
  0.12667947281825701       -2.7672094802384643E-002   4.1469559987816276E-002
  0.12679148151776309       -3.3926665198465385E-002   3.2762950665133989E-002
  0.12690349021726918       -3.5126917591138465E-002   2.9164733919525170E-002
  0.10328994589534149        0.0000000000000000        5.8671704115609832E-002
  0.10682843720243632       -1.0884122566992772E-002   5.2126472687914802E-002
  0.11036692850953110       -1.9172212082005882E-002   4.7325813898323812E-002
  0.11390541981662594       -2.4864268545039345E-002   4.4269727746836851E-002
  0.11744391112372075       -2.7960291956093140E-002   4.2958214233453924E-002
   9.0359333862363250E-002   0.0000000000000000        4.9843678178435949E-002
   9.3960487838077394E-002  -5.4050387310893714E-003   5.3218324848446991E-002
   9.7561641813791553E-002  -1.0672329361627132E-002   5.4973724217592682E-002
  0.10116279578950571       -1.5801871891613292E-002   5.5109876285872987E-002
  0.10476394976521985       -2.0793666321047836E-002   5.3626781053287935E-002
  0.13616150160950855       -4.9460168861229059E-002  -7.7969671906166493E-003
  0.13295631820058515       -4.2929069493645791E-002  -3.3847240917067450E-003
  0.12975113479166173       -3.8489238585336809E-002  -3.8981296485685740E-004
  0.12654595138273833       -3.6140676136301897E-002   1.1877661899333952E-003
  0.12334076797381494       -3.5883382146541215E-002   1.3480133726636867E-003
  0.13314268704586507       -4.2293543226183748E-002   1.2246340111501594E-002
  0.12890884225226365       -3.8430695607639162E-002   1.2192264818622765E-002
  0.12467499745866220       -3.5745792958256466E-002   1.1498198728447810E-002
  0.12044115266506074       -3.4238835278035673E-002   1.0164141840976582E-002
  0.11620730787145928       -3.3909822566976777E-002   8.1900941562090823E-003
  0.12690349021726918       -3.5126917591138465E-002   2.9164733919525170E-002
  0.12241832521375330       -3.3932321721632470E-002   2.5557663724969946E-002
  0.11793316021023746       -3.3002347331176130E-002   2.2087943907882095E-002
  0.11344799520672166       -3.2336994419769421E-002   1.8755574468261774E-002
  0.10896283020320578       -3.1936262987412381E-002   1.5560555406108741E-002
  0.11744391112372075       -2.7960291956093140E-002   4.2958214233453924E-002
  0.11348476708505416       -2.9433947835625810E-002   3.6711472627334533E-002
  0.10952562304638756       -3.0258901704095800E-002   3.1379422573446246E-002
  0.10556647900772100       -3.0435153561503205E-002   2.6962064071788989E-002
  0.10160733496905441       -2.9962703407847964E-002   2.3459397122362856E-002
  0.10476394976521985       -2.0793666321047836E-002   5.3626781053287935E-002
  0.10210816786616619       -2.4935573949619129E-002   4.5653691525716675E-002
   9.9452385967112505E-002  -2.7515456077015495E-002   3.9372634725140111E-002
   9.6796604068058817E-002  -2.8533312703236963E-002   3.4783610651558265E-002
   9.4140822169005142E-002  -2.7989143828283533E-002   3.1886619304971248E-002
  0.12334076797381494       -3.5883382146541215E-002   1.3480133726636867E-003
  0.12037470741873896       -3.6370943208274498E-002   6.4686647358336291E-004
  0.11740864686366306       -3.6256945913721493E-002   1.6087639636980233E-004
  0.11444258630858715       -3.5541390262882409E-002  -1.0995685897737667E-004
  0.11147652575351119       -3.4224276255756914E-002  -1.6563329245794511E-004
  0.11620730787145928       -3.3909822566976777E-002   8.1900941562090823E-003
  0.11343963234857138       -3.3979394992021225E-002   7.8523244281731713E-003
  0.11067195682568351       -3.3668192720110346E-002   7.6961679426469226E-003
  0.10790428130279558       -3.2976215751244251E-002   7.7216246996300482E-003
  0.10513660577990772       -3.1903464085422717E-002   7.9286946991228013E-003
  0.10896283020320578       -3.1936262987412381E-002   1.5560555406108741E-002
  0.10635999613314888       -3.1587846775767980E-002   1.5365379189786393E-002
  0.10375716206309199       -3.1079439526499147E-002   1.5318272636616458E-002
  0.10115432799303511       -3.0411041239606040E-002   1.5419235746599010E-002
   9.8551493922978212E-002  -2.9582651915088548E-002   1.5668268519734144E-002
  0.10160733496905441       -2.9962703407847964E-002   2.3459397122362856E-002
   9.9135798772471445E-002  -2.9196298559514680E-002   2.3186030758422904E-002
   9.6664262575888504E-002  -2.8490686332888003E-002   2.3027190478278434E-002
   9.4192726379305577E-002  -2.7845866727967909E-002   2.2982876281929399E-002
   9.1721190182722623E-002  -2.7261839744754421E-002   2.3053088169375738E-002
   9.4140822169005142E-002  -2.7989143828283533E-002   3.1886619304971248E-002
   9.1767040266539132E-002  -2.6804750343261401E-002   3.1314279134082856E-002
   8.9393258364073080E-002  -2.5901933139276797E-002   3.0822921467632887E-002
   8.7019476461607043E-002  -2.5280692216329753E-002   3.0412546305621329E-002
   8.4645694559141005E-002  -2.4941027574420238E-002   3.0083153648048089E-002
  0.11147652575351119       -3.4224276255756914E-002  -1.6563329245794511E-004
  0.10816775086557484       -3.2708705512087460E-002   9.3204463440993424E-005
  0.10485897597763844       -3.1397779651616817E-002   6.3117295895712133E-004
  0.10155020108970209       -3.0291498674344216E-002   1.4482721940908133E-003
   9.8241426201765680E-002  -2.9389862580270432E-002   2.5445021688412783E-003
  0.10513660577990772       -3.1903464085422717E-002   7.9286946991228013E-003
  0.10209853597341983       -3.0694939351501471E-002   7.7769781915498215E-003
   9.9060466166931940E-002  -2.9595643178335837E-002   7.8875411072564655E-003
   9.6022396360444046E-002  -2.8605575565925825E-002   8.2603834462427472E-003
   9.2984326553956165E-002  -2.7724736514271542E-002   8.8955052085089581E-003
   9.8551493922978212E-002  -2.9582651915088548E-002   1.5668268519734144E-002
   9.5767277881601193E-002  -2.8681173190915274E-002   1.5201414071131986E-002
   9.2983061840224257E-002  -2.7793506705054920E-002   1.4979987729471962E-002
   9.0198845798847252E-002  -2.6919652457507215E-002   1.5003989494754181E-002
   8.7414629757470275E-002  -2.6059610448272430E-002   1.5273419366978375E-002
   9.1721190182722623E-002  -2.7261839744754421E-002   2.3053088169375738E-002
   8.9173976590118997E-002  -2.6667407030329125E-002   2.2366512102187524E-002
   8.6626762997515330E-002  -2.5991370231773944E-002   2.1908512825603604E-002
   8.4079549404911719E-002  -2.5233729349088740E-002   2.1679090339624459E-002
   8.1532335812308038E-002  -2.4394484382273485E-002   2.1678244644249743E-002
   8.4645694559141005E-002  -2.4941027574420238E-002   3.0083153648048089E-002
   8.2318632098973124E-002  -2.4653640869743088E-002   2.9272272284716336E-002
   7.9991569638805243E-002  -2.4189233758493051E-002   2.8673116395651524E-002
   7.7664507178637321E-002  -2.3547806240670162E-002   2.8285685980853750E-002
   7.5337444718469454E-002  -2.2729358316274539E-002   2.8109981040322890E-002
   9.8241426201765680E-002  -2.9389862580270432E-002   2.5445021688412783E-003
   9.5485954926680217E-002  -2.8578197275743789E-002   3.4427267656412797E-003
   9.2730483651594808E-002  -2.7741828667113749E-002   4.3222129274375354E-003
   8.9975012376509372E-002  -2.6880756754379849E-002   5.1829606542303785E-003
   8.7219541101423936E-002  -2.5994981537542206E-002   6.0249699460193096E-003
   9.2984326553956165E-002  -2.7724736514271542E-002   8.8955052085089581E-003
   9.0237528068602024E-002  -2.6900421042609396E-002   9.5189862338051212E-003
   8.7490729583247884E-002  -2.6079924170175822E-002   1.0178551273567871E-002
   8.4743931097893771E-002  -2.5263245896971133E-002   1.0874200327796776E-002
   8.1997132612539658E-002  -2.4450386222995002E-002   1.1605933396491963E-002
   8.7414629757470275E-002  -2.6059610448272430E-002   1.5273419366978375E-002
   8.4731326511317540E-002  -2.5222644809474642E-002   1.5593634917438509E-002
   8.2048023265164818E-002  -2.4418019673237937E-002   1.6004756931834868E-002
   7.9364720019012069E-002  -2.3645735039562247E-002   1.6506785410167986E-002
   7.6681416772859362E-002  -2.2905790908447576E-002   1.7099720352437259E-002
   8.1532335812308038E-002  -2.4394484382273485E-002   2.1678244644249743E-002
   7.8967350254826790E-002  -2.3544868576340069E-002   2.1666672816541201E-002
   7.6402364697345543E-002  -2.2756115176299919E-002   2.1800829902239294E-002
   7.3837379139864337E-002  -2.2028224182153500E-002   2.2080715901343612E-002
   7.1272393582383048E-002  -2.1361195593900428E-002   2.2506330813854690E-002
   7.5337444718469454E-002  -2.2729358316274539E-002   2.8109981040322890E-002
   7.2945599299129749E-002  -2.1867092343205385E-002   2.7738099931113314E-002
   7.0553753879790085E-002  -2.1094210679361999E-002   2.7566770184780431E-002
   6.8161908460450393E-002  -2.0410713324744614E-002   2.7595991801324132E-002
   6.5770063041110716E-002  -1.9816600279353058E-002   2.7825764780744389E-002
   8.7219541101423936E-002  -2.5994981537542206E-002   6.0249699460193096E-003
   8.3948705473168350E-002  -2.5094655497595708E-002   5.7939860583323122E-003
   8.0677869844912820E-002  -2.4189931115534830E-002   5.8443102264342239E-003
   7.7407034216657261E-002  -2.3280808391360187E-002   6.1759424503237681E-003
   7.4136198588401703E-002  -2.2367287325070984E-002   6.7888827300012222E-003
   8.1997132612539658E-002  -2.4450386222995002E-002   1.1605933396491963E-002
   7.8995440897789038E-002  -2.3627531137912688E-002   1.1283581897504086E-002
   7.5993749183038389E-002  -2.2780866631389451E-002   1.1218210169738063E-002
   7.2992057468287727E-002  -2.1910392703425097E-002   1.1409818213193826E-002
   6.9990365753537065E-002  -2.1016109354019430E-002   1.1858406027871360E-002
   7.6681416772859362E-002  -2.2905790908447576E-002   1.7099720352437259E-002
   7.3924540687047513E-002  -2.2160406778229613E-002   1.6705412321474683E-002
   7.1167664601235650E-002  -2.1371802147243837E-002   1.6543755777167740E-002
   6.8410788515423815E-002  -2.0539977015490114E-002   1.6614750719516534E-002
   6.5653912429611938E-002  -1.9664931382968265E-002   1.6918397148521253E-002
   7.1272393582383048E-002  -2.1361195593900428E-002   2.2506330813854690E-002
   6.8736004840943846E-002  -2.0693282418546677E-002   2.2059477330244340E-002
   6.6199616099504657E-002  -1.9962737663098119E-002   2.1820947048723591E-002
   6.3663227358065400E-002  -1.9169561327554964E-002   2.1790739969292441E-002
   6.1126838616626253E-002  -1.8313753411917016E-002   2.1968856091950921E-002
   6.5770063041110716E-002  -1.9816600279353058E-002   2.7825764780744389E-002
   6.3429833359478049E-002  -1.9226158058863602E-002   2.7345776923813347E-002
   6.1089603677845356E-002  -1.8553673178952609E-002   2.7049783984405412E-002
   5.8749373996212703E-002  -1.7799145639619925E-002   2.6937785962521124E-002
   5.6409144314579995E-002  -1.6962575440865602E-002   2.7009782858160358E-002
   7.4136198588401703E-002  -2.2367287325070984E-002   6.7888827300012222E-003
   7.0844810460648999E-002  -2.1450327233497990E-002   7.4761844843780345E-003
   6.7553422332896351E-002  -2.0530887433472117E-002   8.6256745692291359E-003
   6.4262034205143703E-002  -1.9608967924992539E-002   1.0237352984554887E-002
   6.0970646077391000E-002  -1.8684568708060567E-002   1.2311219730354761E-002
   6.9990365753537065E-002  -2.1016109354019430E-002   1.1858406027871360E-002
   6.7112164131757412E-002  -2.0119983867873670E-002   1.2297262748932503E-002
   6.4233962509977677E-002  -1.9243983529687647E-002   1.3100304151465042E-002
   6.1355760888198010E-002  -1.8388108339461653E-002   1.4267530235469214E-002
   5.8477559266418289E-002  -1.7552358297195703E-002   1.5798941000944811E-002
   6.5653912429611938E-002  -1.9664931382968265E-002   1.6918397148521253E-002
   6.3090893664802097E-002  -1.8789640502249155E-002   1.7086203979854026E-002
   6.0527874899992312E-002  -1.7957079625903274E-002   1.7520191843654623E-002
   5.7964856135182444E-002  -1.7167248753930543E-002   1.8220360739923940E-002
   5.5401837370372659E-002  -1.6420147886330838E-002   1.9186710668661511E-002
   6.1126838616626253E-002  -1.8313753411917016E-002   2.1968856091950921E-002
   5.8780999059783179E-002  -1.7459297136624849E-002   2.1843008177141604E-002
   5.6435159502940195E-002  -1.6670175722119075E-002   2.1885337645797472E-002
   5.4089319946097156E-002  -1.5946389168399321E-002   2.2095844497918744E-002
   5.1743480389254137E-002  -1.5287937475466196E-002   2.2474528733505333E-002
   5.6409144314579995E-002  -1.6962575440865602E-002   2.7009782858160358E-002
   5.4182480316700699E-002  -1.6128953771000459E-002   2.6567675340796015E-002
   5.1955816318821374E-002  -1.5383271818334418E-002   2.6195741557893809E-002
   4.9729152320942063E-002  -1.4725529582868265E-002   2.5893981509453684E-002
   4.7502488323062753E-002  -1.4155727064601442E-002   2.5662395195475862E-002
   6.0970646077391000E-002  -1.8684568708060567E-002   1.2311219730354761E-002
   5.5111591727828535E-002  -1.7769605574992631E-002   1.4414353169985294E-002
   4.9252537378266015E-002  -1.6875994318106824E-002   1.8980595760751173E-002
   4.3393483028703606E-002  -1.6003734937403674E-002   2.6009947502651565E-002
   3.7534428679141030E-002  -1.5152827432883598E-002   3.5502408395687191E-002
   5.8477559266418289E-002  -1.7552358297195703E-002   1.5798941000944811E-002
   5.4717233480818361E-002  -1.6712502963077636E-002   1.6958550696070274E-002
   5.0956907695218462E-002  -1.5844311897295765E-002   1.9852508367986188E-002
   4.7196581909618465E-002  -1.4947785099850071E-002   2.4480814016691971E-002
   4.3436256124018580E-002  -1.4022922570740892E-002   3.0843467642188482E-002
   5.5401837370372659E-002  -1.6420147886330838E-002   1.9186710668661511E-002
   5.3011478974390291E-002  -1.5655400351162807E-002   1.9452484227128530E-002
   5.0621120578408063E-002  -1.4812629476484596E-002   2.0723844588041274E-002
   4.8230762182425863E-002  -1.3891835262296245E-002   2.3000791751399019E-002
   4.5840403786443495E-002  -1.2893017708597743E-002   2.6283325717201822E-002
   5.1743480389254137E-002  -1.5287937475466196E-002   2.2474528733505333E-002
   4.9994328208544533E-002  -1.4598297739248006E-002   2.1896153763160321E-002
   4.8245176027834791E-002  -1.3780947055673259E-002   2.1594604420916014E-002
   4.6496023847125097E-002  -1.2835885424742420E-002   2.1569880706771370E-002
   4.4746871666415430E-002  -1.1763112846454815E-002   2.1821982620727043E-002
   4.7502488323062753E-002  -1.4155727064601442E-002   2.5662395195475862E-002
   4.5665781183280685E-002  -1.3541195127333205E-002   2.4289559304165487E-002
   4.3829074043498645E-002  -1.2749264634862006E-002   2.2464787866609992E-002
   4.1992366903716591E-002  -1.1779935587188421E-002   2.0188080882809656E-002
   4.0155659763934537E-002  -1.0633207984311888E-002   1.7459438352764423E-002
   9.0359333862363250E-002   0.0000000000000000        4.9843678178435949E-002
   9.3960487838077394E-002  -5.4050387310893714E-003   5.3218324848446991E-002
   9.7561641813791553E-002  -1.0672329361627132E-002   5.4973724217592682E-002
  0.10116279578950571       -1.5801871891613292E-002   5.5109876285872987E-002
  0.10476394976521985       -2.0793666321047836E-002   5.3626781053287935E-002
   8.2424118011552916E-002   0.0000000000000000        4.4791310971084797E-002
   8.4635145709693799E-002  -4.5752723823614888E-003   4.8275396839050029E-002
   8.6846173407834681E-002  -9.0394462627717033E-003   5.0598477452734103E-002
   8.9057201105975592E-002  -1.3392521641230637E-002   5.1760552812137012E-002
   9.1268228804116475E-002  -1.7634498517738295E-002   5.1761622917258776E-002
   7.4244797034153195E-002   0.0000000000000000        4.0582034911761697E-002
   7.5523940501305051E-002  -3.7455060336336076E-003   4.4148910379080780E-002
   7.6803083968456892E-002  -7.4065631639162726E-003   4.7013022638702918E-002
   7.8082227435608734E-002  -1.0983171390847993E-002   4.9174371690628112E-002
   7.9361370902760603E-002  -1.4475330714428771E-002   5.0632957534856367E-002
   6.5821370930164130E-002   0.0000000000000000        3.7215850000466642E-002
   6.6626872212911137E-002  -2.9157396849057264E-003   4.0838865468539230E-002
   6.7432373495658157E-002  -5.7736800650608410E-003   4.4217359775499093E-002
   6.8237874778405178E-002  -8.5738211404653483E-003   4.7351332921346238E-002
   6.9043376061152170E-002  -1.1316162911119242E-002   5.0240784906080679E-002
   5.7153839699585686E-002   0.0000000000000000        3.4692756237199633E-002
   5.7943940844512085E-002  -2.0859733361778439E-003   3.8345262107425414E-002
   5.8734041989438483E-002  -4.1407969662054130E-003   4.2211488863122683E-002
   5.9524143134364889E-002  -6.1644708900826968E-003   4.6291436504291419E-002
   6.0314244279291288E-002  -8.1569951078097110E-003   5.0585105030931679E-002
  0.10476394976521985       -2.0793666321047836E-002   5.3626781053287935E-002
  0.10210816786616619       -2.4935573949619129E-002   4.5653691525716675E-002
   9.9452385967112505E-002  -2.7515456077015495E-002   3.9372634725140111E-002
   9.6796604068058817E-002  -2.8533312703236963E-002   3.4783610651558265E-002
   9.4140822169005142E-002  -2.7989143828283533E-002   3.1886619304971248E-002
   9.1268228804116475E-002  -1.7634498517738295E-002   5.1761622917258776E-002
   9.0066472298318448E-002  -2.1211136172671154E-002   4.6530191836882562E-002
   8.8864715792520449E-002  -2.3568193886405631E-002   4.2514778816022905E-002
   8.7662959286722436E-002  -2.4705671658941775E-002   3.9715383854679827E-002
   8.6461202780924409E-002  -2.4623569490279537E-002   3.8132006952853369E-002
   7.9361370902760603E-002  -1.4475330714428771E-002   5.0632957534856367E-002
   7.9137625122740071E-002  -1.7486698395723189E-002   4.7800739341698636E-002
   7.8913879342719553E-002  -1.9620931695795766E-002   4.5708524540579339E-002
   7.8690133562699008E-002  -2.0878030614646569E-002   4.4356313131498452E-002
   7.8466387782678504E-002  -2.1257995152275534E-002   4.3744105114455992E-002
   6.9043376061152170E-002  -1.1316162911119242E-002   5.0240784906080679E-002
   6.9321626339431022E-002  -1.3762260618775201E-002   4.9465334040164878E-002
   6.9599876617709847E-002  -1.5673669505185908E-002   4.8953871898809370E-002
   6.9878126895988685E-002  -1.7050389570351349E-002   4.8706398482014142E-002
   7.0156377174267523E-002  -1.7892420814271528E-002   4.8722913789779165E-002
   6.0314244279291288E-002  -8.1569951078097110E-003   5.0585105030931679E-002
   6.0618475948391301E-002  -1.0037822841827238E-002   5.1523975932281307E-002
   6.0922707617491335E-002  -1.1726407314576047E-002   5.2250820890713028E-002
   6.1226939286591363E-002  -1.3222748526056169E-002   5.2765639906226895E-002
   6.1531170955691376E-002  -1.4526846476267542E-002   5.3068432978822848E-002
   9.4140822169005142E-002  -2.7989143828283533E-002   3.1886619304971248E-002
   9.1767040266539132E-002  -2.6804750343261401E-002   3.1314279134082856E-002
   8.9393258364073080E-002  -2.5901933139276797E-002   3.0822921467632887E-002
   8.7019476461607043E-002  -2.5280692216329753E-002   3.0412546305621329E-002
   8.4645694559141005E-002  -2.4941027574420238E-002   3.0083153648048089E-002
   8.6461202780924409E-002  -2.4623569490279537E-002   3.8132006952853369E-002
   8.4214018576498600E-002  -2.3987689867582943E-002   3.7093285708318116E-002
   8.1966834372072833E-002  -2.3463835278015956E-002   3.6226777355425024E-002
   7.9719650167647052E-002  -2.3052005721578610E-002   3.5532481894174052E-002
   7.7472465963221257E-002  -2.2752201198270927E-002   3.5010399324565053E-002
   7.8466387782678504E-002  -2.1257995152275534E-002   4.3744105114455992E-002
   7.6437031663496691E-002  -2.1170629391904474E-002   4.2408554044181826E-002
   7.4407675544314864E-002  -2.1025737416755119E-002   4.1336446252753484E-002
   7.2378319425133050E-002  -2.0823319226827550E-002   4.0527781740171000E-002
   7.0348963305951209E-002  -2.0563374822121644E-002   3.9982560506434256E-002
   7.0156377174267523E-002  -1.7892420814271528E-002   4.8722913789779165E-002
   6.8436079527533361E-002  -1.8353568916225999E-002   4.7260084141673937E-002
   6.6715781880799241E-002  -1.8587639555494306E-002   4.6151928159618286E-002
   6.4995484234065079E-002  -1.8594632732076427E-002   4.5398445843612162E-002
   6.3275186587330945E-002  -1.8374548445972333E-002   4.4999637193655552E-002
   6.1531170955691376E-002  -1.4526846476267542E-002   5.3068432978822848E-002
   6.0211162168608633E-002  -1.5536508440547540E-002   5.1647876000794506E-002
   5.8891153381525882E-002  -1.6149541694233452E-002   5.0673223076019389E-002
   5.7571144594443110E-002  -1.6365946237325363E-002   5.0144474204497552E-002
   5.6251135807360367E-002  -1.6185722069823077E-002   5.0061629386228934E-002
   8.4645694559141005E-002  -2.4941027574420238E-002   3.0083153648048089E-002
   8.2318632098973124E-002  -2.4653640869743088E-002   2.9272272284716336E-002
   7.9991569638805243E-002  -2.4189233758493051E-002   2.8673116395651524E-002
   7.7664507178637321E-002  -2.3547806240670162E-002   2.8285685980853750E-002
   7.5337444718469454E-002  -2.2729358316274539E-002   2.8109981040322890E-002
   7.7472465963221257E-002  -2.2752201198270927E-002   3.5010399324565053E-002
   7.5354555704549797E-002  -2.2444023788009450E-002   3.4399566233917538E-002
   7.3236645445878379E-002  -2.2007075570710986E-002   3.3995312071996020E-002
   7.1118735187206919E-002  -2.1441356546375377E-002   3.3797636838800174E-002
   6.9000824928535487E-002  -2.0746866715002588E-002   3.3806540534330520E-002
   7.0348963305951209E-002  -2.0563374822121644E-002   3.9982560506434256E-002
   6.8435058703235185E-002  -2.0234406706275965E-002   3.9523526088935147E-002
   6.6521154100519120E-002  -1.9824917382928894E-002   3.9265924054620836E-002
   6.4607249497803110E-002  -1.9334906852080547E-002   3.9209754403491566E-002
   6.2693344895087072E-002  -1.8764375113730802E-002   3.9355017135547038E-002
   6.3275186587330945E-002  -1.8374548445972333E-002   4.4999637193655552E-002
   6.1560141095029247E-002  -1.8024789624542376E-002   4.4644151849769116E-002
   5.9845095602727570E-002  -1.7642759195146830E-002   4.4484952343526521E-002
   5.8130050110425865E-002  -1.7228457157785697E-002   4.4522038674927676E-002
   5.6415004618124188E-002  -1.6781883512458948E-002   4.4755410843972804E-002
   5.6251135807360367E-002  -1.6185722069823077E-002   5.0061629386228934E-002
   5.4729802879932010E-002  -1.5815172542808842E-002   4.9761443516419437E-002
   5.3208469952503633E-002  -1.5460601007364752E-002   4.9652396938712776E-002
   5.1687137025075242E-002  -1.5122007463490881E-002   4.9734489653108852E-002
   5.0165804097646899E-002  -1.4799391911187093E-002   5.0007721659607707E-002
   7.5337444718469454E-002  -2.2729358316274539E-002   2.8109981040322890E-002
   7.2945599299129749E-002  -2.1867092343205385E-002   2.7738099931113314E-002
   7.0553753879790085E-002  -2.1094210679361999E-002   2.7566770184780431E-002
   6.8161908460450393E-002  -2.0410713324744614E-002   2.7595991801324132E-002
   6.5770063041110716E-002  -1.9816600279353058E-002   2.7825764780744389E-002
   6.9000824928535487E-002  -2.0746866715002588E-002   3.3806540534330520E-002
   6.6810580935225392E-002  -2.0014334707505577E-002   3.3393813862752406E-002
   6.4620336941915282E-002  -1.9334489154796811E-002   3.3183738680356734E-002
   6.2430092948605173E-002  -1.8707330056876376E-002   3.3176314987143934E-002
   6.0239848955295078E-002  -1.8132857413744263E-002   3.3371542783113689E-002
   6.2693344895087072E-002  -1.8764375113730802E-002   3.9355017135547038E-002
   6.0706802454112502E-002  -1.8161577071805796E-002   3.8938142756037866E-002
   5.8720260013138029E-002  -1.7574767630231518E-002   3.8726019992017378E-002
   5.6733717572163535E-002  -1.7003946789008115E-002   3.8718648843485554E-002
   5.4747175131189013E-002  -1.6449114548135413E-002   3.8916029310442121E-002
   5.6415004618124188E-002  -1.6781883512458948E-002   4.4755410843972804E-002
   5.4634263855791260E-002  -1.6308819436106070E-002   4.4371086610970195E-002
   5.2853523093458296E-002  -1.5815046105666305E-002   4.4193614119762352E-002
   5.1072782331125374E-002  -1.5300563521139780E-002   4.4222993370348948E-002
   4.9292041568792425E-002  -1.4765371682526562E-002   4.4459224362730254E-002
   5.0165804097646899E-002  -1.4799391911187093E-002   5.0007721659607707E-002
   4.8592965140261540E-002  -1.4456061800406192E-002   4.9692645427549226E-002
   4.7020126182876140E-002  -1.4055324581101029E-002   4.9586521063591418E-002
   4.5447287225490761E-002  -1.3597180253271555E-002   4.9689348567734069E-002
   4.3874448268105409E-002  -1.3081628816917712E-002   5.0001127939977408E-002
   6.5770063041110716E-002  -1.9816600279353058E-002   2.7825764780744389E-002
   6.3429833359478049E-002  -1.9226158058863602E-002   2.7345776923813347E-002
   6.1089603677845356E-002  -1.8553673178952609E-002   2.7049783984405412E-002
   5.8749373996212703E-002  -1.7799145639619925E-002   2.6937785962521124E-002
   5.6409144314579995E-002  -1.6962575440865602E-002   2.7009782858160358E-002
   6.0239848955295078E-002  -1.8132857413744263E-002   3.3371542783113689E-002
   5.8083076412761545E-002  -1.7557352993101433E-002   3.2996953744083318E-002
   5.5926303870228039E-002  -1.6927098562649331E-002   3.2805284065727525E-002
   5.3769531327694520E-002  -1.6242094122387581E-002   3.2796533748046829E-002
   5.1612758785161000E-002  -1.5502339672316456E-002   3.2970702791040835E-002
   5.4747175131189013E-002  -1.6449114548135413E-002   3.8916029310442121E-002
   5.2772784170906015E-002  -1.5888547927339333E-002   3.8619546439700489E-002
   5.0798393210622995E-002  -1.5300523946346060E-002   3.8504907372784787E-002
   4.8824002250339976E-002  -1.4685042605155350E-002   3.8572112109695370E-002
   4.6849611290056992E-002  -1.4042103903767283E-002   3.8821160650432326E-002
   4.9292041568792425E-002  -1.4765371682526562E-002   4.4459224362730254E-002
   4.7498956633911321E-002  -1.4219742861577282E-002   4.4213555010664915E-002
   4.5705871699030225E-002  -1.3673949330042675E-002   4.4148653905577262E-002
   4.3912786764149100E-002  -1.3127991087922924E-002   4.4264521047466900E-002
   4.2119701829268025E-002  -1.2581868135218124E-002   4.4561156436334473E-002
   4.3874448268105409E-002  -1.3081628816917712E-002   5.0001127939977408E-002
   4.2261593801777547E-002  -1.2550937795815009E-002   4.9778979456976458E-002
   4.0648739335449699E-002  -1.2047374713739470E-002   4.9736523664104498E-002
   3.9035884869121858E-002  -1.1570939570690792E-002   4.9873760561361419E-002
   3.7423030402794016E-002  -1.1121632366668910E-002   5.0190690148747219E-002
   5.6409144314579995E-002  -1.6962575440865602E-002   2.7009782858160358E-002
   5.4182480316700699E-002  -1.6128953771000459E-002   2.6567675340796015E-002
   5.1955816318821374E-002  -1.5383271818334418E-002   2.6195741557893809E-002
   4.9729152320942063E-002  -1.4725529582868265E-002   2.5893981509453684E-002
   4.7502488323062753E-002  -1.4155727064601442E-002   2.5662395195475862E-002
   5.1612758785161000E-002  -1.5502339672316456E-002   3.2970702791040835E-002
   4.9476233570575637E-002  -1.4761135209432785E-002   3.2511903506131257E-002
   4.7339708355990204E-002  -1.4071780730733827E-002   3.2163208053347228E-002
   4.5203183141404833E-002  -1.3434276236219300E-002   3.1924616432688895E-002
   4.3066657926819435E-002  -1.2848621725889353E-002   3.1796128644156263E-002
   4.6849611290056992E-002  -1.4042103903767283E-002   3.8821160650432326E-002
   4.4843154956429016E-002  -1.3393316647865375E-002   3.8381759330992249E-002
   4.2836698622801116E-002  -1.2760289643133020E-002   3.8092391941341543E-002
   4.0830242289173160E-002  -1.2143022889570447E-002   3.7953058481479840E-002
   3.8823785955545240E-002  -1.1541516387177209E-002   3.7963758951407411E-002
   4.2119701829268025E-002  -1.2581868135218124E-002   4.4561156436334473E-002
   4.0283244474261022E-002  -1.2025498086297944E-002   4.4177242815379159E-002
   3.8446787119254054E-002  -1.1448798555532377E-002   4.3983293221876371E-002
   3.6610329764247038E-002  -1.0851769542921372E-002   4.3979307655826527E-002
   3.4773872409240084E-002  -1.0234411048465036E-002   4.4165286117229301E-002
   3.7423030402794016E-002  -1.1121632366668910E-002   5.0190690148747219E-002
   3.5796502124071511E-002  -1.0657679524730318E-002   4.9898353959291708E-002
   3.4169973845348978E-002  -1.0137307467931594E-002   4.9835911894952206E-002
   3.2543445566626472E-002  -9.5605161962725935E-003   5.0003363955728852E-002
   3.0916917287903967E-002  -8.9273057097529196E-003   5.0400710141621785E-002
   4.7502488323062753E-002  -1.4155727064601442E-002   2.5662395195475862E-002
   4.5665781183280685E-002  -1.3541195127333205E-002   2.4289559304165487E-002
   4.3829074043498645E-002  -1.2749264634862006E-002   2.2464787866609992E-002
   4.1992366903716591E-002  -1.1779935587188421E-002   2.0188080882809656E-002
   4.0155659763934537E-002  -1.0633207984311888E-002   1.7459438352764423E-002
   4.3066657926819435E-002  -1.2848621725889353E-002   3.1796128644156263E-002
   4.0886345298027316E-002  -1.2230962440044651E-002   3.0871210280258299E-002
   3.8706032669235141E-002  -1.1497443618985220E-002   2.9711016484584879E-002
   3.6525720040442980E-002  -1.0648065262711733E-002   2.8315547257135906E-002
   3.4345407411650875E-002  -9.6828273712237234E-003   2.6684802597912172E-002
   3.8823785955545240E-002  -1.1541516387177209E-002   3.7963758951407411E-002
   3.6516527952212607E-002  -1.0920729752755820E-002   3.7425219094933515E-002
   3.4209269948879982E-002  -1.0245622603108503E-002   3.6868063921153729E-002
   3.1902011945547384E-002  -9.5161949382352139E-003   3.6292293430068116E-002
   2.9594753942214780E-002  -8.7324467581356702E-003   3.5697907621677238E-002
   3.4773872409240084E-002  -1.0234411048465036E-002   4.4165286117229301E-002
   3.2556329145836546E-002  -9.6104970654672384E-003   4.3951585748191073E-002
   3.0338785882433016E-002  -8.9938015872318075E-003   4.3935930176316543E-002
   2.8121242619029495E-002  -8.3843246137584992E-003   4.4118319401605828E-002
   2.5903699355625948E-002  -7.7820661450475059E-003   4.4498753424059345E-002
   3.0916917287903967E-002  -8.9273057097529196E-003   5.0400710141621785E-002
   2.9005748878899146E-002  -8.3002643781786012E-003   5.0450310240030882E-002
   2.7094580469894325E-002  -7.7419805713549589E-003   5.0914615250073431E-002
   2.5183412060889504E-002  -7.2524542892819961E-003   5.1793625171749444E-002
   2.3272243651884683E-002  -6.8316855319594527E-003   5.3087340005059103E-002
   5.7153839699585686E-002   0.0000000000000000        3.4692756237199633E-002
   5.7943940844512085E-002  -2.0859733361778439E-003   3.8345262107425414E-002
   5.8734041989438483E-002  -4.1407969662054130E-003   4.2211488863122683E-002
   5.9524143134364889E-002  -6.1644708900826968E-003   4.6291436504291419E-002
   6.0314244279291288E-002  -8.1569951078097110E-003   5.0585105030931679E-002
   4.8654166414308544E-002   0.0000000000000000        3.2789832730045779E-002
   4.9592807285660512E-002  -1.7111721259070725E-003   3.6965680010640392E-002
   5.0531448157012465E-002  -3.4360908535188330E-003   4.1224885858614620E-002
   5.1470089028364419E-002  -5.1747561828352738E-003   4.5567450273968489E-002
   5.2408729899716379E-002  -6.9271681138564061E-003   4.9993373256701980E-002
   4.0734314146223381E-002   0.0000000000000000        3.1284158587090174E-002
   4.1691132425909036E-002  -1.3363709156362985E-003   3.5938450970198661E-002
   4.2647950705594691E-002  -2.7313847408322479E-003   4.0545739602594909E-002
   4.3604768985280346E-002  -4.1850414755878491E-003   4.5106024484278938E-002
   4.4561587264966000E-002  -5.6973411199030986E-003   4.9619305615250700E-002
   3.3394282895330182E-002   0.0000000000000000        3.0175733808332831E-002
   3.4238916265257664E-002  -9.6156970536552533E-004   3.5263574986100228E-002
   3.5083549635185160E-002  -2.0266786281456662E-003   4.0174050095063508E-002
   3.5928183005112642E-002  -3.1953267683404235E-003   4.4907159135222717E-002
   3.6772816375040145E-002  -4.4675141259497911E-003   4.9462902106577826E-002
   2.6634072661628955E-002   0.0000000000000000        2.9464558393773738E-002
   2.7236158803706417E-002  -5.8676849509475305E-004   3.4941052058345079E-002
   2.7838244945783876E-002  -1.3219725154590828E-003   4.0109817336020454E-002
   2.8440331087861336E-002  -2.2056120610929979E-003   4.4970854226799854E-002
   2.9042417229938798E-002  -3.2376871319964836E-003   4.9524162730683323E-002
   6.0314244279291288E-002  -8.1569951078097110E-003   5.0585105030931679E-002
   6.0618475948391301E-002  -1.0037822841827238E-002   5.1523975932281307E-002
   6.0922707617491335E-002  -1.1726407314576047E-002   5.2250820890713028E-002
   6.1226939286591363E-002  -1.3222748526056169E-002   5.2765639906226895E-002
   6.1531170955691376E-002  -1.4526846476267542E-002   5.3068432978822848E-002
   5.2408729899716379E-002  -6.9271681138564061E-003   4.9993373256701980E-002
   5.2539582419897368E-002  -8.5928139548087819E-003   5.1219023718430429E-002
   5.2670434940078351E-002  -1.0071181013918950E-002   5.2309941825238689E-002
   5.2801287460259333E-002  -1.1362269291186937E-002   5.3266127577126669E-002
   5.2932139980440315E-002  -1.2466078786612704E-002   5.4087580974094558E-002
   4.4561587264966000E-002  -5.6973411199030986E-003   4.9619305615250700E-002
   4.4596354224225629E-002  -7.1478050677903238E-003   5.1126771157931433E-002
   4.4631121183485264E-002  -8.4159547132618730E-003   5.2576797933689683E-002
   4.4665888142744907E-002  -9.5017900563177122E-003   5.3969385942525420E-002
   4.4700655102004536E-002  -1.0405311096957862E-002   5.5304535184438647E-002
   3.6772816375040145E-002  -4.4675141259497911E-003   4.9462902106577826E-002
   3.6788791361376118E-002  -5.7027961807718701E-003   5.1247218250784356E-002
   3.6804766347712084E-002  -6.7607284126047686E-003   5.3051389216066093E-002
   3.6820741334048057E-002  -7.6413108214484987E-003   5.4875415002423024E-002
   3.6836716320384016E-002  -8.3445434073030223E-003   5.6719295609855093E-002
   2.9042417229938798E-002  -3.2376871319964836E-003   4.9524162730683323E-002
   2.9116893831348800E-002  -4.2577872937534147E-003   5.1580364996989155E-002
   2.9191370432758799E-002  -5.1055021119476981E-003   5.3733715672367864E-002
   2.9265847034168797E-002  -5.7808315865792784E-003   5.5984214756819438E-002
   2.9340323635578792E-002  -6.2837757176481823E-003   5.8331862250343897E-002
   6.1531170955691376E-002  -1.4526846476267542E-002   5.3068432978822848E-002
   6.0211162168608633E-002  -1.5536508440547540E-002   5.1647876000794506E-002
   5.8891153381525882E-002  -1.6149541694233452E-002   5.0673223076019389E-002
   5.7571144594443110E-002  -1.6365946237325363E-002   5.0144474204497552E-002
   5.6251135807360367E-002  -1.6185722069823077E-002   5.0061629386228934E-002
   5.2932139980440315E-002  -1.2466078786612704E-002   5.4087580974094558E-002
   5.2007166172566788E-002  -1.3319822447061151E-002   5.3338441818190710E-002
   5.1082192364693253E-002  -1.3860713219397134E-002   5.2933468567452041E-002
   5.0157218556819719E-002  -1.4088751103620671E-002   5.2872661221878531E-002
   4.9232244748946184E-002  -1.4003936099731704E-002   5.3156019781470193E-002
   4.4700655102004536E-002  -1.0405311096957862E-002   5.5304535184438647E-002
   4.4068978125252144E-002  -1.1103136453574757E-002   5.5143038028177688E-002
   4.3437301148499745E-002  -1.1571884744560799E-002   5.5223968628993841E-002
   4.2805624171747346E-002  -1.1811555969916019E-002   5.5547326986887059E-002
   4.2173947194994940E-002  -1.1822150129640371E-002   5.6113113101857390E-002
   3.6836716320384016E-002  -8.3445434073030223E-003   5.6719295609855093E-002
   3.6396598026664680E-002  -8.8864504600883586E-003   5.7061664630755425E-002
   3.5956479732945343E-002  -9.2830562697244871E-003   5.7544723260644755E-002
   3.5516361439226013E-002  -9.5343608362113228E-003   5.8168471499523103E-002
   3.5076243145506669E-002  -9.6403641595490044E-003   5.8932909347390441E-002
   2.9340323635578792E-002  -6.2837757176481823E-003   5.8331862250343897E-002
   2.8990025876804437E-002  -6.6697644666019809E-003   5.9094321625923867E-002
   2.8639728118030072E-002  -6.9942277948881124E-003   5.9895732462404774E-002
   2.8289430359255699E-002  -7.2571657025066929E-003   6.0736094759786592E-002
   2.7939132600481351E-002  -7.4585781894576653E-003   6.1615408518069348E-002
   5.6251135807360367E-002  -1.6185722069823077E-002   5.0061629386228934E-002
   5.4729802879932010E-002  -1.5815172542808842E-002   4.9761443516419437E-002
   5.3208469952503633E-002  -1.5460601007364752E-002   4.9652396938712776E-002
   5.1687137025075242E-002  -1.5122007463490881E-002   4.9734489653108852E-002
   5.0165804097646899E-002  -1.4799391911187093E-002   5.0007721659607707E-002
   4.9232244748946184E-002  -1.4003936099731704E-002   5.3156019781470193E-002
   4.7905292164426024E-002  -1.3756909890972682E-002   5.2817464231957920E-002
   4.6578339579905870E-002  -1.3498314160585844E-002   5.2676530076159245E-002
   4.5251386995385695E-002  -1.3228148908571321E-002   5.2733217314074154E-002
   4.3924434410865520E-002  -1.2946414134929113E-002   5.2987525945702760E-002
   4.2173947194994940E-002  -1.1822150129640371E-002   5.6113113101857390E-002
   4.1047857054993815E-002  -1.1698647239136467E-002   5.5763735385840160E-002
   3.9921766914992725E-002  -1.1536027313806992E-002   5.5618461165147341E-002
   3.8795676774991600E-002  -1.1334290353651843E-002   5.5677290439779037E-002
   3.7669586634990489E-002  -1.1093436358671091E-002   5.5940223209735178E-002
   3.5076243145506669E-002  -9.6403641595490044E-003   5.8932909347390441E-002
   3.4157497551635441E-002  -9.6403845873002936E-003   5.8600256978066124E-002
   3.3238751957764233E-002  -9.5737404670280836E-003   5.8478190205677197E-002
   3.2320006363893011E-002  -9.4404317987323502E-003   5.8566709030223436E-002
   3.1401260770021783E-002  -9.2404585824131316E-003   5.8865813451705190E-002
   2.7939132600481351E-002  -7.4585781894576653E-003   6.1615408518069348E-002
   2.7234213654350858E-002  -7.5821219354640784E-003   6.1327029008635944E-002
   2.6529294708220380E-002  -7.6114536202492450E-003   6.1255717197748680E-002
   2.5824375762089905E-002  -7.5465732438128215E-003   6.1401473085407540E-002
   2.5119456815959423E-002  -7.3874808061550890E-003   6.1764296671612512E-002
   5.0165804097646899E-002  -1.4799391911187093E-002   5.0007721659607707E-002
   4.8592965140261540E-002  -1.4456061800406192E-002   4.9692645427549226E-002
   4.7020126182876140E-002  -1.4055324581101029E-002   4.9586521063591418E-002
   4.5447287225490761E-002  -1.3597180253271555E-002   4.9689348567734069E-002
   4.3874448268105409E-002  -1.3081628816917712E-002   5.0001127939977408E-002
   4.3924434410865520E-002  -1.2946414134929113E-002   5.2987525945702760E-002
   4.2557732572179693E-002  -1.2637349991332605E-002   5.2706405038552159E-002
   4.1191030733493880E-002  -1.2285196629455590E-002   5.2628606500700149E-002
   3.9824328894808067E-002  -1.1889954049298017E-002   5.2754130332146404E-002
   3.8457627056122240E-002  -1.1451622250859717E-002   5.3082976532891540E-002
   3.7669586634990489E-002  -1.1093436358671091E-002   5.5940223209735178E-002
   3.6503392416202200E-002  -1.0818638182259054E-002   5.5678739737248607E-002
   3.5337198197413919E-002  -1.0515068677810210E-002   5.5614949135258551E-002
   3.4171003978625616E-002  -1.0182727845324452E-002   5.5748851403765065E-002
   3.3004809759837335E-002  -9.8216156848018599E-003   5.6080446542767989E-002
   3.1401260770021783E-002  -9.2404585824131316E-003   5.8865813451705190E-002
   3.0429944672328998E-002  -8.9999263731854705E-003   5.8609649523638910E-002
   2.9458628574636221E-002  -8.7449407261648276E-003   5.8545548967267103E-002
   2.8487312476943420E-002  -8.4755016413509549E-003   5.8673511782589879E-002
   2.7515996379250625E-002  -8.1916091187439061E-003   5.8993537969607088E-002
   2.5119456815959423E-002  -7.3874808061550890E-003   6.1764296671612512E-002
   2.4337389340560116E-002  -7.1812145641119290E-003   6.1499134397722838E-002
   2.3555321865160808E-002  -6.9748127745193483E-003   6.1420405996725658E-002
   2.2773254389761508E-002  -6.7682754373774474E-003   6.1528111468621000E-002
   2.1991186914362207E-002  -6.5616025526860633E-003   6.1822250813408641E-002
   4.3874448268105409E-002  -1.3081628816917712E-002   5.0001127939977408E-002
   4.2261593801777547E-002  -1.2550937795815009E-002   4.9778979456976458E-002
   4.0648739335449699E-002  -1.2047374713739470E-002   4.9736523664104498E-002
   3.9035884869121858E-002  -1.1570939570690792E-002   4.9873760561361419E-002
   3.7423030402794016E-002  -1.1121632366668910E-002   5.0190690148747219E-002
   3.8457627056122240E-002  -1.1451622250859717E-002   5.3082976532891540E-002
   3.7028700011146137E-002  -1.0998780423871368E-002   5.2808468146707949E-002
   3.5599772966170048E-002  -1.0560007758063317E-002   5.2722121913099051E-002
   3.4170845921193932E-002  -1.0135304253435187E-002   5.2823937832064724E-002
   3.2741918876217857E-002  -9.7246699099876599E-003   5.3113915903604786E-002
   3.3004809759837335E-002  -9.8216156848018599E-003   5.6080446542767989E-002
   3.1768279598658578E-002  -9.4466230519275884E-003   5.5766637031248623E-002
   3.0531749437479844E-002  -9.0726408023868790E-003   5.5649459134749578E-002
   2.9295219276301077E-002  -8.6996689361797473E-003   5.5728912853270446E-002
   2.8058689115122354E-002  -8.3277074533062156E-003   5.6004998186811566E-002
   2.7515996379250625E-002  -8.1916091187439061E-003   5.8993537969607088E-002
   2.6480332564314847E-002  -7.8944656799838503E-003   5.8653486110598577E-002
   2.5444668749379073E-002  -7.5852738467106114E-003   5.8518535329055758E-002
   2.4409004934443285E-002  -7.2640336189243359E-003   5.8588685624978758E-002
   2.3373341119507493E-002  -6.9307449966248130E-003   5.8863936998367540E-002
   2.1991186914362207E-002  -6.5616025526860633E-003   6.1822250813408641E-002
   2.1164858908114981E-002  -6.3423083080401677E-003   6.1469015384757630E-002
   2.0338530901867748E-002  -6.0979068910342743E-003   6.1329350496017870E-002
   1.9512202895620504E-002  -5.8283983016687267E-003   6.1403256147189542E-002
   1.8685874889373288E-002  -5.5337825399434659E-003   6.1690732338272602E-002
   3.7423030402794016E-002  -1.1121632366668910E-002   5.0190690148747219E-002
   3.5796502124071511E-002  -1.0657679524730318E-002   4.9898353959291708E-002
   3.4169973845348978E-002  -1.0137307467931594E-002   4.9835911894952206E-002
   3.2543445566626472E-002  -9.5605161962725935E-003   5.0003363955728852E-002
   3.0916917287903967E-002  -8.9273057097529196E-003   5.0400710141621785E-002
   3.2741918876217857E-002  -9.7246699099876599E-003   5.3113915903604786E-002
   3.1338329117662170E-002  -9.3013990808585023E-003   5.2860386548382016E-002
   2.9934739359106524E-002  -8.8387861191863148E-003   5.2822840108376803E-002
   2.8531149600550851E-002  -8.3368310249711808E-003   5.3001276583588934E-002
   2.7127559841995191E-002  -7.7955337982128503E-003   5.3395695974018442E-002
   2.8058689115122354E-002  -8.3277074533062156E-003   5.6004998186811566E-002
   2.6864126666834763E-002  -7.9451186369865617E-003   5.5773198583504463E-002
   2.5669564218547172E-002  -7.5402647704411047E-003   5.5743470685516106E-002
   2.4475001770259595E-002  -7.1131458536698271E-003   5.5915814492846418E-002
   2.3280439321971991E-002  -6.6637618866725867E-003   5.6290230005495365E-002
   2.3373341119507493E-002  -6.9307449966248130E-003   5.8863936998367540E-002
   2.2373894771589208E-002  -6.5888381931145726E-003   5.8636790064658939E-002
   2.1374448423670943E-002  -6.2417434216956655E-003   5.8597803626370140E-002
   2.0375002075752657E-002  -5.8894606823684439E-003   5.8746977683501421E-002
   1.9375555727834365E-002  -5.5319899751323093E-003   5.9084312236052552E-002
   1.8685874889373288E-002  -5.5337825399434659E-003   6.1690732338272602E-002
   1.7867633431925545E-002  -5.2325577492427500E-003   6.1451160991845222E-002
   1.7049391974477815E-002  -4.9432220729505871E-003   6.1385838930938907E-002
   1.6231150517030078E-002  -4.6657755110671648E-003   6.1494766155553771E-002
   1.5412909059582341E-002  -4.4002180635921984E-003   6.1777942665689867E-002
   3.0916917287903967E-002  -8.9273057097529196E-003   5.0400710141621785E-002
   2.9005748878899146E-002  -8.3002643781786012E-003   5.0450310240030882E-002
   2.7094580469894325E-002  -7.7419805713549589E-003   5.0914615250073431E-002
   2.5183412060889504E-002  -7.2524542892819961E-003   5.1793625171749444E-002
   2.3272243651884683E-002  -6.8316855319594527E-003   5.3087340005059103E-002
   2.7127559841995191E-002  -7.7955337982128503E-003   5.3395695974018442E-002
   2.5592049235291472E-002  -7.2552596420926707E-003   5.3293412989695865E-002
   2.4056538628587754E-002  -6.7563737597916840E-003   5.3527740698342041E-002
   2.2521028021884049E-002  -6.2988761513100358E-003   5.4098679099956554E-002
   2.0985517415180344E-002  -5.8827668166475666E-003   5.5006228194539819E-002
   2.3280439321971991E-002  -6.6637618866725867E-003   5.6290230005495365E-002
   2.2042492298904592E-002  -6.2102549060065459E-003   5.6063433189372375E-002
   2.0804545275837180E-002  -5.7707669482284021E-003   5.6095152847553349E-002
   1.9566598252769803E-002  -5.3452980133380460E-003   5.6385388980038045E-002
   1.8328651229702342E-002  -4.9338481013357915E-003   5.6934141586826581E-002
   1.9375555727834365E-002  -5.5319899751323093E-003   5.9084312236052552E-002
   1.8357078069738499E-002  -5.1652501699204628E-003   5.8760370839060418E-002
   1.7338600411642632E-002  -4.7851601366651793E-003   5.8616851697707563E-002
   1.6320122753546780E-002  -4.3917198753663485E-003   5.8653754811993419E-002
   1.5301645095450872E-002  -3.9849293860239055E-003   5.8871080181918875E-002
   1.5412909059582341E-002  -4.4002180635921984E-003   6.1777942665689867E-002
   1.4535806547793212E-002  -4.1202454338343797E-003   6.1384225938760029E-002
   1.3658704036004082E-002  -3.7995533251018038E-003   6.1092837248804516E-002
   1.2781601524214925E-002  -3.4381417373943075E-003   6.0903776595823286E-002
   1.1904499012425851E-002  -3.0360106707121304E-003   6.0817043979816576E-002
   2.6634072661628955E-002   0.0000000000000000        2.9464558393773738E-002
   2.7236158803706417E-002  -5.8676849509475305E-004   3.4941052058345079E-002
   2.7838244945783876E-002  -1.3219725154590828E-003   4.0109817336020454E-002
   2.8440331087861336E-002  -2.2056120610929979E-003   4.4970854226799854E-002
   2.9042417229938798E-002  -3.2376871319964836E-003   4.9524162730683323E-002
   2.0116718326194154E-002   0.0000000000000000        2.9016076503552951E-002
   2.0450377794328605E-002  -4.4007637039060465E-004   3.4307881575374330E-002
   2.0784037262463053E-002  -9.9147938559920618E-004   3.9370561686205646E-002
   2.1117696730597508E-002  -1.6542090456257976E-003   4.4204116836046914E-002
   2.1451356198731952E-002  -2.4282653504703999E-003   4.8808547024898105E-002
   1.3505254770100230E-002   0.0000000000000000        2.8695732297810524E-002
   1.3649090990197571E-002  -2.9338424568645799E-004   3.3839957657333525E-002
   1.3792927210294913E-002  -6.6098625573932958E-004   3.8833661481772364E-002
   1.3936763430392253E-002  -1.1028060301586113E-003   4.3676843771127037E-002
   1.4080599650489597E-002  -1.6188435689443088E-003   4.8369504525397553E-002
   6.7996819933471807E-003   0.0000000000000000        2.8503525776546450E-002
   6.8322983913133139E-003  -1.4669212098231002E-004   3.3537280304222650E-002
   6.8649147892794471E-003  -3.3049312587944950E-004   3.8499116722720592E-002
   6.8975311872455803E-003  -5.5140301469142495E-004   4.3389035032040286E-002
   6.9301475852117135E-003  -8.0942178741821966E-004   4.8207035232181727E-002
  -4.0649922664059979E-012   0.0000000000000000        2.8439456939760733E-002
  -2.3241669006024424E-012   3.7218370746439078E-012   3.3399849516041719E-002
  -5.8333980007541086E-013   3.9804236295903905E-012   3.8366927409050358E-002
   1.1574864330898826E-012   7.7577180790378009E-013   4.3340690618786634E-002
   2.8983117988934382E-012  -5.8921366050124213E-012   4.8321139145250554E-002
   2.9042417229938798E-002  -3.2376871319964836E-003   4.9524162730683323E-002
   2.9116893831348800E-002  -4.2577872937534147E-003   5.1580364996989155E-002
   2.9191370432758799E-002  -5.1055021119476981E-003   5.3733715672367864E-002
   2.9265847034168797E-002  -5.7808315865792784E-003   5.5984214756819438E-002
   2.9340323635578792E-002  -6.2837757176481823E-003   5.8331862250343897E-002
   2.1451356198731952E-002  -2.4282653504703999E-003   4.8808547024898105E-002
   2.1594039319157529E-002  -3.1933404728511816E-003   5.1206949060765256E-002
   2.1736722439583109E-002  -3.8291265854863764E-003   5.3644615725590698E-002
   2.1879405560008686E-002  -4.3356236883759485E-003   5.6121547019374440E-002
   2.2022088680434263E-002  -4.7128317815199258E-003   5.8637742942116454E-002
   1.4080599650489597E-002  -1.6188435689443088E-003   4.8369504525397553E-002
   1.4233605509816158E-002  -2.1288936519489416E-003   5.1067009997008972E-002
   1.4386611369142720E-002  -2.5527510590250542E-003   5.3745896317464084E-002
   1.4539617228469278E-002  -2.8904157901726256E-003   5.6406163486762875E-002
   1.4692623087795844E-002  -3.1418878453916832E-003   5.9047811504905394E-002
   6.9301475852117135E-003  -8.0942178741821966E-004   4.8207035232181727E-002
   7.0355924033246716E-003  -1.0644468310467086E-003   5.1160547805720311E-002
   7.1410372214376272E-003  -1.2763755325637357E-003   5.4037557447988008E-002
   7.2464820395505844E-003  -1.4452078919693061E-003   5.6838064158984812E-002
   7.3519268576635374E-003  -1.5709439092634406E-003   5.9562067938710668E-002
   2.8983117988934382E-012  -5.8921366050124213E-012   4.8321139145250554E-002
  -3.1692443808184478E-013  -1.0144474670015224E-011   5.1487562486899258E-002
  -3.5321641445040797E-012  -6.1024143637594674E-012   5.4519599117162462E-002
  -6.7474021162028386E-012   6.2340157450276046E-012   5.7417249036040174E-002
  -9.9626400879015975E-012   2.6864815927396535E-011   6.0180512243532408E-002
   2.9340323635578792E-002  -6.2837757176481823E-003   5.8331862250343897E-002
   2.8990025876804437E-002  -6.6697644666019809E-003   5.9094321625923867E-002
   2.8639728118030072E-002  -6.9942277948881124E-003   5.9895732462404774E-002
   2.8289430359255699E-002  -7.2571657025066929E-003   6.0736094759786592E-002
   2.7939132600481351E-002  -7.4585781894576653E-003   6.1615408518069348E-002
   2.2022088680434263E-002  -4.7128317815199258E-003   5.8637742942116454E-002
   2.1722898127171347E-002  -5.0023233400500501E-003   5.9454962164887853E-002
   2.1423707573908442E-002  -5.2456708390980784E-003   6.0335444337781291E-002
   2.1124517020645533E-002  -5.4428742786640505E-003   6.1279189460796649E-002
   2.0825326467382620E-002  -5.5939336587479266E-003   6.2286197533933982E-002
   1.4692623087795844E-002  -3.1418878453916832E-003   5.9047811504905394E-002
   1.4468851229265414E-002  -3.3348822134981922E-003   5.9904409213682758E-002
   1.4245079370734982E-002  -3.4971138833080860E-003   6.0848581361803170E-002
   1.4021307512204552E-002  -3.6285828548214367E-003   6.1880327949266602E-002
   1.3797535653674118E-002  -3.7292891280381602E-003   6.2999648976072922E-002
   7.3519268576635374E-003  -1.5709439092634406E-003   5.9562067938710668E-002
   7.2278851830866195E-003  -1.6674410869462909E-003   6.0442662772308572E-002
   7.1038435085096956E-003  -1.7485569275180867E-003   6.1435143534470472E-002
   6.9798018339327778E-003  -1.8142914309787947E-003   6.2539510225196340E-002
   6.8557601593558530E-003  -1.8646445973284353E-003   6.3755762844486266E-002
  -9.9626400879015975E-012   2.6864815927396535E-011   6.0180512243532408E-002
  -1.1365026107712506E-011   3.9605589641222849E-011   6.1069722840765214E-002
  -1.2767412994885152E-011   2.8271916058253410E-011   6.2095130855783075E-002
  -1.4169800749419537E-011  -7.1361657902335729E-012   6.3256736288585996E-002
  -1.5572185901868707E-011  -6.6618668914664170E-011   6.4554539139173958E-002
   2.7939132600481351E-002  -7.4585781894576653E-003   6.1615408518069348E-002
   2.7234213654350858E-002  -7.5821219354640784E-003   6.1327029008635944E-002
   2.6529294708220380E-002  -7.6114536202492450E-003   6.1255717197748680E-002
   2.5824375762089905E-002  -7.5465732438128215E-003   6.1401473085407540E-002
   2.5119456815959423E-002  -7.3874808061550890E-003   6.1764296671612512E-002
   2.0825326467382620E-002  -5.5939336587479266E-003   6.2286197533933982E-002
   2.0327265731527294E-002  -5.6865914785654489E-003   6.2156059416755720E-002
   1.9829204995671978E-002  -5.7085902373324136E-003   6.2222570021581665E-002
   1.9331144259816663E-002  -5.6599299350489343E-003   6.2485729348411720E-002
   1.8833083523961340E-002  -5.5406105717147880E-003   6.2945537397246051E-002
   1.3797535653674118E-002  -3.7292891280381602E-003   6.2999648976072922E-002
   1.3485914151551977E-002  -3.7910610216667570E-003   6.3004199250979040E-002
   1.3174292649429821E-002  -3.8057268544157211E-003   6.3184979271347336E-002
   1.2862671147307672E-002  -3.7732866262849361E-003   6.3541989037177768E-002
   1.2551049645185532E-002  -3.6937403372744593E-003   6.4075228548470420E-002
   6.8557601593558530E-003  -1.8646445973284353E-003   6.3755762844486266E-002
   6.7101589144248804E-003  -1.8955305647681102E-003   6.3871448511305884E-002
   6.5645576694939086E-003  -1.9028634714989036E-003   6.4142944947045671E-002
   6.4189564245629351E-003  -1.8866433175209517E-003   6.4570252151705643E-002
   6.2733551796319616E-003  -1.8468701028341028E-003   6.5153370125285812E-002
  -1.5572185901868707E-011  -6.6618668914664170E-011   6.4554539139173958E-002
   2.0146025472844720E-011  -1.0786940785045829E-010   6.4757807197736203E-002
   5.5864238582281622E-011  -8.8582228358058401E-011   6.5096467048676637E-002
   9.1582450824356787E-011  -8.7570168130768344E-012   6.5570518691995247E-002
   1.2730066306643195E-010   1.3160617040597344E-010   6.6179962127692060E-002
   2.5119456815959423E-002  -7.3874808061550890E-003   6.1764296671612512E-002
   2.4337389340560116E-002  -7.1812145641119290E-003   6.1499134397722838E-002
   2.3555321865160808E-002  -6.9748127745193483E-003   6.1420405996725658E-002
   2.2773254389761508E-002  -6.7682754373774474E-003   6.1528111468621000E-002
   2.1991186914362207E-002  -6.5616025526860633E-003   6.1822250813408641E-002
   1.8833083523961340E-002  -5.5406105717147880E-003   6.2945537397246051E-002
   1.8239720666825603E-002  -5.3859108544283829E-003   6.2687103879151357E-002
   1.7646357809689883E-002  -5.2311094902880717E-003   6.2619645724691447E-002
   1.7052994952554155E-002  -5.0762064792937781E-003   6.2743162933866142E-002
   1.6459632095418418E-002  -4.9212018214454534E-003   6.3057655506675553E-002
   1.2551049645185532E-002  -3.6937403372744593E-003   6.4075228548470420E-002
   1.2150932897055581E-002  -3.5906071447448853E-003   6.3823489885475426E-002
   1.1750816148925626E-002  -3.4874062060567326E-003   6.3767268076857342E-002
   1.1350699400795675E-002  -3.3841375212101347E-003   6.3906563122616056E-002
   1.0950582652665724E-002  -3.2808010902049267E-003   6.4241375022751721E-002
   6.2733551796319616E-003  -1.8468701028341028E-003   6.5153370125285812E-002
   6.0710260312500011E-003  -1.7953034350613913E-003   6.4908292416695018E-002
   5.8686968828680396E-003  -1.7437029218254525E-003   6.4863273053223189E-002
   5.6663677344860851E-003  -1.6920685631264228E-003   6.5018312034870629E-002
   5.4640385861041132E-003  -1.6404003589643584E-003   6.5373409361637005E-002
   1.2730066306643195E-010   1.3160617040597344E-010   6.6179962127692060E-002
   6.9408895297939921E-011   2.7462215834717085E-010   6.5941511472809994E-002
   1.1517127529447890E-011   3.6240595246983531E-010   6.5907660653789196E-002
  -4.6374642841129354E-011   3.9495720929871858E-010   6.6078409670629737E-002
  -1.0426640800753617E-010   3.7227620985902377E-010   6.6453758523331519E-002
   2.1991186914362207E-002  -6.5616025526860633E-003   6.1822250813408641E-002
   2.1164858908114981E-002  -6.3423083080401677E-003   6.1469015384757630E-002
   2.0338530901867748E-002  -6.0979068910342743E-003   6.1329350496017870E-002
   1.9512202895620504E-002  -5.8283983016687267E-003   6.1403256147189542E-002
   1.8685874889373288E-002  -5.5337825399434659E-003   6.1690732338272602E-002
   1.6459632095418418E-002  -4.9212018214454534E-003   6.3057655506675553E-002
   1.5845127492129643E-002  -4.7567311681754321E-003   6.2747147075437382E-002
   1.5230622888840872E-002  -4.5734301709160069E-003   6.2646714910204654E-002
   1.4616118285552098E-002  -4.3712988296669315E-003   6.2756359010977536E-002
   1.4001613682263325E-002  -4.1503371444282511E-003   6.3076079377755889E-002
   1.0950582652665724E-002  -3.2808010902049267E-003   6.4241375022751721E-002
   1.0544407178429600E-002  -3.1711540283108630E-003   6.3967316760556142E-002
   1.0138231704193467E-002  -3.0489534507975244E-003   6.3899840490460130E-002
   9.7320562299573442E-003  -2.9141993576649160E-003   6.4038946212463921E-002
   9.3258807557212095E-003  -2.7668917489130640E-003   6.4384633926567542E-002
   5.4640385861041132E-003  -1.6404003589643584E-003   6.5373409361637005E-002
   5.2626979670148313E-003  -1.5855768884461829E-003   6.5129524440113704E-002
   5.0613573479255502E-003  -1.5244767306791494E-003   6.5088727236784244E-002
   4.8600167288362622E-003  -1.4570998856630107E-003   6.5251017751648752E-002
   4.6586761097469880E-003  -1.3834463533978075E-003   6.5616395984707171E-002
  -1.0426640800753617E-010   3.7227620985902377E-010   6.6453758523331519E-002
  -1.4211465337865548E-010   2.5141844162135385E-010   6.6233770114110219E-002
  -1.7996290568866868E-010  -1.0560802232717492E-011   6.6213375149177051E-002
  -2.1781115279451146E-010  -4.1366094577499624E-010   6.6392573628532014E-002
  -2.5565940336980120E-010  -9.5788260656703983E-010   6.6771365552175110E-002
   1.8685874889373288E-002  -5.5337825399434659E-003   6.1690732338272602E-002
   1.7867633431925545E-002  -5.2325577492427500E-003   6.1451160991845222E-002
   1.7049391974477815E-002  -4.9432220729505871E-003   6.1385838930938907E-002
   1.6231150517030078E-002  -4.6657755110671648E-003   6.1494766155553771E-002
   1.5412909059582341E-002  -4.4002180635921984E-003   6.1777942665689867E-002
   1.4001613682263325E-002  -4.1503371444282511E-003   6.3076079377755889E-002
   1.3365199293535406E-002  -3.9244186734134767E-003   6.2842211151672323E-002
   1.2728784904807507E-002  -3.7074169748350927E-003   6.2797747777507185E-002
   1.2092370516079590E-002  -3.4993320486938970E-003   6.2942689255260559E-002
   1.1455956127351688E-002  -3.3001638949894385E-003   6.3277035584932362E-002
   9.3258807557212095E-003  -2.7668917489130640E-003   6.4384633926567542E-002
   8.8864490021104518E-003  -2.6162795975840647E-003   6.4159441162799619E-002
   8.4470172484997046E-003  -2.4716118767200007E-003   6.4138808817347417E-002
   8.0075854948889452E-003  -2.3328885863207992E-003   6.4322736890210952E-002
   7.5681537412781857E-003  -2.2001097263865954E-003   6.4711225381390555E-002
   4.6586761097469880E-003  -1.3834463533978075E-003   6.5616395984707171E-002
   4.4313825576506993E-003  -1.3081405217548053E-003   6.5402851025226860E-002
   4.2040890055544270E-003  -1.2358067786046520E-003   6.5409022050459481E-002
   3.9767954534581512E-003  -1.1664451239475609E-003   6.5634909060405353E-002
   3.7495019013618729E-003  -1.1000555577837384E-003   6.6080512055064419E-002
  -2.5565940336980120E-010  -9.5788260656703983E-010   6.6771365552175110E-002
  -3.9843871257883023E-011  -1.4459254071841343E-009   6.6572440738954020E-002
   1.7597166432348210E-010  -1.6804894420463512E-009   6.6608387476843556E-002
   3.9178719643540028E-010  -1.6615745238035551E-009   6.6879205765843497E-002
   6.0760273201676540E-010  -1.3891809369503960E-009   6.7384895605953898E-002
   1.5412909059582341E-002  -4.4002180635921984E-003   6.1777942665689867E-002
   1.4535806547793212E-002  -4.1202454338343797E-003   6.1384225938760029E-002
   1.3658704036004082E-002  -3.7995533251018038E-003   6.1092837248804516E-002
   1.2781601524214925E-002  -3.4381417373943075E-003   6.0903776595823286E-002
   1.1904499012425851E-002  -3.0360106707121304E-003   6.0817043979816576E-002
   1.1455956127351688E-002  -3.3001638949894385E-003   6.3277035584932362E-002
   1.0710418522740531E-002  -3.0901843161811882E-003   6.3017335825172771E-002
   9.9648809181293804E-003  -2.8496651147288110E-003   6.2918437842794939E-002
   9.2193433135182405E-003  -2.5786062906323556E-003   6.2980341637798670E-002
   8.4738057089071006E-003  -2.2770078438918429E-003   6.3203047210184105E-002
   7.5681537412781857E-003  -2.2001097263865954E-003   6.4711225381390555E-002
   7.0126547842523021E-003  -2.0601231985280521E-003   6.4575362732470637E-002
   6.4571558272264115E-003  -1.8997769043559223E-003   6.4658775601339646E-002
   5.9016568702005279E-003  -1.7190708438704575E-003   6.4961463987997473E-002
   5.3461579131746512E-003  -1.5180050170713333E-003   6.5483427892444157E-002
   3.7495019013618729E-003  -1.1000555577837384E-003   6.6080512055064419E-002
   3.4425153323285104E-003  -1.0300620808748329E-003   6.6058306660653349E-002
   3.1355287632951374E-003  -9.4988869398303713E-004   6.6313850524438681E-002
   2.8285421942617593E-003  -8.5953539710847699E-004   6.6847143646420096E-002
   2.5215556252284090E-003  -7.5900219025099025E-004   6.7658186026597664E-002
   6.0760273201676540E-010  -1.3891809369503960E-009   6.7384895605953898E-002
   1.6696914684199982E-010  -9.6322178011476467E-010   6.7466167609721239E-002
  -2.7366443139387187E-010  -4.8360999926888582E-010   6.7883662612092138E-002
  -7.1429800789502007E-010   4.9653430672647048E-011   6.8637380613066387E-002
  -1.1549315948045091E-009   6.3656946380774571E-010   6.9727321612644166E-002
  -4.0649922664059979E-012   0.0000000000000000        2.8439456939760733E-002
  -2.3241669006024424E-012   3.7218370746439078E-012   3.3399849516041719E-002
  -5.8333980007541086E-013   3.9804236295903905E-012   3.8366927409050358E-002
   1.1574864330898826E-012   7.7577180790378009E-013   4.3340690618786634E-002
   2.8983117988934382E-012  -5.8921366050124213E-012   4.8321139145250554E-002
  -6.7996820009060223E-003   0.0000000000000000        2.8503525785600975E-002
  -6.8322983956542200E-003   1.4669212593058402E-004   3.3537280308438645E-002
  -6.8649147904024169E-003   3.3049313126829773E-004   3.8499116721570630E-002
  -6.8975311851506163E-003   5.5140301601313939E-004   4.3389035024996921E-002
  -6.9301475798988123E-003   8.0942178016510553E-004   4.8207035218717532E-002
  -1.3505254775945646E-002   0.0000000000000000        2.8695732312214769E-002
  -1.3649090993616197E-002   2.9338424813933183E-004   3.3839957664479510E-002
  -1.3792927211286752E-002   6.6098625855616835E-004   3.8833661480605214E-002
  -1.3936763428957305E-002   1.1028060312505087E-003   4.3676843760591902E-002
  -1.4080599646627856E-002   1.6188435662223542E-003   4.8369504504439574E-002
  -2.0116718329183859E-002   0.0000000000000000        2.9016076519602137E-002
  -2.0450377796210104E-002   4.4007637034808008E-004   3.4307881584164299E-002
  -2.0784037263236348E-002   9.9147938584403985E-004   3.9370561686154118E-002
  -2.1117696730262585E-002   1.6542090464878754E-003   4.4204116825571557E-002
  -2.1451356197288829E-002   2.4282653522795994E-003   4.8808547002416651E-002
  -2.6634072660620664E-002   0.0000000000000000        2.9464558407763054E-002
  -2.7236158803435925E-002   5.8676849255682659E-004   3.4941052067493025E-002
  -2.7838244946251200E-002   1.3219725131319113E-003   4.0109817338217307E-002
  -2.8440331089066462E-002   2.2056120617252473E-003   4.4970854219935914E-002
  -2.9042417231881727E-002   3.2376871383368458E-003   4.9524162712648818E-002
   2.8983117988934382E-012  -5.8921366050124213E-012   4.8321139145250554E-002
  -3.1692443808184478E-013  -1.0144474670015224E-011   5.1487562486899258E-002
  -3.5321641445040797E-012  -6.1024143637594674E-012   5.4519599117162462E-002
  -6.7474021162028386E-012   6.2340157450276046E-012   5.7417249036040174E-002
  -9.9626400879015975E-012   2.6864815927396535E-011   6.0180512243532408E-002
  -6.9301475798988123E-003   8.0942178016510553E-004   4.8207035218717532E-002
  -7.0355924040561412E-003   1.0644468184465442E-003   5.1160547805450783E-002
  -7.1410372282134692E-003   1.2763755255797708E-003   5.4037557461685350E-002
  -7.2464820523708015E-003   1.4452079015648128E-003   5.6838064187421232E-002
  -7.3519268765281269E-003   1.5709439464016289E-003   5.9562067982658416E-002
  -1.4080599646627856E-002   1.6188435662223542E-003   4.8369504504439574E-002
  -1.4233605510840481E-002   2.1288936470375522E-003   5.1067009996814808E-002
  -1.4386611375053104E-002   2.5527510572619905E-003   5.3745896339578166E-002
  -1.4539617239265728E-002   2.8904157968956136E-003   5.6406163532729613E-002
  -1.4692623103478356E-002   3.1418878659384697E-003   5.9047811576269149E-002
  -2.1451356197288829E-002   2.4282653522795994E-003   4.8808547002416651E-002
  -2.1594039320669955E-002   3.1933404756285654E-003   5.1206949060991297E-002
  -2.1736722444051067E-002   3.8291265889441829E-003   5.3644615750840847E-002
  -2.1879405567432189E-002   4.3356236922264266E-003   5.6121547071965303E-002
  -2.2022088690813311E-002   4.7128317854753105E-003   5.8637743024364641E-002
  -2.9042417231881727E-002   3.2376871383368458E-003   4.9524162712648818E-002
  -2.9116893833544537E-002   4.2577873042195825E-003   5.1580364997980264E-002
  -2.9191370435207357E-002   5.1055021206263939E-003   5.3733715695473444E-002
  -2.9265847036870178E-002   5.7808315875572183E-003   5.5984214805128309E-002
  -2.9340323638532992E-002   6.2837757050121304E-003   5.8331862326944865E-002
  -9.9626400879015975E-012   2.6864815927396535E-011   6.0180512243532408E-002
  -1.1365026107712506E-011   3.9605589641222849E-011   6.1069722840765214E-002
  -1.2767412994885152E-011   2.8271916058253410E-011   6.2095130855783075E-002
  -1.4169800749419537E-011  -7.1361657902335729E-012   6.3256736288585996E-002
  -1.5572185901868707E-011  -6.6618668914664170E-011   6.4554539139173958E-002
  -7.3519268765281269E-003   1.5709439464016289E-003   5.9562067982658416E-002
  -7.2278852044682903E-003   1.6674411409261132E-003   6.0442662778408207E-002
  -7.1038435324084596E-003   1.7485569659741358E-003   6.1435143503297401E-002
  -6.9798018603486316E-003   1.8142914215456942E-003   6.2539510157325978E-002
  -6.8557601882887897E-003   1.8646445076407475E-003   6.3755762740493965E-002
  -1.4692623103478356E-002   3.1418878659384697E-003   5.9047811576269149E-002
  -1.4468851246601959E-002   3.3348822422466749E-003   5.9904409225133889E-002
  -1.4245079389725560E-002   3.4971139036763400E-003   6.0848581314492389E-002
  -1.4021307532849168E-002   3.6285828502275121E-003   6.1880327844344607E-002
  -1.3797535675972767E-002   3.7292890819001709E-003   6.2999648814690543E-002
  -2.2022088690813311E-002   4.7128317854753105E-003   5.8637743024364641E-002
  -2.1722898137766001E-002   5.0023233435672245E-003   5.9454962180942261E-002
  -2.1423707584718697E-002   5.2456708413785658E-003   6.0335444289367997E-002
  -2.1124517031671404E-002   5.4428742789094063E-003   6.1279189349641772E-002
  -2.0825326478624100E-002   5.5939336561595769E-003   6.2286197361763641E-002
  -2.9340323638532992E-002   6.2837757050121304E-003   5.8331862326944865E-002
  -2.8990025877960447E-002   6.6697644448877567E-003   5.9094321645833350E-002
  -2.8639728117387898E-002   6.9942277790807691E-003   5.9895732427924286E-002
  -2.8289430356815356E-002   7.2571657075911778E-003   6.0736094673217604E-002
  -2.7939132596242804E-002   7.4585782304190246E-003   6.1615408381713352E-002
  -1.5572185901868707E-011  -6.6618668914664170E-011   6.4554539139173958E-002
   2.0146025472844720E-011  -1.0786940785045829E-010   6.4757807197736203E-002
   5.5864238582281622E-011  -8.8582228358058401E-011   6.5096467048676637E-002
   9.1582450824356787E-011  -8.7570168130768344E-012   6.5570518691995247E-002
   1.2730066306643195E-010   1.3160617040597344E-010   6.6179962127692060E-002
  -6.8557601882887897E-003   1.8646445076407475E-003   6.3755762740493965E-002
  -6.7101588772517070E-003   1.8955304182378119E-003   6.3871448506538753E-002
  -6.5645575662146216E-003   1.9028633473153651E-003   6.4142945030843126E-002
  -6.4189562551775336E-003   1.8866432948735539E-003   6.4570252313407087E-002
  -6.2733549441404534E-003   1.8468702609122090E-003   6.5153370354230522E-002
  -1.3797535675972767E-002   3.7292890819001709E-003   6.2999648814690543E-002
  -1.3485914123735430E-002   3.7910609443450732E-003   6.3004199246160464E-002
  -1.3174292571498099E-002   3.8057267832130714E-003   6.3184979401771313E-002
  -1.2862671019260771E-002   3.7732865985041111E-003   6.3541989281523090E-002
  -1.2551049467023439E-002   3.6937403902182198E-003   6.4075228885415905E-002
  -2.0825326478624100E-002   5.5939336561595769E-003   6.2286197361763641E-002
  -2.0327265719305140E-002   5.6865914704523277E-003   6.2156059416601205E-002
  -1.9829204959986201E-002   5.7085902191106935E-003   6.2222570161461099E-002
  -1.9331144200667255E-002   5.6599299021346753E-003   6.2485729596343353E-002
  -1.8833083441348302E-002   5.5406105195242722E-003   6.2945537721247863E-002
  -2.7939132596242804E-002   7.4585782304190246E-003   6.1615408381713352E-002
  -2.7234213663960859E-002   7.5821219965595613E-003   6.1327029017861148E-002
  -2.6529294731678917E-002   7.6114536550083191E-003   6.1255717309912590E-002
  -2.5824375799396976E-002   7.5465732057652399E-003   6.1401473257867725E-002
  -2.5119456867115034E-002   7.3874806488302691E-003   6.1764296861726575E-002
   1.2730066306643195E-010   1.3160617040597344E-010   6.6179962127692060E-002
   6.9408895297939921E-011   2.7462215834717085E-010   6.5941511472809994E-002
   1.1517127529447890E-011   3.6240595246983531E-010   6.5907660653789196E-002
  -4.6374642841129354E-011   3.9495720929871858E-010   6.6078409670629737E-002
  -1.0426640800753617E-010   3.7227620985902377E-010   6.6453758523331519E-002
  -6.2733549441404534E-003   1.8468702609122090E-003   6.5153370354230522E-002
  -6.0710259017009768E-003   1.7953037798240645E-003   6.4908292528393391E-002
  -5.8686968592615114E-003   1.7437033860020906E-003   6.4863273067357410E-002
  -5.6663678168220443E-003   1.6920690794460617E-003   6.5018311971122553E-002
  -5.4640387743825694E-003   1.6404008601560716E-003   6.5373409239688929E-002
  -1.2551049467023439E-002   3.6937403902182198E-003   6.4075228885415905E-002
  -1.2150932795312853E-002   3.5906072850260540E-003   6.3823490031121949E-002
  -1.1750816123602275E-002   3.4874064095983051E-003   6.3767268070569094E-002
  -1.1350699451891690E-002   3.3841377639349402E-003   6.3906563003757313E-002
  -1.0950582780181109E-002   3.2808013480359888E-003   6.4241374830686593E-002
  -1.8833083441348302E-002   5.5406105195242722E-003   6.2945537721247863E-002
  -1.8239720611426726E-002   5.3859107902280295E-003   6.2687103980995570E-002
  -1.7646357781505161E-002   5.2311094331944537E-003   6.2619645663424262E-002
  -1.7052994951583585E-002   5.0762064484238889E-003   6.2743162768533950E-002
  -1.6459632121662016E-002   4.9212018359158505E-003   6.3057655296324400E-002
  -2.5119456867115034E-002   7.3874806488302691E-003   6.1764296861726575E-002
  -2.4337389350042593E-002   7.1812142954299774E-003   6.1499134378014325E-002
  -2.3555321832970162E-002   6.9748124567906855E-003   6.1420405845922926E-002
  -2.2773254315897724E-002   6.7682751329127058E-003   6.1528111265452226E-002
  -2.1991186798825280E-002   6.5616023237957677E-003   6.1822250636602460E-002
  -1.0426640800753617E-010   3.7227620985902377E-010   6.6453758523331519E-002
  -1.4211465337865548E-010   2.5141844162135385E-010   6.6233770114110219E-002
  -1.7996290568866868E-010  -1.0560802232717492E-011   6.6213375149177051E-002
  -2.1781115279451146E-010  -4.1366094577499624E-010   6.6392573628532014E-002
  -2.5565940336980120E-010  -9.5788260656703983E-010   6.6771365552175110E-002
  -5.4640387743825694E-003   1.6404008601560716E-003   6.5373409239688929E-002
  -5.2626982250917800E-003   1.5855772513944377E-003   6.5129524133970829E-002
  -5.0613576758009801E-003   1.5244767764234571E-003   6.5088726758242788E-002
  -4.8600171265101803E-003   1.4570994352430342E-003   6.5251017112504611E-002
  -4.6586765772193839E-003   1.3834452278531639E-003   6.5616395196756411E-002
  -1.0950582780181109E-002   3.2808013480359888E-003   6.4241374830686593E-002
  -1.0544407358049434E-002   3.1711542513704338E-003   6.3967316303383620E-002
  -1.0138231935917766E-002   3.0489535634073833E-003   6.3899839791772411E-002
  -9.7320565137860981E-003   2.9141992841470142E-003   6.4038945295853106E-002
  -9.3258810916544230E-003   2.7668914135890177E-003   6.4384632815625481E-002
  -1.6459632121662016E-002   4.9212018359158505E-003   6.3057655296324400E-002
  -1.5845127540987648E-002   4.7567312513465410E-003   6.2747146622348496E-002
  -1.5230622960313280E-002   4.5734303503916149E-003   6.2646714249766117E-002
  -1.4616118379638906E-002   4.3712991330509942E-003   6.2756358178577415E-002
  -1.4001613798964545E-002   4.1503375993248576E-003   6.3076078408782182E-002
  -2.1991186798825280E-002   6.5616023237957677E-003   6.1822250636602460E-002
  -2.1164858773906392E-002   6.3423082513224260E-003   6.1469015090865387E-002
  -2.0338530748987501E-002   6.0979071373755550E-003   6.1329350132223737E-002
  -1.9512202724068617E-002   5.8283989819549985E-003   6.1403255760677553E-002
  -1.8685874699149729E-002   5.5337837850606419E-003   6.1690731976226765E-002
  -2.5565940336980120E-010  -9.5788260656703983E-010   6.6771365552175110E-002
  -3.9843871257883023E-011  -1.4459254071841343E-009   6.6572440738954020E-002
   1.7597166432348210E-010  -1.6804894420463512E-009   6.6608387476843556E-002
   3.9178719643540028E-010  -1.6615745238035551E-009   6.6879205765843497E-002
   6.0760273201676540E-010  -1.3891809369503960E-009   6.7384895605953898E-002
  -4.6586765772193839E-003   1.3834452278531639E-003   6.5616395196756411E-002
  -4.4313826312262841E-003   1.3081388106101766E-003   6.5402850719718186E-002
  -4.2040886852331774E-003   1.2358048398695698E-003   6.5409022151924581E-002
  -3.9767947392400690E-003   1.1664433156318293E-003   6.5634909493375665E-002
  -3.7495007932469640E-003   1.1000542378967193E-003   6.6080512744071340E-002
  -9.3258810916544230E-003   2.7668914135890177E-003   6.4384632815625481E-002
  -8.8864490573495568E-003   2.6162790671456632E-003   6.4159440867793793E-002
  -8.4470170230446923E-003   2.4716113602286510E-003   6.4138809187341064E-002
  -8.0075849887398139E-003   2.3328882928383525E-003   6.4322737774267252E-002
  -7.5681529544349493E-003   2.2001098649744588E-003   6.4711226628572163E-002
  -1.4001613798964545E-002   4.1503375993248576E-003   6.3076078408782182E-002
  -1.3365199318213710E-002   3.9244193236810040E-003   6.2842211183181118E-002
  -1.2728784837462873E-002   3.7074178805876143E-003   6.2797748583093005E-002
  -1.2092370356712045E-002   3.4993332700446241E-003   6.2942690608517968E-002
  -1.1455955875961201E-002   3.3001654920521567E-003   6.3277037259456048E-002
  -1.8685874699149729E-002   5.5337837850606419E-003   6.1690731976226765E-002
  -1.7867633413818737E-002   5.2325595802167058E-003   6.1451161665879994E-002
  -1.7049392128487741E-002   4.9432244009467580E-003   6.1385840339180431E-002
  -1.6231150843156746E-002   4.6657782472511768E-003   6.1494767996128255E-002
  -1.5412909557825760E-002   4.4002211191297991E-003   6.1777944636723203E-002
   6.0760273201676540E-010  -1.3891809369503960E-009   6.7384895605953898E-002
   1.6696914684199982E-010  -9.6322178011476467E-010   6.7466167609721239E-002
  -2.7366443139387187E-010  -4.8360999926888582E-010   6.7883662612092138E-002
  -7.1429800789502007E-010   4.9653430672647048E-011   6.8637380613066387E-002
  -1.1549315948045091E-009   6.3656946380774571E-010   6.9727321612644166E-002
  -3.7495007932469640E-003   1.1000542378967193E-003   6.6080512744071340E-002
  -3.4425150371862299E-003   1.0300613562547745E-003   6.6058307185259402E-002
  -3.1355292811254959E-003   9.4988842029636311E-004   6.6313851021232523E-002
  -2.8285435250647584E-003   8.5953543002130484E-004   6.6847144251990939E-002
  -2.5215577690040139E-003   7.5900238542969678E-004   6.7658186877534443E-002
  -7.5681529544349493E-003   2.2001098649744588E-003   6.4711226628572163E-002
  -7.0126546054981101E-003   2.0601236757311348E-003   6.4575363399211771E-002
  -6.4571562565612639E-003   1.8997773242027879E-003   6.4658775960818454E-002
  -5.9016579076244316E-003   1.7190708103890420E-003   6.4961464313392073E-002
  -5.3461595586875785E-003   1.5180041342900408E-003   6.5483428456932780E-002
  -1.1455955875961201E-002   3.3001654920521567E-003   6.3277037259456048E-002
  -1.0710418537966478E-002   3.0901859952077032E-003   6.3017336251578723E-002
  -9.9648811999717580E-003   2.8496662281091815E-003   6.2918437430850155E-002
  -9.2193438619770085E-003   2.5786061907567366E-003   6.2980340797270357E-002
  -8.4738065239823007E-003   2.2770058831503293E-003   6.3203046350839578E-002
  -1.5412909557825760E-002   4.4002211191297991E-003   6.1777944636723203E-002
  -1.4535806834591339E-002   4.1202483146840496E-003   6.1384225742360077E-002
  -1.3658704111356935E-002   3.7995551320155613E-003   6.1092835431327458E-002
  -1.2781601388122498E-002   3.4381415711246498E-003   6.0903773703625388E-002
  -1.1904498664888102E-002   3.0360076320106177E-003   6.0817040559254076E-002
  -2.6634072660620664E-002   0.0000000000000000        2.9464558407763054E-002
  -2.7236158803435925E-002   5.8676849255682659E-004   3.4941052067493025E-002
  -2.7838244946251200E-002   1.3219725131319113E-003   4.0109817338217307E-002
  -2.8440331089066462E-002   2.2056120617252473E-003   4.4970854219935914E-002
  -2.9042417231881727E-002   3.2376871383368458E-003   4.9524162712648818E-002
  -3.3394282890705958E-002   0.0000000000000000        3.0175733818381855E-002
  -3.4238916262992310E-002   9.6156970272554161E-004   3.5263574992592819E-002
  -3.5083549635278655E-002   2.0266786255223575E-003   4.0174050096867302E-002
  -3.5928183007565007E-002   3.1953267683904494E-003   4.4907159131205313E-002
  -3.6772816379851352E-002   4.4675141313298165E-003   4.9462902095606845E-002
  -4.0734314139889628E-002   0.0000000000000000        3.1284158593142861E-002
  -4.1691132422577853E-002   1.3363709128942558E-003   3.5938450973887835E-002
  -4.2647950705266065E-002   2.7313847379128063E-003   4.0545739603765549E-002
  -4.3604768987954283E-002   4.1850414750556455E-003   4.5106024482775980E-002
  -4.4561587270642501E-002   5.6973411243227828E-003   4.9619305610919165E-002
  -4.8654166408171690E-002   0.0000000000000000        3.2789832732046068E-002
  -4.9592807282192557E-002   1.7111721230629708E-003   3.6965680011378066E-002
  -5.0531448156213452E-002   3.4360908503032524E-003   4.1224885858912021E-002
  -5.1470089030234319E-002   5.1747561817208510E-003   4.5567450274647904E-002
  -5.2408729904255200E-002   6.9271681173157552E-003   4.9993373258585751E-002
  -5.7153839695552128E-002   0.0000000000000000        3.4692756235091493E-002
  -5.7943940841836447E-002   2.0859733332316832E-003   3.8345262105063532E-002
  -5.8734041988120766E-002   4.1407969626937012E-003   4.2211488862306738E-002
  -5.9524143134405100E-002   6.1644708883860453E-003   4.6291436506821111E-002
  -6.0314244280689433E-002   8.1569951103087242E-003   5.0585105038606623E-002
  -2.9042417231881727E-002   3.2376871383368458E-003   4.9524162712648818E-002
  -2.9116893833544537E-002   4.2577873042195825E-003   5.1580364997980264E-002
  -2.9191370435207357E-002   5.1055021206263939E-003   5.3733715695473444E-002
  -2.9265847036870178E-002   5.7808315875572183E-003   5.5984214805128309E-002
  -2.9340323638532992E-002   6.2837757050121304E-003   5.8331862326944865E-002
  -3.6772816379851352E-002   4.4675141313298165E-003   4.9462902095606845E-002
  -3.6788791363914677E-002   5.7027961899224445E-003   5.1247218254434221E-002
  -3.6804766347977989E-002   6.7607284197503384E-003   5.3051389236298881E-002
  -3.6820741332041322E-002   7.6413108208135110E-003   5.4875415041200845E-002
  -3.6836716316104634E-002   8.3445433931119417E-003   5.6719295669140093E-002
  -4.4561587270642501E-002   5.6973411243227828E-003   4.9619305610919165E-002
  -4.4596354226230754E-002   7.1478050756253065E-003   5.1126771163953678E-002
  -4.4631121181818993E-002   8.4159547188743036E-003   5.2576797950901047E-002
  -4.4665888137407232E-002   9.5017900540697899E-003   5.3969385971761312E-002
  -4.4700655092995485E-002   1.0405311081211736E-002   5.5304535226534439E-002
  -5.2408729904255200E-002   6.9271681173157552E-003   4.9993373258585751E-002
  -5.2539582420492781E-002   8.5928139613281607E-003   5.1219023726538603E-002
  -5.2670434936730341E-002   1.0071181017998268E-002   5.2309941839279922E-002
  -5.2801287452967922E-002   1.1362269287326048E-002   5.3266127596809716E-002
  -5.2932139969205490E-002   1.2466078769311524E-002   5.4087580999127950E-002
  -6.0314244280689433E-002   8.1569951103087242E-003   5.0585105038606623E-002
  -6.0618475946700744E-002   1.0037822847031034E-002   5.1523975942189056E-002
  -6.0922707612712068E-002   1.1726407317122215E-002   5.2250820901435506E-002
  -6.1226939278723393E-002   1.3222748520582356E-002   5.2765639916346009E-002
  -6.1531170944734710E-002   1.4526846457411341E-002   5.3068432986920558E-002
  -2.9340323638532992E-002   6.2837757050121304E-003   5.8331862326944865E-002
  -2.8990025877960447E-002   6.6697644448877567E-003   5.9094321645833350E-002
  -2.8639728117387898E-002   6.9942277790807691E-003   5.9895732427924286E-002
  -2.8289430356815356E-002   7.2571657075911778E-003   6.0736094673217604E-002
  -2.7939132596242804E-002   7.4585782304190246E-003   6.1615408381713352E-002
  -3.6836716316104634E-002   8.3445433931119417E-003   5.6719295669140093E-002
  -3.6396598018726814E-002   8.8864504370615091E-003   5.7061664645504474E-002
  -3.5956479721348980E-002   9.2830562530780460E-003   5.7544723232276995E-002
  -3.5516361423971160E-002   9.5343608411616286E-003   5.8168471429457629E-002
  -3.5076243126593326E-002   9.6403642013122431E-003   5.8932909237046478E-002
  -4.4700655092995485E-002   1.0405311081211736E-002   5.5304535226534439E-002
  -4.4068978111606642E-002   1.1103136429235242E-002   5.5143038038124301E-002
  -4.3437301130217786E-002   1.1571884727075352E-002   5.5223968607328040E-002
  -4.2805624148828950E-002   1.1811555974732081E-002   5.5547326934145665E-002
  -4.2173947167440114E-002   1.1822150172205455E-002   5.6113113018577132E-002
  -5.2932139969205490E-002   1.2466078769311524E-002   5.4087580999127950E-002
  -5.2007166156599921E-002   1.3319822421408979E-002   5.3338441823692906E-002
  -5.1082192343994318E-002   1.3860713201072657E-002   5.2933468553077477E-002
  -5.0157218531388756E-002   1.4088751108302506E-002   5.2872661187281622E-002
  -4.9232244718783152E-002   1.4003936143098642E-002   5.3156019726305417E-002
  -6.1531170944734710E-002   1.4526846457411341E-002   5.3068432986920558E-002
  -6.0211162153706657E-002   1.5536508413582735E-002   5.1647876002210227E-002
  -5.8891153362678597E-002   1.6149541675069930E-002   5.0673223069525201E-002
  -5.7571144571650544E-002   1.6365946241872972E-002   5.0144474188865570E-002
  -5.6251135780622498E-002   1.6185722113991899E-002   5.0061629360231244E-002
  -2.7939132596242804E-002   7.4585782304190246E-003   6.1615408381713352E-002
  -2.7234213663960859E-002   7.5821219965595613E-003   6.1327029017861148E-002
  -2.6529294731678917E-002   7.6114536550083191E-003   6.1255717309912590E-002
  -2.5824375799396976E-002   7.5465732057652399E-003   6.1401473257867725E-002
  -2.5119456867115034E-002   7.3874806488302691E-003   6.1764296861726575E-002
  -3.5076243126593326E-002   9.6403642013122431E-003   5.8932909237046478E-002
  -3.4157497580596392E-002   9.6403846539889829E-003   5.8600256973156052E-002
  -3.3238752034599466E-002   9.5737405196511006E-003   5.8478190280791903E-002
  -3.2320006488602525E-002   9.4404317982985930E-003   5.8566709159954100E-002
  -3.1401260942605619E-002   9.2404584899314079E-003   5.8865813610642498E-002
  -4.2173947167440114E-002   1.1822150172205455E-002   5.6113113018577132E-002
  -4.1047857092105580E-002   1.1698647311418373E-002   5.5763735375325710E-002
  -3.9921767016771061E-002   1.1536027384293908E-002   5.5618461219223217E-002
  -3.8795676941436527E-002   1.1334290390831975E-002   5.5677290550269619E-002
  -3.7669586866101973E-002   1.1093436331032630E-002   5.5940223368464950E-002
  -4.9232244718783152E-002   1.4003936143098642E-002   5.3156019726305417E-002
  -4.7905292198488422E-002   1.3756909968847751E-002   5.2817464224370204E-002
  -4.6578339678193685E-002   1.3498314248936730E-002   5.2676530125206525E-002
  -4.5251387157898934E-002   1.3228148983365356E-002   5.2733217428814337E-002
  -4.3924434637604190E-002   1.2946414172133783E-002   5.2987526135193745E-002
  -5.6251135780622498E-002   1.6185722113991899E-002   5.0061629360231244E-002
  -5.4729802899744918E-002   1.5815172626277164E-002   4.9761443520289467E-002
  -5.3208470018867332E-002   1.5460601113579487E-002   4.9652396998741834E-002
  -5.1687137137989780E-002   1.5122007575898707E-002   4.9734489795588283E-002
  -5.0165804257112187E-002   1.4799392013234991E-002   5.0007721910828917E-002
  -2.5119456867115034E-002   7.3874806488302691E-003   6.1764296861726575E-002
  -2.4337389350042593E-002   7.1812142954299774E-003   6.1499134378014325E-002
  -2.3555321832970162E-002   6.9748124567906855E-003   6.1420405845922926E-002
  -2.2773254315897724E-002   6.7682751329127058E-003   6.1528111265452226E-002
  -2.1991186798825280E-002   6.5616023237957677E-003   6.1822250636602460E-002
  -3.1401260942605619E-002   9.2404584899314079E-003   5.8865813610642498E-002
  -3.0429944746701507E-002   8.9999261835626426E-003   5.8609649559021634E-002
  -2.9458628550797394E-002   8.7449404682051687E-003   5.8545548913443227E-002
  -2.8487312354893282E-002   8.4755013438591025E-003   5.8673511673907379E-002
  -2.7515996158989166E-002   8.1916088105244422E-003   5.8993537840414056E-002
  -3.7669586866101973E-002   1.1093436331032630E-002   5.5940223368464950E-002
  -3.6503392536944484E-002   1.0818638071695377E-002   5.5678739825185529E-002
  -3.5337198207786955E-002   1.0515068479619652E-002   5.5614949142370376E-002
  -3.4171003878629432E-002   1.0182727554805555E-002   5.5748851320019631E-002
  -3.3004809549471922E-002   9.8216152972530613E-003   5.6080446358132946E-002
  -4.3924434637604190E-002   1.2946414172133783E-002   5.2987526135193745E-002
  -4.2557732720771520E-002   1.2637349959828119E-002   5.2706405176506085E-002
  -4.1191030803938870E-002   1.2285196491034080E-002   5.2628606532704444E-002
  -3.9824328887106221E-002   1.1889953765752062E-002   5.2754130203788843E-002
  -3.8457626970273516E-002   1.1451621783981736E-002   5.3082976189759212E-002
  -5.0165804257112187E-002   1.4799392013234991E-002   5.0007721910828917E-002
  -4.8592965298182661E-002   1.4456061847960805E-002   4.9692645612983283E-002
  -4.7020126339253114E-002   1.4055324502448563E-002   4.9586521084445362E-002
  -4.5447287380323581E-002   1.3597179976698320E-002   4.9689348325215238E-002
  -4.3874448421394041E-002   1.3081628270710355E-002   5.0001127335292828E-002
  -2.1991186798825280E-002   6.5616023237957677E-003   6.1822250636602460E-002
  -2.1164858773906392E-002   6.3423082513224260E-003   6.1469015090865387E-002
  -2.0338530748987501E-002   6.0979071373755550E-003   6.1329350132223737E-002
  -1.9512202724068617E-002   5.8283989819549985E-003   6.1403255760677553E-002
  -1.8685874699149729E-002   5.5337837850606419E-003   6.1690731976226765E-002
  -2.7515996158989166E-002   8.1916088105244422E-003   5.8993537840414056E-002
  -2.6480332281804148E-002   7.8944654392961167E-003   5.8653485875392736E-002
  -2.5444668404619113E-002   7.5852738012692350E-003   5.8518535027808238E-002
  -2.4409004527434105E-002   7.2640338964440505E-003   5.8588685297660523E-002
  -2.3373340650249062E-002   6.9307457248202198E-003   5.8863936684949686E-002
  -3.3004809549471922E-002   9.8216152972530613E-003   5.6080446358132946E-002
  -3.1768279289679360E-002   9.4466226272696407E-003   5.5766636748502546E-002
  -3.0531749029886788E-002   9.0726404651630330E-003   5.5649458786650348E-002
  -2.9295218770094226E-002   8.6996688109329378E-003   5.5728912472576456E-002
  -2.8058688510301660E-002   8.3277076645795756E-003   5.6004997806280724E-002
  -3.8457626970273516E-002   1.1451621783981736E-002   5.3082976189759212E-002
  -3.7028699797532018E-002   1.0998779815243220E-002   5.2808467710194915E-002
  -3.5599772624790513E-002   1.0560007129056578E-002   5.2722121408750273E-002
  -3.4170845452049022E-002   1.0135303725421908E-002   5.2823937285425185E-002
  -3.2741918279307475E-002   9.7246696043390979E-003   5.3113915340219947E-002
  -4.3874448421394041E-002   1.3081628270710355E-002   5.0001127335292828E-002
  -4.2261593805362166E-002   1.2550937003216800E-002   4.9778978760469800E-002
  -4.0648739189330291E-002   1.2047373792950483E-002   4.9736522894107821E-002
  -3.9035884573298429E-002   1.1570938639910870E-002   4.9873759736206932E-002
  -3.7423029957266540E-002   1.1121631544098454E-002   5.0190689286767010E-002
  -1.8685874699149729E-002   5.5337837850606419E-003   6.1690731976226765E-002
  -1.7867633413818737E-002   5.2325595802167058E-003   6.1451161665879994E-002
  -1.7049392128487741E-002   4.9432244009467580E-003   6.1385840339180431E-002
  -1.6231150843156746E-002   4.6657782472511768E-003   6.1494767996128255E-002
  -1.5412909557825760E-002   4.4002211191297991E-003   6.1777944636723203E-002
  -2.3373340650249062E-002   6.9307457248202198E-003   5.8863936684949686E-002
  -2.2373894700847781E-002   6.5888393788318678E-003   5.8636790617894591E-002
  -2.1374448751446510E-002   6.2417449509127448E-003   5.8597804895332714E-002
  -2.0375002802045225E-002   5.8894624410635206E-003   5.8746979517264077E-002
  -1.9375556852643968E-002   5.5319918492835463E-003   5.9084314483688949E-002
  -2.8058688510301660E-002   8.3277076645795756E-003   5.6004997806280724E-002
  -2.6864126535984023E-002   7.9451191774469326E-003   5.5773198875012434E-002
  -2.5669564561666403E-002   7.5402655008790023E-003   5.5743471649083602E-002
  -2.4475002587348776E-002   7.1131466348759182E-003   5.5915816128494042E-002
  -2.3280440613031146E-002   6.6637625794374322E-003   5.6290232313243885E-002
  -3.2741918279307475E-002   9.7246696043390979E-003   5.3113915340219947E-002
  -3.1338328919227450E-002   9.3013989760621571E-003   5.2860386437233675E-002
  -2.9934739559147456E-002   8.8387860508451800E-003   5.2822840600433033E-002
  -2.8531150199067438E-002   8.3368308286880660E-003   5.3001277829817652E-002
  -2.7127560838987434E-002   7.7955333095911933E-003   5.3395698125387858E-002
  -3.7423029957266540E-002   1.1121631544098454E-002   5.0190689286767010E-002
  -3.5796501850578075E-002   1.0657678774677187E-002   4.9898353304558274E-002
  -3.4169973743889609E-002   1.0137306600811385E-002   4.9835911749381068E-002
  -3.2543445637201136E-002   9.5605150225006388E-003   5.0003364621235252E-002
  -3.0916917530512664E-002   8.9273040397451209E-003   5.0400711920121133E-002
  -1.5412909557825760E-002   4.4002211191297991E-003   6.1777944636723203E-002
  -1.4535806834591339E-002   4.1202483146840496E-003   6.1384225742360077E-002
  -1.3658704111356935E-002   3.7995551320155613E-003   6.1092835431327458E-002
  -1.2781601388122498E-002   3.4381415711246498E-003   6.0903773703625388E-002
  -1.1904498664888102E-002   3.0360076320106177E-003   6.0817040559254076E-002
  -1.9375556852643968E-002   5.5319918492835463E-003   5.9084314483688949E-002
  -1.8357078583722809E-002   5.1652518432457883E-003   5.8760370523709027E-002
  -1.7338600314801687E-002   4.7851610906226999E-003   5.8616849071771754E-002
  -1.6320122045880538E-002   4.3917195914142219E-003   5.8653750127877463E-002
  -1.5301643776959403E-002   3.9849273456207257E-003   5.8871073692026155E-002
  -2.3280440613031146E-002   6.6637625794374322E-003   5.6290232313243885E-002
  -2.2042492873710993E-002   6.2102553718074160E-003   5.6063432919284603E-002
  -2.0804545134390808E-002   5.7707670492295124E-003   5.6095149958080369E-002
  -1.9566597395070676E-002   5.3452976117041012E-003   5.6385383429631605E-002
  -1.8328649655750467E-002   4.9338470592308337E-003   5.6934133333937542E-002
  -2.7127560838987434E-002   7.7955333095911933E-003   5.3395698125387858E-002
  -2.5592049704555878E-002   7.2552589003691548E-003   5.3293412929086598E-002
  -2.4056538570124377E-002   6.7563730078367100E-003   5.3527738090252880E-002
  -2.2521027435692832E-002   6.2988756319939379E-003   5.4098673608886656E-002
  -2.0985516301261300E-002   5.8827667728409971E-003   5.5006219484987601E-002
  -3.0916917530512664E-002   8.9273040397451209E-003   5.0400711920121133E-002
  -2.9005749076257470E-002   8.3002624289306715E-003   5.0450310553115385E-002
  -2.7094580622002297E-002   7.7419789664435329E-003   5.0914613468289432E-002
  -2.5183412167747148E-002   7.2524536522836254E-003   5.1793620665643650E-002
  -2.3272243713491958E-002   6.8316864864510496E-003   5.3087332145177246E-002
  -5.7153839695552128E-002   0.0000000000000000        3.4692756235091493E-002
  -5.7943940841836447E-002   2.0859733332316832E-003   3.8345262105063532E-002
  -5.8734041988120766E-002   4.1407969626937012E-003   4.2211488862306738E-002
  -5.9524143134405100E-002   6.1644708883860453E-003   4.6291436506821111E-002
  -6.0314244280689433E-002   8.1569951103087242E-003   5.0585105038606623E-002
  -6.5821370928554918E-002   0.0000000000000000        3.7215849995245645E-002
  -6.6626872211322227E-002   2.9157396833958361E-003   4.0838865465636427E-002
  -6.7432373494089537E-002   5.7736800631997638E-003   4.4217359775790062E-002
  -6.8237874776856874E-002   8.5738211394117882E-003   4.7351332925706542E-002
  -6.9043376059624184E-002   1.1316162912031892E-002   5.0240784915385854E-002
  -7.4244797033703999E-002   0.0000000000000000        4.0582034905475073E-002
  -7.5523940500462641E-002   3.7455060335599890E-003   4.4148910376462354E-002
  -7.6803083967221283E-002   7.4065631637058264E-003   4.7013022639704180E-002
  -7.8082227433979912E-002   1.0983171390437522E-002   4.9174371695200531E-002
  -7.9361370900738540E-002   1.4475330713755065E-002   5.0632957542951405E-002
  -8.2424118010999414E-002   0.0000000000000000        4.4791310965779770E-002
  -8.4635145709257675E-002   4.5752723837241402E-003   4.8275396837541333E-002
  -8.6846173407515950E-002   9.0394462642118933E-003   5.0598477454049086E-002
  -8.9057201105774197E-002   1.3392521641463262E-002   5.1760552815303069E-002
  -9.1268228804032472E-002   1.7634498515478235E-002   5.1761622921303263E-002
  -9.0359333860441121E-002   0.0000000000000000        4.9843678176159742E-002
  -9.3960487837707329E-002   5.4050387338882930E-003   5.3218324848873316E-002
  -9.7561641814973538E-002   1.0672329364717953E-002   5.4973724218824800E-002
 -0.10116279579223976        1.5801871892488998E-002   5.5109876286014166E-002
 -0.10476394976950597        2.0793666317201406E-002   5.3626781050441427E-002
  -6.0314244280689433E-002   8.1569951103087242E-003   5.0585105038606623E-002
  -6.0618475946700744E-002   1.0037822847031034E-002   5.1523975942189056E-002
  -6.0922707612712068E-002   1.1726407317122215E-002   5.2250820901435506E-002
  -6.1226939278723393E-002   1.3222748520582356E-002   5.2765639916346009E-002
  -6.1531170944734710E-002   1.4526846457411341E-002   5.3068432986920558E-002
  -6.9043376059624184E-002   1.1316162912031892E-002   5.0240784915385854E-002
  -6.9321626335622707E-002   1.3762260620580077E-002   4.9465334045545928E-002
  -6.9599876611621245E-002   1.5673669504576281E-002   4.8953871900067537E-002
  -6.9878126887619754E-002   1.7050389564020482E-002   4.8706398478950724E-002
  -7.0156377163618264E-002   1.7892420798912748E-002   4.8722913782195489E-002
  -7.9361370900738540E-002   1.4475330713755065E-002   5.0632957542951405E-002
  -7.9137625118026730E-002   1.7486698394129113E-002   4.7800739341768227E-002
  -7.8913879335314949E-002   1.9620931692030299E-002   4.5708524533644136E-002
  -7.8690133552603167E-002   2.0878030607458641E-002   4.4356313118579099E-002
  -7.8466387769891371E-002   2.1257995140414140E-002   4.3744105096573158E-002
  -9.1268228804032472E-002   1.7634498515478235E-002   5.1761622921303263E-002
  -9.0066472293912833E-002   2.1211136167678155E-002   4.6530191830855973E-002
  -8.8864715783793208E-002   2.3568193879484355E-002   4.2514778802165309E-002
  -8.7662959273673582E-002   2.4705671650896835E-002   3.9715383835231176E-002
  -8.6461202763553957E-002   2.4623569481915544E-002   3.8132006930053690E-002
 -0.10476394976950597        2.0793666317201406E-002   5.3626781050441427E-002
 -0.10210816786328099        2.4935573941227196E-002   4.5653691512809152E-002
  -9.9452385957056036E-002   2.7515456066938376E-002   3.9372634705631002E-002
  -9.6796604050831056E-002   2.8533312694334952E-002   3.4783610628906947E-002
  -9.4140822144606090E-002   2.7989143823416940E-002   3.1886619282637002E-002
  -6.1531170944734710E-002   1.4526846457411341E-002   5.3068432986920558E-002
  -6.0211162153706657E-002   1.5536508413582735E-002   5.1647876002210227E-002
  -5.8891153362678597E-002   1.6149541675069930E-002   5.0673223069525201E-002
  -5.7571144571650544E-002   1.6365946241872972E-002   5.0144474188865570E-002
  -5.6251135780622498E-002   1.6185722113991899E-002   5.0061629360231244E-002
  -7.0156377163618264E-002   1.7892420798912748E-002   4.8722913782195489E-002
  -6.8436079515454371E-002   1.8353568896744377E-002   4.7260084143079431E-002
  -6.6715781867290463E-002   1.8587639545006775E-002   4.6151928166209735E-002
  -6.4995484219126529E-002   1.8594632743699931E-002   4.5398445851586443E-002
  -6.3275186570962663E-002   1.8374548492823800E-002   4.4999637199209498E-002
  -7.8466387769891371E-002   2.1257995140414140E-002   4.3744105096573158E-002
  -7.6437031654370574E-002   2.1170629379906037E-002   4.2408554048166347E-002
  -7.4407675538849777E-002   2.1025737414943624E-002   4.1336446272226914E-002
  -7.2378319423328993E-002   2.0823319245526849E-002   4.0527781768754906E-002
  -7.0348963307808182E-002   2.0563374871655750E-002   3.9982560537750275E-002
  -8.6461202763553957E-002   2.4623569481915544E-002   3.8132006930053690E-002
  -8.4214018570455254E-002   2.3987689863067721E-002   3.7093285717470954E-002
  -8.1966834377356551E-002   2.3463835284880483E-002   3.6226777387576688E-002
  -7.9719650184257834E-002   2.3052005747353815E-002   3.5532481940370869E-002
  -7.7472465991159159E-002   2.2752201250487717E-002   3.5010399375853429E-002
  -9.4140822144606090E-002   2.7989143823416940E-002   3.1886619282637002E-002
  -9.1767040263708410E-002   2.6804750346229332E-002   3.1314279150993357E-002
  -8.9393258382810772E-002   2.5901933154817314E-002   3.0822921512259134E-002
  -8.7019476501913121E-002   2.5280692249180690E-002   3.0412546366434402E-002
  -8.4645694621015469E-002   2.4941027629319629E-002   3.0083153713519190E-002
  -5.6251135780622498E-002   1.6185722113991899E-002   5.0061629360231244E-002
  -5.4729802899744918E-002   1.5815172626277164E-002   4.9761443520289467E-002
  -5.3208470018867332E-002   1.5460601113579487E-002   4.9652396998741834E-002
  -5.1687137137989780E-002   1.5122007575898707E-002   4.9734489795588283E-002
  -5.0165804257112187E-002   1.4799392013234991E-002   5.0007721910828917E-002
  -6.3275186570962663E-002   1.8374548492823800E-002   4.4999637199209498E-002
  -6.1560141100128342E-002   1.8024789699906764E-002   4.4644151854577103E-002
  -5.9845095629294055E-002   1.7642759272477070E-002   4.4484952371463993E-002
  -5.8130050158459720E-002   1.7228457210534759E-002   4.4522038749870277E-002
  -5.6415004687625434E-002   1.6781883514079804E-002   4.4755410989795824E-002
  -7.0348963307808182E-002   2.0563374871655750E-002   3.9982560537750275E-002
  -6.8435058703891979E-002   2.0234406773536374E-002   3.9523526078897572E-002
  -6.6521154099975763E-002   1.9824917431374704E-002   3.9265924024689432E-002
  -6.4607249496059560E-002   1.9334906845170780E-002   3.9209754375125742E-002
  -6.2693344892143371E-002   1.8764375014924561E-002   3.9355017130206560E-002
  -7.7472465991159159E-002   2.2752201250487717E-002   3.5010399375853429E-002
  -7.5354555711035845E-002   2.2444023847165935E-002   3.4399566193250922E-002
  -7.3236645430912517E-002   2.2007075590272315E-002   3.3995311958418019E-002
  -7.1118735150789189E-002   2.1441356479806772E-002   3.3797636671354860E-002
  -6.9000824870665903E-002   2.0746866515769319E-002   3.3806540332061333E-002
  -8.4645694621015469E-002   2.4941027629319629E-002   3.0083153713519190E-002
  -8.2318632121559848E-002   2.4653640920795583E-002   2.9272272197637061E-002
  -7.9991569622104325E-002   2.4189233749169932E-002   2.8673116172649837E-002
  -7.7664507122648718E-002   2.3547806114442835E-002   2.8285685638557538E-002
  -7.5337444623193139E-002   2.2729358016614132E-002   2.8109980595359962E-002
  -5.0165804257112187E-002   1.4799392013234991E-002   5.0007721910828917E-002
  -4.8592965298182661E-002   1.4456061847960805E-002   4.9692645612983283E-002
  -4.7020126339253114E-002   1.4055324502448563E-002   4.9586521084445362E-002
  -4.5447287380323581E-002   1.3597179976698320E-002   4.9689348325215238E-002
  -4.3874448421394041E-002   1.3081628270710355E-002   5.0001127335292828E-002
  -5.6415004687625434E-002   1.6781883514079804E-002   4.4755410989795824E-002
  -5.4634264006052959E-002   1.6308819372427008E-002   4.4371086653220232E-002
  -5.2853523324480456E-002   1.5815045974891390E-002   4.4193613992622879E-002
  -5.1072782642907974E-002   1.5300563321472789E-002   4.4222993008003662E-002
  -4.9292041961335450E-002   1.4765371412171407E-002   4.4459223699362616E-002
  -6.2693344892143371E-002   1.8764375014924561E-002   3.9355017130206560E-002
  -6.0706802581257477E-002   1.8161576896893253E-002   3.8938142679256216E-002
  -5.8720260270371652E-002   1.7574767447334133E-002   3.8726019810954471E-002
  -5.6733717959485751E-002   1.7003946666247174E-002   3.8718648525301214E-002
  -5.4747175648599919E-002   1.6449114553632460E-002   3.8916028822296639E-002
  -6.9000824870665903E-002   2.0746866515769319E-002   3.3806540332061333E-002
  -6.6810581023796278E-002   2.0014334421359505E-002   3.3393813691091193E-002
  -6.4620337176926626E-002   1.9334488919776974E-002   3.3183738539440122E-002
  -6.2430093330056981E-002   1.8707330011021629E-002   3.3176314877107857E-002
  -6.0239849483187349E-002   1.8132857695093485E-002   3.3371542704094703E-002
  -7.5337444623193139E-002   2.2729358016614132E-002   2.8109980595359962E-002
  -7.2945599333669287E-002   2.1867091945825728E-002   2.7738099688725121E-002
  -7.0553754044145475E-002   2.1094210392219731E-002   2.7566770178079764E-002
  -6.8161908754621664E-002   2.0410713355795952E-002   2.7595992063423821E-002
  -6.5770063465097811E-002   1.9816600836554565E-002   2.7825765344757170E-002
  -4.3874448421394041E-002   1.3081628270710355E-002   5.0001127335292828E-002
  -4.2261593805362166E-002   1.2550937003216800E-002   4.9778978760469800E-002
  -4.0648739189330291E-002   1.2047373792950483E-002   4.9736522894107821E-002
  -3.9035884573298429E-002   1.1570938639910870E-002   4.9873759736206932E-002
  -3.7423029957266540E-002   1.1121631544098454E-002   5.0190689286767010E-002
  -4.9292041961335450E-002   1.4765371412171407E-002   4.4459223699362616E-002
  -4.7498956859508015E-002   1.4219742540616073E-002   4.4213554448852152E-002
  -4.5705871757680587E-002   1.3673949000436093E-002   4.4148653461471857E-002
  -4.3912786655853159E-002   1.3127990791631095E-002   4.4264520737221660E-002
  -4.2119701554025710E-002   1.2581867914201350E-002   4.4561156276101549E-002
  -5.4747175648599919E-002   1.6449114553632460E-002   3.8916028822296639E-002
  -5.2772784506307860E-002   1.5888548078015458E-002   3.8619546170246939E-002
  -5.0798393364015801E-002   1.5300524207921759E-002   3.8504907335996333E-002
  -4.8824002221723735E-002   1.4685042943351153E-002   3.8572112319544938E-002
  -4.6849611079431724E-002   1.4042104284303941E-002   3.8821161120892539E-002
  -6.0239849483187349E-002   1.8132857695093485E-002   3.3371542704094703E-002
  -5.8083076745761672E-002   1.7557353615414675E-002   3.2996953924653870E-002
  -5.5926304008335974E-002   1.6927099415407341E-002   3.2805284517681318E-002
  -5.3769531270910290E-002   1.6242095095071296E-002   3.2796534483176751E-002
  -5.1612758533484557E-002   1.5502340654406629E-002   3.2970703821140444E-002
  -6.5770063465097811E-002   1.9816600836554565E-002   2.7825765344757170E-002
  -6.3429833577869410E-002   1.9226159152814060E-002   2.7345777712073305E-002
  -6.1089603690641078E-002   1.8553674622893035E-002   2.7049785006526550E-002
  -5.8749373803412698E-002   1.7799147246791491E-002   2.6937787228117044E-002
  -5.6409143916184346E-002   1.6962577024509373E-002   2.7009784376844759E-002
  -3.7423029957266540E-002   1.1121631544098454E-002   5.0190689286767010E-002
  -3.5796501850578075E-002   1.0657678774677187E-002   4.9898353304558274E-002
  -3.4169973743889609E-002   1.0137306600811385E-002   4.9835911749381068E-002
  -3.2543445637201136E-002   9.5605150225006388E-003   5.0003364621235252E-002
  -3.0916917530512664E-002   8.9273040397451209E-003   5.0400711920121133E-002
  -4.2119701554025710E-002   1.2581867914201350E-002   4.4561156276101549E-002
  -4.0283244111881403E-002   1.2025497839193017E-002   4.4177242708181824E-002
  -3.8446786669737110E-002   1.1448798037652475E-002   4.3983293384142239E-002
  -3.6610329227592796E-002   1.0851768509579793E-002   4.3979308303982757E-002
  -3.4773871785448510E-002   1.0234409254974930E-002   4.4165287467703540E-002
  -4.6849611079431724E-002   1.4042104284303941E-002   3.8821161120892539E-002
  -4.4843154484982897E-002   1.3393316903708499E-002   3.8381759645174401E-002
  -4.2836697890534091E-002   1.2760289474493550E-002   3.8092392230185138E-002
  -4.0830241296085326E-002   1.2143021996658832E-002   3.7953058875924567E-002
  -3.8823784701636513E-002   1.1541514470204711E-002   3.7963759582393050E-002
  -5.1612758533484557E-002   1.5502340654406629E-002   3.2970703821140444E-002
  -4.9476232969882586E-002   1.4761135968224155E-002   3.2511904115536304E-002
  -4.7339707406280594E-002   1.4071780911334854E-002   3.2163208287509890E-002
  -4.5203181842678609E-002   1.3434275483737929E-002   3.1924616337060834E-002
  -4.3066656279076646E-002   1.2848619685434395E-002   3.1796128264189330E-002
  -5.6409143916184346E-002   1.6962577024509373E-002   2.7009784376844759E-002
  -5.4182479566580455E-002   1.6128955032739756E-002   2.6567676119267303E-002
  -5.1955815216976606E-002   1.5383272348175797E-002   2.6195741556116259E-002
  -4.9729150867372764E-002   1.4725528970817130E-002   2.5893980687391363E-002
  -4.7502486517768866E-002   1.4155724900664357E-002   2.5662393513092574E-002
  -3.0916917530512664E-002   8.9273040397451209E-003   5.0400711920121133E-002
  -2.9005749076257470E-002   8.3002624289306715E-003   5.0450310553115385E-002
  -2.7094580622002297E-002   7.7419789664435329E-003   5.0914613468289432E-002
  -2.5183412167747148E-002   7.2524536522836254E-003   5.1793620665643650E-002
  -2.3272243713491958E-002   6.8316864864510496E-003   5.3087332145177246E-002
  -3.4773871785448510E-002   1.0234409254974930E-002   4.4165287467703540E-002
  -3.2556329125833020E-002   9.6104948856062800E-003   4.3951586185292213E-002
  -3.0338786466217536E-002   8.9938000132422369E-003   4.3935929031421628E-002
  -2.8121243806602057E-002   8.3843246378830782E-003   4.4118316006091715E-002
  -2.5903701146986563E-002   7.7820687595286930E-003   4.4498747109302905E-002
  -3.8823784701636513E-002   1.1541514470204711E-002   3.7963759582393050E-002
  -3.6516527990299703E-002   1.0920727342281722E-002   3.7425219733253468E-002
  -3.4209271278962873E-002   1.0245621060041045E-002   3.6868063859015858E-002
  -3.1902014567626043E-002   9.5161956234824183E-003   3.6292291959679909E-002
  -2.9594757856289233E-002   8.7324510326062255E-003   3.5697904035245975E-002
  -4.3066656279076646E-002   1.2848619685434395E-002   3.1796128264189330E-002
  -4.0886345669657487E-002   1.2230959798957247E-002   3.0871211196999176E-002
  -3.8706035060238307E-002   1.1497442106839745E-002   2.9711017951071859E-002
  -3.6525724450819155E-002   1.0648066609081758E-002   2.8315548526407306E-002
  -3.4345413841399955E-002   9.6828333056838689E-003   2.6684802923005582E-002
  -4.7502486517768866E-002   1.4155724900664357E-002   2.5662393513092574E-002
  -4.5665782163906349E-002   1.3541192255632717E-002   2.4289560576529423E-002
  -4.3829077810043873E-002   1.2749263153638460E-002   2.2464791307589799E-002
  -4.1992373456181446E-002   1.1779937594681131E-002   2.0188085706274408E-002
  -4.0155669102318936E-002   1.0633215578761401E-002   1.7459443772582572E-002
  -9.0359333860441121E-002   0.0000000000000000        4.9843678176159742E-002
  -9.3960487837707329E-002   5.4050387338882930E-003   5.3218324848873316E-002
  -9.7561641814973538E-002   1.0672329364717953E-002   5.4973724218824800E-002
 -0.10116279579223976        1.5801871892488998E-002   5.5109876286014166E-002
 -0.10476394976950597        2.0793666317201406E-002   5.3626781050441427E-002
 -0.10328994589292653        0.0000000000000000        5.8671704117049792E-002
 -0.10682843720230850        1.0884122569344306E-002   5.2126472687921151E-002
 -0.11036692851169047        1.9172212084652241E-002   4.7325813897323085E-002
 -0.11390541982107247        2.4864268545923811E-002   4.4269727745255588E-002
 -0.11744391113045442        2.7960291953159036E-002   4.2958214231718639E-002
 -0.12645545541935299        0.0000000000000000        7.4207956368884720E-002
 -0.12656746411955808        1.6363206404800316E-002   5.5284561886936125E-002
 -0.12667947281976313        2.7672094804586534E-002   4.1469559984810771E-002
 -0.12679148151996819        3.3926665199358635E-002   3.2762950662508644E-002
 -0.12690349022017328        3.5126917589116645E-002   2.9164733920029783E-002
 -0.15985586243972053        0.0000000000000000        9.6452434931664541E-002
 -0.15317756858945600        2.1842290240256333E-002   6.2692592445918224E-002
 -0.14649927473919150        3.6171977524520824E-002   3.7404962481287843E-002
 -0.13982098088892700        4.2989061852793463E-002   2.0589545037773400E-002
 -0.13314268703866244        4.2293543225074247E-002   1.2246340115374831E-002
 -0.20349116695402911        0.0000000000000000       0.12540513980538923     
 -0.18665875061200232        2.7321374075712338E-002   7.4350564364867477E-002
 -0.16982633426997557        4.4671860244455110E-002   3.5132021386754350E-002
 -0.15299391792794878        5.2051458506228263E-002   7.7495108710497612E-003
 -0.13616150158592200        4.9460168861031877E-002  -7.7969671822461922E-003
 -0.10476394976950597        2.0793666317201406E-002   5.3626781050441427E-002
 -0.10210816786328099        2.4935573941227196E-002   4.5653691512809152E-002
  -9.9452385957056036E-002   2.7515456066938376E-002   3.9372634705631002E-002
  -9.6796604050831056E-002   2.8533312694334952E-002   3.4783610628906947E-002
  -9.4140822144606090E-002   2.7989143823416940E-002   3.1886619282637002E-002
 -0.11744391113045442        2.7960291953159036E-002   4.2958214231718639E-002
 -0.11348476708417143        2.9433947829155864E-002   3.6711472621542465E-002
 -0.10952562303788843        3.0258901696712373E-002   3.1379422561028256E-002
 -0.10556647899160541        3.0435153555828563E-002   2.6962064050176034E-002
 -0.10160733494532241        2.9962703406504421E-002   2.3459397088985721E-002
 -0.12690349022017328        3.5126917589116645E-002   2.9164733920029783E-002
 -0.12241832521462437        3.3932321717084553E-002   2.5557663727183988E-002
 -0.11793316020907549        3.3002347326486388E-002   2.2087943903207976E-002
 -0.11344799520352664        3.2336994417322171E-002   1.8755574448101789E-002
 -0.10896283019797769        3.1936262989591846E-002   1.5560555361865420E-002
 -0.13314268703866244        4.2293543225074247E-002   1.2246340115374831E-002
 -0.12890884225463983        3.8430695605013186E-002   1.2192264829733686E-002
 -0.12467499747061718        3.5745792956260396E-002   1.1498198732170201E-002
 -0.12044115268659457        3.4238835278815744E-002   1.0164141822684384E-002
 -0.11620730790257193        3.3909822572679334E-002   8.1900941012760624E-003
 -0.13616150158592200        4.9460168861031877E-002  -7.7969671822461922E-003
 -0.13295631820421777        4.2929069492941903E-002  -3.3847240708084411E-003
 -0.12975113482251355        3.8489238586034383E-002  -3.8981295208522990E-004
 -0.12654595144080935        3.6140676140309337E-002   1.1877661739235499E-003
 -0.12334076805910510        3.5883382155766752E-002   1.3480133072178435E-003
  -9.4140822144606090E-002   2.7989143823416940E-002   3.1886619282637002E-002
  -9.1767040263708410E-002   2.6804750346229332E-002   3.1314279150993357E-002
  -8.9393258382810772E-002   2.5901933154817314E-002   3.0822921512259134E-002
  -8.7019476501913121E-002   2.5280692249180690E-002   3.0412546366434402E-002
  -8.4645694621015469E-002   2.4941027629319629E-002   3.0083153713519190E-002
 -0.10160733494532241        2.9962703406504421E-002   2.3459397088985721E-002
  -9.9135798773320682E-002   2.9196298564849434E-002   2.3186030758374866E-002
  -9.6664262601318940E-002   2.8490686346973167E-002   2.3027190517062712E-002
  -9.4192726429317197E-002   2.7845866752875641E-002   2.2982876365049289E-002
  -9.1721190257315482E-002   2.7261839782556863E-002   2.3053088302334573E-002
 -0.10896283019797769        3.1936262989591846E-002   1.5560555361865420E-002
 -0.10635999613848264        3.1587846783469514E-002   1.5365379170290596E-002
 -0.10375716207898755        3.1079439539129033E-002   1.5318272664403668E-002
 -0.10115432801949246        3.0411041256570581E-002   1.5419235844204751E-002
  -9.8551493959997419E-002   2.9582651935793999E-002   1.5668268709693858E-002
 -0.11620730790257193        3.3909822572679334E-002   8.1900941012760624E-003
 -0.11343963235919428        3.3979395002089491E-002   7.8523243867404582E-003
 -0.11067195681581664        3.3668192731284970E-002   7.6961679542820547E-003
 -0.10790428127243894        3.2976215760265479E-002   7.7216248039009613E-003
 -0.10513660572906133        3.1903464089031199E-002   7.9286949355968552E-003
 -0.12334076805910510        3.5883382155766752E-002   1.3480133072178435E-003
 -0.12037470743545564        3.6370943220709634E-002   6.4686640772462778E-004
 -0.11740864681180613        3.6256945923440767E-002   1.6087638669790016E-004
 -0.11444258618815667        3.5541390263960360E-002  -1.0995675586224912E-004
 -0.11147652556450716        3.4224276242268370E-002  -1.6563301995609070E-004
  -8.4645694621015469E-002   2.4941027629319629E-002   3.0083153713519190E-002
  -8.2318632121559848E-002   2.4653640920795583E-002   2.9272272197637061E-002
  -7.9991569622104325E-002   2.4189233749169932E-002   2.8673116172649837E-002
  -7.7664507122648718E-002   2.3547806114442835E-002   2.8285685638557538E-002
  -7.5337444623193139E-002   2.2729358016614132E-002   2.8109980595359962E-002
  -9.1721190257315482E-002   2.7261839782556863E-002   2.3053088302334573E-002
  -8.9173976622175744E-002   2.6667407062791137E-002   2.2366512071972794E-002
  -8.6626762987035949E-002   2.5991370220352715E-002   2.1908512622084438E-002
  -8.4079549351896141E-002   2.5233729255241776E-002   2.1679089952669699E-002
  -8.1532335716756443E-002   2.4394484167458180E-002   2.1678244063728480E-002
  -9.8551493959997419E-002   2.9582651935793999E-002   1.5668268709693858E-002
  -9.5767277899594827E-002   2.8681173204786636E-002   1.5201414105281287E-002
  -9.2983061839192221E-002   2.7793506691535495E-002   1.4979987570920849E-002
  -9.0198845778789630E-002   2.6919652396040765E-002   1.5003989106612570E-002
  -8.7414629718387038E-002   2.6059610318302284E-002   1.5273418712356407E-002
 -0.10513660572906133        3.1903464089031199E-002   7.9286949355968552E-003
 -0.10209853595381725        3.0694939346782024E-002   7.7769782975624924E-003
  -9.9060466178573170E-002   2.9595643162718316E-002   7.8875410191588911E-003
  -9.6022396403329088E-002   2.8605575536839661E-002   8.2603831003861365E-003
  -9.2984326628085021E-002   2.7724736469146388E-002   8.8955045412440273E-003
 -0.11147652556450716        3.4224276242268370E-002  -1.6563301995609070E-004
 -0.10816775078484298        3.2708705488777662E-002   9.3204648816597180E-005
 -0.10485897600517879        3.1397779633900974E-002   6.3117296679861268E-004
 -0.10155020122551464        3.0291498677638716E-002   1.4482719339903340E-003
  -9.8241426445850433E-002   2.9389862619990492E-002   2.5445015503913204E-003
  -7.5337444623193139E-002   2.2729358016614132E-002   2.8109980595359962E-002
  -7.2945599333669287E-002   2.1867091945825728E-002   2.7738099688725121E-002
  -7.0553754044145475E-002   2.1094210392219731E-002   2.7566770178079764E-002
  -6.8161908754621664E-002   2.0410713355795952E-002   2.7595992063423821E-002
  -6.5770063465097811E-002   1.9816600836554565E-002   2.7825765344757170E-002
  -8.1532335716756443E-002   2.4394484167458180E-002   2.1678244063728480E-002
  -7.8967350262672292E-002   2.3544868295502563E-002   2.1666672553352639E-002
  -7.6402364808588100E-002   2.2756114977875823E-002   2.1800829976107952E-002
  -7.3837379354503935E-002   2.2028224214577410E-002   2.2080716331994661E-002
  -7.1272393900419770E-002   2.1361196005607819E-002   2.2506331621012371E-002
  -8.7414629718387038E-002   2.6059610318302284E-002   1.5273418712356407E-002
  -8.4731326562600739E-002   2.5222644645179607E-002   1.5593634635385954E-002
  -8.2048023406814483E-002   2.4418019563531748E-002   1.6004757028688518E-002
  -7.9364720251028281E-002   2.3645735073358893E-002   1.6506785892264095E-002
  -7.6681417095241927E-002   2.2905791174661072E-002   1.7099721226112696E-002
  -9.2984326628085021E-002   2.7724736469146388E-002   8.8955045412440273E-003
  -9.0237528233454850E-002   2.6900420994856351E-002   9.5189859348252786E-003
  -8.7490729838824652E-002   2.6079924149187757E-002   1.0178551335821264E-002
  -8.4743931444194440E-002   2.5263245932140223E-002   1.0874200744232246E-002
  -8.1997133049564283E-002   2.4450386343714464E-002   1.1605934160057944E-002
  -9.8241426445850433E-002   2.9389862619990492E-002   2.5445015503913204E-003
  -9.5485955275234458E-002   2.8578197344533290E-002   3.4427264516706246E-003
  -9.2730484104618538E-002   2.7741828734843835E-002   4.3222128975064084E-003
  -8.9975012934002591E-002   2.6880756790921934E-002   5.1829608878993134E-003
  -8.7219541763386643E-002   2.5994981512767579E-002   6.0249704228483858E-003
  -6.5770063465097811E-002   1.9816600836554565E-002   2.7825765344757170E-002
  -6.3429833577869410E-002   1.9226159152814060E-002   2.7345777712073305E-002
  -6.1089603690641078E-002   1.8553674622893035E-002   2.7049785006526550E-002
  -5.8749373803412698E-002   1.7799147246791491E-002   2.6937787228117044E-002
  -5.6409143916184346E-002   1.6962577024509373E-002   2.7009784376844759E-002
  -7.1272393900419770E-002   2.1361196005607819E-002   2.2506331621012371E-002
  -6.8736004901171863E-002   2.0693283210420008E-002   2.2059478127238005E-002
  -6.6199615901923942E-002   1.9962738688467152E-002   2.1820947930365500E-002
  -6.3663226902675993E-002   1.9169562439748863E-002   2.1790741030395078E-002
  -6.1126837903428072E-002   1.8313754464265697E-002   2.1968857427326460E-002
  -7.6681417095241927E-002   2.2905791174661072E-002   1.7099721226112696E-002
  -7.3924540614209749E-002   2.2160407268026011E-002   1.6705412990663221E-002
  -7.1167664133177447E-002   2.1371802754040992E-002   1.6543756421880260E-002
  -6.8410787652145172E-002   2.0539977632706402E-002   1.6614751519764118E-002
  -6.5653911171112966E-002   1.9664931904022215E-002   1.6918398284314726E-002
  -8.1997133049564283E-002   2.4450386343714464E-002   1.1605934160057944E-002
  -7.8995440716982918E-002   2.3627531325631959E-002   1.1283582302348910E-002
  -7.5993748384401580E-002   2.2780866819615192E-002   1.1218210481070683E-002
  -7.2992056051820228E-002   2.1910392825664302E-002   1.1409818696224264E-002
  -6.9990363719238863E-002   2.1016109343778608E-002   1.1858406947809354E-002
  -8.7219541763386643E-002   2.5994981512767579E-002   6.0249704228483858E-003
  -8.3948705209491492E-002   2.5094655383237852E-002   5.7939860622944761E-003
  -8.0677868655596285E-002   2.4189930885189059E-002   5.8443101079373311E-003
  -7.7407032101701051E-002   2.3280808018621341E-002   6.1759425597758093E-003
  -7.4136195547805928E-002   2.2367286783534945E-002   6.7888834178106983E-003
  -5.6409143916184346E-002   1.6962577024509373E-002   2.7009784376844759E-002
  -5.4182479566580455E-002   1.6128955032739756E-002   2.6567676119267303E-002
  -5.1955815216976606E-002   1.5383272348175797E-002   2.6195741556116259E-002
  -4.9729150867372764E-002   1.4725528970817130E-002   2.5893980687391363E-002
  -4.7502486517768866E-002   1.4155724900664357E-002   2.5662393513092574E-002
  -6.1126837903428072E-002   1.8313754464265697E-002   2.1968857427326460E-002
  -5.8780998116536615E-002   1.7459297942509860E-002   2.1843008602881880E-002
  -5.6435158329645185E-002   1.6670176054973757E-002   2.1885336958586354E-002
  -5.4089318542753749E-002   1.5946388801657350E-002   2.2095842494439882E-002
  -5.1743478755862299E-002   1.5287936182560746E-002   2.2474525210442187E-002
  -6.5653911171112966E-002   1.9664931904022215E-002   1.6918398284314726E-002
  -6.3090892461211162E-002   1.8789640852279882E-002   1.7086204220017442E-002
  -6.0527873751309386E-002   1.7957079761771785E-002   1.7520190821591661E-002
  -5.7964855041407609E-002   1.7167248632497353E-002   1.8220358089037623E-002
  -5.5401836331505812E-002   1.6420147464457108E-002   1.9186706022355296E-002
  -6.9990363719238863E-002   2.1016109343778608E-002   1.1858406947809354E-002
  -6.7112162600604097E-002   2.0119983762050028E-002   1.2297262970673184E-002
  -6.4233961481969207E-002   1.9243983468569613E-002   1.3100303145131716E-002
  -6.1355760363334393E-002   1.8388108463337355E-002   1.4267527471184456E-002
  -5.8477559244699551E-002   1.7552358746353594E-002   1.5798935948831871E-002
  -7.4136195547805928E-002   2.2367286783534945E-002   6.7888834178106983E-003
  -7.0844808534715309E-002   2.1450326671819953E-002   7.4761848548500764E-003
  -6.7553421521624690E-002   2.0530887175367940E-002   8.6256739292067952E-003
  -6.4262034508534072E-002   1.9608968294177395E-002   1.0237350640880945E-002
  -6.0970647495443453E-002   1.8684570028250080E-002   1.2311214989871755E-002
  -4.7502486517768866E-002   1.4155724900664357E-002   2.5662393513092574E-002
  -4.5665782163906349E-002   1.3541192255632717E-002   2.4289560576529423E-002
  -4.3829077810043873E-002   1.2749263153638460E-002   2.2464791307589799E-002
  -4.1992373456181446E-002   1.1779937594681131E-002   2.0188085706274408E-002
  -4.0155669102318936E-002   1.0633215578761401E-002   1.7459443772582572E-002
  -5.1743478755862299E-002   1.5287936182560746E-002   2.2474525210442187E-002
  -4.9994330055036118E-002   1.4598296165567126E-002   2.1896154672180590E-002
  -4.8245181354209840E-002   1.3780946718560325E-002   2.1594609160222572E-002
  -4.6496032653383645E-002   1.2835887841539963E-002   2.1569888674568133E-002
  -4.4746883952557381E-002   1.1763119534506261E-002   2.1821993215217383E-002
  -5.5401836331505812E-002   1.6420147464457108E-002   1.9186706022355296E-002
  -5.3011481925036193E-002   1.5655400075501563E-002   1.9452484909344619E-002
  -5.0621127518566483E-002   1.4812630283482182E-002   2.0723850181317262E-002
  -4.8230773112096795E-002   1.3891838088398738E-002   2.3000801838273546E-002
  -4.5840418705627189E-002   1.2893023490251343E-002   2.6283339880212586E-002
  -5.8477559244699551E-002   1.7552358746353594E-002   1.5798935948831871E-002
  -5.4717237773906684E-002   1.6712503985436097E-002   1.6958551288021397E-002
  -5.0956916303113844E-002   1.5844313848404266E-002   1.9852514370874361E-002
  -4.7196594832320971E-002   1.4947788335257652E-002   2.4480825197390400E-002
  -4.3436273361528117E-002   1.4022927445996591E-002   3.0843483767568791E-002
  -6.0970647495443453E-002   1.8684570028250080E-002   1.2311214989871755E-002
  -5.5111597601647744E-002   1.7769607895370743E-002   1.4414353808211211E-002
  -4.9252547707851924E-002   1.6875997413326183E-002   1.8980601728893237E-002
  -4.3393497814056270E-002   1.6003738582116137E-002   2.6009958751918548E-002
  -3.7534447920260394E-002   1.5152831401741285E-002   3.5502424877286165E-002
 </DataArray>
 </PointData>
 </Piece>
 <Piece  NumberOfPoints="          1600 "  NumberOfCells="         1024 ">
 <Points>
 <DataArray  type="Float64" NumberOfComponents="3"  format="ascii" >
  0.50000000000000000        0.0000000000000000        0.0000000000000000     
  0.53125000000000000        0.0000000000000000        0.0000000000000000     
  0.56250000000000000        0.0000000000000000        0.0000000000000000     
  0.59375000000000000        0.0000000000000000        0.0000000000000000     
  0.62500000000000000        0.0000000000000000        0.0000000000000000     
  0.50000000000000000        3.1250000000000000E-002   0.0000000000000000     
  0.53125000000000000        3.1250000000000000E-002   0.0000000000000000     
  0.56250000000000000        3.1250000000000000E-002   0.0000000000000000     
  0.59375000000000000        3.1250000000000000E-002   0.0000000000000000     
  0.62500000000000000        3.1250000000000000E-002   0.0000000000000000     
  0.50000000000000000        6.2500000000000000E-002   0.0000000000000000     
  0.53125000000000000        6.2500000000000000E-002   0.0000000000000000     
  0.56250000000000000        6.2500000000000000E-002   0.0000000000000000     
  0.59375000000000000        6.2500000000000000E-002   0.0000000000000000     
  0.62500000000000000        6.2500000000000000E-002   0.0000000000000000     
  0.50000000000000000        9.3750000000000000E-002   0.0000000000000000     
  0.53125000000000000        9.3750000000000000E-002   0.0000000000000000     
  0.56250000000000000        9.3750000000000000E-002   0.0000000000000000     
  0.59375000000000000        9.3750000000000000E-002   0.0000000000000000     
  0.62500000000000000        9.3750000000000000E-002   0.0000000000000000     
  0.50000000000000000       0.12500000000000000        0.0000000000000000     
  0.53125000000000000       0.12500000000000000        0.0000000000000000     
  0.56250000000000000       0.12500000000000000        0.0000000000000000     
  0.59375000000000000       0.12500000000000000        0.0000000000000000     
  0.62500000000000000       0.12500000000000000        0.0000000000000000     
  0.62500000000000000        0.0000000000000000        0.0000000000000000     
  0.65625000000000000        0.0000000000000000        0.0000000000000000     
  0.68750000000000000        0.0000000000000000        0.0000000000000000     
  0.71875000000000000        0.0000000000000000        0.0000000000000000     
  0.75000000000000000        0.0000000000000000        0.0000000000000000     
  0.62500000000000000        3.1250000000000000E-002   0.0000000000000000     
  0.65625000000000000        3.1250000000000000E-002   0.0000000000000000     
  0.68750000000000000        3.1250000000000000E-002   0.0000000000000000     
  0.71875000000000000        3.1250000000000000E-002   0.0000000000000000     
  0.75000000000000000        3.1250000000000000E-002   0.0000000000000000     
  0.62500000000000000        6.2500000000000000E-002   0.0000000000000000     
  0.65625000000000000        6.2500000000000000E-002   0.0000000000000000     
  0.68750000000000000        6.2500000000000000E-002   0.0000000000000000     
  0.71875000000000000        6.2500000000000000E-002   0.0000000000000000     
  0.75000000000000000        6.2500000000000000E-002   0.0000000000000000     
  0.62500000000000000        9.3750000000000000E-002   0.0000000000000000     
  0.65625000000000000        9.3750000000000000E-002   0.0000000000000000     
  0.68750000000000000        9.3750000000000000E-002   0.0000000000000000     
  0.71875000000000000        9.3750000000000000E-002   0.0000000000000000     
  0.75000000000000000        9.3750000000000000E-002   0.0000000000000000     
  0.62500000000000000       0.12500000000000000        0.0000000000000000     
  0.65625000000000000       0.12500000000000000        0.0000000000000000     
  0.68750000000000000       0.12500000000000000        0.0000000000000000     
  0.71875000000000000       0.12500000000000000        0.0000000000000000     
  0.75000000000000000       0.12500000000000000        0.0000000000000000     
  0.75000000000000000        0.0000000000000000        0.0000000000000000     
  0.78125000000000000        0.0000000000000000        0.0000000000000000     
  0.81250000000000000        0.0000000000000000        0.0000000000000000     
  0.84375000000000000        0.0000000000000000        0.0000000000000000     
  0.87500000000000000        0.0000000000000000        0.0000000000000000     
  0.75000000000000000        3.1250000000000000E-002   0.0000000000000000     
  0.78125000000000000        3.1250000000000000E-002   0.0000000000000000     
  0.81250000000000000        3.1250000000000000E-002   0.0000000000000000     
  0.84375000000000000        3.1250000000000000E-002   0.0000000000000000     
  0.87500000000000000        3.1250000000000000E-002   0.0000000000000000     
  0.75000000000000000        6.2500000000000000E-002   0.0000000000000000     
  0.78125000000000000        6.2500000000000000E-002   0.0000000000000000     
  0.81250000000000000        6.2500000000000000E-002   0.0000000000000000     
  0.84375000000000000        6.2500000000000000E-002   0.0000000000000000     
  0.87500000000000000        6.2500000000000000E-002   0.0000000000000000     
  0.75000000000000000        9.3750000000000000E-002   0.0000000000000000     
  0.78125000000000000        9.3750000000000000E-002   0.0000000000000000     
  0.81250000000000000        9.3750000000000000E-002   0.0000000000000000     
  0.84375000000000000        9.3750000000000000E-002   0.0000000000000000     
  0.87500000000000000        9.3750000000000000E-002   0.0000000000000000     
  0.75000000000000000       0.12500000000000000        0.0000000000000000     
  0.78125000000000000       0.12500000000000000        0.0000000000000000     
  0.81250000000000000       0.12500000000000000        0.0000000000000000     
  0.84375000000000000       0.12500000000000000        0.0000000000000000     
  0.87500000000000000       0.12500000000000000        0.0000000000000000     
  0.87500000000000000        0.0000000000000000        0.0000000000000000     
  0.90625000000000000        0.0000000000000000        0.0000000000000000     
  0.93750000000000000        0.0000000000000000        0.0000000000000000     
  0.96875000000000000        0.0000000000000000        0.0000000000000000     
   1.0000000000000000        0.0000000000000000        0.0000000000000000     
  0.87500000000000000        3.1250000000000000E-002   0.0000000000000000     
  0.90625000000000000        3.1250000000000000E-002   0.0000000000000000     
  0.93750000000000000        3.1250000000000000E-002   0.0000000000000000     
  0.96875000000000000        3.1250000000000000E-002   0.0000000000000000     
   1.0000000000000000        3.1250000000000000E-002   0.0000000000000000     
  0.87500000000000000        6.2500000000000000E-002   0.0000000000000000     
  0.90625000000000000        6.2500000000000000E-002   0.0000000000000000     
  0.93750000000000000        6.2500000000000000E-002   0.0000000000000000     
  0.96875000000000000        6.2500000000000000E-002   0.0000000000000000     
   1.0000000000000000        6.2500000000000000E-002   0.0000000000000000     
  0.87500000000000000        9.3750000000000000E-002   0.0000000000000000     
  0.90625000000000000        9.3750000000000000E-002   0.0000000000000000     
  0.93750000000000000        9.3750000000000000E-002   0.0000000000000000     
  0.96875000000000000        9.3750000000000000E-002   0.0000000000000000     
   1.0000000000000000        9.3750000000000000E-002   0.0000000000000000     
  0.87500000000000000       0.12500000000000000        0.0000000000000000     
  0.90625000000000000       0.12500000000000000        0.0000000000000000     
  0.93750000000000000       0.12500000000000000        0.0000000000000000     
  0.96875000000000000       0.12500000000000000        0.0000000000000000     
   1.0000000000000000       0.12500000000000000        0.0000000000000000     
   1.0000000000000000        0.0000000000000000        0.0000000000000000     
   1.0312500000000000        0.0000000000000000        0.0000000000000000     
   1.0625000000000000        0.0000000000000000        0.0000000000000000     
   1.0937500000000000        0.0000000000000000        0.0000000000000000     
   1.1250000000000000        0.0000000000000000        0.0000000000000000     
   1.0000000000000000        3.1250000000000000E-002   0.0000000000000000     
   1.0312500000000000        3.1250000000000000E-002   0.0000000000000000     
   1.0625000000000000        3.1250000000000000E-002   0.0000000000000000     
   1.0937500000000000        3.1250000000000000E-002   0.0000000000000000     
   1.1250000000000000        3.1250000000000000E-002   0.0000000000000000     
   1.0000000000000000        6.2500000000000000E-002   0.0000000000000000     
   1.0312500000000000        6.2500000000000000E-002   0.0000000000000000     
   1.0625000000000000        6.2500000000000000E-002   0.0000000000000000     
   1.0937500000000000        6.2500000000000000E-002   0.0000000000000000     
   1.1250000000000000        6.2500000000000000E-002   0.0000000000000000     
   1.0000000000000000        9.3750000000000000E-002   0.0000000000000000     
   1.0312500000000000        9.3750000000000000E-002   0.0000000000000000     
   1.0625000000000000        9.3750000000000000E-002   0.0000000000000000     
   1.0937500000000000        9.3750000000000000E-002   0.0000000000000000     
   1.1250000000000000        9.3750000000000000E-002   0.0000000000000000     
   1.0000000000000000       0.12500000000000000        0.0000000000000000     
   1.0312500000000000       0.12500000000000000        0.0000000000000000     
   1.0625000000000000       0.12500000000000000        0.0000000000000000     
   1.0937500000000000       0.12500000000000000        0.0000000000000000     
   1.1250000000000000       0.12500000000000000        0.0000000000000000     
   1.1250000000000000        0.0000000000000000        0.0000000000000000     
   1.1562500000000000        0.0000000000000000        0.0000000000000000     
   1.1875000000000000        0.0000000000000000        0.0000000000000000     
   1.2187500000000000        0.0000000000000000        0.0000000000000000     
   1.2500000000000000        0.0000000000000000        0.0000000000000000     
   1.1250000000000000        3.1250000000000000E-002   0.0000000000000000     
   1.1562500000000000        3.1250000000000000E-002   0.0000000000000000     
   1.1875000000000000        3.1250000000000000E-002   0.0000000000000000     
   1.2187500000000000        3.1250000000000000E-002   0.0000000000000000     
   1.2500000000000000        3.1250000000000000E-002   0.0000000000000000     
   1.1250000000000000        6.2500000000000000E-002   0.0000000000000000     
   1.1562500000000000        6.2500000000000000E-002   0.0000000000000000     
   1.1875000000000000        6.2500000000000000E-002   0.0000000000000000     
   1.2187500000000000        6.2500000000000000E-002   0.0000000000000000     
   1.2500000000000000        6.2500000000000000E-002   0.0000000000000000     
   1.1250000000000000        9.3750000000000000E-002   0.0000000000000000     
   1.1562500000000000        9.3750000000000000E-002   0.0000000000000000     
   1.1875000000000000        9.3750000000000000E-002   0.0000000000000000     
   1.2187500000000000        9.3750000000000000E-002   0.0000000000000000     
   1.2500000000000000        9.3750000000000000E-002   0.0000000000000000     
   1.1250000000000000       0.12500000000000000        0.0000000000000000     
   1.1562500000000000       0.12500000000000000        0.0000000000000000     
   1.1875000000000000       0.12500000000000000        0.0000000000000000     
   1.2187500000000000       0.12500000000000000        0.0000000000000000     
   1.2500000000000000       0.12500000000000000        0.0000000000000000     
   1.2500000000000000        0.0000000000000000        0.0000000000000000     
   1.2812500000000000        0.0000000000000000        0.0000000000000000     
   1.3125000000000000        0.0000000000000000        0.0000000000000000     
   1.3437500000000000        0.0000000000000000        0.0000000000000000     
   1.3750000000000000        0.0000000000000000        0.0000000000000000     
   1.2500000000000000        3.1250000000000000E-002   0.0000000000000000     
   1.2812500000000000        3.1250000000000000E-002   0.0000000000000000     
   1.3125000000000000        3.1250000000000000E-002   0.0000000000000000     
   1.3437500000000000        3.1250000000000000E-002   0.0000000000000000     
   1.3750000000000000        3.1250000000000000E-002   0.0000000000000000     
   1.2500000000000000        6.2500000000000000E-002   0.0000000000000000     
   1.2812500000000000        6.2500000000000000E-002   0.0000000000000000     
   1.3125000000000000        6.2500000000000000E-002   0.0000000000000000     
   1.3437500000000000        6.2500000000000000E-002   0.0000000000000000     
   1.3750000000000000        6.2500000000000000E-002   0.0000000000000000     
   1.2500000000000000        9.3750000000000000E-002   0.0000000000000000     
   1.2812500000000000        9.3750000000000000E-002   0.0000000000000000     
   1.3125000000000000        9.3750000000000000E-002   0.0000000000000000     
   1.3437500000000000        9.3750000000000000E-002   0.0000000000000000     
   1.3750000000000000        9.3750000000000000E-002   0.0000000000000000     
   1.2500000000000000       0.12500000000000000        0.0000000000000000     
   1.2812500000000000       0.12500000000000000        0.0000000000000000     
   1.3125000000000000       0.12500000000000000        0.0000000000000000     
   1.3437500000000000       0.12500000000000000        0.0000000000000000     
   1.3750000000000000       0.12500000000000000        0.0000000000000000     
   1.3750000000000000        0.0000000000000000        0.0000000000000000     
   1.4062500000000000        0.0000000000000000        0.0000000000000000     
   1.4375000000000000        0.0000000000000000        0.0000000000000000     
   1.4687500000000000        0.0000000000000000        0.0000000000000000     
   1.5000000000000000        0.0000000000000000        0.0000000000000000     
   1.3750000000000000        3.1250000000000000E-002   0.0000000000000000     
   1.4062500000000000        3.1250000000000000E-002   0.0000000000000000     
   1.4375000000000000        3.1250000000000000E-002   0.0000000000000000     
   1.4687500000000000        3.1250000000000000E-002   0.0000000000000000     
   1.5000000000000000        3.1250000000000000E-002   0.0000000000000000     
   1.3750000000000000        6.2500000000000000E-002   0.0000000000000000     
   1.4062500000000000        6.2500000000000000E-002   0.0000000000000000     
   1.4375000000000000        6.2500000000000000E-002   0.0000000000000000     
   1.4687500000000000        6.2500000000000000E-002   0.0000000000000000     
   1.5000000000000000        6.2500000000000000E-002   0.0000000000000000     
   1.3750000000000000        9.3750000000000000E-002   0.0000000000000000     
   1.4062500000000000        9.3750000000000000E-002   0.0000000000000000     
   1.4375000000000000        9.3750000000000000E-002   0.0000000000000000     
   1.4687500000000000        9.3750000000000000E-002   0.0000000000000000     
   1.5000000000000000        9.3750000000000000E-002   0.0000000000000000     
   1.3750000000000000       0.12500000000000000        0.0000000000000000     
   1.4062500000000000       0.12500000000000000        0.0000000000000000     
   1.4375000000000000       0.12500000000000000        0.0000000000000000     
   1.4687500000000000       0.12500000000000000        0.0000000000000000     
   1.5000000000000000       0.12500000000000000        0.0000000000000000     
  0.50000000000000000       0.12500000000000000        0.0000000000000000     
  0.53125000000000000       0.12500000000000000        0.0000000000000000     
  0.56250000000000000       0.12500000000000000        0.0000000000000000     
  0.59375000000000000       0.12500000000000000        0.0000000000000000     
  0.62500000000000000       0.12500000000000000        0.0000000000000000     
  0.50000000000000000       0.15625000000000000        0.0000000000000000     
  0.53125000000000000       0.15625000000000000        0.0000000000000000     
  0.56250000000000000       0.15625000000000000        0.0000000000000000     
  0.59375000000000000       0.15625000000000000        0.0000000000000000     
  0.62500000000000000       0.15625000000000000        0.0000000000000000     
  0.50000000000000000       0.18750000000000000        0.0000000000000000     
  0.53125000000000000       0.18750000000000000        0.0000000000000000     
  0.56250000000000000       0.18750000000000000        0.0000000000000000     
  0.59375000000000000       0.18750000000000000        0.0000000000000000     
  0.62500000000000000       0.18750000000000000        0.0000000000000000     
  0.50000000000000000       0.21875000000000000        0.0000000000000000     
  0.53125000000000000       0.21875000000000000        0.0000000000000000     
  0.56250000000000000       0.21875000000000000        0.0000000000000000     
  0.59375000000000000       0.21875000000000000        0.0000000000000000     
  0.62500000000000000       0.21875000000000000        0.0000000000000000     
  0.50000000000000000       0.25000000000000000        0.0000000000000000     
  0.53125000000000000       0.25000000000000000        0.0000000000000000     
  0.56250000000000000       0.25000000000000000        0.0000000000000000     
  0.59375000000000000       0.25000000000000000        0.0000000000000000     
  0.62500000000000000       0.25000000000000000        0.0000000000000000     
  0.62500000000000000       0.12500000000000000        0.0000000000000000     
  0.65625000000000000       0.12500000000000000        0.0000000000000000     
  0.68750000000000000       0.12500000000000000        0.0000000000000000     
  0.71875000000000000       0.12500000000000000        0.0000000000000000     
  0.75000000000000000       0.12500000000000000        0.0000000000000000     
  0.62500000000000000       0.15625000000000000        0.0000000000000000     
  0.65625000000000000       0.15625000000000000        0.0000000000000000     
  0.68750000000000000       0.15625000000000000        0.0000000000000000     
  0.71875000000000000       0.15625000000000000        0.0000000000000000     
  0.75000000000000000       0.15625000000000000        0.0000000000000000     
  0.62500000000000000       0.18750000000000000        0.0000000000000000     
  0.65625000000000000       0.18750000000000000        0.0000000000000000     
  0.68750000000000000       0.18750000000000000        0.0000000000000000     
  0.71875000000000000       0.18750000000000000        0.0000000000000000     
  0.75000000000000000       0.18750000000000000        0.0000000000000000     
  0.62500000000000000       0.21875000000000000        0.0000000000000000     
  0.65625000000000000       0.21875000000000000        0.0000000000000000     
  0.68750000000000000       0.21875000000000000        0.0000000000000000     
  0.71875000000000000       0.21875000000000000        0.0000000000000000     
  0.75000000000000000       0.21875000000000000        0.0000000000000000     
  0.62500000000000000       0.25000000000000000        0.0000000000000000     
  0.65625000000000000       0.25000000000000000        0.0000000000000000     
  0.68750000000000000       0.25000000000000000        0.0000000000000000     
  0.71875000000000000       0.25000000000000000        0.0000000000000000     
  0.75000000000000000       0.25000000000000000        0.0000000000000000     
  0.75000000000000000       0.12500000000000000        0.0000000000000000     
  0.78125000000000000       0.12500000000000000        0.0000000000000000     
  0.81250000000000000       0.12500000000000000        0.0000000000000000     
  0.84375000000000000       0.12500000000000000        0.0000000000000000     
  0.87500000000000000       0.12500000000000000        0.0000000000000000     
  0.75000000000000000       0.15625000000000000        0.0000000000000000     
  0.78125000000000000       0.15625000000000000        0.0000000000000000     
  0.81250000000000000       0.15625000000000000        0.0000000000000000     
  0.84375000000000000       0.15625000000000000        0.0000000000000000     
  0.87500000000000000       0.15625000000000000        0.0000000000000000     
  0.75000000000000000       0.18750000000000000        0.0000000000000000     
  0.78125000000000000       0.18750000000000000        0.0000000000000000     
  0.81250000000000000       0.18750000000000000        0.0000000000000000     
  0.84375000000000000       0.18750000000000000        0.0000000000000000     
  0.87500000000000000       0.18750000000000000        0.0000000000000000     
  0.75000000000000000       0.21875000000000000        0.0000000000000000     
  0.78125000000000000       0.21875000000000000        0.0000000000000000     
  0.81250000000000000       0.21875000000000000        0.0000000000000000     
  0.84375000000000000       0.21875000000000000        0.0000000000000000     
  0.87500000000000000       0.21875000000000000        0.0000000000000000     
  0.75000000000000000       0.25000000000000000        0.0000000000000000     
  0.78125000000000000       0.25000000000000000        0.0000000000000000     
  0.81250000000000000       0.25000000000000000        0.0000000000000000     
  0.84375000000000000       0.25000000000000000        0.0000000000000000     
  0.87500000000000000       0.25000000000000000        0.0000000000000000     
  0.87500000000000000       0.12500000000000000        0.0000000000000000     
  0.90625000000000000       0.12500000000000000        0.0000000000000000     
  0.93750000000000000       0.12500000000000000        0.0000000000000000     
  0.96875000000000000       0.12500000000000000        0.0000000000000000     
   1.0000000000000000       0.12500000000000000        0.0000000000000000     
  0.87500000000000000       0.15625000000000000        0.0000000000000000     
  0.90625000000000000       0.15625000000000000        0.0000000000000000     
  0.93750000000000000       0.15625000000000000        0.0000000000000000     
  0.96875000000000000       0.15625000000000000        0.0000000000000000     
   1.0000000000000000       0.15625000000000000        0.0000000000000000     
  0.87500000000000000       0.18750000000000000        0.0000000000000000     
  0.90625000000000000       0.18750000000000000        0.0000000000000000     
  0.93750000000000000       0.18750000000000000        0.0000000000000000     
  0.96875000000000000       0.18750000000000000        0.0000000000000000     
   1.0000000000000000       0.18750000000000000        0.0000000000000000     
  0.87500000000000000       0.21875000000000000        0.0000000000000000     
  0.90625000000000000       0.21875000000000000        0.0000000000000000     
  0.93750000000000000       0.21875000000000000        0.0000000000000000     
  0.96875000000000000       0.21875000000000000        0.0000000000000000     
   1.0000000000000000       0.21875000000000000        0.0000000000000000     
  0.87500000000000000       0.25000000000000000        0.0000000000000000     
  0.90625000000000000       0.25000000000000000        0.0000000000000000     
  0.93750000000000000       0.25000000000000000        0.0000000000000000     
  0.96875000000000000       0.25000000000000000        0.0000000000000000     
   1.0000000000000000       0.25000000000000000        0.0000000000000000     
   1.0000000000000000       0.12500000000000000        0.0000000000000000     
   1.0312500000000000       0.12500000000000000        0.0000000000000000     
   1.0625000000000000       0.12500000000000000        0.0000000000000000     
   1.0937500000000000       0.12500000000000000        0.0000000000000000     
   1.1250000000000000       0.12500000000000000        0.0000000000000000     
   1.0000000000000000       0.15625000000000000        0.0000000000000000     
   1.0312500000000000       0.15625000000000000        0.0000000000000000     
   1.0625000000000000       0.15625000000000000        0.0000000000000000     
   1.0937500000000000       0.15625000000000000        0.0000000000000000     
   1.1250000000000000       0.15625000000000000        0.0000000000000000     
   1.0000000000000000       0.18750000000000000        0.0000000000000000     
   1.0312500000000000       0.18750000000000000        0.0000000000000000     
   1.0625000000000000       0.18750000000000000        0.0000000000000000     
   1.0937500000000000       0.18750000000000000        0.0000000000000000     
   1.1250000000000000       0.18750000000000000        0.0000000000000000     
   1.0000000000000000       0.21875000000000000        0.0000000000000000     
   1.0312500000000000       0.21875000000000000        0.0000000000000000     
   1.0625000000000000       0.21875000000000000        0.0000000000000000     
   1.0937500000000000       0.21875000000000000        0.0000000000000000     
   1.1250000000000000       0.21875000000000000        0.0000000000000000     
   1.0000000000000000       0.25000000000000000        0.0000000000000000     
   1.0312500000000000       0.25000000000000000        0.0000000000000000     
   1.0625000000000000       0.25000000000000000        0.0000000000000000     
   1.0937500000000000       0.25000000000000000        0.0000000000000000     
   1.1250000000000000       0.25000000000000000        0.0000000000000000     
   1.1250000000000000       0.12500000000000000        0.0000000000000000     
   1.1562500000000000       0.12500000000000000        0.0000000000000000     
   1.1875000000000000       0.12500000000000000        0.0000000000000000     
   1.2187500000000000       0.12500000000000000        0.0000000000000000     
   1.2500000000000000       0.12500000000000000        0.0000000000000000     
   1.1250000000000000       0.15625000000000000        0.0000000000000000     
   1.1562500000000000       0.15625000000000000        0.0000000000000000     
   1.1875000000000000       0.15625000000000000        0.0000000000000000     
   1.2187500000000000       0.15625000000000000        0.0000000000000000     
   1.2500000000000000       0.15625000000000000        0.0000000000000000     
   1.1250000000000000       0.18750000000000000        0.0000000000000000     
   1.1562500000000000       0.18750000000000000        0.0000000000000000     
   1.1875000000000000       0.18750000000000000        0.0000000000000000     
   1.2187500000000000       0.18750000000000000        0.0000000000000000     
   1.2500000000000000       0.18750000000000000        0.0000000000000000     
   1.1250000000000000       0.21875000000000000        0.0000000000000000     
   1.1562500000000000       0.21875000000000000        0.0000000000000000     
   1.1875000000000000       0.21875000000000000        0.0000000000000000     
   1.2187500000000000       0.21875000000000000        0.0000000000000000     
   1.2500000000000000       0.21875000000000000        0.0000000000000000     
   1.1250000000000000       0.25000000000000000        0.0000000000000000     
   1.1562500000000000       0.25000000000000000        0.0000000000000000     
   1.1875000000000000       0.25000000000000000        0.0000000000000000     
   1.2187500000000000       0.25000000000000000        0.0000000000000000     
   1.2500000000000000       0.25000000000000000        0.0000000000000000     
   1.2500000000000000       0.12500000000000000        0.0000000000000000     
   1.2812500000000000       0.12500000000000000        0.0000000000000000     
   1.3125000000000000       0.12500000000000000        0.0000000000000000     
   1.3437500000000000       0.12500000000000000        0.0000000000000000     
   1.3750000000000000       0.12500000000000000        0.0000000000000000     
   1.2500000000000000       0.15625000000000000        0.0000000000000000     
   1.2812500000000000       0.15625000000000000        0.0000000000000000     
   1.3125000000000000       0.15625000000000000        0.0000000000000000     
   1.3437500000000000       0.15625000000000000        0.0000000000000000     
   1.3750000000000000       0.15625000000000000        0.0000000000000000     
   1.2500000000000000       0.18750000000000000        0.0000000000000000     
   1.2812500000000000       0.18750000000000000        0.0000000000000000     
   1.3125000000000000       0.18750000000000000        0.0000000000000000     
   1.3437500000000000       0.18750000000000000        0.0000000000000000     
   1.3750000000000000       0.18750000000000000        0.0000000000000000     
   1.2500000000000000       0.21875000000000000        0.0000000000000000     
   1.2812500000000000       0.21875000000000000        0.0000000000000000     
   1.3125000000000000       0.21875000000000000        0.0000000000000000     
   1.3437500000000000       0.21875000000000000        0.0000000000000000     
   1.3750000000000000       0.21875000000000000        0.0000000000000000     
   1.2500000000000000       0.25000000000000000        0.0000000000000000     
   1.2812500000000000       0.25000000000000000        0.0000000000000000     
   1.3125000000000000       0.25000000000000000        0.0000000000000000     
   1.3437500000000000       0.25000000000000000        0.0000000000000000     
   1.3750000000000000       0.25000000000000000        0.0000000000000000     
   1.3750000000000000       0.12500000000000000        0.0000000000000000     
   1.4062500000000000       0.12500000000000000        0.0000000000000000     
   1.4375000000000000       0.12500000000000000        0.0000000000000000     
   1.4687500000000000       0.12500000000000000        0.0000000000000000     
   1.5000000000000000       0.12500000000000000        0.0000000000000000     
   1.3750000000000000       0.15625000000000000        0.0000000000000000     
   1.4062500000000000       0.15625000000000000        0.0000000000000000     
   1.4375000000000000       0.15625000000000000        0.0000000000000000     
   1.4687500000000000       0.15625000000000000        0.0000000000000000     
   1.5000000000000000       0.15625000000000000        0.0000000000000000     
   1.3750000000000000       0.18750000000000000        0.0000000000000000     
   1.4062500000000000       0.18750000000000000        0.0000000000000000     
   1.4375000000000000       0.18750000000000000        0.0000000000000000     
   1.4687500000000000       0.18750000000000000        0.0000000000000000     
   1.5000000000000000       0.18750000000000000        0.0000000000000000     
   1.3750000000000000       0.21875000000000000        0.0000000000000000     
   1.4062500000000000       0.21875000000000000        0.0000000000000000     
   1.4375000000000000       0.21875000000000000        0.0000000000000000     
   1.4687500000000000       0.21875000000000000        0.0000000000000000     
   1.5000000000000000       0.21875000000000000        0.0000000000000000     
   1.3750000000000000       0.25000000000000000        0.0000000000000000     
   1.4062500000000000       0.25000000000000000        0.0000000000000000     
   1.4375000000000000       0.25000000000000000        0.0000000000000000     
   1.4687500000000000       0.25000000000000000        0.0000000000000000     
   1.5000000000000000       0.25000000000000000        0.0000000000000000     
  0.50000000000000000       0.25000000000000000        0.0000000000000000     
  0.53125000000000000       0.25000000000000000        0.0000000000000000     
  0.56250000000000000       0.25000000000000000        0.0000000000000000     
  0.59375000000000000       0.25000000000000000        0.0000000000000000     
  0.62500000000000000       0.25000000000000000        0.0000000000000000     
  0.50000000000000000       0.28125000000000000        0.0000000000000000     
  0.53125000000000000       0.28125000000000000        0.0000000000000000     
  0.56250000000000000       0.28125000000000000        0.0000000000000000     
  0.59375000000000000       0.28125000000000000        0.0000000000000000     
  0.62500000000000000       0.28125000000000000        0.0000000000000000     
  0.50000000000000000       0.31250000000000000        0.0000000000000000     
  0.53125000000000000       0.31250000000000000        0.0000000000000000     
  0.56250000000000000       0.31250000000000000        0.0000000000000000     
  0.59375000000000000       0.31250000000000000        0.0000000000000000     
  0.62500000000000000       0.31250000000000000        0.0000000000000000     
  0.50000000000000000       0.34375000000000000        0.0000000000000000     
  0.53125000000000000       0.34375000000000000        0.0000000000000000     
  0.56250000000000000       0.34375000000000000        0.0000000000000000     
  0.59375000000000000       0.34375000000000000        0.0000000000000000     
  0.62500000000000000       0.34375000000000000        0.0000000000000000     
  0.50000000000000000       0.37500000000000000        0.0000000000000000     
  0.53125000000000000       0.37500000000000000        0.0000000000000000     
  0.56250000000000000       0.37500000000000000        0.0000000000000000     
  0.59375000000000000       0.37500000000000000        0.0000000000000000     
  0.62500000000000000       0.37500000000000000        0.0000000000000000     
  0.62500000000000000       0.25000000000000000        0.0000000000000000     
  0.65625000000000000       0.25000000000000000        0.0000000000000000     
  0.68750000000000000       0.25000000000000000        0.0000000000000000     
  0.71875000000000000       0.25000000000000000        0.0000000000000000     
  0.75000000000000000       0.25000000000000000        0.0000000000000000     
  0.62500000000000000       0.28125000000000000        0.0000000000000000     
  0.65625000000000000       0.28125000000000000        0.0000000000000000     
  0.68750000000000000       0.28125000000000000        0.0000000000000000     
  0.71875000000000000       0.28125000000000000        0.0000000000000000     
  0.75000000000000000       0.28125000000000000        0.0000000000000000     
  0.62500000000000000       0.31250000000000000        0.0000000000000000     
  0.65625000000000000       0.31250000000000000        0.0000000000000000     
  0.68750000000000000       0.31250000000000000        0.0000000000000000     
  0.71875000000000000       0.31250000000000000        0.0000000000000000     
  0.75000000000000000       0.31250000000000000        0.0000000000000000     
  0.62500000000000000       0.34375000000000000        0.0000000000000000     
  0.65625000000000000       0.34375000000000000        0.0000000000000000     
  0.68750000000000000       0.34375000000000000        0.0000000000000000     
  0.71875000000000000       0.34375000000000000        0.0000000000000000     
  0.75000000000000000       0.34375000000000000        0.0000000000000000     
  0.62500000000000000       0.37500000000000000        0.0000000000000000     
  0.65625000000000000       0.37500000000000000        0.0000000000000000     
  0.68750000000000000       0.37500000000000000        0.0000000000000000     
  0.71875000000000000       0.37500000000000000        0.0000000000000000     
  0.75000000000000000       0.37500000000000000        0.0000000000000000     
  0.75000000000000000       0.25000000000000000        0.0000000000000000     
  0.78125000000000000       0.25000000000000000        0.0000000000000000     
  0.81250000000000000       0.25000000000000000        0.0000000000000000     
  0.84375000000000000       0.25000000000000000        0.0000000000000000     
  0.87500000000000000       0.25000000000000000        0.0000000000000000     
  0.75000000000000000       0.28125000000000000        0.0000000000000000     
  0.78125000000000000       0.28125000000000000        0.0000000000000000     
  0.81250000000000000       0.28125000000000000        0.0000000000000000     
  0.84375000000000000       0.28125000000000000        0.0000000000000000     
  0.87500000000000000       0.28125000000000000        0.0000000000000000     
  0.75000000000000000       0.31250000000000000        0.0000000000000000     
  0.78125000000000000       0.31250000000000000        0.0000000000000000     
  0.81250000000000000       0.31250000000000000        0.0000000000000000     
  0.84375000000000000       0.31250000000000000        0.0000000000000000     
  0.87500000000000000       0.31250000000000000        0.0000000000000000     
  0.75000000000000000       0.34375000000000000        0.0000000000000000     
  0.78125000000000000       0.34375000000000000        0.0000000000000000     
  0.81250000000000000       0.34375000000000000        0.0000000000000000     
  0.84375000000000000       0.34375000000000000        0.0000000000000000     
  0.87500000000000000       0.34375000000000000        0.0000000000000000     
  0.75000000000000000       0.37500000000000000        0.0000000000000000     
  0.78125000000000000       0.37500000000000000        0.0000000000000000     
  0.81250000000000000       0.37500000000000000        0.0000000000000000     
  0.84375000000000000       0.37500000000000000        0.0000000000000000     
  0.87500000000000000       0.37500000000000000        0.0000000000000000     
  0.87500000000000000       0.25000000000000000        0.0000000000000000     
  0.90625000000000000       0.25000000000000000        0.0000000000000000     
  0.93750000000000000       0.25000000000000000        0.0000000000000000     
  0.96875000000000000       0.25000000000000000        0.0000000000000000     
   1.0000000000000000       0.25000000000000000        0.0000000000000000     
  0.87500000000000000       0.28125000000000000        0.0000000000000000     
  0.90625000000000000       0.28125000000000000        0.0000000000000000     
  0.93750000000000000       0.28125000000000000        0.0000000000000000     
  0.96875000000000000       0.28125000000000000        0.0000000000000000     
   1.0000000000000000       0.28125000000000000        0.0000000000000000     
  0.87500000000000000       0.31250000000000000        0.0000000000000000     
  0.90625000000000000       0.31250000000000000        0.0000000000000000     
  0.93750000000000000       0.31250000000000000        0.0000000000000000     
  0.96875000000000000       0.31250000000000000        0.0000000000000000     
   1.0000000000000000       0.31250000000000000        0.0000000000000000     
  0.87500000000000000       0.34375000000000000        0.0000000000000000     
  0.90625000000000000       0.34375000000000000        0.0000000000000000     
  0.93750000000000000       0.34375000000000000        0.0000000000000000     
  0.96875000000000000       0.34375000000000000        0.0000000000000000     
   1.0000000000000000       0.34375000000000000        0.0000000000000000     
  0.87500000000000000       0.37500000000000000        0.0000000000000000     
  0.90625000000000000       0.37500000000000000        0.0000000000000000     
  0.93750000000000000       0.37500000000000000        0.0000000000000000     
  0.96875000000000000       0.37500000000000000        0.0000000000000000     
   1.0000000000000000       0.37500000000000000        0.0000000000000000     
   1.0000000000000000       0.25000000000000000        0.0000000000000000     
   1.0312500000000000       0.25000000000000000        0.0000000000000000     
   1.0625000000000000       0.25000000000000000        0.0000000000000000     
   1.0937500000000000       0.25000000000000000        0.0000000000000000     
   1.1250000000000000       0.25000000000000000        0.0000000000000000     
   1.0000000000000000       0.28125000000000000        0.0000000000000000     
   1.0312500000000000       0.28125000000000000        0.0000000000000000     
   1.0625000000000000       0.28125000000000000        0.0000000000000000     
   1.0937500000000000       0.28125000000000000        0.0000000000000000     
   1.1250000000000000       0.28125000000000000        0.0000000000000000     
   1.0000000000000000       0.31250000000000000        0.0000000000000000     
   1.0312500000000000       0.31250000000000000        0.0000000000000000     
   1.0625000000000000       0.31250000000000000        0.0000000000000000     
   1.0937500000000000       0.31250000000000000        0.0000000000000000     
   1.1250000000000000       0.31250000000000000        0.0000000000000000     
   1.0000000000000000       0.34375000000000000        0.0000000000000000     
   1.0312500000000000       0.34375000000000000        0.0000000000000000     
   1.0625000000000000       0.34375000000000000        0.0000000000000000     
   1.0937500000000000       0.34375000000000000        0.0000000000000000     
   1.1250000000000000       0.34375000000000000        0.0000000000000000     
   1.0000000000000000       0.37500000000000000        0.0000000000000000     
   1.0312500000000000       0.37500000000000000        0.0000000000000000     
   1.0625000000000000       0.37500000000000000        0.0000000000000000     
   1.0937500000000000       0.37500000000000000        0.0000000000000000     
   1.1250000000000000       0.37500000000000000        0.0000000000000000     
   1.1250000000000000       0.25000000000000000        0.0000000000000000     
   1.1562500000000000       0.25000000000000000        0.0000000000000000     
   1.1875000000000000       0.25000000000000000        0.0000000000000000     
   1.2187500000000000       0.25000000000000000        0.0000000000000000     
   1.2500000000000000       0.25000000000000000        0.0000000000000000     
   1.1250000000000000       0.28125000000000000        0.0000000000000000     
   1.1562500000000000       0.28125000000000000        0.0000000000000000     
   1.1875000000000000       0.28125000000000000        0.0000000000000000     
   1.2187500000000000       0.28125000000000000        0.0000000000000000     
   1.2500000000000000       0.28125000000000000        0.0000000000000000     
   1.1250000000000000       0.31250000000000000        0.0000000000000000     
   1.1562500000000000       0.31250000000000000        0.0000000000000000     
   1.1875000000000000       0.31250000000000000        0.0000000000000000     
   1.2187500000000000       0.31250000000000000        0.0000000000000000     
   1.2500000000000000       0.31250000000000000        0.0000000000000000     
   1.1250000000000000       0.34375000000000000        0.0000000000000000     
   1.1562500000000000       0.34375000000000000        0.0000000000000000     
   1.1875000000000000       0.34375000000000000        0.0000000000000000     
   1.2187500000000000       0.34375000000000000        0.0000000000000000     
   1.2500000000000000       0.34375000000000000        0.0000000000000000     
   1.1250000000000000       0.37500000000000000        0.0000000000000000     
   1.1562500000000000       0.37500000000000000        0.0000000000000000     
   1.1875000000000000       0.37500000000000000        0.0000000000000000     
   1.2187500000000000       0.37500000000000000        0.0000000000000000     
   1.2500000000000000       0.37500000000000000        0.0000000000000000     
   1.2500000000000000       0.25000000000000000        0.0000000000000000     
   1.2812500000000000       0.25000000000000000        0.0000000000000000     
   1.3125000000000000       0.25000000000000000        0.0000000000000000     
   1.3437500000000000       0.25000000000000000        0.0000000000000000     
   1.3750000000000000       0.25000000000000000        0.0000000000000000     
   1.2500000000000000       0.28125000000000000        0.0000000000000000     
   1.2812500000000000       0.28125000000000000        0.0000000000000000     
   1.3125000000000000       0.28125000000000000        0.0000000000000000     
   1.3437500000000000       0.28125000000000000        0.0000000000000000     
   1.3750000000000000       0.28125000000000000        0.0000000000000000     
   1.2500000000000000       0.31250000000000000        0.0000000000000000     
   1.2812500000000000       0.31250000000000000        0.0000000000000000     
   1.3125000000000000       0.31250000000000000        0.0000000000000000     
   1.3437500000000000       0.31250000000000000        0.0000000000000000     
   1.3750000000000000       0.31250000000000000        0.0000000000000000     
   1.2500000000000000       0.34375000000000000        0.0000000000000000     
   1.2812500000000000       0.34375000000000000        0.0000000000000000     
   1.3125000000000000       0.34375000000000000        0.0000000000000000     
   1.3437500000000000       0.34375000000000000        0.0000000000000000     
   1.3750000000000000       0.34375000000000000        0.0000000000000000     
   1.2500000000000000       0.37500000000000000        0.0000000000000000     
   1.2812500000000000       0.37500000000000000        0.0000000000000000     
   1.3125000000000000       0.37500000000000000        0.0000000000000000     
   1.3437500000000000       0.37500000000000000        0.0000000000000000     
   1.3750000000000000       0.37500000000000000        0.0000000000000000     
   1.3750000000000000       0.25000000000000000        0.0000000000000000     
   1.4062500000000000       0.25000000000000000        0.0000000000000000     
   1.4375000000000000       0.25000000000000000        0.0000000000000000     
   1.4687500000000000       0.25000000000000000        0.0000000000000000     
   1.5000000000000000       0.25000000000000000        0.0000000000000000     
   1.3750000000000000       0.28125000000000000        0.0000000000000000     
   1.4062500000000000       0.28125000000000000        0.0000000000000000     
   1.4375000000000000       0.28125000000000000        0.0000000000000000     
   1.4687500000000000       0.28125000000000000        0.0000000000000000     
   1.5000000000000000       0.28125000000000000        0.0000000000000000     
   1.3750000000000000       0.31250000000000000        0.0000000000000000     
   1.4062500000000000       0.31250000000000000        0.0000000000000000     
   1.4375000000000000       0.31250000000000000        0.0000000000000000     
   1.4687500000000000       0.31250000000000000        0.0000000000000000     
   1.5000000000000000       0.31250000000000000        0.0000000000000000     
   1.3750000000000000       0.34375000000000000        0.0000000000000000     
   1.4062500000000000       0.34375000000000000        0.0000000000000000     
   1.4375000000000000       0.34375000000000000        0.0000000000000000     
   1.4687500000000000       0.34375000000000000        0.0000000000000000     
   1.5000000000000000       0.34375000000000000        0.0000000000000000     
   1.3750000000000000       0.37500000000000000        0.0000000000000000     
   1.4062500000000000       0.37500000000000000        0.0000000000000000     
   1.4375000000000000       0.37500000000000000        0.0000000000000000     
   1.4687500000000000       0.37500000000000000        0.0000000000000000     
   1.5000000000000000       0.37500000000000000        0.0000000000000000     
  0.50000000000000000       0.37500000000000000        0.0000000000000000     
  0.53125000000000000       0.37500000000000000        0.0000000000000000     
  0.56250000000000000       0.37500000000000000        0.0000000000000000     
  0.59375000000000000       0.37500000000000000        0.0000000000000000     
  0.62500000000000000       0.37500000000000000        0.0000000000000000     
  0.50000000000000000       0.40625000000000000        0.0000000000000000     
  0.53125000000000000       0.40625000000000000        0.0000000000000000     
  0.56250000000000000       0.40625000000000000        0.0000000000000000     
  0.59375000000000000       0.40625000000000000        0.0000000000000000     
  0.62500000000000000       0.40625000000000000        0.0000000000000000     
  0.50000000000000000       0.43750000000000000        0.0000000000000000     
  0.53125000000000000       0.43750000000000000        0.0000000000000000     
  0.56250000000000000       0.43750000000000000        0.0000000000000000     
  0.59375000000000000       0.43750000000000000        0.0000000000000000     
  0.62500000000000000       0.43750000000000000        0.0000000000000000     
  0.50000000000000000       0.46875000000000000        0.0000000000000000     
  0.53125000000000000       0.46875000000000000        0.0000000000000000     
  0.56250000000000000       0.46875000000000000        0.0000000000000000     
  0.59375000000000000       0.46875000000000000        0.0000000000000000     
  0.62500000000000000       0.46875000000000000        0.0000000000000000     
  0.50000000000000000       0.50000000000000000        0.0000000000000000     
  0.53125000000000000       0.50000000000000000        0.0000000000000000     
  0.56250000000000000       0.50000000000000000        0.0000000000000000     
  0.59375000000000000       0.50000000000000000        0.0000000000000000     
  0.62500000000000000       0.50000000000000000        0.0000000000000000     
  0.62500000000000000       0.37500000000000000        0.0000000000000000     
  0.65625000000000000       0.37500000000000000        0.0000000000000000     
  0.68750000000000000       0.37500000000000000        0.0000000000000000     
  0.71875000000000000       0.37500000000000000        0.0000000000000000     
  0.75000000000000000       0.37500000000000000        0.0000000000000000     
  0.62500000000000000       0.40625000000000000        0.0000000000000000     
  0.65625000000000000       0.40625000000000000        0.0000000000000000     
  0.68750000000000000       0.40625000000000000        0.0000000000000000     
  0.71875000000000000       0.40625000000000000        0.0000000000000000     
  0.75000000000000000       0.40625000000000000        0.0000000000000000     
  0.62500000000000000       0.43750000000000000        0.0000000000000000     
  0.65625000000000000       0.43750000000000000        0.0000000000000000     
  0.68750000000000000       0.43750000000000000        0.0000000000000000     
  0.71875000000000000       0.43750000000000000        0.0000000000000000     
  0.75000000000000000       0.43750000000000000        0.0000000000000000     
  0.62500000000000000       0.46875000000000000        0.0000000000000000     
  0.65625000000000000       0.46875000000000000        0.0000000000000000     
  0.68750000000000000       0.46875000000000000        0.0000000000000000     
  0.71875000000000000       0.46875000000000000        0.0000000000000000     
  0.75000000000000000       0.46875000000000000        0.0000000000000000     
  0.62500000000000000       0.50000000000000000        0.0000000000000000     
  0.65625000000000000       0.50000000000000000        0.0000000000000000     
  0.68750000000000000       0.50000000000000000        0.0000000000000000     
  0.71875000000000000       0.50000000000000000        0.0000000000000000     
  0.75000000000000000       0.50000000000000000        0.0000000000000000     
  0.75000000000000000       0.37500000000000000        0.0000000000000000     
  0.78125000000000000       0.37500000000000000        0.0000000000000000     
  0.81250000000000000       0.37500000000000000        0.0000000000000000     
  0.84375000000000000       0.37500000000000000        0.0000000000000000     
  0.87500000000000000       0.37500000000000000        0.0000000000000000     
  0.75000000000000000       0.40625000000000000        0.0000000000000000     
  0.78125000000000000       0.40625000000000000        0.0000000000000000     
  0.81250000000000000       0.40625000000000000        0.0000000000000000     
  0.84375000000000000       0.40625000000000000        0.0000000000000000     
  0.87500000000000000       0.40625000000000000        0.0000000000000000     
  0.75000000000000000       0.43750000000000000        0.0000000000000000     
  0.78125000000000000       0.43750000000000000        0.0000000000000000     
  0.81250000000000000       0.43750000000000000        0.0000000000000000     
  0.84375000000000000       0.43750000000000000        0.0000000000000000     
  0.87500000000000000       0.43750000000000000        0.0000000000000000     
  0.75000000000000000       0.46875000000000000        0.0000000000000000     
  0.78125000000000000       0.46875000000000000        0.0000000000000000     
  0.81250000000000000       0.46875000000000000        0.0000000000000000     
  0.84375000000000000       0.46875000000000000        0.0000000000000000     
  0.87500000000000000       0.46875000000000000        0.0000000000000000     
  0.75000000000000000       0.50000000000000000        0.0000000000000000     
  0.78125000000000000       0.50000000000000000        0.0000000000000000     
  0.81250000000000000       0.50000000000000000        0.0000000000000000     
  0.84375000000000000       0.50000000000000000        0.0000000000000000     
  0.87500000000000000       0.50000000000000000        0.0000000000000000     
  0.87500000000000000       0.37500000000000000        0.0000000000000000     
  0.90625000000000000       0.37500000000000000        0.0000000000000000     
  0.93750000000000000       0.37500000000000000        0.0000000000000000     
  0.96875000000000000       0.37500000000000000        0.0000000000000000     
   1.0000000000000000       0.37500000000000000        0.0000000000000000     
  0.87500000000000000       0.40625000000000000        0.0000000000000000     
  0.90625000000000000       0.40625000000000000        0.0000000000000000     
  0.93750000000000000       0.40625000000000000        0.0000000000000000     
  0.96875000000000000       0.40625000000000000        0.0000000000000000     
   1.0000000000000000       0.40625000000000000        0.0000000000000000     
  0.87500000000000000       0.43750000000000000        0.0000000000000000     
  0.90625000000000000       0.43750000000000000        0.0000000000000000     
  0.93750000000000000       0.43750000000000000        0.0000000000000000     
  0.96875000000000000       0.43750000000000000        0.0000000000000000     
   1.0000000000000000       0.43750000000000000        0.0000000000000000     
  0.87500000000000000       0.46875000000000000        0.0000000000000000     
  0.90625000000000000       0.46875000000000000        0.0000000000000000     
  0.93750000000000000       0.46875000000000000        0.0000000000000000     
  0.96875000000000000       0.46875000000000000        0.0000000000000000     
   1.0000000000000000       0.46875000000000000        0.0000000000000000     
  0.87500000000000000       0.50000000000000000        0.0000000000000000     
  0.90625000000000000       0.50000000000000000        0.0000000000000000     
  0.93750000000000000       0.50000000000000000        0.0000000000000000     
  0.96875000000000000       0.50000000000000000        0.0000000000000000     
   1.0000000000000000       0.50000000000000000        0.0000000000000000     
   1.0000000000000000       0.37500000000000000        0.0000000000000000     
   1.0312500000000000       0.37500000000000000        0.0000000000000000     
   1.0625000000000000       0.37500000000000000        0.0000000000000000     
   1.0937500000000000       0.37500000000000000        0.0000000000000000     
   1.1250000000000000       0.37500000000000000        0.0000000000000000     
   1.0000000000000000       0.40625000000000000        0.0000000000000000     
   1.0312500000000000       0.40625000000000000        0.0000000000000000     
   1.0625000000000000       0.40625000000000000        0.0000000000000000     
   1.0937500000000000       0.40625000000000000        0.0000000000000000     
   1.1250000000000000       0.40625000000000000        0.0000000000000000     
   1.0000000000000000       0.43750000000000000        0.0000000000000000     
   1.0312500000000000       0.43750000000000000        0.0000000000000000     
   1.0625000000000000       0.43750000000000000        0.0000000000000000     
   1.0937500000000000       0.43750000000000000        0.0000000000000000     
   1.1250000000000000       0.43750000000000000        0.0000000000000000     
   1.0000000000000000       0.46875000000000000        0.0000000000000000     
   1.0312500000000000       0.46875000000000000        0.0000000000000000     
   1.0625000000000000       0.46875000000000000        0.0000000000000000     
   1.0937500000000000       0.46875000000000000        0.0000000000000000     
   1.1250000000000000       0.46875000000000000        0.0000000000000000     
   1.0000000000000000       0.50000000000000000        0.0000000000000000     
   1.0312500000000000       0.50000000000000000        0.0000000000000000     
   1.0625000000000000       0.50000000000000000        0.0000000000000000     
   1.0937500000000000       0.50000000000000000        0.0000000000000000     
   1.1250000000000000       0.50000000000000000        0.0000000000000000     
   1.1250000000000000       0.37500000000000000        0.0000000000000000     
   1.1562500000000000       0.37500000000000000        0.0000000000000000     
   1.1875000000000000       0.37500000000000000        0.0000000000000000     
   1.2187500000000000       0.37500000000000000        0.0000000000000000     
   1.2500000000000000       0.37500000000000000        0.0000000000000000     
   1.1250000000000000       0.40625000000000000        0.0000000000000000     
   1.1562500000000000       0.40625000000000000        0.0000000000000000     
   1.1875000000000000       0.40625000000000000        0.0000000000000000     
   1.2187500000000000       0.40625000000000000        0.0000000000000000     
   1.2500000000000000       0.40625000000000000        0.0000000000000000     
   1.1250000000000000       0.43750000000000000        0.0000000000000000     
   1.1562500000000000       0.43750000000000000        0.0000000000000000     
   1.1875000000000000       0.43750000000000000        0.0000000000000000     
   1.2187500000000000       0.43750000000000000        0.0000000000000000     
   1.2500000000000000       0.43750000000000000        0.0000000000000000     
   1.1250000000000000       0.46875000000000000        0.0000000000000000     
   1.1562500000000000       0.46875000000000000        0.0000000000000000     
   1.1875000000000000       0.46875000000000000        0.0000000000000000     
   1.2187500000000000       0.46875000000000000        0.0000000000000000     
   1.2500000000000000       0.46875000000000000        0.0000000000000000     
   1.1250000000000000       0.50000000000000000        0.0000000000000000     
   1.1562500000000000       0.50000000000000000        0.0000000000000000     
   1.1875000000000000       0.50000000000000000        0.0000000000000000     
   1.2187500000000000       0.50000000000000000        0.0000000000000000     
   1.2500000000000000       0.50000000000000000        0.0000000000000000     
   1.2500000000000000       0.37500000000000000        0.0000000000000000     
   1.2812500000000000       0.37500000000000000        0.0000000000000000     
   1.3125000000000000       0.37500000000000000        0.0000000000000000     
   1.3437500000000000       0.37500000000000000        0.0000000000000000     
   1.3750000000000000       0.37500000000000000        0.0000000000000000     
   1.2500000000000000       0.40625000000000000        0.0000000000000000     
   1.2812500000000000       0.40625000000000000        0.0000000000000000     
   1.3125000000000000       0.40625000000000000        0.0000000000000000     
   1.3437500000000000       0.40625000000000000        0.0000000000000000     
   1.3750000000000000       0.40625000000000000        0.0000000000000000     
   1.2500000000000000       0.43750000000000000        0.0000000000000000     
   1.2812500000000000       0.43750000000000000        0.0000000000000000     
   1.3125000000000000       0.43750000000000000        0.0000000000000000     
   1.3437500000000000       0.43750000000000000        0.0000000000000000     
   1.3750000000000000       0.43750000000000000        0.0000000000000000     
   1.2500000000000000       0.46875000000000000        0.0000000000000000     
   1.2812500000000000       0.46875000000000000        0.0000000000000000     
   1.3125000000000000       0.46875000000000000        0.0000000000000000     
   1.3437500000000000       0.46875000000000000        0.0000000000000000     
   1.3750000000000000       0.46875000000000000        0.0000000000000000     
   1.2500000000000000       0.50000000000000000        0.0000000000000000     
   1.2812500000000000       0.50000000000000000        0.0000000000000000     
   1.3125000000000000       0.50000000000000000        0.0000000000000000     
   1.3437500000000000       0.50000000000000000        0.0000000000000000     
   1.3750000000000000       0.50000000000000000        0.0000000000000000     
   1.3750000000000000       0.37500000000000000        0.0000000000000000     
   1.4062500000000000       0.37500000000000000        0.0000000000000000     
   1.4375000000000000       0.37500000000000000        0.0000000000000000     
   1.4687500000000000       0.37500000000000000        0.0000000000000000     
   1.5000000000000000       0.37500000000000000        0.0000000000000000     
   1.3750000000000000       0.40625000000000000        0.0000000000000000     
   1.4062500000000000       0.40625000000000000        0.0000000000000000     
   1.4375000000000000       0.40625000000000000        0.0000000000000000     
   1.4687500000000000       0.40625000000000000        0.0000000000000000     
   1.5000000000000000       0.40625000000000000        0.0000000000000000     
   1.3750000000000000       0.43750000000000000        0.0000000000000000     
   1.4062500000000000       0.43750000000000000        0.0000000000000000     
   1.4375000000000000       0.43750000000000000        0.0000000000000000     
   1.4687500000000000       0.43750000000000000        0.0000000000000000     
   1.5000000000000000       0.43750000000000000        0.0000000000000000     
   1.3750000000000000       0.46875000000000000        0.0000000000000000     
   1.4062500000000000       0.46875000000000000        0.0000000000000000     
   1.4375000000000000       0.46875000000000000        0.0000000000000000     
   1.4687500000000000       0.46875000000000000        0.0000000000000000     
   1.5000000000000000       0.46875000000000000        0.0000000000000000     
   1.3750000000000000       0.50000000000000000        0.0000000000000000     
   1.4062500000000000       0.50000000000000000        0.0000000000000000     
   1.4375000000000000       0.50000000000000000        0.0000000000000000     
   1.4687500000000000       0.50000000000000000        0.0000000000000000     
   1.5000000000000000       0.50000000000000000        0.0000000000000000     
  0.50000000000000000       0.50000000000000000        0.0000000000000000     
  0.53125000000000000       0.50000000000000000        0.0000000000000000     
  0.56250000000000000       0.50000000000000000        0.0000000000000000     
  0.59375000000000000       0.50000000000000000        0.0000000000000000     
  0.62500000000000000       0.50000000000000000        0.0000000000000000     
  0.50000000000000000       0.53125000000000000        0.0000000000000000     
  0.53125000000000000       0.53125000000000000        0.0000000000000000     
  0.56250000000000000       0.53125000000000000        0.0000000000000000     
  0.59375000000000000       0.53125000000000000        0.0000000000000000     
  0.62500000000000000       0.53125000000000000        0.0000000000000000     
  0.50000000000000000       0.56250000000000000        0.0000000000000000     
  0.53125000000000000       0.56250000000000000        0.0000000000000000     
  0.56250000000000000       0.56250000000000000        0.0000000000000000     
  0.59375000000000000       0.56250000000000000        0.0000000000000000     
  0.62500000000000000       0.56250000000000000        0.0000000000000000     
  0.50000000000000000       0.59375000000000000        0.0000000000000000     
  0.53125000000000000       0.59375000000000000        0.0000000000000000     
  0.56250000000000000       0.59375000000000000        0.0000000000000000     
  0.59375000000000000       0.59375000000000000        0.0000000000000000     
  0.62500000000000000       0.59375000000000000        0.0000000000000000     
  0.50000000000000000       0.62500000000000000        0.0000000000000000     
  0.53125000000000000       0.62500000000000000        0.0000000000000000     
  0.56250000000000000       0.62500000000000000        0.0000000000000000     
  0.59375000000000000       0.62500000000000000        0.0000000000000000     
  0.62500000000000000       0.62500000000000000        0.0000000000000000     
  0.62500000000000000       0.50000000000000000        0.0000000000000000     
  0.65625000000000000       0.50000000000000000        0.0000000000000000     
  0.68750000000000000       0.50000000000000000        0.0000000000000000     
  0.71875000000000000       0.50000000000000000        0.0000000000000000     
  0.75000000000000000       0.50000000000000000        0.0000000000000000     
  0.62500000000000000       0.53125000000000000        0.0000000000000000     
  0.65625000000000000       0.53125000000000000        0.0000000000000000     
  0.68750000000000000       0.53125000000000000        0.0000000000000000     
  0.71875000000000000       0.53125000000000000        0.0000000000000000     
  0.75000000000000000       0.53125000000000000        0.0000000000000000     
  0.62500000000000000       0.56250000000000000        0.0000000000000000     
  0.65625000000000000       0.56250000000000000        0.0000000000000000     
  0.68750000000000000       0.56250000000000000        0.0000000000000000     
  0.71875000000000000       0.56250000000000000        0.0000000000000000     
  0.75000000000000000       0.56250000000000000        0.0000000000000000     
  0.62500000000000000       0.59375000000000000        0.0000000000000000     
  0.65625000000000000       0.59375000000000000        0.0000000000000000     
  0.68750000000000000       0.59375000000000000        0.0000000000000000     
  0.71875000000000000       0.59375000000000000        0.0000000000000000     
  0.75000000000000000       0.59375000000000000        0.0000000000000000     
  0.62500000000000000       0.62500000000000000        0.0000000000000000     
  0.65625000000000000       0.62500000000000000        0.0000000000000000     
  0.68750000000000000       0.62500000000000000        0.0000000000000000     
  0.71875000000000000       0.62500000000000000        0.0000000000000000     
  0.75000000000000000       0.62500000000000000        0.0000000000000000     
  0.75000000000000000       0.50000000000000000        0.0000000000000000     
  0.78125000000000000       0.50000000000000000        0.0000000000000000     
  0.81250000000000000       0.50000000000000000        0.0000000000000000     
  0.84375000000000000       0.50000000000000000        0.0000000000000000     
  0.87500000000000000       0.50000000000000000        0.0000000000000000     
  0.75000000000000000       0.53125000000000000        0.0000000000000000     
  0.78125000000000000       0.53125000000000000        0.0000000000000000     
  0.81250000000000000       0.53125000000000000        0.0000000000000000     
  0.84375000000000000       0.53125000000000000        0.0000000000000000     
  0.87500000000000000       0.53125000000000000        0.0000000000000000     
  0.75000000000000000       0.56250000000000000        0.0000000000000000     
  0.78125000000000000       0.56250000000000000        0.0000000000000000     
  0.81250000000000000       0.56250000000000000        0.0000000000000000     
  0.84375000000000000       0.56250000000000000        0.0000000000000000     
  0.87500000000000000       0.56250000000000000        0.0000000000000000     
  0.75000000000000000       0.59375000000000000        0.0000000000000000     
  0.78125000000000000       0.59375000000000000        0.0000000000000000     
  0.81250000000000000       0.59375000000000000        0.0000000000000000     
  0.84375000000000000       0.59375000000000000        0.0000000000000000     
  0.87500000000000000       0.59375000000000000        0.0000000000000000     
  0.75000000000000000       0.62500000000000000        0.0000000000000000     
  0.78125000000000000       0.62500000000000000        0.0000000000000000     
  0.81250000000000000       0.62500000000000000        0.0000000000000000     
  0.84375000000000000       0.62500000000000000        0.0000000000000000     
  0.87500000000000000       0.62500000000000000        0.0000000000000000     
  0.87500000000000000       0.50000000000000000        0.0000000000000000     
  0.90625000000000000       0.50000000000000000        0.0000000000000000     
  0.93750000000000000       0.50000000000000000        0.0000000000000000     
  0.96875000000000000       0.50000000000000000        0.0000000000000000     
   1.0000000000000000       0.50000000000000000        0.0000000000000000     
  0.87500000000000000       0.53125000000000000        0.0000000000000000     
  0.90625000000000000       0.53125000000000000        0.0000000000000000     
  0.93750000000000000       0.53125000000000000        0.0000000000000000     
  0.96875000000000000       0.53125000000000000        0.0000000000000000     
   1.0000000000000000       0.53125000000000000        0.0000000000000000     
  0.87500000000000000       0.56250000000000000        0.0000000000000000     
  0.90625000000000000       0.56250000000000000        0.0000000000000000     
  0.93750000000000000       0.56250000000000000        0.0000000000000000     
  0.96875000000000000       0.56250000000000000        0.0000000000000000     
   1.0000000000000000       0.56250000000000000        0.0000000000000000     
  0.87500000000000000       0.59375000000000000        0.0000000000000000     
  0.90625000000000000       0.59375000000000000        0.0000000000000000     
  0.93750000000000000       0.59375000000000000        0.0000000000000000     
  0.96875000000000000       0.59375000000000000        0.0000000000000000     
   1.0000000000000000       0.59375000000000000        0.0000000000000000     
  0.87500000000000000       0.62500000000000000        0.0000000000000000     
  0.90625000000000000       0.62500000000000000        0.0000000000000000     
  0.93750000000000000       0.62500000000000000        0.0000000000000000     
  0.96875000000000000       0.62500000000000000        0.0000000000000000     
   1.0000000000000000       0.62500000000000000        0.0000000000000000     
   1.0000000000000000       0.50000000000000000        0.0000000000000000     
   1.0312500000000000       0.50000000000000000        0.0000000000000000     
   1.0625000000000000       0.50000000000000000        0.0000000000000000     
   1.0937500000000000       0.50000000000000000        0.0000000000000000     
   1.1250000000000000       0.50000000000000000        0.0000000000000000     
   1.0000000000000000       0.53125000000000000        0.0000000000000000     
   1.0312500000000000       0.53125000000000000        0.0000000000000000     
   1.0625000000000000       0.53125000000000000        0.0000000000000000     
   1.0937500000000000       0.53125000000000000        0.0000000000000000     
   1.1250000000000000       0.53125000000000000        0.0000000000000000     
   1.0000000000000000       0.56250000000000000        0.0000000000000000     
   1.0312500000000000       0.56250000000000000        0.0000000000000000     
   1.0625000000000000       0.56250000000000000        0.0000000000000000     
   1.0937500000000000       0.56250000000000000        0.0000000000000000     
   1.1250000000000000       0.56250000000000000        0.0000000000000000     
   1.0000000000000000       0.59375000000000000        0.0000000000000000     
   1.0312500000000000       0.59375000000000000        0.0000000000000000     
   1.0625000000000000       0.59375000000000000        0.0000000000000000     
   1.0937500000000000       0.59375000000000000        0.0000000000000000     
   1.1250000000000000       0.59375000000000000        0.0000000000000000     
   1.0000000000000000       0.62500000000000000        0.0000000000000000     
   1.0312500000000000       0.62500000000000000        0.0000000000000000     
   1.0625000000000000       0.62500000000000000        0.0000000000000000     
   1.0937500000000000       0.62500000000000000        0.0000000000000000     
   1.1250000000000000       0.62500000000000000        0.0000000000000000     
   1.1250000000000000       0.50000000000000000        0.0000000000000000     
   1.1562500000000000       0.50000000000000000        0.0000000000000000     
   1.1875000000000000       0.50000000000000000        0.0000000000000000     
   1.2187500000000000       0.50000000000000000        0.0000000000000000     
   1.2500000000000000       0.50000000000000000        0.0000000000000000     
   1.1250000000000000       0.53125000000000000        0.0000000000000000     
   1.1562500000000000       0.53125000000000000        0.0000000000000000     
   1.1875000000000000       0.53125000000000000        0.0000000000000000     
   1.2187500000000000       0.53125000000000000        0.0000000000000000     
   1.2500000000000000       0.53125000000000000        0.0000000000000000     
   1.1250000000000000       0.56250000000000000        0.0000000000000000     
   1.1562500000000000       0.56250000000000000        0.0000000000000000     
   1.1875000000000000       0.56250000000000000        0.0000000000000000     
   1.2187500000000000       0.56250000000000000        0.0000000000000000     
   1.2500000000000000       0.56250000000000000        0.0000000000000000     
   1.1250000000000000       0.59375000000000000        0.0000000000000000     
   1.1562500000000000       0.59375000000000000        0.0000000000000000     
   1.1875000000000000       0.59375000000000000        0.0000000000000000     
   1.2187500000000000       0.59375000000000000        0.0000000000000000     
   1.2500000000000000       0.59375000000000000        0.0000000000000000     
   1.1250000000000000       0.62500000000000000        0.0000000000000000     
   1.1562500000000000       0.62500000000000000        0.0000000000000000     
   1.1875000000000000       0.62500000000000000        0.0000000000000000     
   1.2187500000000000       0.62500000000000000        0.0000000000000000     
   1.2500000000000000       0.62500000000000000        0.0000000000000000     
   1.2500000000000000       0.50000000000000000        0.0000000000000000     
   1.2812500000000000       0.50000000000000000        0.0000000000000000     
   1.3125000000000000       0.50000000000000000        0.0000000000000000     
   1.3437500000000000       0.50000000000000000        0.0000000000000000     
   1.3750000000000000       0.50000000000000000        0.0000000000000000     
   1.2500000000000000       0.53125000000000000        0.0000000000000000     
   1.2812500000000000       0.53125000000000000        0.0000000000000000     
   1.3125000000000000       0.53125000000000000        0.0000000000000000     
   1.3437500000000000       0.53125000000000000        0.0000000000000000     
   1.3750000000000000       0.53125000000000000        0.0000000000000000     
   1.2500000000000000       0.56250000000000000        0.0000000000000000     
   1.2812500000000000       0.56250000000000000        0.0000000000000000     
   1.3125000000000000       0.56250000000000000        0.0000000000000000     
   1.3437500000000000       0.56250000000000000        0.0000000000000000     
   1.3750000000000000       0.56250000000000000        0.0000000000000000     
   1.2500000000000000       0.59375000000000000        0.0000000000000000     
   1.2812500000000000       0.59375000000000000        0.0000000000000000     
   1.3125000000000000       0.59375000000000000        0.0000000000000000     
   1.3437500000000000       0.59375000000000000        0.0000000000000000     
   1.3750000000000000       0.59375000000000000        0.0000000000000000     
   1.2500000000000000       0.62500000000000000        0.0000000000000000     
   1.2812500000000000       0.62500000000000000        0.0000000000000000     
   1.3125000000000000       0.62500000000000000        0.0000000000000000     
   1.3437500000000000       0.62500000000000000        0.0000000000000000     
   1.3750000000000000       0.62500000000000000        0.0000000000000000     
   1.3750000000000000       0.50000000000000000        0.0000000000000000     
   1.4062500000000000       0.50000000000000000        0.0000000000000000     
   1.4375000000000000       0.50000000000000000        0.0000000000000000     
   1.4687500000000000       0.50000000000000000        0.0000000000000000     
   1.5000000000000000       0.50000000000000000        0.0000000000000000     
   1.3750000000000000       0.53125000000000000        0.0000000000000000     
   1.4062500000000000       0.53125000000000000        0.0000000000000000     
   1.4375000000000000       0.53125000000000000        0.0000000000000000     
   1.4687500000000000       0.53125000000000000        0.0000000000000000     
   1.5000000000000000       0.53125000000000000        0.0000000000000000     
   1.3750000000000000       0.56250000000000000        0.0000000000000000     
   1.4062500000000000       0.56250000000000000        0.0000000000000000     
   1.4375000000000000       0.56250000000000000        0.0000000000000000     
   1.4687500000000000       0.56250000000000000        0.0000000000000000     
   1.5000000000000000       0.56250000000000000        0.0000000000000000     
   1.3750000000000000       0.59375000000000000        0.0000000000000000     
   1.4062500000000000       0.59375000000000000        0.0000000000000000     
   1.4375000000000000       0.59375000000000000        0.0000000000000000     
   1.4687500000000000       0.59375000000000000        0.0000000000000000     
   1.5000000000000000       0.59375000000000000        0.0000000000000000     
   1.3750000000000000       0.62500000000000000        0.0000000000000000     
   1.4062500000000000       0.62500000000000000        0.0000000000000000     
   1.4375000000000000       0.62500000000000000        0.0000000000000000     
   1.4687500000000000       0.62500000000000000        0.0000000000000000     
   1.5000000000000000       0.62500000000000000        0.0000000000000000     
  0.50000000000000000       0.62500000000000000        0.0000000000000000     
  0.53125000000000000       0.62500000000000000        0.0000000000000000     
  0.56250000000000000       0.62500000000000000        0.0000000000000000     
  0.59375000000000000       0.62500000000000000        0.0000000000000000     
  0.62500000000000000       0.62500000000000000        0.0000000000000000     
  0.50000000000000000       0.65625000000000000        0.0000000000000000     
  0.53125000000000000       0.65625000000000000        0.0000000000000000     
  0.56250000000000000       0.65625000000000000        0.0000000000000000     
  0.59375000000000000       0.65625000000000000        0.0000000000000000     
  0.62500000000000000       0.65625000000000000        0.0000000000000000     
  0.50000000000000000       0.68750000000000000        0.0000000000000000     
  0.53125000000000000       0.68750000000000000        0.0000000000000000     
  0.56250000000000000       0.68750000000000000        0.0000000000000000     
  0.59375000000000000       0.68750000000000000        0.0000000000000000     
  0.62500000000000000       0.68750000000000000        0.0000000000000000     
  0.50000000000000000       0.71875000000000000        0.0000000000000000     
  0.53125000000000000       0.71875000000000000        0.0000000000000000     
  0.56250000000000000       0.71875000000000000        0.0000000000000000     
  0.59375000000000000       0.71875000000000000        0.0000000000000000     
  0.62500000000000000       0.71875000000000000        0.0000000000000000     
  0.50000000000000000       0.75000000000000000        0.0000000000000000     
  0.53125000000000000       0.75000000000000000        0.0000000000000000     
  0.56250000000000000       0.75000000000000000        0.0000000000000000     
  0.59375000000000000       0.75000000000000000        0.0000000000000000     
  0.62500000000000000       0.75000000000000000        0.0000000000000000     
  0.62500000000000000       0.62500000000000000        0.0000000000000000     
  0.65625000000000000       0.62500000000000000        0.0000000000000000     
  0.68750000000000000       0.62500000000000000        0.0000000000000000     
  0.71875000000000000       0.62500000000000000        0.0000000000000000     
  0.75000000000000000       0.62500000000000000        0.0000000000000000     
  0.62500000000000000       0.65625000000000000        0.0000000000000000     
  0.65625000000000000       0.65625000000000000        0.0000000000000000     
  0.68750000000000000       0.65625000000000000        0.0000000000000000     
  0.71875000000000000       0.65625000000000000        0.0000000000000000     
  0.75000000000000000       0.65625000000000000        0.0000000000000000     
  0.62500000000000000       0.68750000000000000        0.0000000000000000     
  0.65625000000000000       0.68750000000000000        0.0000000000000000     
  0.68750000000000000       0.68750000000000000        0.0000000000000000     
  0.71875000000000000       0.68750000000000000        0.0000000000000000     
  0.75000000000000000       0.68750000000000000        0.0000000000000000     
  0.62500000000000000       0.71875000000000000        0.0000000000000000     
  0.65625000000000000       0.71875000000000000        0.0000000000000000     
  0.68750000000000000       0.71875000000000000        0.0000000000000000     
  0.71875000000000000       0.71875000000000000        0.0000000000000000     
  0.75000000000000000       0.71875000000000000        0.0000000000000000     
  0.62500000000000000       0.75000000000000000        0.0000000000000000     
  0.65625000000000000       0.75000000000000000        0.0000000000000000     
  0.68750000000000000       0.75000000000000000        0.0000000000000000     
  0.71875000000000000       0.75000000000000000        0.0000000000000000     
  0.75000000000000000       0.75000000000000000        0.0000000000000000     
  0.75000000000000000       0.62500000000000000        0.0000000000000000     
  0.78125000000000000       0.62500000000000000        0.0000000000000000     
  0.81250000000000000       0.62500000000000000        0.0000000000000000     
  0.84375000000000000       0.62500000000000000        0.0000000000000000     
  0.87500000000000000       0.62500000000000000        0.0000000000000000     
  0.75000000000000000       0.65625000000000000        0.0000000000000000     
  0.78125000000000000       0.65625000000000000        0.0000000000000000     
  0.81250000000000000       0.65625000000000000        0.0000000000000000     
  0.84375000000000000       0.65625000000000000        0.0000000000000000     
  0.87500000000000000       0.65625000000000000        0.0000000000000000     
  0.75000000000000000       0.68750000000000000        0.0000000000000000     
  0.78125000000000000       0.68750000000000000        0.0000000000000000     
  0.81250000000000000       0.68750000000000000        0.0000000000000000     
  0.84375000000000000       0.68750000000000000        0.0000000000000000     
  0.87500000000000000       0.68750000000000000        0.0000000000000000     
  0.75000000000000000       0.71875000000000000        0.0000000000000000     
  0.78125000000000000       0.71875000000000000        0.0000000000000000     
  0.81250000000000000       0.71875000000000000        0.0000000000000000     
  0.84375000000000000       0.71875000000000000        0.0000000000000000     
  0.87500000000000000       0.71875000000000000        0.0000000000000000     
  0.75000000000000000       0.75000000000000000        0.0000000000000000     
  0.78125000000000000       0.75000000000000000        0.0000000000000000     
  0.81250000000000000       0.75000000000000000        0.0000000000000000     
  0.84375000000000000       0.75000000000000000        0.0000000000000000     
  0.87500000000000000       0.75000000000000000        0.0000000000000000     
  0.87500000000000000       0.62500000000000000        0.0000000000000000     
  0.90625000000000000       0.62500000000000000        0.0000000000000000     
  0.93750000000000000       0.62500000000000000        0.0000000000000000     
  0.96875000000000000       0.62500000000000000        0.0000000000000000     
   1.0000000000000000       0.62500000000000000        0.0000000000000000     
  0.87500000000000000       0.65625000000000000        0.0000000000000000     
  0.90625000000000000       0.65625000000000000        0.0000000000000000     
  0.93750000000000000       0.65625000000000000        0.0000000000000000     
  0.96875000000000000       0.65625000000000000        0.0000000000000000     
   1.0000000000000000       0.65625000000000000        0.0000000000000000     
  0.87500000000000000       0.68750000000000000        0.0000000000000000     
  0.90625000000000000       0.68750000000000000        0.0000000000000000     
  0.93750000000000000       0.68750000000000000        0.0000000000000000     
  0.96875000000000000       0.68750000000000000        0.0000000000000000     
   1.0000000000000000       0.68750000000000000        0.0000000000000000     
  0.87500000000000000       0.71875000000000000        0.0000000000000000     
  0.90625000000000000       0.71875000000000000        0.0000000000000000     
  0.93750000000000000       0.71875000000000000        0.0000000000000000     
  0.96875000000000000       0.71875000000000000        0.0000000000000000     
   1.0000000000000000       0.71875000000000000        0.0000000000000000     
  0.87500000000000000       0.75000000000000000        0.0000000000000000     
  0.90625000000000000       0.75000000000000000        0.0000000000000000     
  0.93750000000000000       0.75000000000000000        0.0000000000000000     
  0.96875000000000000       0.75000000000000000        0.0000000000000000     
   1.0000000000000000       0.75000000000000000        0.0000000000000000     
   1.0000000000000000       0.62500000000000000        0.0000000000000000     
   1.0312500000000000       0.62500000000000000        0.0000000000000000     
   1.0625000000000000       0.62500000000000000        0.0000000000000000     
   1.0937500000000000       0.62500000000000000        0.0000000000000000     
   1.1250000000000000       0.62500000000000000        0.0000000000000000     
   1.0000000000000000       0.65625000000000000        0.0000000000000000     
   1.0312500000000000       0.65625000000000000        0.0000000000000000     
   1.0625000000000000       0.65625000000000000        0.0000000000000000     
   1.0937500000000000       0.65625000000000000        0.0000000000000000     
   1.1250000000000000       0.65625000000000000        0.0000000000000000     
   1.0000000000000000       0.68750000000000000        0.0000000000000000     
   1.0312500000000000       0.68750000000000000        0.0000000000000000     
   1.0625000000000000       0.68750000000000000        0.0000000000000000     
   1.0937500000000000       0.68750000000000000        0.0000000000000000     
   1.1250000000000000       0.68750000000000000        0.0000000000000000     
   1.0000000000000000       0.71875000000000000        0.0000000000000000     
   1.0312500000000000       0.71875000000000000        0.0000000000000000     
   1.0625000000000000       0.71875000000000000        0.0000000000000000     
   1.0937500000000000       0.71875000000000000        0.0000000000000000     
   1.1250000000000000       0.71875000000000000        0.0000000000000000     
   1.0000000000000000       0.75000000000000000        0.0000000000000000     
   1.0312500000000000       0.75000000000000000        0.0000000000000000     
   1.0625000000000000       0.75000000000000000        0.0000000000000000     
   1.0937500000000000       0.75000000000000000        0.0000000000000000     
   1.1250000000000000       0.75000000000000000        0.0000000000000000     
   1.1250000000000000       0.62500000000000000        0.0000000000000000     
   1.1562500000000000       0.62500000000000000        0.0000000000000000     
   1.1875000000000000       0.62500000000000000        0.0000000000000000     
   1.2187500000000000       0.62500000000000000        0.0000000000000000     
   1.2500000000000000       0.62500000000000000        0.0000000000000000     
   1.1250000000000000       0.65625000000000000        0.0000000000000000     
   1.1562500000000000       0.65625000000000000        0.0000000000000000     
   1.1875000000000000       0.65625000000000000        0.0000000000000000     
   1.2187500000000000       0.65625000000000000        0.0000000000000000     
   1.2500000000000000       0.65625000000000000        0.0000000000000000     
   1.1250000000000000       0.68750000000000000        0.0000000000000000     
   1.1562500000000000       0.68750000000000000        0.0000000000000000     
   1.1875000000000000       0.68750000000000000        0.0000000000000000     
   1.2187500000000000       0.68750000000000000        0.0000000000000000     
   1.2500000000000000       0.68750000000000000        0.0000000000000000     
   1.1250000000000000       0.71875000000000000        0.0000000000000000     
   1.1562500000000000       0.71875000000000000        0.0000000000000000     
   1.1875000000000000       0.71875000000000000        0.0000000000000000     
   1.2187500000000000       0.71875000000000000        0.0000000000000000     
   1.2500000000000000       0.71875000000000000        0.0000000000000000     
   1.1250000000000000       0.75000000000000000        0.0000000000000000     
   1.1562500000000000       0.75000000000000000        0.0000000000000000     
   1.1875000000000000       0.75000000000000000        0.0000000000000000     
   1.2187500000000000       0.75000000000000000        0.0000000000000000     
   1.2500000000000000       0.75000000000000000        0.0000000000000000     
   1.2500000000000000       0.62500000000000000        0.0000000000000000     
   1.2812500000000000       0.62500000000000000        0.0000000000000000     
   1.3125000000000000       0.62500000000000000        0.0000000000000000     
   1.3437500000000000       0.62500000000000000        0.0000000000000000     
   1.3750000000000000       0.62500000000000000        0.0000000000000000     
   1.2500000000000000       0.65625000000000000        0.0000000000000000     
   1.2812500000000000       0.65625000000000000        0.0000000000000000     
   1.3125000000000000       0.65625000000000000        0.0000000000000000     
   1.3437500000000000       0.65625000000000000        0.0000000000000000     
   1.3750000000000000       0.65625000000000000        0.0000000000000000     
   1.2500000000000000       0.68750000000000000        0.0000000000000000     
   1.2812500000000000       0.68750000000000000        0.0000000000000000     
   1.3125000000000000       0.68750000000000000        0.0000000000000000     
   1.3437500000000000       0.68750000000000000        0.0000000000000000     
   1.3750000000000000       0.68750000000000000        0.0000000000000000     
   1.2500000000000000       0.71875000000000000        0.0000000000000000     
   1.2812500000000000       0.71875000000000000        0.0000000000000000     
   1.3125000000000000       0.71875000000000000        0.0000000000000000     
   1.3437500000000000       0.71875000000000000        0.0000000000000000     
   1.3750000000000000       0.71875000000000000        0.0000000000000000     
   1.2500000000000000       0.75000000000000000        0.0000000000000000     
   1.2812500000000000       0.75000000000000000        0.0000000000000000     
   1.3125000000000000       0.75000000000000000        0.0000000000000000     
   1.3437500000000000       0.75000000000000000        0.0000000000000000     
   1.3750000000000000       0.75000000000000000        0.0000000000000000     
   1.3750000000000000       0.62500000000000000        0.0000000000000000     
   1.4062500000000000       0.62500000000000000        0.0000000000000000     
   1.4375000000000000       0.62500000000000000        0.0000000000000000     
   1.4687500000000000       0.62500000000000000        0.0000000000000000     
   1.5000000000000000       0.62500000000000000        0.0000000000000000     
   1.3750000000000000       0.65625000000000000        0.0000000000000000     
   1.4062500000000000       0.65625000000000000        0.0000000000000000     
   1.4375000000000000       0.65625000000000000        0.0000000000000000     
   1.4687500000000000       0.65625000000000000        0.0000000000000000     
   1.5000000000000000       0.65625000000000000        0.0000000000000000     
   1.3750000000000000       0.68750000000000000        0.0000000000000000     
   1.4062500000000000       0.68750000000000000        0.0000000000000000     
   1.4375000000000000       0.68750000000000000        0.0000000000000000     
   1.4687500000000000       0.68750000000000000        0.0000000000000000     
   1.5000000000000000       0.68750000000000000        0.0000000000000000     
   1.3750000000000000       0.71875000000000000        0.0000000000000000     
   1.4062500000000000       0.71875000000000000        0.0000000000000000     
   1.4375000000000000       0.71875000000000000        0.0000000000000000     
   1.4687500000000000       0.71875000000000000        0.0000000000000000     
   1.5000000000000000       0.71875000000000000        0.0000000000000000     
   1.3750000000000000       0.75000000000000000        0.0000000000000000     
   1.4062500000000000       0.75000000000000000        0.0000000000000000     
   1.4375000000000000       0.75000000000000000        0.0000000000000000     
   1.4687500000000000       0.75000000000000000        0.0000000000000000     
   1.5000000000000000       0.75000000000000000        0.0000000000000000     
  0.50000000000000000       0.75000000000000000        0.0000000000000000     
  0.53125000000000000       0.75000000000000000        0.0000000000000000     
  0.56250000000000000       0.75000000000000000        0.0000000000000000     
  0.59375000000000000       0.75000000000000000        0.0000000000000000     
  0.62500000000000000       0.75000000000000000        0.0000000000000000     
  0.50000000000000000       0.78125000000000000        0.0000000000000000     
  0.53125000000000000       0.78125000000000000        0.0000000000000000     
  0.56250000000000000       0.78125000000000000        0.0000000000000000     
  0.59375000000000000       0.78125000000000000        0.0000000000000000     
  0.62500000000000000       0.78125000000000000        0.0000000000000000     
  0.50000000000000000       0.81250000000000000        0.0000000000000000     
  0.53125000000000000       0.81250000000000000        0.0000000000000000     
  0.56250000000000000       0.81250000000000000        0.0000000000000000     
  0.59375000000000000       0.81250000000000000        0.0000000000000000     
  0.62500000000000000       0.81250000000000000        0.0000000000000000     
  0.50000000000000000       0.84375000000000000        0.0000000000000000     
  0.53125000000000000       0.84375000000000000        0.0000000000000000     
  0.56250000000000000       0.84375000000000000        0.0000000000000000     
  0.59375000000000000       0.84375000000000000        0.0000000000000000     
  0.62500000000000000       0.84375000000000000        0.0000000000000000     
  0.50000000000000000       0.87500000000000000        0.0000000000000000     
  0.53125000000000000       0.87500000000000000        0.0000000000000000     
  0.56250000000000000       0.87500000000000000        0.0000000000000000     
  0.59375000000000000       0.87500000000000000        0.0000000000000000     
  0.62500000000000000       0.87500000000000000        0.0000000000000000     
  0.62500000000000000       0.75000000000000000        0.0000000000000000     
  0.65625000000000000       0.75000000000000000        0.0000000000000000     
  0.68750000000000000       0.75000000000000000        0.0000000000000000     
  0.71875000000000000       0.75000000000000000        0.0000000000000000     
  0.75000000000000000       0.75000000000000000        0.0000000000000000     
  0.62500000000000000       0.78125000000000000        0.0000000000000000     
  0.65625000000000000       0.78125000000000000        0.0000000000000000     
  0.68750000000000000       0.78125000000000000        0.0000000000000000     
  0.71875000000000000       0.78125000000000000        0.0000000000000000     
  0.75000000000000000       0.78125000000000000        0.0000000000000000     
  0.62500000000000000       0.81250000000000000        0.0000000000000000     
  0.65625000000000000       0.81250000000000000        0.0000000000000000     
  0.68750000000000000       0.81250000000000000        0.0000000000000000     
  0.71875000000000000       0.81250000000000000        0.0000000000000000     
  0.75000000000000000       0.81250000000000000        0.0000000000000000     
  0.62500000000000000       0.84375000000000000        0.0000000000000000     
  0.65625000000000000       0.84375000000000000        0.0000000000000000     
  0.68750000000000000       0.84375000000000000        0.0000000000000000     
  0.71875000000000000       0.84375000000000000        0.0000000000000000     
  0.75000000000000000       0.84375000000000000        0.0000000000000000     
  0.62500000000000000       0.87500000000000000        0.0000000000000000     
  0.65625000000000000       0.87500000000000000        0.0000000000000000     
  0.68750000000000000       0.87500000000000000        0.0000000000000000     
  0.71875000000000000       0.87500000000000000        0.0000000000000000     
  0.75000000000000000       0.87500000000000000        0.0000000000000000     
  0.75000000000000000       0.75000000000000000        0.0000000000000000     
  0.78125000000000000       0.75000000000000000        0.0000000000000000     
  0.81250000000000000       0.75000000000000000        0.0000000000000000     
  0.84375000000000000       0.75000000000000000        0.0000000000000000     
  0.87500000000000000       0.75000000000000000        0.0000000000000000     
  0.75000000000000000       0.78125000000000000        0.0000000000000000     
  0.78125000000000000       0.78125000000000000        0.0000000000000000     
  0.81250000000000000       0.78125000000000000        0.0000000000000000     
  0.84375000000000000       0.78125000000000000        0.0000000000000000     
  0.87500000000000000       0.78125000000000000        0.0000000000000000     
  0.75000000000000000       0.81250000000000000        0.0000000000000000     
  0.78125000000000000       0.81250000000000000        0.0000000000000000     
  0.81250000000000000       0.81250000000000000        0.0000000000000000     
  0.84375000000000000       0.81250000000000000        0.0000000000000000     
  0.87500000000000000       0.81250000000000000        0.0000000000000000     
  0.75000000000000000       0.84375000000000000        0.0000000000000000     
  0.78125000000000000       0.84375000000000000        0.0000000000000000     
  0.81250000000000000       0.84375000000000000        0.0000000000000000     
  0.84375000000000000       0.84375000000000000        0.0000000000000000     
  0.87500000000000000       0.84375000000000000        0.0000000000000000     
  0.75000000000000000       0.87500000000000000        0.0000000000000000     
  0.78125000000000000       0.87500000000000000        0.0000000000000000     
  0.81250000000000000       0.87500000000000000        0.0000000000000000     
  0.84375000000000000       0.87500000000000000        0.0000000000000000     
  0.87500000000000000       0.87500000000000000        0.0000000000000000     
  0.87500000000000000       0.75000000000000000        0.0000000000000000     
  0.90625000000000000       0.75000000000000000        0.0000000000000000     
  0.93750000000000000       0.75000000000000000        0.0000000000000000     
  0.96875000000000000       0.75000000000000000        0.0000000000000000     
   1.0000000000000000       0.75000000000000000        0.0000000000000000     
  0.87500000000000000       0.78125000000000000        0.0000000000000000     
  0.90625000000000000       0.78125000000000000        0.0000000000000000     
  0.93750000000000000       0.78125000000000000        0.0000000000000000     
  0.96875000000000000       0.78125000000000000        0.0000000000000000     
   1.0000000000000000       0.78125000000000000        0.0000000000000000     
  0.87500000000000000       0.81250000000000000        0.0000000000000000     
  0.90625000000000000       0.81250000000000000        0.0000000000000000     
  0.93750000000000000       0.81250000000000000        0.0000000000000000     
  0.96875000000000000       0.81250000000000000        0.0000000000000000     
   1.0000000000000000       0.81250000000000000        0.0000000000000000     
  0.87500000000000000       0.84375000000000000        0.0000000000000000     
  0.90625000000000000       0.84375000000000000        0.0000000000000000     
  0.93750000000000000       0.84375000000000000        0.0000000000000000     
  0.96875000000000000       0.84375000000000000        0.0000000000000000     
   1.0000000000000000       0.84375000000000000        0.0000000000000000     
  0.87500000000000000       0.87500000000000000        0.0000000000000000     
  0.90625000000000000       0.87500000000000000        0.0000000000000000     
  0.93750000000000000       0.87500000000000000        0.0000000000000000     
  0.96875000000000000       0.87500000000000000        0.0000000000000000     
   1.0000000000000000       0.87500000000000000        0.0000000000000000     
   1.0000000000000000       0.75000000000000000        0.0000000000000000     
   1.0312500000000000       0.75000000000000000        0.0000000000000000     
   1.0625000000000000       0.75000000000000000        0.0000000000000000     
   1.0937500000000000       0.75000000000000000        0.0000000000000000     
   1.1250000000000000       0.75000000000000000        0.0000000000000000     
   1.0000000000000000       0.78125000000000000        0.0000000000000000     
   1.0312500000000000       0.78125000000000000        0.0000000000000000     
   1.0625000000000000       0.78125000000000000        0.0000000000000000     
   1.0937500000000000       0.78125000000000000        0.0000000000000000     
   1.1250000000000000       0.78125000000000000        0.0000000000000000     
   1.0000000000000000       0.81250000000000000        0.0000000000000000     
   1.0312500000000000       0.81250000000000000        0.0000000000000000     
   1.0625000000000000       0.81250000000000000        0.0000000000000000     
   1.0937500000000000       0.81250000000000000        0.0000000000000000     
   1.1250000000000000       0.81250000000000000        0.0000000000000000     
   1.0000000000000000       0.84375000000000000        0.0000000000000000     
   1.0312500000000000       0.84375000000000000        0.0000000000000000     
   1.0625000000000000       0.84375000000000000        0.0000000000000000     
   1.0937500000000000       0.84375000000000000        0.0000000000000000     
   1.1250000000000000       0.84375000000000000        0.0000000000000000     
   1.0000000000000000       0.87500000000000000        0.0000000000000000     
   1.0312500000000000       0.87500000000000000        0.0000000000000000     
   1.0625000000000000       0.87500000000000000        0.0000000000000000     
   1.0937500000000000       0.87500000000000000        0.0000000000000000     
   1.1250000000000000       0.87500000000000000        0.0000000000000000     
   1.1250000000000000       0.75000000000000000        0.0000000000000000     
   1.1562500000000000       0.75000000000000000        0.0000000000000000     
   1.1875000000000000       0.75000000000000000        0.0000000000000000     
   1.2187500000000000       0.75000000000000000        0.0000000000000000     
   1.2500000000000000       0.75000000000000000        0.0000000000000000     
   1.1250000000000000       0.78125000000000000        0.0000000000000000     
   1.1562500000000000       0.78125000000000000        0.0000000000000000     
   1.1875000000000000       0.78125000000000000        0.0000000000000000     
   1.2187500000000000       0.78125000000000000        0.0000000000000000     
   1.2500000000000000       0.78125000000000000        0.0000000000000000     
   1.1250000000000000       0.81250000000000000        0.0000000000000000     
   1.1562500000000000       0.81250000000000000        0.0000000000000000     
   1.1875000000000000       0.81250000000000000        0.0000000000000000     
   1.2187500000000000       0.81250000000000000        0.0000000000000000     
   1.2500000000000000       0.81250000000000000        0.0000000000000000     
   1.1250000000000000       0.84375000000000000        0.0000000000000000     
   1.1562500000000000       0.84375000000000000        0.0000000000000000     
   1.1875000000000000       0.84375000000000000        0.0000000000000000     
   1.2187500000000000       0.84375000000000000        0.0000000000000000     
   1.2500000000000000       0.84375000000000000        0.0000000000000000     
   1.1250000000000000       0.87500000000000000        0.0000000000000000     
   1.1562500000000000       0.87500000000000000        0.0000000000000000     
   1.1875000000000000       0.87500000000000000        0.0000000000000000     
   1.2187500000000000       0.87500000000000000        0.0000000000000000     
   1.2500000000000000       0.87500000000000000        0.0000000000000000     
   1.2500000000000000       0.75000000000000000        0.0000000000000000     
   1.2812500000000000       0.75000000000000000        0.0000000000000000     
   1.3125000000000000       0.75000000000000000        0.0000000000000000     
   1.3437500000000000       0.75000000000000000        0.0000000000000000     
   1.3750000000000000       0.75000000000000000        0.0000000000000000     
   1.2500000000000000       0.78125000000000000        0.0000000000000000     
   1.2812500000000000       0.78125000000000000        0.0000000000000000     
   1.3125000000000000       0.78125000000000000        0.0000000000000000     
   1.3437500000000000       0.78125000000000000        0.0000000000000000     
   1.3750000000000000       0.78125000000000000        0.0000000000000000     
   1.2500000000000000       0.81250000000000000        0.0000000000000000     
   1.2812500000000000       0.81250000000000000        0.0000000000000000     
   1.3125000000000000       0.81250000000000000        0.0000000000000000     
   1.3437500000000000       0.81250000000000000        0.0000000000000000     
   1.3750000000000000       0.81250000000000000        0.0000000000000000     
   1.2500000000000000       0.84375000000000000        0.0000000000000000     
   1.2812500000000000       0.84375000000000000        0.0000000000000000     
   1.3125000000000000       0.84375000000000000        0.0000000000000000     
   1.3437500000000000       0.84375000000000000        0.0000000000000000     
   1.3750000000000000       0.84375000000000000        0.0000000000000000     
   1.2500000000000000       0.87500000000000000        0.0000000000000000     
   1.2812500000000000       0.87500000000000000        0.0000000000000000     
   1.3125000000000000       0.87500000000000000        0.0000000000000000     
   1.3437500000000000       0.87500000000000000        0.0000000000000000     
   1.3750000000000000       0.87500000000000000        0.0000000000000000     
   1.3750000000000000       0.75000000000000000        0.0000000000000000     
   1.4062500000000000       0.75000000000000000        0.0000000000000000     
   1.4375000000000000       0.75000000000000000        0.0000000000000000     
   1.4687500000000000       0.75000000000000000        0.0000000000000000     
   1.5000000000000000       0.75000000000000000        0.0000000000000000     
   1.3750000000000000       0.78125000000000000        0.0000000000000000     
   1.4062500000000000       0.78125000000000000        0.0000000000000000     
   1.4375000000000000       0.78125000000000000        0.0000000000000000     
   1.4687500000000000       0.78125000000000000        0.0000000000000000     
   1.5000000000000000       0.78125000000000000        0.0000000000000000     
   1.3750000000000000       0.81250000000000000        0.0000000000000000     
   1.4062500000000000       0.81250000000000000        0.0000000000000000     
   1.4375000000000000       0.81250000000000000        0.0000000000000000     
   1.4687500000000000       0.81250000000000000        0.0000000000000000     
   1.5000000000000000       0.81250000000000000        0.0000000000000000     
   1.3750000000000000       0.84375000000000000        0.0000000000000000     
   1.4062500000000000       0.84375000000000000        0.0000000000000000     
   1.4375000000000000       0.84375000000000000        0.0000000000000000     
   1.4687500000000000       0.84375000000000000        0.0000000000000000     
   1.5000000000000000       0.84375000000000000        0.0000000000000000     
   1.3750000000000000       0.87500000000000000        0.0000000000000000     
   1.4062500000000000       0.87500000000000000        0.0000000000000000     
   1.4375000000000000       0.87500000000000000        0.0000000000000000     
   1.4687500000000000       0.87500000000000000        0.0000000000000000     
   1.5000000000000000       0.87500000000000000        0.0000000000000000     
  0.50000000000000000       0.87500000000000000        0.0000000000000000     
  0.53125000000000000       0.87500000000000000        0.0000000000000000     
  0.56250000000000000       0.87500000000000000        0.0000000000000000     
  0.59375000000000000       0.87500000000000000        0.0000000000000000     
  0.62500000000000000       0.87500000000000000        0.0000000000000000     
  0.50000000000000000       0.90625000000000000        0.0000000000000000     
  0.53125000000000000       0.90625000000000000        0.0000000000000000     
  0.56250000000000000       0.90625000000000000        0.0000000000000000     
  0.59375000000000000       0.90625000000000000        0.0000000000000000     
  0.62500000000000000       0.90625000000000000        0.0000000000000000     
  0.50000000000000000       0.93750000000000000        0.0000000000000000     
  0.53125000000000000       0.93750000000000000        0.0000000000000000     
  0.56250000000000000       0.93750000000000000        0.0000000000000000     
  0.59375000000000000       0.93750000000000000        0.0000000000000000     
  0.62500000000000000       0.93750000000000000        0.0000000000000000     
  0.50000000000000000       0.96875000000000000        0.0000000000000000     
  0.53125000000000000       0.96875000000000000        0.0000000000000000     
  0.56250000000000000       0.96875000000000000        0.0000000000000000     
  0.59375000000000000       0.96875000000000000        0.0000000000000000     
  0.62500000000000000       0.96875000000000000        0.0000000000000000     
  0.50000000000000000        1.0000000000000000        0.0000000000000000     
  0.53125000000000000        1.0000000000000000        0.0000000000000000     
  0.56250000000000000        1.0000000000000000        0.0000000000000000     
  0.59375000000000000        1.0000000000000000        0.0000000000000000     
  0.62500000000000000        1.0000000000000000        0.0000000000000000     
  0.62500000000000000       0.87500000000000000        0.0000000000000000     
  0.65625000000000000       0.87500000000000000        0.0000000000000000     
  0.68750000000000000       0.87500000000000000        0.0000000000000000     
  0.71875000000000000       0.87500000000000000        0.0000000000000000     
  0.75000000000000000       0.87500000000000000        0.0000000000000000     
  0.62500000000000000       0.90625000000000000        0.0000000000000000     
  0.65625000000000000       0.90625000000000000        0.0000000000000000     
  0.68750000000000000       0.90625000000000000        0.0000000000000000     
  0.71875000000000000       0.90625000000000000        0.0000000000000000     
  0.75000000000000000       0.90625000000000000        0.0000000000000000     
  0.62500000000000000       0.93750000000000000        0.0000000000000000     
  0.65625000000000000       0.93750000000000000        0.0000000000000000     
  0.68750000000000000       0.93750000000000000        0.0000000000000000     
  0.71875000000000000       0.93750000000000000        0.0000000000000000     
  0.75000000000000000       0.93750000000000000        0.0000000000000000     
  0.62500000000000000       0.96875000000000000        0.0000000000000000     
  0.65625000000000000       0.96875000000000000        0.0000000000000000     
  0.68750000000000000       0.96875000000000000        0.0000000000000000     
  0.71875000000000000       0.96875000000000000        0.0000000000000000     
  0.75000000000000000       0.96875000000000000        0.0000000000000000     
  0.62500000000000000        1.0000000000000000        0.0000000000000000     
  0.65625000000000000        1.0000000000000000        0.0000000000000000     
  0.68750000000000000        1.0000000000000000        0.0000000000000000     
  0.71875000000000000        1.0000000000000000        0.0000000000000000     
  0.75000000000000000        1.0000000000000000        0.0000000000000000     
  0.75000000000000000       0.87500000000000000        0.0000000000000000     
  0.78125000000000000       0.87500000000000000        0.0000000000000000     
  0.81250000000000000       0.87500000000000000        0.0000000000000000     
  0.84375000000000000       0.87500000000000000        0.0000000000000000     
  0.87500000000000000       0.87500000000000000        0.0000000000000000     
  0.75000000000000000       0.90625000000000000        0.0000000000000000     
  0.78125000000000000       0.90625000000000000        0.0000000000000000     
  0.81250000000000000       0.90625000000000000        0.0000000000000000     
  0.84375000000000000       0.90625000000000000        0.0000000000000000     
  0.87500000000000000       0.90625000000000000        0.0000000000000000     
  0.75000000000000000       0.93750000000000000        0.0000000000000000     
  0.78125000000000000       0.93750000000000000        0.0000000000000000     
  0.81250000000000000       0.93750000000000000        0.0000000000000000     
  0.84375000000000000       0.93750000000000000        0.0000000000000000     
  0.87500000000000000       0.93750000000000000        0.0000000000000000     
  0.75000000000000000       0.96875000000000000        0.0000000000000000     
  0.78125000000000000       0.96875000000000000        0.0000000000000000     
  0.81250000000000000       0.96875000000000000        0.0000000000000000     
  0.84375000000000000       0.96875000000000000        0.0000000000000000     
  0.87500000000000000       0.96875000000000000        0.0000000000000000     
  0.75000000000000000        1.0000000000000000        0.0000000000000000     
  0.78125000000000000        1.0000000000000000        0.0000000000000000     
  0.81250000000000000        1.0000000000000000        0.0000000000000000     
  0.84375000000000000        1.0000000000000000        0.0000000000000000     
  0.87500000000000000        1.0000000000000000        0.0000000000000000     
  0.87500000000000000       0.87500000000000000        0.0000000000000000     
  0.90625000000000000       0.87500000000000000        0.0000000000000000     
  0.93750000000000000       0.87500000000000000        0.0000000000000000     
  0.96875000000000000       0.87500000000000000        0.0000000000000000     
   1.0000000000000000       0.87500000000000000        0.0000000000000000     
  0.87500000000000000       0.90625000000000000        0.0000000000000000     
  0.90625000000000000       0.90625000000000000        0.0000000000000000     
  0.93750000000000000       0.90625000000000000        0.0000000000000000     
  0.96875000000000000       0.90625000000000000        0.0000000000000000     
   1.0000000000000000       0.90625000000000000        0.0000000000000000     
  0.87500000000000000       0.93750000000000000        0.0000000000000000     
  0.90625000000000000       0.93750000000000000        0.0000000000000000     
  0.93750000000000000       0.93750000000000000        0.0000000000000000     
  0.96875000000000000       0.93750000000000000        0.0000000000000000     
   1.0000000000000000       0.93750000000000000        0.0000000000000000     
  0.87500000000000000       0.96875000000000000        0.0000000000000000     
  0.90625000000000000       0.96875000000000000        0.0000000000000000     
  0.93750000000000000       0.96875000000000000        0.0000000000000000     
  0.96875000000000000       0.96875000000000000        0.0000000000000000     
   1.0000000000000000       0.96875000000000000        0.0000000000000000     
  0.87500000000000000        1.0000000000000000        0.0000000000000000     
  0.90625000000000000        1.0000000000000000        0.0000000000000000     
  0.93750000000000000        1.0000000000000000        0.0000000000000000     
  0.96875000000000000        1.0000000000000000        0.0000000000000000     
   1.0000000000000000        1.0000000000000000        0.0000000000000000     
   1.0000000000000000       0.87500000000000000        0.0000000000000000     
   1.0312500000000000       0.87500000000000000        0.0000000000000000     
   1.0625000000000000       0.87500000000000000        0.0000000000000000     
   1.0937500000000000       0.87500000000000000        0.0000000000000000     
   1.1250000000000000       0.87500000000000000        0.0000000000000000     
   1.0000000000000000       0.90625000000000000        0.0000000000000000     
   1.0312500000000000       0.90625000000000000        0.0000000000000000     
   1.0625000000000000       0.90625000000000000        0.0000000000000000     
   1.0937500000000000       0.90625000000000000        0.0000000000000000     
   1.1250000000000000       0.90625000000000000        0.0000000000000000     
   1.0000000000000000       0.93750000000000000        0.0000000000000000     
   1.0312500000000000       0.93750000000000000        0.0000000000000000     
   1.0625000000000000       0.93750000000000000        0.0000000000000000     
   1.0937500000000000       0.93750000000000000        0.0000000000000000     
   1.1250000000000000       0.93750000000000000        0.0000000000000000     
   1.0000000000000000       0.96875000000000000        0.0000000000000000     
   1.0312500000000000       0.96875000000000000        0.0000000000000000     
   1.0625000000000000       0.96875000000000000        0.0000000000000000     
   1.0937500000000000       0.96875000000000000        0.0000000000000000     
   1.1250000000000000       0.96875000000000000        0.0000000000000000     
   1.0000000000000000        1.0000000000000000        0.0000000000000000     
   1.0312500000000000        1.0000000000000000        0.0000000000000000     
   1.0625000000000000        1.0000000000000000        0.0000000000000000     
   1.0937500000000000        1.0000000000000000        0.0000000000000000     
   1.1250000000000000        1.0000000000000000        0.0000000000000000     
   1.1250000000000000       0.87500000000000000        0.0000000000000000     
   1.1562500000000000       0.87500000000000000        0.0000000000000000     
   1.1875000000000000       0.87500000000000000        0.0000000000000000     
   1.2187500000000000       0.87500000000000000        0.0000000000000000     
   1.2500000000000000       0.87500000000000000        0.0000000000000000     
   1.1250000000000000       0.90625000000000000        0.0000000000000000     
   1.1562500000000000       0.90625000000000000        0.0000000000000000     
   1.1875000000000000       0.90625000000000000        0.0000000000000000     
   1.2187500000000000       0.90625000000000000        0.0000000000000000     
   1.2500000000000000       0.90625000000000000        0.0000000000000000     
   1.1250000000000000       0.93750000000000000        0.0000000000000000     
   1.1562500000000000       0.93750000000000000        0.0000000000000000     
   1.1875000000000000       0.93750000000000000        0.0000000000000000     
   1.2187500000000000       0.93750000000000000        0.0000000000000000     
   1.2500000000000000       0.93750000000000000        0.0000000000000000     
   1.1250000000000000       0.96875000000000000        0.0000000000000000     
   1.1562500000000000       0.96875000000000000        0.0000000000000000     
   1.1875000000000000       0.96875000000000000        0.0000000000000000     
   1.2187500000000000       0.96875000000000000        0.0000000000000000     
   1.2500000000000000       0.96875000000000000        0.0000000000000000     
   1.1250000000000000        1.0000000000000000        0.0000000000000000     
   1.1562500000000000        1.0000000000000000        0.0000000000000000     
   1.1875000000000000        1.0000000000000000        0.0000000000000000     
   1.2187500000000000        1.0000000000000000        0.0000000000000000     
   1.2500000000000000        1.0000000000000000        0.0000000000000000     
   1.2500000000000000       0.87500000000000000        0.0000000000000000     
   1.2812500000000000       0.87500000000000000        0.0000000000000000     
   1.3125000000000000       0.87500000000000000        0.0000000000000000     
   1.3437500000000000       0.87500000000000000        0.0000000000000000     
   1.3750000000000000       0.87500000000000000        0.0000000000000000     
   1.2500000000000000       0.90625000000000000        0.0000000000000000     
   1.2812500000000000       0.90625000000000000        0.0000000000000000     
   1.3125000000000000       0.90625000000000000        0.0000000000000000     
   1.3437500000000000       0.90625000000000000        0.0000000000000000     
   1.3750000000000000       0.90625000000000000        0.0000000000000000     
   1.2500000000000000       0.93750000000000000        0.0000000000000000     
   1.2812500000000000       0.93750000000000000        0.0000000000000000     
   1.3125000000000000       0.93750000000000000        0.0000000000000000     
   1.3437500000000000       0.93750000000000000        0.0000000000000000     
   1.3750000000000000       0.93750000000000000        0.0000000000000000     
   1.2500000000000000       0.96875000000000000        0.0000000000000000     
   1.2812500000000000       0.96875000000000000        0.0000000000000000     
   1.3125000000000000       0.96875000000000000        0.0000000000000000     
   1.3437500000000000       0.96875000000000000        0.0000000000000000     
   1.3750000000000000       0.96875000000000000        0.0000000000000000     
   1.2500000000000000        1.0000000000000000        0.0000000000000000     
   1.2812500000000000        1.0000000000000000        0.0000000000000000     
   1.3125000000000000        1.0000000000000000        0.0000000000000000     
   1.3437500000000000        1.0000000000000000        0.0000000000000000     
   1.3750000000000000        1.0000000000000000        0.0000000000000000     
   1.3750000000000000       0.87500000000000000        0.0000000000000000     
   1.4062500000000000       0.87500000000000000        0.0000000000000000     
   1.4375000000000000       0.87500000000000000        0.0000000000000000     
   1.4687500000000000       0.87500000000000000        0.0000000000000000     
   1.5000000000000000       0.87500000000000000        0.0000000000000000     
   1.3750000000000000       0.90625000000000000        0.0000000000000000     
   1.4062500000000000       0.90625000000000000        0.0000000000000000     
   1.4375000000000000       0.90625000000000000        0.0000000000000000     
   1.4687500000000000       0.90625000000000000        0.0000000000000000     
   1.5000000000000000       0.90625000000000000        0.0000000000000000     
   1.3750000000000000       0.93750000000000000        0.0000000000000000     
   1.4062500000000000       0.93750000000000000        0.0000000000000000     
   1.4375000000000000       0.93750000000000000        0.0000000000000000     
   1.4687500000000000       0.93750000000000000        0.0000000000000000     
   1.5000000000000000       0.93750000000000000        0.0000000000000000     
   1.3750000000000000       0.96875000000000000        0.0000000000000000     
   1.4062500000000000       0.96875000000000000        0.0000000000000000     
   1.4375000000000000       0.96875000000000000        0.0000000000000000     
   1.4687500000000000       0.96875000000000000        0.0000000000000000     
   1.5000000000000000       0.96875000000000000        0.0000000000000000     
   1.3750000000000000        1.0000000000000000        0.0000000000000000     
   1.4062500000000000        1.0000000000000000        0.0000000000000000     
   1.4375000000000000        1.0000000000000000        0.0000000000000000     
   1.4687500000000000        1.0000000000000000        0.0000000000000000     
   1.5000000000000000        1.0000000000000000        0.0000000000000000     
 </DataArray>
 </Points>
 <Cells>
 <DataArray  type="Int32"  Name="connectivity"  format="ascii">
           0           1           6           5
           1           2           7           6
           2           3           8           7
           3           4           9           8
           5           6          11          10
           6           7          12          11
           7           8          13          12
           8           9          14          13
          10          11          16          15
          11          12          17          16
          12          13          18          17
          13          14          19          18
          15          16          21          20
          16          17          22          21
          17          18          23          22
          18          19          24          23
          25          26          31          30
          26          27          32          31
          27          28          33          32
          28          29          34          33
          30          31          36          35
          31          32          37          36
          32          33          38          37
          33          34          39          38
          35          36          41          40
          36          37          42          41
          37          38          43          42
          38          39          44          43
          40          41          46          45
          41          42          47          46
          42          43          48          47
          43          44          49          48
          50          51          56          55
          51          52          57          56
          52          53          58          57
          53          54          59          58
          55          56          61          60
          56          57          62          61
          57          58          63          62
          58          59          64          63
          60          61          66          65
          61          62          67          66
          62          63          68          67
          63          64          69          68
          65          66          71          70
          66          67          72          71
          67          68          73          72
          68          69          74          73
          75          76          81          80
          76          77          82          81
          77          78          83          82
          78          79          84          83
          80          81          86          85
          81          82          87          86
          82          83          88          87
          83          84          89          88
          85          86          91          90
          86          87          92          91
          87          88          93          92
          88          89          94          93
          90          91          96          95
          91          92          97          96
          92          93          98          97
          93          94          99          98
         100         101         106         105
         101         102         107         106
         102         103         108         107
         103         104         109         108
         105         106         111         110
         106         107         112         111
         107         108         113         112
         108         109         114         113
         110         111         116         115
         111         112         117         116
         112         113         118         117
         113         114         119         118
         115         116         121         120
         116         117         122         121
         117         118         123         122
         118         119         124         123
         125         126         131         130
         126         127         132         131
         127         128         133         132
         128         129         134         133
         130         131         136         135
         131         132         137         136
         132         133         138         137
         133         134         139         138
         135         136         141         140
         136         137         142         141
         137         138         143         142
         138         139         144         143
         140         141         146         145
         141         142         147         146
         142         143         148         147
         143         144         149         148
         150         151         156         155
         151         152         157         156
         152         153         158         157
         153         154         159         158
         155         156         161         160
         156         157         162         161
         157         158         163         162
         158         159         164         163
         160         161         166         165
         161         162         167         166
         162         163         168         167
         163         164         169         168
         165         166         171         170
         166         167         172         171
         167         168         173         172
         168         169         174         173
         175         176         181         180
         176         177         182         181
         177         178         183         182
         178         179         184         183
         180         181         186         185
         181         182         187         186
         182         183         188         187
         183         184         189         188
         185         186         191         190
         186         187         192         191
         187         188         193         192
         188         189         194         193
         190         191         196         195
         191         192         197         196
         192         193         198         197
         193         194         199         198
         200         201         206         205
         201         202         207         206
         202         203         208         207
         203         204         209         208
         205         206         211         210
         206         207         212         211
         207         208         213         212
         208         209         214         213
         210         211         216         215
         211         212         217         216
         212         213         218         217
         213         214         219         218
         215         216         221         220
         216         217         222         221
         217         218         223         222
         218         219         224         223
         225         226         231         230
         226         227         232         231
         227         228         233         232
         228         229         234         233
         230         231         236         235
         231         232         237         236
         232         233         238         237
         233         234         239         238
         235         236         241         240
         236         237         242         241
         237         238         243         242
         238         239         244         243
         240         241         246         245
         241         242         247         246
         242         243         248         247
         243         244         249         248
         250         251         256         255
         251         252         257         256
         252         253         258         257
         253         254         259         258
         255         256         261         260
         256         257         262         261
         257         258         263         262
         258         259         264         263
         260         261         266         265
         261         262         267         266
         262         263         268         267
         263         264         269         268
         265         266         271         270
         266         267         272         271
         267         268         273         272
         268         269         274         273
         275         276         281         280
         276         277         282         281
         277         278         283         282
         278         279         284         283
         280         281         286         285
         281         282         287         286
         282         283         288         287
         283         284         289         288
         285         286         291         290
         286         287         292         291
         287         288         293         292
         288         289         294         293
         290         291         296         295
         291         292         297         296
         292         293         298         297
         293         294         299         298
         300         301         306         305
         301         302         307         306
         302         303         308         307
         303         304         309         308
         305         306         311         310
         306         307         312         311
         307         308         313         312
         308         309         314         313
         310         311         316         315
         311         312         317         316
         312         313         318         317
         313         314         319         318
         315         316         321         320
         316         317         322         321
         317         318         323         322
         318         319         324         323
         325         326         331         330
         326         327         332         331
         327         328         333         332
         328         329         334         333
         330         331         336         335
         331         332         337         336
         332         333         338         337
         333         334         339         338
         335         336         341         340
         336         337         342         341
         337         338         343         342
         338         339         344         343
         340         341         346         345
         341         342         347         346
         342         343         348         347
         343         344         349         348
         350         351         356         355
         351         352         357         356
         352         353         358         357
         353         354         359         358
         355         356         361         360
         356         357         362         361
         357         358         363         362
         358         359         364         363
         360         361         366         365
         361         362         367         366
         362         363         368         367
         363         364         369         368
         365         366         371         370
         366         367         372         371
         367         368         373         372
         368         369         374         373
         375         376         381         380
         376         377         382         381
         377         378         383         382
         378         379         384         383
         380         381         386         385
         381         382         387         386
         382         383         388         387
         383         384         389         388
         385         386         391         390
         386         387         392         391
         387         388         393         392
         388         389         394         393
         390         391         396         395
         391         392         397         396
         392         393         398         397
         393         394         399         398
         400         401         406         405
         401         402         407         406
         402         403         408         407
         403         404         409         408
         405         406         411         410
         406         407         412         411
         407         408         413         412
         408         409         414         413
         410         411         416         415
         411         412         417         416
         412         413         418         417
         413         414         419         418
         415         416         421         420
         416         417         422         421
         417         418         423         422
         418         419         424         423
         425         426         431         430
         426         427         432         431
         427         428         433         432
         428         429         434         433
         430         431         436         435
         431         432         437         436
         432         433         438         437
         433         434         439         438
         435         436         441         440
         436         437         442         441
         437         438         443         442
         438         439         444         443
         440         441         446         445
         441         442         447         446
         442         443         448         447
         443         444         449         448
         450         451         456         455
         451         452         457         456
         452         453         458         457
         453         454         459         458
         455         456         461         460
         456         457         462         461
         457         458         463         462
         458         459         464         463
         460         461         466         465
         461         462         467         466
         462         463         468         467
         463         464         469         468
         465         466         471         470
         466         467         472         471
         467         468         473         472
         468         469         474         473
         475         476         481         480
         476         477         482         481
         477         478         483         482
         478         479         484         483
         480         481         486         485
         481         482         487         486
         482         483         488         487
         483         484         489         488
         485         486         491         490
         486         487         492         491
         487         488         493         492
         488         489         494         493
         490         491         496         495
         491         492         497         496
         492         493         498         497
         493         494         499         498
         500         501         506         505
         501         502         507         506
         502         503         508         507
         503         504         509         508
         505         506         511         510
         506         507         512         511
         507         508         513         512
         508         509         514         513
         510         511         516         515
         511         512         517         516
         512         513         518         517
         513         514         519         518
         515         516         521         520
         516         517         522         521
         517         518         523         522
         518         519         524         523
         525         526         531         530
         526         527         532         531
         527         528         533         532
         528         529         534         533
         530         531         536         535
         531         532         537         536
         532         533         538         537
         533         534         539         538
         535         536         541         540
         536         537         542         541
         537         538         543         542
         538         539         544         543
         540         541         546         545
         541         542         547         546
         542         543         548         547
         543         544         549         548
         550         551         556         555
         551         552         557         556
         552         553         558         557
         553         554         559         558
         555         556         561         560
         556         557         562         561
         557         558         563         562
         558         559         564         563
         560         561         566         565
         561         562         567         566
         562         563         568         567
         563         564         569         568
         565         566         571         570
         566         567         572         571
         567         568         573         572
         568         569         574         573
         575         576         581         580
         576         577         582         581
         577         578         583         582
         578         579         584         583
         580         581         586         585
         581         582         587         586
         582         583         588         587
         583         584         589         588
         585         586         591         590
         586         587         592         591
         587         588         593         592
         588         589         594         593
         590         591         596         595
         591         592         597         596
         592         593         598         597
         593         594         599         598
         600         601         606         605
         601         602         607         606
         602         603         608         607
         603         604         609         608
         605         606         611         610
         606         607         612         611
         607         608         613         612
         608         609         614         613
         610         611         616         615
         611         612         617         616
         612         613         618         617
         613         614         619         618
         615         616         621         620
         616         617         622         621
         617         618         623         622
         618         619         624         623
         625         626         631         630
         626         627         632         631
         627         628         633         632
         628         629         634         633
         630         631         636         635
         631         632         637         636
         632         633         638         637
         633         634         639         638
         635         636         641         640
         636         637         642         641
         637         638         643         642
         638         639         644         643
         640         641         646         645
         641         642         647         646
         642         643         648         647
         643         644         649         648
         650         651         656         655
         651         652         657         656
         652         653         658         657
         653         654         659         658
         655         656         661         660
         656         657         662         661
         657         658         663         662
         658         659         664         663
         660         661         666         665
         661         662         667         666
         662         663         668         667
         663         664         669         668
         665         666         671         670
         666         667         672         671
         667         668         673         672
         668         669         674         673
         675         676         681         680
         676         677         682         681
         677         678         683         682
         678         679         684         683
         680         681         686         685
         681         682         687         686
         682         683         688         687
         683         684         689         688
         685         686         691         690
         686         687         692         691
         687         688         693         692
         688         689         694         693
         690         691         696         695
         691         692         697         696
         692         693         698         697
         693         694         699         698
         700         701         706         705
         701         702         707         706
         702         703         708         707
         703         704         709         708
         705         706         711         710
         706         707         712         711
         707         708         713         712
         708         709         714         713
         710         711         716         715
         711         712         717         716
         712         713         718         717
         713         714         719         718
         715         716         721         720
         716         717         722         721
         717         718         723         722
         718         719         724         723
         725         726         731         730
         726         727         732         731
         727         728         733         732
         728         729         734         733
         730         731         736         735
         731         732         737         736
         732         733         738         737
         733         734         739         738
         735         736         741         740
         736         737         742         741
         737         738         743         742
         738         739         744         743
         740         741         746         745
         741         742         747         746
         742         743         748         747
         743         744         749         748
         750         751         756         755
         751         752         757         756
         752         753         758         757
         753         754         759         758
         755         756         761         760
         756         757         762         761
         757         758         763         762
         758         759         764         763
         760         761         766         765
         761         762         767         766
         762         763         768         767
         763         764         769         768
         765         766         771         770
         766         767         772         771
         767         768         773         772
         768         769         774         773
         775         776         781         780
         776         777         782         781
         777         778         783         782
         778         779         784         783
         780         781         786         785
         781         782         787         786
         782         783         788         787
         783         784         789         788
         785         786         791         790
         786         787         792         791
         787         788         793         792
         788         789         794         793
         790         791         796         795
         791         792         797         796
         792         793         798         797
         793         794         799         798
         800         801         806         805
         801         802         807         806
         802         803         808         807
         803         804         809         808
         805         806         811         810
         806         807         812         811
         807         808         813         812
         808         809         814         813
         810         811         816         815
         811         812         817         816
         812         813         818         817
         813         814         819         818
         815         816         821         820
         816         817         822         821
         817         818         823         822
         818         819         824         823
         825         826         831         830
         826         827         832         831
         827         828         833         832
         828         829         834         833
         830         831         836         835
         831         832         837         836
         832         833         838         837
         833         834         839         838
         835         836         841         840
         836         837         842         841
         837         838         843         842
         838         839         844         843
         840         841         846         845
         841         842         847         846
         842         843         848         847
         843         844         849         848
         850         851         856         855
         851         852         857         856
         852         853         858         857
         853         854         859         858
         855         856         861         860
         856         857         862         861
         857         858         863         862
         858         859         864         863
         860         861         866         865
         861         862         867         866
         862         863         868         867
         863         864         869         868
         865         866         871         870
         866         867         872         871
         867         868         873         872
         868         869         874         873
         875         876         881         880
         876         877         882         881
         877         878         883         882
         878         879         884         883
         880         881         886         885
         881         882         887         886
         882         883         888         887
         883         884         889         888
         885         886         891         890
         886         887         892         891
         887         888         893         892
         888         889         894         893
         890         891         896         895
         891         892         897         896
         892         893         898         897
         893         894         899         898
         900         901         906         905
         901         902         907         906
         902         903         908         907
         903         904         909         908
         905         906         911         910
         906         907         912         911
         907         908         913         912
         908         909         914         913
         910         911         916         915
         911         912         917         916
         912         913         918         917
         913         914         919         918
         915         916         921         920
         916         917         922         921
         917         918         923         922
         918         919         924         923
         925         926         931         930
         926         927         932         931
         927         928         933         932
         928         929         934         933
         930         931         936         935
         931         932         937         936
         932         933         938         937
         933         934         939         938
         935         936         941         940
         936         937         942         941
         937         938         943         942
         938         939         944         943
         940         941         946         945
         941         942         947         946
         942         943         948         947
         943         944         949         948
         950         951         956         955
         951         952         957         956
         952         953         958         957
         953         954         959         958
         955         956         961         960
         956         957         962         961
         957         958         963         962
         958         959         964         963
         960         961         966         965
         961         962         967         966
         962         963         968         967
         963         964         969         968
         965         966         971         970
         966         967         972         971
         967         968         973         972
         968         969         974         973
         975         976         981         980
         976         977         982         981
         977         978         983         982
         978         979         984         983
         980         981         986         985
         981         982         987         986
         982         983         988         987
         983         984         989         988
         985         986         991         990
         986         987         992         991
         987         988         993         992
         988         989         994         993
         990         991         996         995
         991         992         997         996
         992         993         998         997
         993         994         999         998
        1000        1001        1006        1005
        1001        1002        1007        1006
        1002        1003        1008        1007
        1003        1004        1009        1008
        1005        1006        1011        1010
        1006        1007        1012        1011
        1007        1008        1013        1012
        1008        1009        1014        1013
        1010        1011        1016        1015
        1011        1012        1017        1016
        1012        1013        1018        1017
        1013        1014        1019        1018
        1015        1016        1021        1020
        1016        1017        1022        1021
        1017        1018        1023        1022
        1018        1019        1024        1023
        1025        1026        1031        1030
        1026        1027        1032        1031
        1027        1028        1033        1032
        1028        1029        1034        1033
        1030        1031        1036        1035
        1031        1032        1037        1036
        1032        1033        1038        1037
        1033        1034        1039        1038
        1035        1036        1041        1040
        1036        1037        1042        1041
        1037        1038        1043        1042
        1038        1039        1044        1043
        1040        1041        1046        1045
        1041        1042        1047        1046
        1042        1043        1048        1047
        1043        1044        1049        1048
        1050        1051        1056        1055
        1051        1052        1057        1056
        1052        1053        1058        1057
        1053        1054        1059        1058
        1055        1056        1061        1060
        1056        1057        1062        1061
        1057        1058        1063        1062
        1058        1059        1064        1063
        1060        1061        1066        1065
        1061        1062        1067        1066
        1062        1063        1068        1067
        1063        1064        1069        1068
        1065        1066        1071        1070
        1066        1067        1072        1071
        1067        1068        1073        1072
        1068        1069        1074        1073
        1075        1076        1081        1080
        1076        1077        1082        1081
        1077        1078        1083        1082
        1078        1079        1084        1083
        1080        1081        1086        1085
        1081        1082        1087        1086
        1082        1083        1088        1087
        1083        1084        1089        1088
        1085        1086        1091        1090
        1086        1087        1092        1091
        1087        1088        1093        1092
        1088        1089        1094        1093
        1090        1091        1096        1095
        1091        1092        1097        1096
        1092        1093        1098        1097
        1093        1094        1099        1098
        1100        1101        1106        1105
        1101        1102        1107        1106
        1102        1103        1108        1107
        1103        1104        1109        1108
        1105        1106        1111        1110
        1106        1107        1112        1111
        1107        1108        1113        1112
        1108        1109        1114        1113
        1110        1111        1116        1115
        1111        1112        1117        1116
        1112        1113        1118        1117
        1113        1114        1119        1118
        1115        1116        1121        1120
        1116        1117        1122        1121
        1117        1118        1123        1122
        1118        1119        1124        1123
        1125        1126        1131        1130
        1126        1127        1132        1131
        1127        1128        1133        1132
        1128        1129        1134        1133
        1130        1131        1136        1135
        1131        1132        1137        1136
        1132        1133        1138        1137
        1133        1134        1139        1138
        1135        1136        1141        1140
        1136        1137        1142        1141
        1137        1138        1143        1142
        1138        1139        1144        1143
        1140        1141        1146        1145
        1141        1142        1147        1146
        1142        1143        1148        1147
        1143        1144        1149        1148
        1150        1151        1156        1155
        1151        1152        1157        1156
        1152        1153        1158        1157
        1153        1154        1159        1158
        1155        1156        1161        1160
        1156        1157        1162        1161
        1157        1158        1163        1162
        1158        1159        1164        1163
        1160        1161        1166        1165
        1161        1162        1167        1166
        1162        1163        1168        1167
        1163        1164        1169        1168
        1165        1166        1171        1170
        1166        1167        1172        1171
        1167        1168        1173        1172
        1168        1169        1174        1173
        1175        1176        1181        1180
        1176        1177        1182        1181
        1177        1178        1183        1182
        1178        1179        1184        1183
        1180        1181        1186        1185
        1181        1182        1187        1186
        1182        1183        1188        1187
        1183        1184        1189        1188
        1185        1186        1191        1190
        1186        1187        1192        1191
        1187        1188        1193        1192
        1188        1189        1194        1193
        1190        1191        1196        1195
        1191        1192        1197        1196
        1192        1193        1198        1197
        1193        1194        1199        1198
        1200        1201        1206        1205
        1201        1202        1207        1206
        1202        1203        1208        1207
        1203        1204        1209        1208
        1205        1206        1211        1210
        1206        1207        1212        1211
        1207        1208        1213        1212
        1208        1209        1214        1213
        1210        1211        1216        1215
        1211        1212        1217        1216
        1212        1213        1218        1217
        1213        1214        1219        1218
        1215        1216        1221        1220
        1216        1217        1222        1221
        1217        1218        1223        1222
        1218        1219        1224        1223
        1225        1226        1231        1230
        1226        1227        1232        1231
        1227        1228        1233        1232
        1228        1229        1234        1233
        1230        1231        1236        1235
        1231        1232        1237        1236
        1232        1233        1238        1237
        1233        1234        1239        1238
        1235        1236        1241        1240
        1236        1237        1242        1241
        1237        1238        1243        1242
        1238        1239        1244        1243
        1240        1241        1246        1245
        1241        1242        1247        1246
        1242        1243        1248        1247
        1243        1244        1249        1248
        1250        1251        1256        1255
        1251        1252        1257        1256
        1252        1253        1258        1257
        1253        1254        1259        1258
        1255        1256        1261        1260
        1256        1257        1262        1261
        1257        1258        1263        1262
        1258        1259        1264        1263
        1260        1261        1266        1265
        1261        1262        1267        1266
        1262        1263        1268        1267
        1263        1264        1269        1268
        1265        1266        1271        1270
        1266        1267        1272        1271
        1267        1268        1273        1272
        1268        1269        1274        1273
        1275        1276        1281        1280
        1276        1277        1282        1281
        1277        1278        1283        1282
        1278        1279        1284        1283
        1280        1281        1286        1285
        1281        1282        1287        1286
        1282        1283        1288        1287
        1283        1284        1289        1288
        1285        1286        1291        1290
        1286        1287        1292        1291
        1287        1288        1293        1292
        1288        1289        1294        1293
        1290        1291        1296        1295
        1291        1292        1297        1296
        1292        1293        1298        1297
        1293        1294        1299        1298
        1300        1301        1306        1305
        1301        1302        1307        1306
        1302        1303        1308        1307
        1303        1304        1309        1308
        1305        1306        1311        1310
        1306        1307        1312        1311
        1307        1308        1313        1312
        1308        1309        1314        1313
        1310        1311        1316        1315
        1311        1312        1317        1316
        1312        1313        1318        1317
        1313        1314        1319        1318
        1315        1316        1321        1320
        1316        1317        1322        1321
        1317        1318        1323        1322
        1318        1319        1324        1323
        1325        1326        1331        1330
        1326        1327        1332        1331
        1327        1328        1333        1332
        1328        1329        1334        1333
        1330        1331        1336        1335
        1331        1332        1337        1336
        1332        1333        1338        1337
        1333        1334        1339        1338
        1335        1336        1341        1340
        1336        1337        1342        1341
        1337        1338        1343        1342
        1338        1339        1344        1343
        1340        1341        1346        1345
        1341        1342        1347        1346
        1342        1343        1348        1347
        1343        1344        1349        1348
        1350        1351        1356        1355
        1351        1352        1357        1356
        1352        1353        1358        1357
        1353        1354        1359        1358
        1355        1356        1361        1360
        1356        1357        1362        1361
        1357        1358        1363        1362
        1358        1359        1364        1363
        1360        1361        1366        1365
        1361        1362        1367        1366
        1362        1363        1368        1367
        1363        1364        1369        1368
        1365        1366        1371        1370
        1366        1367        1372        1371
        1367        1368        1373        1372
        1368        1369        1374        1373
        1375        1376        1381        1380
        1376        1377        1382        1381
        1377        1378        1383        1382
        1378        1379        1384        1383
        1380        1381        1386        1385
        1381        1382        1387        1386
        1382        1383        1388        1387
        1383        1384        1389        1388
        1385        1386        1391        1390
        1386        1387        1392        1391
        1387        1388        1393        1392
        1388        1389        1394        1393
        1390        1391        1396        1395
        1391        1392        1397        1396
        1392        1393        1398        1397
        1393        1394        1399        1398
        1400        1401        1406        1405
        1401        1402        1407        1406
        1402        1403        1408        1407
        1403        1404        1409        1408
        1405        1406        1411        1410
        1406        1407        1412        1411
        1407        1408        1413        1412
        1408        1409        1414        1413
        1410        1411        1416        1415
        1411        1412        1417        1416
        1412        1413        1418        1417
        1413        1414        1419        1418
        1415        1416        1421        1420
        1416        1417        1422        1421
        1417        1418        1423        1422
        1418        1419        1424        1423
        1425        1426        1431        1430
        1426        1427        1432        1431
        1427        1428        1433        1432
        1428        1429        1434        1433
        1430        1431        1436        1435
        1431        1432        1437        1436
        1432        1433        1438        1437
        1433        1434        1439        1438
        1435        1436        1441        1440
        1436        1437        1442        1441
        1437        1438        1443        1442
        1438        1439        1444        1443
        1440        1441        1446        1445
        1441        1442        1447        1446
        1442        1443        1448        1447
        1443        1444        1449        1448
        1450        1451        1456        1455
        1451        1452        1457        1456
        1452        1453        1458        1457
        1453        1454        1459        1458
        1455        1456        1461        1460
        1456        1457        1462        1461
        1457        1458        1463        1462
        1458        1459        1464        1463
        1460        1461        1466        1465
        1461        1462        1467        1466
        1462        1463        1468        1467
        1463        1464        1469        1468
        1465        1466        1471        1470
        1466        1467        1472        1471
        1467        1468        1473        1472
        1468        1469        1474        1473
        1475        1476        1481        1480
        1476        1477        1482        1481
        1477        1478        1483        1482
        1478        1479        1484        1483
        1480        1481        1486        1485
        1481        1482        1487        1486
        1482        1483        1488        1487
        1483        1484        1489        1488
        1485        1486        1491        1490
        1486        1487        1492        1491
        1487        1488        1493        1492
        1488        1489        1494        1493
        1490        1491        1496        1495
        1491        1492        1497        1496
        1492        1493        1498        1497
        1493        1494        1499        1498
        1500        1501        1506        1505
        1501        1502        1507        1506
        1502        1503        1508        1507
        1503        1504        1509        1508
        1505        1506        1511        1510
        1506        1507        1512        1511
        1507        1508        1513        1512
        1508        1509        1514        1513
        1510        1511        1516        1515
        1511        1512        1517        1516
        1512        1513        1518        1517
        1513        1514        1519        1518
        1515        1516        1521        1520
        1516        1517        1522        1521
        1517        1518        1523        1522
        1518        1519        1524        1523
        1525        1526        1531        1530
        1526        1527        1532        1531
        1527        1528        1533        1532
        1528        1529        1534        1533
        1530        1531        1536        1535
        1531        1532        1537        1536
        1532        1533        1538        1537
        1533        1534        1539        1538
        1535        1536        1541        1540
        1536        1537        1542        1541
        1537        1538        1543        1542
        1538        1539        1544        1543
        1540        1541        1546        1545
        1541        1542        1547        1546
        1542        1543        1548        1547
        1543        1544        1549        1548
        1550        1551        1556        1555
        1551        1552        1557        1556
        1552        1553        1558        1557
        1553        1554        1559        1558
        1555        1556        1561        1560
        1556        1557        1562        1561
        1557        1558        1563        1562
        1558        1559        1564        1563
        1560        1561        1566        1565
        1561        1562        1567        1566
        1562        1563        1568        1567
        1563        1564        1569        1568
        1565        1566        1571        1570
        1566        1567        1572        1571
        1567        1568        1573        1572
        1568        1569        1574        1573
        1575        1576        1581        1580
        1576        1577        1582        1581
        1577        1578        1583        1582
        1578        1579        1584        1583
        1580        1581        1586        1585
        1581        1582        1587        1586
        1582        1583        1588        1587
        1583        1584        1589        1588
        1585        1586        1591        1590
        1586        1587        1592        1591
        1587        1588        1593        1592
        1588        1589        1594        1593
        1590        1591        1596        1595
        1591        1592        1597        1596
        1592        1593        1598        1597
        1593        1594        1599        1598
 </DataArray>
 <DataArray  type="Int32"  Name="offsets"  format="ascii"> 
           4
           8
          12
          16
          20
          24
          28
          32
          36
          40
          44
          48
          52
          56
          60
          64
          68
          72
          76
          80
          84
          88
          92
          96
         100
         104
         108
         112
         116
         120
         124
         128
         132
         136
         140
         144
         148
         152
         156
         160
         164
         168
         172
         176
         180
         184
         188
         192
         196
         200
         204
         208
         212
         216
         220
         224
         228
         232
         236
         240
         244
         248
         252
         256
         260
         264
         268
         272
         276
         280
         284
         288
         292
         296
         300
         304
         308
         312
         316
         320
         324
         328
         332
         336
         340
         344
         348
         352
         356
         360
         364
         368
         372
         376
         380
         384
         388
         392
         396
         400
         404
         408
         412
         416
         420
         424
         428
         432
         436
         440
         444
         448
         452
         456
         460
         464
         468
         472
         476
         480
         484
         488
         492
         496
         500
         504
         508
         512
         516
         520
         524
         528
         532
         536
         540
         544
         548
         552
         556
         560
         564
         568
         572
         576
         580
         584
         588
         592
         596
         600
         604
         608
         612
         616
         620
         624
         628
         632
         636
         640
         644
         648
         652
         656
         660
         664
         668
         672
         676
         680
         684
         688
         692
         696
         700
         704
         708
         712
         716
         720
         724
         728
         732
         736
         740
         744
         748
         752
         756
         760
         764
         768
         772
         776
         780
         784
         788
         792
         796
         800
         804
         808
         812
         816
         820
         824
         828
         832
         836
         840
         844
         848
         852
         856
         860
         864
         868
         872
         876
         880
         884
         888
         892
         896
         900
         904
         908
         912
         916
         920
         924
         928
         932
         936
         940
         944
         948
         952
         956
         960
         964
         968
         972
         976
         980
         984
         988
         992
         996
        1000
        1004
        1008
        1012
        1016
        1020
        1024
        1028
        1032
        1036
        1040
        1044
        1048
        1052
        1056
        1060
        1064
        1068
        1072
        1076
        1080
        1084
        1088
        1092
        1096
        1100
        1104
        1108
        1112
        1116
        1120
        1124
        1128
        1132
        1136
        1140
        1144
        1148
        1152
        1156
        1160
        1164
        1168
        1172
        1176
        1180
        1184
        1188
        1192
        1196
        1200
        1204
        1208
        1212
        1216
        1220
        1224
        1228
        1232
        1236
        1240
        1244
        1248
        1252
        1256
        1260
        1264
        1268
        1272
        1276
        1280
        1284
        1288
        1292
        1296
        1300
        1304
        1308
        1312
        1316
        1320
        1324
        1328
        1332
        1336
        1340
        1344
        1348
        1352
        1356
        1360
        1364
        1368
        1372
        1376
        1380
        1384
        1388
        1392
        1396
        1400
        1404
        1408
        1412
        1416
        1420
        1424
        1428
        1432
        1436
        1440
        1444
        1448
        1452
        1456
        1460
        1464
        1468
        1472
        1476
        1480
        1484
        1488
        1492
        1496
        1500
        1504
        1508
        1512
        1516
        1520
        1524
        1528
        1532
        1536
        1540
        1544
        1548
        1552
        1556
        1560
        1564
        1568
        1572
        1576
        1580
        1584
        1588
        1592
        1596
        1600
        1604
        1608
        1612
        1616
        1620
        1624
        1628
        1632
        1636
        1640
        1644
        1648
        1652
        1656
        1660
        1664
        1668
        1672
        1676
        1680
        1684
        1688
        1692
        1696
        1700
        1704
        1708
        1712
        1716
        1720
        1724
        1728
        1732
        1736
        1740
        1744
        1748
        1752
        1756
        1760
        1764
        1768
        1772
        1776
        1780
        1784
        1788
        1792
        1796
        1800
        1804
        1808
        1812
        1816
        1820
        1824
        1828
        1832
        1836
        1840
        1844
        1848
        1852
        1856
        1860
        1864
        1868
        1872
        1876
        1880
        1884
        1888
        1892
        1896
        1900
        1904
        1908
        1912
        1916
        1920
        1924
        1928
        1932
        1936
        1940
        1944
        1948
        1952
        1956
        1960
        1964
        1968
        1972
        1976
        1980
        1984
        1988
        1992
        1996
        2000
        2004
        2008
        2012
        2016
        2020
        2024
        2028
        2032
        2036
        2040
        2044
        2048
        2052
        2056
        2060
        2064
        2068
        2072
        2076
        2080
        2084
        2088
        2092
        2096
        2100
        2104
        2108
        2112
        2116
        2120
        2124
        2128
        2132
        2136
        2140
        2144
        2148
        2152
        2156
        2160
        2164
        2168
        2172
        2176
        2180
        2184
        2188
        2192
        2196
        2200
        2204
        2208
        2212
        2216
        2220
        2224
        2228
        2232
        2236
        2240
        2244
        2248
        2252
        2256
        2260
        2264
        2268
        2272
        2276
        2280
        2284
        2288
        2292
        2296
        2300
        2304
        2308
        2312
        2316
        2320
        2324
        2328
        2332
        2336
        2340
        2344
        2348
        2352
        2356
        2360
        2364
        2368
        2372
        2376
        2380
        2384
        2388
        2392
        2396
        2400
        2404
        2408
        2412
        2416
        2420
        2424
        2428
        2432
        2436
        2440
        2444
        2448
        2452
        2456
        2460
        2464
        2468
        2472
        2476
        2480
        2484
        2488
        2492
        2496
        2500
        2504
        2508
        2512
        2516
        2520
        2524
        2528
        2532
        2536
        2540
        2544
        2548
        2552
        2556
        2560
        2564
        2568
        2572
        2576
        2580
        2584
        2588
        2592
        2596
        2600
        2604
        2608
        2612
        2616
        2620
        2624
        2628
        2632
        2636
        2640
        2644
        2648
        2652
        2656
        2660
        2664
        2668
        2672
        2676
        2680
        2684
        2688
        2692
        2696
        2700
        2704
        2708
        2712
        2716
        2720
        2724
        2728
        2732
        2736
        2740
        2744
        2748
        2752
        2756
        2760
        2764
        2768
        2772
        2776
        2780
        2784
        2788
        2792
        2796
        2800
        2804
        2808
        2812
        2816
        2820
        2824
        2828
        2832
        2836
        2840
        2844
        2848
        2852
        2856
        2860
        2864
        2868
        2872
        2876
        2880
        2884
        2888
        2892
        2896
        2900
        2904
        2908
        2912
        2916
        2920
        2924
        2928
        2932
        2936
        2940
        2944
        2948
        2952
        2956
        2960
        2964
        2968
        2972
        2976
        2980
        2984
        2988
        2992
        2996
        3000
        3004
        3008
        3012
        3016
        3020
        3024
        3028
        3032
        3036
        3040
        3044
        3048
        3052
        3056
        3060
        3064
        3068
        3072
        3076
        3080
        3084
        3088
        3092
        3096
        3100
        3104
        3108
        3112
        3116
        3120
        3124
        3128
        3132
        3136
        3140
        3144
        3148
        3152
        3156
        3160
        3164
        3168
        3172
        3176
        3180
        3184
        3188
        3192
        3196
        3200
        3204
        3208
        3212
        3216
        3220
        3224
        3228
        3232
        3236
        3240
        3244
        3248
        3252
        3256
        3260
        3264
        3268
        3272
        3276
        3280
        3284
        3288
        3292
        3296
        3300
        3304
        3308
        3312
        3316
        3320
        3324
        3328
        3332
        3336
        3340
        3344
        3348
        3352
        3356
        3360
        3364
        3368
        3372
        3376
        3380
        3384
        3388
        3392
        3396
        3400
        3404
        3408
        3412
        3416
        3420
        3424
        3428
        3432
        3436
        3440
        3444
        3448
        3452
        3456
        3460
        3464
        3468
        3472
        3476
        3480
        3484
        3488
        3492
        3496
        3500
        3504
        3508
        3512
        3516
        3520
        3524
        3528
        3532
        3536
        3540
        3544
        3548
        3552
        3556
        3560
        3564
        3568
        3572
        3576
        3580
        3584
        3588
        3592
        3596
        3600
        3604
        3608
        3612
        3616
        3620
        3624
        3628
        3632
        3636
        3640
        3644
        3648
        3652
        3656
        3660
        3664
        3668
        3672
        3676
        3680
        3684
        3688
        3692
        3696
        3700
        3704
        3708
        3712
        3716
        3720
        3724
        3728
        3732
        3736
        3740
        3744
        3748
        3752
        3756
        3760
        3764
        3768
        3772
        3776
        3780
        3784
        3788
        3792
        3796
        3800
        3804
        3808
        3812
        3816
        3820
        3824
        3828
        3832
        3836
        3840
        3844
        3848
        3852
        3856
        3860
        3864
        3868
        3872
        3876
        3880
        3884
        3888
        3892
        3896
        3900
        3904
        3908
        3912
        3916
        3920
        3924
        3928
        3932
        3936
        3940
        3944
        3948
        3952
        3956
        3960
        3964
        3968
        3972
        3976
        3980
        3984
        3988
        3992
        3996
        4000
        4004
        4008
        4012
        4016
        4020
        4024
        4028
        4032
        4036
        4040
        4044
        4048
        4052
        4056
        4060
        4064
        4068
        4072
        4076
        4080
        4084
        4088
        4092
        4096
 </DataArray>
 <DataArray  type="UInt8"  Name="types"  format="ascii">
 9
 9
 9
 9
 9
 9
 9
 9
 9
 9
 9
 9
 9
 9
 9
 9
 9
 9
 9
 9
 9
 9
 9
 9
 9
 9
 9
 9
 9
 9
 9
 9
 9
 9
 9
 9
 9
 9
 9
 9
 9
 9
 9
 9
 9
 9
 9
 9
 9
 9
 9
 9
 9
 9
 9
 9
 9
 9
 9
 9
 9
 9
 9
 9
 9
 9
 9
 9
 9
 9
 9
 9
 9
 9
 9
 9
 9
 9
 9
 9
 9
 9
 9
 9
 9
 9
 9
 9
 9
 9
 9
 9
 9
 9
 9
 9
 9
 9
 9
 9
 9
 9
 9
 9
 9
 9
 9
 9
 9
 9
 9
 9
 9
 9
 9
 9
 9
 9
 9
 9
 9
 9
 9
 9
 9
 9
 9
 9
 9
 9
 9
 9
 9
 9
 9
 9
 9
 9
 9
 9
 9
 9
 9
 9
 9
 9
 9
 9
 9
 9
 9
 9
 9
 9
 9
 9
 9
 9
 9
 9
 9
 9
 9
 9
 9
 9
 9
 9
 9
 9
 9
 9
 9
 9
 9
 9
 9
 9
 9
 9
 9
 9
 9
 9
 9
 9
 9
 9
 9
 9
 9
 9
 9
 9
 9
 9
 9
 9
 9
 9
 9
 9
 9
 9
 9
 9
 9
 9
 9
 9
 9
 9
 9
 9
 9
 9
 9
 9
 9
 9
 9
 9
 9
 9
 9
 9
 9
 9
 9
 9
 9
 9
 9
 9
 9
 9
 9
 9
 9
 9
 9
 9
 9
 9
 9
 9
 9
 9
 9
 9
 9
 9
 9
 9
 9
 9
 9
 9
 9
 9
 9
 9
 9
 9
 9
 9
 9
 9
 9
 9
 9
 9
 9
 9
 9
 9
 9
 9
 9
 9
 9
 9
 9
 9
 9
 9
 9
 9
 9
 9
 9
 9
 9
 9
 9
 9
 9
 9
 9
 9
 9
 9
 9
 9
 9
 9
 9
 9
 9
 9
 9
 9
 9
 9
 9
 9
 9
 9
 9
 9
 9
 9
 9
 9
 9
 9
 9
 9
 9
 9
 9
 9
 9
 9
 9
 9
 9
 9
 9
 9
 9
 9
 9
 9
 9
 9
 9
 9
 9
 9
 9
 9
 9
 9
 9
 9
 9
 9
 9
 9
 9
 9
 9
 9
 9
 9
 9
 9
 9
 9
 9
 9
 9
 9
 9
 9
 9
 9
 9
 9
 9
 9
 9
 9
 9
 9
 9
 9
 9
 9
 9
 9
 9
 9
 9
 9
 9
 9
 9
 9
 9
 9
 9
 9
 9
 9
 9
 9
 9
 9
 9
 9
 9
 9
 9
 9
 9
 9
 9
 9
 9
 9
 9
 9
 9
 9
 9
 9
 9
 9
 9
 9
 9
 9
 9
 9
 9
 9
 9
 9
 9
 9
 9
 9
 9
 9
 9
 9
 9
 9
 9
 9
 9
 9
 9
 9
 9
 9
 9
 9
 9
 9
 9
 9
 9
 9
 9
 9
 9
 9
 9
 9
 9
 9
 9
 9
 9
 9
 9
 9
 9
 9
 9
 9
 9
 9
 9
 9
 9
 9
 9
 9
 9
 9
 9
 9
 9
 9
 9
 9
 9
 9
 9
 9
 9
 9
 9
 9
 9
 9
 9
 9
 9
 9
 9
 9
 9
 9
 9
 9
 9
 9
 9
 9
 9
 9
 9
 9
 9
 9
 9
 9
 9
 9
 9
 9
 9
 9
 9
 9
 9
 9
 9
 9
 9
 9
 9
 9
 9
 9
 9
 9
 9
 9
 9
 9
 9
 9
 9
 9
 9
 9
 9
 9
 9
 9
 9
 9
 9
 9
 9
 9
 9
 9
 9
 9
 9
 9
 9
 9
 9
 9
 9
 9
 9
 9
 9
 9
 9
 9
 9
 9
 9
 9
 9
 9
 9
 9
 9
 9
 9
 9
 9
 9
 9
 9
 9
 9
 9
 9
 9
 9
 9
 9
 9
 9
 9
 9
 9
 9
 9
 9
 9
 9
 9
 9
 9
 9
 9
 9
 9
 9
 9
 9
 9
 9
 9
 9
 9
 9
 9
 9
 9
 9
 9
 9
 9
 9
 9
 9
 9
 9
 9
 9
 9
 9
 9
 9
 9
 9
 9
 9
 9
 9
 9
 9
 9
 9
 9
 9
 9
 9
 9
 9
 9
 9
 9
 9
 9
 9
 9
 9
 9
 9
 9
 9
 9
 9
 9
 9
 9
 9
 9
 9
 9
 9
 9
 9
 9
 9
 9
 9
 9
 9
 9
 9
 9
 9
 9
 9
 9
 9
 9
 9
 9
 9
 9
 9
 9
 9
 9
 9
 9
 9
 9
 9
 9
 9
 9
 9
 9
 9
 9
 9
 9
 9
 9
 9
 9
 9
 9
 9
 9
 9
 9
 9
 9
 9
 9
 9
 9
 9
 9
 9
 9
 9
 9
 9
 9
 9
 9
 9
 9
 9
 9
 9
 9
 9
 9
 9
 9
 9
 9
 9
 9
 9
 9
 9
 9
 9
 9
 9
 9
 9
 9
 9
 9
 9
 9
 9
 9
 9
 9
 9
 9
 9
 9
 9
 9
 9
 9
 9
 9
 9
 9
 9
 9
 9
 9
 9
 9
 9
 9
 9
 9
 9
 9
 9
 9
 9
 9
 9
 9
 9
 9
 9
 9
 9
 9
 9
 9
 9
 9
 9
 9
 9
 9
 9
 9
 9
 9
 9
 9
 9
 9
 9
 9
 9
 9
 9
 9
 9
 9
 9
 9
 9
 9
 9
 9
 9
 9
 9
 9
 9
 9
 9
 9
 9
 9
 9
 9
 9
 9
 9
 9
 9
 9
 9
 9
 9
 9
 9
 9
 9
 9
 9
 9
 9
 9
 9
 9
 9
 9
 9
 9
 9
 9
 9
 9
 9
 9
 9
 9
 9
 9
 9
 9
 9
 9
 9
 9
 9
 9
 9
 9
 9
 9
 9
 9
 9
 9
 9
 9
 9
 9
 9
 9
 9
 9
 9
 9
 9
 9
 9
 9
 9
 9
 9
 9
 9
 9
 9
 9
 9
 9
 9
 9
 9
 9
 9
 9
 9
 9
 9
 9
 9
 9
 9
 9
 9
 9
 9
 9
 9
 9
 9
 9
 9
 9
 9
 9
 9
 9
 9
 9
 9
 9
 9
 9
 9
 9
 9
 9
 9
 9
 9
 9
 9
 9
 9
 9
 9
 9
 9
 9
 9
 9
 9
 9
 9
 9
 9
 9
 9
 9
 9
 9
 9
 9
 9
 9
 9
 9
 9
 9
 9
 9
 9
 9
 9
 9
 9
 9
 9
 </DataArray>
 </Cells> 
 <PointData>
 <DataArray  type="Float64" Name="disp" NumberOfComponents="3" format="ascii">
   6.7662434621231615E-002   6.2725799869287779E-002   0.0000000000000000     
   7.0050895448775380E-002   6.8144527940856847E-002   0.0000000000000000     
   7.2499940420131068E-002   7.3730582785522802E-002   0.0000000000000000     
   7.5009569535298665E-002   7.9483964403285659E-002   0.0000000000000000     
   7.7579782794278185E-002   8.5404672794145403E-002   0.0000000000000000     
   6.0822843639521160E-002   6.1837538599630579E-002   0.0000000000000000     
   6.3505246115759098E-002   6.7277523074940337E-002   0.0000000000000000     
   6.6141202440701277E-002   7.2887281088032746E-002   0.0000000000000000     
   6.8730712614347711E-002   7.8666812638907749E-002   0.0000000000000000     
   7.1273776636698385E-002   8.4616117727565415E-002   0.0000000000000000     
   5.4809446774990750E-002   6.1003487071210338E-002   0.0000000000000000     
   5.7602568695940659E-002   6.6462869454603418E-002   0.0000000000000000     
   6.0284963388023874E-002   7.2094690745423920E-002   0.0000000000000000     
   6.2856630851240394E-002   7.7898950943671857E-002   0.0000000000000000     
   6.5317571085590206E-002   8.3875650049347245E-002   0.0000000000000000     
   4.9622244027640358E-002   6.0223645284027086E-002   0.0000000000000000     
   5.2342863189320063E-002   6.5700567079846062E-002   0.0000000000000000     
   5.4931223262098851E-002   7.1352811757696366E-002   0.0000000000000000     
   5.7387324245976708E-002   7.7180379317577971E-002   0.0000000000000000     
   5.9711166140953668E-002   8.3183269759490905E-002   0.0000000000000000     
   4.5261235397470012E-002   5.9498013238080794E-002   0.0000000000000000     
   4.7726129595897310E-002   6.4990615950668296E-002   0.0000000000000000     
   5.0079982062926201E-002   7.0661644124850057E-002   0.0000000000000000     
   5.2322792798556679E-002   7.6511097760626090E-002   0.0000000000000000     
   5.4454561802788744E-002   8.2538976857996368E-002   0.0000000000000000     
   7.7579782794278185E-002   8.5404672794145403E-002   0.0000000000000000     
   8.0143395956483579E-002   9.1491407323515017E-002   0.0000000000000000     
   8.2633224781328840E-002   9.7742867356807442E-002   0.0000000000000000     
   8.5049269268813954E-002  0.10415905289402268        0.0000000000000000     
   8.7391529418938907E-002  0.11073996393516072        0.0000000000000000     
   7.1273776636698385E-002   8.4616117727565415E-002   0.0000000000000000     
   7.3752287990112825E-002   9.0732135410678483E-002   0.0000000000000000     
   7.6148140156950511E-002   9.7011804744919800E-002   0.0000000000000000     
   7.8461333137211473E-002  0.10345512573028934        0.0000000000000000     
   8.0691866930895695E-002  0.11006209836678710        0.0000000000000000     
   6.5317571085590206E-002   8.3875650049347245E-002   0.0000000000000000     
   6.7680133690365810E-002   9.0019764409148106E-002   0.0000000000000000     
   6.9956668264859662E-002   9.6326270369772496E-002   0.0000000000000000     
   7.2147174809071749E-002  0.10279516793122043        0.0000000000000000     
   7.4251653323002070E-002  0.10942645709349194        0.0000000000000000     
   5.9711166140953668E-002   8.3183269759490905E-002   0.0000000000000000     
   6.1926933057242554E-002   8.9354294318923846E-002   0.0000000000000000     
   6.4058809105056264E-002   9.5686264231365559E-002   0.0000000000000000     
   6.6106794284394754E-002  0.10217917949681601        0.0000000000000000     
   6.8070888595258047E-002  0.10883304011527520        0.0000000000000000     
   5.4454561802788744E-002   8.2538976857996368E-002   0.0000000000000000     
   5.6492686090743073E-002   8.8735725140005731E-002   0.0000000000000000     
   5.8454562677540324E-002   9.5091786329698932E-002   0.0000000000000000     
   6.0340191563180497E-002  0.10160716042707602        0.0000000000000000     
   6.2149572747663598E-002  0.10828184743213695        0.0000000000000000     
   8.7391529418938907E-002  0.11073996393516072        0.0000000000000000     
   8.9651630583869504E-002  0.11746635693879506        0.0000000000000000     
   9.1821198115771496E-002  0.12431898836349924        0.0000000000000000     
   9.3900232014644869E-002  0.13129785820927320        0.0000000000000000     
   9.5888732280489664E-002  0.13840296647611700        0.0000000000000000     
   8.0691866930895695E-002  0.11006209836678710        0.0000000000000000     
   8.2836535710204329E-002  0.11681463548224065        0.0000000000000000     
   8.4892133647338511E-002  0.12369464990447759        0.0000000000000000     
   8.6858660742298255E-002  0.13070214163349791        0.0000000000000000     
   8.8736116995083533E-002  0.13783711066930165        0.0000000000000000     
   7.4251653323002070E-002  0.10942645709349194        0.0000000000000000     
   7.6270091322719141E-002  0.11620334335117119        0.0000000000000000     
   7.8202476324291406E-002  0.12310903219884253        0.0000000000000000     
   8.0048808327718879E-002  0.13014352363650591        0.0000000000000000     
   8.1809087333001587E-002  0.13730681766416136        0.0000000000000000     
   6.8070888595258047E-002  0.10883304011527520        0.0000000000000000     
   6.9952297421413928E-002  0.11563248054558668        0.0000000000000000     
   7.1752226146630183E-002  0.12256213524659404        0.0000000000000000     
   7.3470674770906824E-002  0.12962200421829717        0.0000000000000000     
   7.5107643294243839E-002  0.13681208746069617        0.0000000000000000     
   6.2149572747663598E-002  0.10828184743213695        0.0000000000000000     
   6.3883154006288689E-002  0.11510204706548716        0.0000000000000000     
   6.5541383114354826E-002  0.12205395904773210        0.0000000000000000     
   6.7124260071862021E-002  0.12913758337887174        0.0000000000000000     
   6.8631784878810248E-002  0.13635292005890606        0.0000000000000000     
   9.5888732280489664E-002  0.13840296647611700        0.0000000000000000     
   9.7785081893015866E-002  0.14562943289308461        0.0000000000000000     
   9.9587663831933446E-002  0.15297237718923012        0.0000000000000000     
  0.10129647809724247       0.16043179936455351        0.0000000000000000     
  0.10291152468894285       0.16800769941905477        0.0000000000000000     
   8.8736116995083533E-002  0.13783711066930165        0.0000000000000000     
   9.0525385471717734E-002  0.14509305163963587        0.0000000000000000     
   9.2227349238224163E-002  0.15246345917224777        0.0000000000000000     
   9.3842008294602874E-002  0.15994833326713739        0.0000000000000000     
   9.5369362640853828E-002  0.16754767392430464        0.0000000000000000     
   8.1809087333001587E-002  0.13730681766416136        0.0000000000000000     
   8.3485532259594430E-002  0.14459096201557584        0.0000000000000000     
   8.5080362026952364E-002  0.15198800442451635        0.0000000000000000     
   8.6593576635075359E-002  0.15949794489098287        0.0000000000000000     
   8.8025176083963416E-002  0.16712078341497541        0.0000000000000000     
   7.5107643294243839E-002  0.13681208746069617        0.0000000000000000     
   7.6665522256645954E-002  0.14412316402090453        0.0000000000000000     
   7.8146702198117979E-002  0.15154601294603579        0.0000000000000000     
   7.9551183118659857E-002  0.15908063423608992        0.0000000000000000     
   8.0878965018271617E-002  0.16672702789106700        0.0000000000000000     
   6.8631784878810248E-002  0.13635292005890606        0.0000000000000000     
   7.0065355462872347E-002  0.14368965765562192        0.0000000000000000     
   7.1426369751721064E-002  0.15113748473680613        0.0000000000000000     
   7.2714827745356439E-002  0.15869640130245863        0.0000000000000000     
   7.3930729443778459E-002  0.16636640735257946        0.0000000000000000     
  0.10291152468894285       0.16800769941905477        0.0000000000000000     
  0.10443915546653759       0.17568493215055714        0.0000000000000000     
  0.10588572228952960       0.18344835235688386        0.0000000000000000     
  0.10725122515791885       0.19129796003803490        0.0000000000000000     
  0.10853566407170537       0.19923375519401026        0.0000000000000000     
   9.5369362640853828E-002  0.16754767392430464        0.0000000000000000     
   9.6811736618879207E-002  0.17524805044025590        0.0000000000000000     
   9.8171454570581185E-002  0.18303603211149744        0.0000000000000000     
   9.9448516495959788E-002  0.19091161893802924        0.0000000000000000     
  0.10064292239501499       0.19887481091985137        0.0000000000000000     
   8.8025176083963416E-002  0.16712078341497541        0.0000000000000000     
   8.9374846334981495E-002  0.17484433650222797        0.0000000000000000     
   9.0642273349494554E-002  0.18265642065847457        0.0000000000000000     
   9.1827457127502593E-002  0.19055703588371514        0.0000000000000000     
   9.2930397669005585E-002  0.19854618217794981        0.0000000000000000     
   8.0878965018271617E-002  0.16672702789106700        0.0000000000000000     
   8.2128484614844482E-002  0.17447379033647326        0.0000000000000000     
   8.3298178626269689E-002  0.18230951799781514        0.0000000000000000     
   8.4388047052547224E-002  0.19023421087509260        0.0000000000000000     
   8.5398089893677115E-002  0.19824786896830557        0.0000000000000000     
   7.3930729443778459E-002  0.16636640735257946        0.0000000000000000     
   7.5072651458468156E-002  0.17413641194299195        0.0000000000000000     
   7.6139170400906592E-002  0.18199532412951927        0.0000000000000000     
   7.7130286271093751E-002  0.18994314391216152        0.0000000000000000     
   7.8045999069029620E-002  0.19797987129091868        0.0000000000000000     
  0.10853566407170537       0.19923375519401026        0.0000000000000000     
  0.10974209242146360       0.20725372837150163        0.0000000000000000     
  0.11087356359776791       0.21535587011720070        0.0000000000000000     
  0.11193007760061836       0.22354018043110738        0.0000000000000000     
  0.11291163443001492       0.23180665931322175        0.0000000000000000     
  0.10064292239501499       0.19887481091985137        0.0000000000000000     
  0.10175944974995876       0.20692072129574218        0.0000000000000000     
  0.10280287604300301       0.21504446330448018        0.0000000000000000     
  0.10377320127414776       0.22324603694606537        0.0000000000000000     
  0.10467042544339300       0.23152544222049773        0.0000000000000000     
   9.2930397669005585E-002  0.19854618217794981        0.0000000000000000     
   9.3956084927433611E-002  0.20661720076869169        0.0000000000000000     
   9.4909508856216754E-002  0.21476343288345404        0.0000000000000000     
   9.5790669455354957E-002  0.22298487852223689        0.0000000000000000     
   9.6599566724848290E-002  0.23128153768504020        0.0000000000000000     
   8.5398089893677115E-002  0.19824786896830557        0.0000000000000000     
   8.6331997953888143E-002  0.20634316679035014        0.0000000000000000     
   8.7193462037409075E-002  0.21451277885412223        0.0000000000000000     
   8.7982482144239968E-002  0.22275670515962190        0.0000000000000000     
   8.8699058274380765E-002  0.23107494570684919        0.0000000000000000     
   7.8045999069029620E-002  0.19797987129091868        0.0000000000000000     
   7.8887188829322358E-002  0.20609861936071749        0.0000000000000000     
   7.9654735586580067E-002  0.21429250121648477        0.0000000000000000     
   8.0348639340802747E-002  0.22256151685822048        0.0000000000000000     
   8.0968900091990426E-002  0.23090566628592465        0.0000000000000000     
  0.11291163443001492       0.23180665931322175        0.0000000000000000     
  0.11384622027146798       0.24017168094846927        0.0000000000000000     
  0.11476182131048798       0.24865161952177534        0.0000000000000000     
  0.11565843754707489       0.25724647503313997        0.0000000000000000     
  0.11653606898122870       0.26595624748256319        0.0000000000000000     
  0.10467042544339300       0.23152544222049773        0.0000000000000000     
  0.10549957094801390       0.23990605724333675        0.0000000000000000     
  0.10626566018528559       0.24841126013014192        0.0000000000000000     
  0.10696869315520809       0.25704105088091334        0.0000000000000000     
  0.10760866985778135       0.26579542949565083        0.0000000000000000     
   9.6599566724848290E-002  0.23128153768504020        0.0000000000000000     
   9.7327174151554854E-002  0.23967985270312153        0.0000000000000000     
   9.7964465222332778E-002  0.24820626590773845        0.0000000000000000     
   9.8511439937182047E-002  0.25686077729889090        0.0000000000000000     
   9.8968098296102688E-002  0.26564338687657901        0.0000000000000000     
   8.8699058274380765E-002  0.23107494570684919        0.0000000000000000     
   8.9329029882090821E-002  0.23949306732782361        0.0000000000000000     
   8.9858236421629503E-002  0.24803663685456484        0.0000000000000000     
   9.0286677892996797E-002  0.25670565428707282        0.0000000000000000     
   9.0614354296192690E-002  0.26550011962534770        0.0000000000000000     
   8.0968900091990426E-002  0.23090566628592465        0.0000000000000000     
   8.1505138139621860E-002  0.23934570111744299        0.0000000000000000     
   8.1946973783175822E-002  0.24790237297062115        0.0000000000000000     
   8.2294407022652311E-002  0.25657568184545915        0.0000000000000000     
   8.2547437858051353E-002  0.26536562774195699        0.0000000000000000     
  0.11653606898122870       0.26595624748256319        0.0000000000000000     
  0.11733504454205411       0.27494551709438664        0.0000000000000000     
  0.11799569315865581       0.28437886409295210        0.0000000000000000     
  0.11851801483103376       0.29425628847825946        0.0000000000000000     
  0.11890200955918799       0.30457779025030890        0.0000000000000000     
  0.10760866985778135       0.26579542949565083        0.0000000000000000     
  0.10816657027869786       0.27480649866820767        0.0000000000000000     
  0.10862337440365004       0.28420636109243713        0.0000000000000000     
  0.10897908223263789       0.29399501676833900        0.0000000000000000     
  0.10923369376566139       0.30417246569591350        0.0000000000000000     
   9.8968098296102688E-002  0.26564338687657901        0.0000000000000000     
   9.9345405438205539E-002  0.27465233400795908        0.0000000000000000     
   9.9654326502601448E-002  0.28398585806018767        0.0000000000000000     
   9.9894861489290429E-002  0.29364395903326479        0.0000000000000000     
  0.10006701039827247       0.30362663692719044        0.0000000000000000     
   9.0614354296192690E-002  0.26550011962534770        0.0000000000000000     
   9.0871550020577119E-002  0.27448302311364087        0.0000000000000000     
   9.1088549455510009E-002  0.28371735499620399        0.0000000000000000     
   9.1265352600991417E-002  0.29320311527303683        0.0000000000000000     
   9.1401959457021259E-002  0.30294030394413962        0.0000000000000000     
   8.2547437858051353E-002  0.26536562774195699        0.0000000000000000     
   8.2745004025812613E-002  0.27429856598525304        0.0000000000000000     
   8.2926043262375751E-002  0.28340085190048575        0.0000000000000000     
   8.3090555567740809E-002  0.29267248548765507        0.0000000000000000     
   8.3238540941907746E-002  0.30211346674676109        0.0000000000000000     
   4.5261235397470012E-002   5.9498013238080794E-002   0.0000000000000000     
   4.7726129595897310E-002   6.4990615950668296E-002   0.0000000000000000     
   5.0079982062926201E-002   7.0661644124850057E-002   0.0000000000000000     
   5.2322792798556679E-002   7.6511097760626090E-002   0.0000000000000000     
   5.4454561802788744E-002   8.2538976857996368E-002   0.0000000000000000     
   4.1291152031540823E-002   5.8828366763186188E-002   0.0000000000000000     
   4.3435683499352971E-002   6.4335866166928671E-002   0.0000000000000000     
   4.5505454341358414E-002   7.0024506637915679E-002   0.0000000000000000     
   4.7500464557557152E-002   7.5894288176147254E-002   0.0000000000000000     
   4.9420714147949192E-002   8.1945210781623368E-002   0.0000000000000000     
   3.7276725076913930E-002   5.8216481689157967E-002   0.0000000000000000     
   3.9154840483367613E-002   6.3739167828485724E-002   0.0000000000000000     
   4.0981854648247974E-002   6.9444718087923921E-002   0.0000000000000000     
   4.2757767571555014E-002   7.5333132467472530E-002   0.0000000000000000     
   4.4482579253288718E-002   8.1404410967131552E-002   0.0000000000000000     
   3.3217954533589333E-002   5.7662358015996132E-002   0.0000000000000000     
   3.4883600547941249E-002   6.3200520935339483E-002   0.0000000000000000     
   3.6509182983594887E-002   6.8922278474874740E-002   0.0000000000000000     
   3.8094701840550256E-002   7.4827630634601905E-002   0.0000000000000000     
   3.9640157118807348E-002   8.0916577414520949E-002   0.0000000000000000     
   2.9114840401567033E-002   5.7165995743700682E-002   0.0000000000000000     
   3.0621963693073857E-002   6.2719925487489933E-002   0.0000000000000000     
   3.2087439347399140E-002   6.8457187798768165E-002   0.0000000000000000     
   3.3511267364542879E-002   7.4377782677535365E-002   0.0000000000000000     
   3.4893447744505077E-002   8.0481710123791558E-002   0.0000000000000000     
   5.4454561802788744E-002   8.2538976857996368E-002   0.0000000000000000     
   5.6492686090743073E-002   8.8735725140005731E-002   0.0000000000000000     
   5.8454562677540324E-002   9.5091786329698932E-002   0.0000000000000000     
   6.0340191563180497E-002  0.10160716042707602        0.0000000000000000     
   6.2149572747663598E-002  0.10828184743213695        0.0000000000000000     
   4.9420714147949192E-002   8.1945210781623368E-002   0.0000000000000000     
   5.1270251847621268E-002   8.8165666405256762E-002   0.0000000000000000     
   5.3053126391660169E-002   9.4544046997960096E-002   0.0000000000000000     
   5.4769337780065867E-002  0.10108035255973341        0.0000000000000000     
   5.6418886012838385E-002  0.10777458309057672        0.0000000000000000     
   4.4482579253288718E-002   8.1404410967131552E-002   0.0000000000000000     
   4.6152489384631082E-002   8.7645727647539917E-002   0.0000000000000000     
   4.7763697656764088E-002   9.4044256569336446E-002   0.0000000000000000     
   4.9316204069687737E-002  0.10059999773252122        0.0000000000000000     
   5.0810008623402028E-002  0.10731295113709413        0.0000000000000000     
   3.9640157118807348E-002   8.0916577414520949E-002   0.0000000000000000     
   4.1139398701772523E-002   8.7175908866855237E-002   0.0000000000000000     
   4.2586276472852104E-002   9.3592415043828051E-002   0.0000000000000000     
   4.3980790432046099E-002  0.10016609594543938        0.0000000000000000     
   4.5322940579354515E-002  0.10689695157168919        0.0000000000000000     
   3.4893447744505077E-002   8.0481710123791558E-002   0.0000000000000000     
   3.6230979799045576E-002   8.6756210063202707E-002   0.0000000000000000     
   3.7520862839924209E-002   9.3188522421434827E-002   0.0000000000000000     
   3.8763096867140974E-002   9.9778647198487877E-002   0.0000000000000000     
   3.9957681880695872E-002  0.10652658439436188        0.0000000000000000     
   6.2149572747663598E-002  0.10828184743213695        0.0000000000000000     
   6.3883154006288689E-002  0.11510204706548716        0.0000000000000000     
   6.5541383114354826E-002  0.12205395904773210        0.0000000000000000     
   6.7124260071862021E-002  0.12913758337887174        0.0000000000000000     
   6.8631784878810248E-002  0.13635292005890606        0.0000000000000000     
   5.6418886012838385E-002  0.10777458309057672        0.0000000000000000     
   5.8000774027838674E-002  0.11461430284250160        0.0000000000000000     
   5.9514004762927709E-002  0.12158707606751966        0.0000000000000000     
   6.0958578218105484E-002  0.12869290276563083        0.0000000000000000     
   6.2334494393371999E-002  0.13593178293683528        0.0000000000000000     
   5.0810008623402028E-002  0.10731295113709413        0.0000000000000000     
   5.2243270436559117E-002  0.11417150780825905        0.0000000000000000     
   5.3614148627811158E-002  0.12116405877121966        0.0000000000000000     
   5.4922643197158200E-002  0.12829060402597600        0.0000000000000000     
   5.6168754144600201E-002  0.13555114357252812        0.0000000000000000     
   4.5322940579354515E-002  0.10689695157168919        0.0000000000000000     
   4.6610643232450004E-002  0.11377366196275948        0.0000000000000000     
   4.7841814709005219E-002  0.12078490715883212        0.0000000000000000     
   4.9016455009020167E-002  0.12793068715990713        0.0000000000000000     
   5.0134564132494848E-002  0.13521100196598454        0.0000000000000000     
   3.9957681880695872E-002  0.10652658439436188        0.0000000000000000     
   4.1102892415511350E-002  0.11342076530600291        0.0000000000000000     
   4.2197003006509859E-002  0.12044962123035703        0.0000000000000000     
   4.3240013653691386E-002  0.12761315216742425        0.0000000000000000     
   4.4231924357055960E-002  0.13491135811720456        0.0000000000000000     
   6.8631784878810248E-002  0.13635292005890606        0.0000000000000000     
   7.0065355462872347E-002  0.14368965765562192        0.0000000000000000     
   7.1426369751721064E-002  0.15113748473680613        0.0000000000000000     
   7.2714827745356439E-002  0.15869640130245863        0.0000000000000000     
   7.3930729443778459E-002  0.16636640735257946        0.0000000000000000     
   6.2334494393371999E-002  0.13593178293683528        0.0000000000000000     
   6.3641827981991944E-002  0.14329255791597265        0.0000000000000000     
   6.4880653677229991E-002  0.15076406903788281        0.0000000000000000     
   6.6050971479086146E-002  0.15834631630256579        0.0000000000000000     
   6.7152781387560409E-002  0.16603929971002154        0.0000000000000000     
   5.6168754144600201E-002  0.13555114357252812        0.0000000000000000     
   5.7351735917723176E-002  0.14293397979820144        0.0000000000000000     
   5.8470842964113111E-002  0.15042741509032154        0.0000000000000000     
   5.9526075283770040E-002  0.15803144944888842        0.0000000000000000     
   6.0517432876693929E-002  0.16574608287390202        0.0000000000000000     
   5.0134564132494848E-002  0.13521100196598454        0.0000000000000000     
   5.1195079270066030E-002  0.14261392330230824        0.0000000000000000     
   5.2196937612370445E-002  0.15012752289412221        0.0000000000000000     
   5.3140139159408108E-002  0.15775180074142645        0.0000000000000000     
   5.4024683911179032E-002  0.16548675684422090        0.0000000000000000     
   4.4231924357055960E-002  0.13491135811720456        0.0000000000000000     
   4.5171858039020504E-002  0.14233238842829307        0.0000000000000000     
   4.6058937622001979E-002  0.14986439244928482        0.0000000000000000     
   4.6893163106000384E-002  0.15750737018017985        0.0000000000000000     
   4.7674534491015719E-002  0.16526132162097820        0.0000000000000000     
   7.3930729443778459E-002  0.16636640735257946        0.0000000000000000     
   7.5072651458468156E-002  0.17413641194299195        0.0000000000000000     
   7.6139170400906592E-002  0.18199532412951927        0.0000000000000000     
   7.7130286271093751E-002  0.18994314391216152        0.0000000000000000     
   7.8045999069029620E-002  0.19797987129091868        0.0000000000000000     
   6.7152781387560409E-002  0.16603929971002154        0.0000000000000000     
   6.8185299902394553E-002  0.17383198025443583        0.0000000000000000     
   6.9147743523330391E-002  0.18171331892999426        0.0000000000000000     
   7.0040112250367881E-002  0.18968331573669697        0.0000000000000000     
   7.0862406083507065E-002  0.19774197067454388        0.0000000000000000     
   6.0517432876693929E-002  0.16574608287390202        0.0000000000000000     
   6.1444382983165687E-002  0.17356027420345693        0.0000000000000000     
   6.2306392843466181E-002  0.18146298227564753        0.0000000000000000     
   6.3103462457595419E-002  0.18945420709047392        0.0000000000000000     
   6.3835591825553401E-002  0.19753394864793603        0.0000000000000000     
   5.4024683911179032E-002  0.16548675684422090        0.0000000000000000     
   5.4849900700781551E-002  0.17332129379005523        0.0000000000000000     
   5.5615118361313991E-002  0.18124431416647907        0.0000000000000000     
   5.6320336892776351E-002  0.18925581797349236        0.0000000000000000     
   5.6965556295168668E-002  0.19735580521109508        0.0000000000000000     
   4.7674534491015719E-002  0.16526132162097820        0.0000000000000000     
   4.8401853055242146E-002  0.17311503901423084        0.0000000000000000     
   4.9073920076873806E-002  0.18105731460248883        0.0000000000000000     
   4.9690735555910706E-002  0.18908814838575230        0.0000000000000000     
   5.0252299492352839E-002  0.19720754036402111        0.0000000000000000     
   7.8045999069029620E-002  0.19797987129091868        0.0000000000000000     
   7.8887188829322358E-002  0.20609861936071749        0.0000000000000000     
   7.9654735586580067E-002  0.21429250121648477        0.0000000000000000     
   8.0348639340802747E-002  0.22256151685822048        0.0000000000000000     
   8.0968900091990426E-002  0.23090566628592465        0.0000000000000000     
   7.0862406083507065E-002  0.19774197067454388        0.0000000000000000     
   7.1612600935007681E-002  0.20588303678876688        0.0000000000000000     
   7.2288672717129590E-002  0.21410026712459787        0.0000000000000000     
   7.2890621429872710E-002  0.22239366168203681        0.0000000000000000     
   7.3418447073237095E-002  0.23076322046108372        0.0000000000000000     
   6.3835591825553401E-002  0.19753394864793603        0.0000000000000000     
   6.4499177652215633E-002  0.20569589738347147        0.0000000000000000     
   6.5090616642457577E-002  0.21393374373251786        0.0000000000000000     
   6.5609908796279218E-002  0.22224748769507516        0.0000000000000000     
   6.6057054113680597E-002  0.23063712927114344        0.0000000000000000     
   5.6965556295168668E-002  0.19735580521109508        0.0000000000000000     
   5.7546918980946132E-002  0.20553720114483126        0.0000000000000000     
   5.8060567362564007E-002  0.21379293104024474        0.0000000000000000     
   5.8506501440022264E-002  0.22212299489733556        0.0000000000000000     
   5.8884721213320924E-002  0.23052739271610373        0.0000000000000000     
   5.0252299492352839E-002  0.19720754036402111        0.0000000000000000     
   5.0755824921199240E-002  0.20540694807284621        0.0000000000000000     
   5.1198524877448914E-002  0.21367782904777849        0.0000000000000000     
   5.1580399361101849E-002  0.22202018328881801        0.0000000000000000     
   5.1901448372158078E-002  0.23043401079596476        0.0000000000000000     
   8.0968900091990426E-002  0.23090566628592465        0.0000000000000000     
   8.1505138139621860E-002  0.23934570111744299        0.0000000000000000     
   8.1946973783175822E-002  0.24790237297062115        0.0000000000000000     
   8.2294407022652311E-002  0.25657568184545915        0.0000000000000000     
   8.2547437858051353E-002  0.26536562774195699        0.0000000000000000     
   7.3418447073237095E-002  0.23076322046108372        0.0000000000000000     
   7.3869107993822430E-002  0.23922278985605330        0.0000000000000000     
   7.4239562538228429E-002  0.24778621626126029        0.0000000000000000     
   7.4529810706455091E-002  0.25645349967670455        0.0000000000000000     
   7.4739852498502415E-002  0.26522464010238633        0.0000000000000000     
   6.6057054113680597E-002  0.23063712927114344        0.0000000000000000     
   6.6434548514367087E-002  0.23910936932772817        0.0000000000000000     
   6.6744887918044060E-002  0.24767090873183512        0.0000000000000000     
   6.6988072324711559E-002  0.25632174748346415        0.0000000000000000     
   6.7164101734369569E-002  0.26506188558261523        0.0000000000000000     
   5.8884721213320924E-002  0.23052739271610373        0.0000000000000000     
   5.9201459701255808E-002  0.23900543953246767        0.0000000000000000     
   5.9462949922622736E-002  0.24755645038234564        0.0000000000000000     
   5.9669191877421743E-002  0.25618042526573770        0.0000000000000000     
   5.9820185565652800E-002  0.26487736418264379        0.0000000000000000     
   5.1901448372158078E-002  0.23043401079596476        0.0000000000000000     
   5.2169841554488602E-002  0.23891100047027172        0.0000000000000000     
   5.2393748551964450E-002  0.24744284121279189        0.0000000000000000     
   5.2573169364585615E-002  0.25602953302352527        0.0000000000000000     
   5.2708103992352123E-002  0.26467107590247191        0.0000000000000000     
   8.2547437858051353E-002  0.26536562774195699        0.0000000000000000     
   8.2745004025812613E-002  0.27429856598525304        0.0000000000000000     
   8.2926043262375751E-002  0.28340085190048575        0.0000000000000000     
   8.3090555567740809E-002  0.29267248548765507        0.0000000000000000     
   8.3238540941907746E-002  0.30211346674676109        0.0000000000000000     
   7.4739852498502415E-002  0.26522464010238633        0.0000000000000000     
   7.4910610634105451E-002  0.27409327576825970        0.0000000000000000     
   7.5083007832999260E-002  0.28305304490427896        0.0000000000000000     
   7.5257044095183814E-002  0.29210394751044405        0.0000000000000000     
   7.5432719420659156E-002  0.30124598358675525        0.0000000000000000     
   6.7164101734369569E-002  0.26506188558261523        0.0000000000000000     
   6.7313213025649063E-002  0.27386146560812485        0.0000000000000000     
   6.7475643077181097E-002  0.28269063013882928        0.0000000000000000     
   6.7651391888965628E-002  0.29154937917472845        0.0000000000000000     
   6.7840459461002686E-002  0.30043771271582242        0.0000000000000000     
   5.9820185565652800E-002  0.26487736418264379        0.0000000000000000     
   5.9952811200443448E-002  0.27360313550484860        0.0000000000000000     
   6.0103948994921268E-002  0.28231360760413665        0.0000000000000000     
   6.0273598949086231E-002  0.29100878048050804        0.0000000000000000     
   6.0461761062938352E-002  0.29968865413396273        0.0000000000000000     
   5.2708103992352123E-002  0.26467107590247191        0.0000000000000000     
   5.2829405158488607E-002  0.27331828545843084        0.0000000000000000     
   5.2967925586219780E-002  0.28192197730020119        0.0000000000000000     
   5.3123665275545622E-002  0.29048215142778294        0.0000000000000000     
   5.3296624226466145E-002  0.29899880784117611        0.0000000000000000     
   2.9114840401567033E-002   5.7165995743700682E-002   0.0000000000000000     
   3.0621963693073857E-002   6.2719925487489933E-002   0.0000000000000000     
   3.2087439347399140E-002   6.8457187798768165E-002   0.0000000000000000     
   3.3511267364542879E-002   7.4377782677535365E-002   0.0000000000000000     
   3.4893447744505077E-002   8.0481710123791558E-002   0.0000000000000000     
   2.5074787722915187E-002   5.6728367134050564E-002   0.0000000000000000     
   2.6438259624308444E-002   6.2296740336381086E-002   0.0000000000000000     
   2.7754983731744922E-002   6.8047923514915398E-002   0.0000000000000000     
   2.9024960045224642E-002   7.3981916669653522E-002   0.0000000000000000     
   3.0248188564747584E-002   8.0098719800595408E-002   0.0000000000000000     
   2.1205201539701960E-002   5.6350444448824713E-002   0.0000000000000000     
   2.2400818047187986E-002   6.1930324333456944E-002   0.0000000000000000     
   2.3550176128716429E-002   6.7692963078627669E-002   0.0000000000000000     
   2.4653275784287283E-002   7.3638360684336907E-002   0.0000000000000000     
   2.5710117013900559E-002   7.9766517150584595E-002   0.0000000000000000     
   1.7506081851927344E-002   5.6032227688023128E-002   0.0000000000000000     
   1.8509638961712489E-002   6.1620677478717523E-002   0.0000000000000000     
   1.9473016538313643E-002   6.7392306489904991E-002   0.0000000000000000     
   2.0396214581730819E-002   7.3347114721585505E-002   0.0000000000000000     
   2.1279233091963994E-002   7.9485102173759092E-002   0.0000000000000000     
   1.3977428659591347E-002   5.5773716851645810E-002   0.0000000000000000     
   1.4764722367881953E-002   6.1367799772162814E-002   0.0000000000000000     
   1.5523504960536578E-002   6.7145953748747336E-002   0.0000000000000000     
   1.6253776437555226E-002   7.3108178781399344E-002   0.0000000000000000     
   1.6955536798937888E-002   7.9254474870118913E-002   0.0000000000000000     
   3.4893447744505077E-002   8.0481710123791558E-002   0.0000000000000000     
   3.6230979799045576E-002   8.6756210063202707E-002   0.0000000000000000     
   3.7520862839924209E-002   9.3188522421434827E-002   0.0000000000000000     
   3.8763096867140974E-002   9.9778647198487877E-002   0.0000000000000000     
   3.9957681880695872E-002  0.10652658439436188        0.0000000000000000     
   3.0248188564747584E-002   8.0098719800595408E-002   0.0000000000000000     
   3.1426378790964472E-002   8.6386259711170005E-002   0.0000000000000000     
   3.2561240224525979E-002   9.2832463204806176E-002   0.0000000000000000     
   3.3652772865432105E-002   9.9437330281503894E-002   0.0000000000000000     
   3.4700976713682871E-002  0.10620086094126321        0.0000000000000000     
   2.5710117013900559E-002   7.9766517150584595E-002   0.0000000000000000     
   2.6724741792043413E-002   8.6065686285344792E-002   0.0000000000000000     
   2.7701192093202986E-002   9.2524121896591427E-002   0.0000000000000000     
   2.8639467917379289E-002   9.9141823984324556E-002   0.0000000000000000     
   2.9539569264572317E-002  0.10591879254854418        0.0000000000000000     
   2.1279233091963994E-002   7.9485102173759092E-002   0.0000000000000000     
   2.2126068802282392E-002   8.5794489785727027E-002   0.0000000000000000     
   2.2940718445955237E-002   9.2263498496790636E-002   0.0000000000000000     
   2.3723182022982500E-002   9.8892128306949836E-002   0.0000000000000000     
   2.4473459533364210E-002  0.10568037921620477        0.0000000000000000     
   1.6955536798937888E-002   7.9254474870118913E-002   0.0000000000000000     
   1.7630359821681436E-002   8.5572670212316765E-002   0.0000000000000000     
   1.8279819282782727E-002   9.2050593005403719E-002   0.0000000000000000     
   1.8903915182241760E-002   9.8688243249379817E-002   0.0000000000000000     
   1.9502647520058536E-002  0.10548562094424499        0.0000000000000000     
   3.9957681880695872E-002  0.10652658439436188        0.0000000000000000     
   4.1102892415511350E-002  0.11342076530600291        0.0000000000000000     
   4.2197003006509859E-002  0.12044962123035703        0.0000000000000000     
   4.3240013653691386E-002  0.12761315216742425        0.0000000000000000     
   4.4231924357055960E-002  0.13491135811720456        0.0000000000000000     
   3.4700976713682871E-002  0.10620086094126321        0.0000000000000000     
   3.5704683975695997E-002  0.11311106160115302        0.0000000000000000     
   3.6662726857889245E-002  0.12015593867824226        0.0000000000000000     
   3.7575105360262602E-002  0.12733549217253093        0.0000000000000000     
   3.8441819482816060E-002  0.13464972208401907        0.0000000000000000     
   2.9539569264572317E-002  0.10591879254854418        0.0000000000000000     
   3.0400683902956825E-002  0.11284279461137348        0.0000000000000000     
   3.1221999600707560E-002  0.11990159719493571        0.0000000000000000     
   3.2003516357824523E-002  0.12709520029923083        0.0000000000000000     
   3.2745234174307712E-002  0.13442360392425892        0.0000000000000000     
   2.4473459533364210E-002  0.10568037921620477        0.0000000000000000     
   2.5190892197293813E-002  0.11261596433666426        0.0000000000000000     
   2.5874821234964797E-002  0.11968659678043730        0.0000000000000000     
   2.6525246646377159E-002  0.12689227654752391        0.0000000000000000     
   2.7142168431530899E-002  0.13423300363792409        0.0000000000000000     
   1.9502647520058536E-002  0.10548562094424499        0.0000000000000000     
   2.0075308858706967E-002  0.11243057077702538        0.0000000000000000     
   2.0621191760660958E-002  0.11951093743474712        0.0000000000000000     
   2.1140296225920514E-002  0.12672672091741019        0.0000000000000000     
   2.1632622254485631E-002  0.13407792122501463        0.0000000000000000     
   4.4231924357055960E-002  0.13491135811720456        0.0000000000000000     
   4.5171858039020504E-002  0.14233238842829307        0.0000000000000000     
   4.6058937622001979E-002  0.14986439244928482        0.0000000000000000     
   4.6893163106000384E-002  0.15750737018017985        0.0000000000000000     
   4.7674534491015719E-002  0.16526132162097820        0.0000000000000000     
   3.8441819482816060E-002  0.13464972208401907        0.0000000000000000     
   3.9262346800690059E-002  0.14208696295103632        0.0000000000000000     
   4.0036164889025033E-002  0.14963554931191239        0.0000000000000000     
   4.0763273747820968E-002  0.15729548116664724        0.0000000000000000     
   4.1443673377077862E-002  0.16506675851524094        0.0000000000000000     
   3.2745234174307712E-002  0.13442360392425892        0.0000000000000000     
   3.3446820131178168E-002  0.14187523464541840        0.0000000000000000     
   3.4107941309456914E-002  0.14943851903810773        0.0000000000000000     
   3.4728597709143973E-002  0.15711345710232702        0.0000000000000000     
   3.5308789330239322E-002  0.16490004883807616        0.0000000000000000     
   2.7142168431530899E-002  0.13423300363792409        0.0000000000000000     
   2.7725278030484798E-002  0.14169720351143927        0.0000000000000000     
   2.8274266883297636E-002  0.14927330162787100        0.0000000000000000     
   2.8789134989969399E-002  0.15696129798721922        0.0000000000000000     
   2.9269882350500105E-002  0.16476119258948396        0.0000000000000000     
   2.1632622254485631E-002  0.13407792122501463        0.0000000000000000     
   2.2097720498609967E-002  0.14155286954909901        0.0000000000000000     
   2.2535141610547177E-002  0.14913989708120209        0.0000000000000000     
   2.2944885590297254E-002  0.15683900382132385        0.0000000000000000     
   2.3326952437860211E-002  0.16465018976946422        0.0000000000000000     
   4.7674534491015719E-002  0.16526132162097820        0.0000000000000000     
   4.8401853055242146E-002  0.17311503901423084        0.0000000000000000     
   4.9073920076873806E-002  0.18105731460248883        0.0000000000000000     
   4.9690735555910706E-002  0.18908814838575230        0.0000000000000000     
   5.0252299492352839E-002  0.19720754036402111        0.0000000000000000     
   4.1443673377077862E-002  0.16506675851524094        0.0000000000000000     
   4.2075614145558597E-002  0.17293801434890427        0.0000000000000000     
   4.2657346422026024E-002  0.18089788165884813        0.0000000000000000     
   4.3188870206480150E-002  0.18894636044507251        0.0000000000000000     
   4.3670185498920967E-002  0.19708345070757743        0.0000000000000000     
   3.5308789330239322E-002  0.16490004883807616        0.0000000000000000     
   3.5846558070742003E-002  0.17278672426699621        0.0000000000000000     
   3.6339945828651035E-002  0.18076191341072814        0.0000000000000000     
   3.6788952603966391E-002  0.18882561626927188        0.0000000000000000     
   3.7193578396688097E-002  0.19697783284262754        0.0000000000000000     
   2.9269882350500105E-002  0.16476119258948396        0.0000000000000000     
   2.9714684830792374E-002  0.17266116876850662        0.0000000000000000     
   3.0121718296748808E-002  0.18064940985812880        0.0000000000000000     
   3.0490982748369425E-002  0.18872591585835044        0.0000000000000000     
   3.0822478185654218E-002  0.19689068676917154        0.0000000000000000     
   2.3326952437860211E-002  0.16465018976946422        0.0000000000000000     
   2.3679994425709699E-002  0.17256134785343558        0.0000000000000000     
   2.4002663826319385E-002  0.18056037100105019        0.0000000000000000     
   2.4294960639689264E-002  0.18864725921230813        0.0000000000000000     
   2.4556884865819341E-002  0.19682201248720929        0.0000000000000000     
   5.0252299492352839E-002  0.19720754036402111        0.0000000000000000     
   5.0755824921199240E-002  0.20540694807284621        0.0000000000000000     
   5.1198524877448914E-002  0.21367782904777849        0.0000000000000000     
   5.1580399361101849E-002  0.22202018328881801        0.0000000000000000     
   5.1901448372158078E-002  0.23043401079596476        0.0000000000000000     
   4.3670185498920967E-002  0.19708345070757743        0.0000000000000000     
   4.4100017490132953E-002  0.20529882950347370        0.0000000000000000     
   4.4477091370900529E-002  0.21358217388987219        0.0000000000000000     
   4.4801407141223729E-002  0.22193348386677283        0.0000000000000000     
   4.5072964801102539E-002  0.23035275943417577        0.0000000000000000     
   3.7193578396688097E-002  0.19697783284262754        0.0000000000000000     
   3.7553618704905298E-002  0.20520653677267117        0.0000000000000000     
   3.7868869026707136E-002  0.21349970170127883        0.0000000000000000     
   3.8139329362093619E-002  0.22185732762845051        0.0000000000000000     
   3.8364999711064753E-002  0.23027941455418618        0.0000000000000000     
   3.0822478185654218E-002  0.19689068676917154        0.0000000000000000     
   3.1116628565516290E-002  0.20513006988043866        0.0000000000000000     
   3.1373857844868729E-002  0.21343041248199848        0.0000000000000000     
   3.1594166023711540E-002  0.22179171457385088        0.0000000000000000     
   3.1777553102044727E-002  0.23021397615599604        0.0000000000000000     
   2.4556884865819341E-002  0.19682201248720929        0.0000000000000000     
   2.4789047071965914E-002  0.20506942882677615        0.0000000000000000     
   2.4992057825385300E-002  0.21337430623203107        0.0000000000000000     
   2.5165917126077481E-002  0.22173664470297411        0.0000000000000000     
   2.5310624974042475E-002  0.23015644423960524        0.0000000000000000     
   5.1901448372158078E-002  0.23043401079596476        0.0000000000000000     
   5.2169841554488602E-002  0.23891100047027172        0.0000000000000000     
   5.2393748551964450E-002  0.24744284121279189        0.0000000000000000     
   5.2573169364585615E-002  0.25602953302352527        0.0000000000000000     
   5.2708103992352123E-002  0.26467107590247191        0.0000000000000000     
   4.5072964801102539E-002  0.23035275943417577        0.0000000000000000     
   4.5300592882091040E-002  0.23882467674200986        0.0000000000000000     
   4.5493119915743299E-002  0.24733391194020404        0.0000000000000000     
   4.5650545902059358E-002  0.25588046502875844        0.0000000000000000     
   4.5772870841039169E-002  0.26446433600767294        0.0000000000000000     
   3.8364999711064753E-002  0.23027941455418618        0.0000000000000000     
   3.8554612492088636E-002  0.23874509294855156        0.0000000000000000     
   3.8716900123633408E-002  0.24723349328161240        0.0000000000000000     
   3.8851862605699068E-002  0.25574461555336858        0.0000000000000000     
   3.8959499938285597E-002  0.26427845976382008        0.0000000000000000     
   3.1777553102044727E-002  0.23021397615599604        0.0000000000000000     
   3.1931900384481432E-002  0.23867224908989693        0.0000000000000000     
   3.2065089175634776E-002  0.24714158523701679        0.0000000000000000     
   3.2177119475504765E-002  0.25562198459735569        0.0000000000000000     
   3.2267991284091399E-002  0.26411344717091345        0.0000000000000000     
   2.5310624974042475E-002  0.23015644423960524        0.0000000000000000     
   2.5432456559269401E-002  0.23860614516604584        0.0000000000000000     
   2.5537687071747393E-002  0.24705818780641733        0.0000000000000000     
   2.5626316511476448E-002  0.25551257216071976        0.0000000000000000     
   2.5698344878456569E-002  0.26396929822895304        0.0000000000000000     
   5.2708103992352123E-002  0.26467107590247191        0.0000000000000000     
   5.2829405158488607E-002  0.27331828545843084        0.0000000000000000     
   5.2967925586219780E-002  0.28192197730020119        0.0000000000000000     
   5.3123665275545622E-002  0.29048215142778294        0.0000000000000000     
   5.3296624226466145E-002  0.29899880784117611        0.0000000000000000     
   4.5772870841039169E-002  0.26446433600767294        0.0000000000000000     
   4.5884259253074475E-002  0.27303563895610244        0.0000000000000000     
   4.6008875658556971E-002  0.28154448795320186        0.0000000000000000     
   4.6146720057486663E-002  0.28999088299897130        0.0000000000000000     
   4.6297792449863560E-002  0.29837482409341054        0.0000000000000000     
   3.8959499938285597E-002  0.26427845976382008        0.0000000000000000     
   3.9058637837490986E-002  0.27278391948509417        0.0000000000000000     
   3.9168102019413190E-002  0.28120988828931787        0.0000000000000000     
   3.9287892484052227E-002  0.28955636617649116        0.0000000000000000     
   3.9418009231408091E-002  0.29782335314661412        0.0000000000000000     
   3.2267991284091399E-002  0.26411344717091345        0.0000000000000000     
   3.2352540911738129E-002  0.27256312704540608        0.0000000000000000     
   3.2445604668788437E-002  0.28091817830854915        0.0000000000000000     
   3.2547182555242304E-002  0.28917860096034276        0.0000000000000000     
   3.2657274571099737E-002  0.29734439500078680        0.0000000000000000     
   2.5698344878456569E-002  0.26396929822895304        0.0000000000000000     
   2.5765968475815925E-002  0.27237326163703807        0.0000000000000000     
   2.5841383606682700E-002  0.28066935801089565        0.0000000000000000     
   2.5924590271056893E-002  0.28885758735052586        0.0000000000000000     
   2.6015588468938498E-002  0.29693794965592857        0.0000000000000000     
   1.3977428659591347E-002   5.5773716851645810E-002   0.0000000000000000     
   1.4764722367881953E-002   6.1367799772162814E-002   0.0000000000000000     
   1.5523504960536578E-002   6.7145953748747336E-002   0.0000000000000000     
   1.6253776437555226E-002   7.3108178781399344E-002   0.0000000000000000     
   1.6955536798937888E-002   7.9254474870118913E-002   0.0000000000000000     
   1.0521274419682395E-002   5.5573641216078468E-002   0.0000000000000000     
   1.1088088211734654E-002   6.1171368278286863E-002   0.0000000000000000     
   1.1639020220360721E-002   6.6954153026410446E-002   0.0000000000000000     
   1.2174070445560596E-002   7.2921995460449210E-002   0.0000000000000000     
   1.2693238887334285E-002   7.9074895580403162E-002   0.0000000000000000     
   7.0396515891889208E-003   5.5430730057706823E-002   0.0000000000000000     
   7.4017564393088651E-003   6.1031060061583722E-002   0.0000000000000000     
   7.7569411427615654E-003   6.6817152494150045E-002   0.0000000000000000     
   8.1052056995470165E-003   7.2789007355405805E-002   0.0000000000000000     
   8.4465501096652202E-003   7.8946624645350960E-002   0.0000000000000000     
   3.5325601681109198E-003   5.5344983376530849E-002   0.0000000000000000     
   3.7057270506045911E-003   6.0946875122053414E-002   0.0000000000000000     
   3.8772677277391114E-003   6.6734952151966176E-002   0.0000000000000000     
   4.0471821995144795E-003   7.2709214466269129E-002   0.0000000000000000     
   4.2154704659306966E-003   7.8869662064962293E-002   0.0000000000000000     
   1.5644839633857655E-010   5.5316401172550572E-002   0.0000000000000000     
   4.5621827930025782E-011   6.0918813459695909E-002   0.0000000000000000     
  -2.4706641029922927E-011   6.6707551999858797E-002   0.0000000000000000     
  -5.4537013739665990E-011   7.2682616793039223E-002   0.0000000000000000     
  -4.3869286675546348E-011   7.8844007839237187E-002   0.0000000000000000     
   1.6955536798937888E-002   7.9254474870118913E-002   0.0000000000000000     
   1.7630359821681436E-002   8.5572670212316765E-002   0.0000000000000000     
   1.8279819282782727E-002   9.2050593005403719E-002   0.0000000000000000     
   1.8903915182241760E-002   9.8688243249379817E-002   0.0000000000000000     
   1.9502647520058536E-002  0.10548562094424499        0.0000000000000000     
   1.2693238887334285E-002   7.9074895580403162E-002   0.0000000000000000     
   1.3195292099749447E-002   8.5400180488084551E-002   0.0000000000000000     
   1.3678996636873750E-002   9.1885177285305666E-002   0.0000000000000000     
   1.4144352498707196E-002   9.8529885972066508E-002   0.0000000000000000     
   1.4591359685249786E-002  0.10533430654836703        0.0000000000000000     
   8.4465501096652202E-003   7.8946624645350960E-002   0.0000000000000000     
   8.7785428859953555E-003   8.5276973536000972E-002   0.0000000000000000     
   9.0987525414166041E-003   9.1767023199371370E-002   0.0000000000000000     
   9.4071790759289575E-003   9.8416773635462085E-002   0.0000000000000000     
   9.7038224895324224E-003  0.10522622484427314        0.0000000000000000     
   4.2154704659306966E-003   7.8869662064962293E-002   0.0000000000000000     
   4.3801121804191634E-003   8.5203049356066055E-002   0.0000000000000000     
   4.5390869964112785E-003   9.1696130747600815E-002   0.0000000000000000     
   4.6923949139070411E-003   9.8348906239566547E-002   0.0000000000000000     
   4.8400359329064547E-003  0.10516137583196326        0.0000000000000000     
  -4.3869286675546348E-011   7.8844007839237187E-002   0.0000000000000000     
  -1.6979133810740565E-011   8.5178407948279772E-002   0.0000000000000000     
   1.8577791215113049E-012   9.1672499929994003E-002   0.0000000000000000     
   1.2641448326501659E-011   9.8326283784379895E-002   0.0000000000000000     
   1.5371876514735927E-011  0.10513975951143745        0.0000000000000000     
   1.9502647520058536E-002  0.10548562094424499        0.0000000000000000     
   2.0075308858706967E-002  0.11243057077702538        0.0000000000000000     
   2.0621191760660958E-002  0.11951093743474712        0.0000000000000000     
   2.1140296225920514E-002  0.12672672091741019        0.0000000000000000     
   2.1632622254485631E-002  0.13407792122501463        0.0000000000000000     
   1.4591359685249786E-002  0.10533430654836703        0.0000000000000000     
   1.5019242689598644E-002  0.11228647997900354        0.0000000000000000     
   1.5427226004850914E-002  0.11937444722877223        0.0000000000000000     
   1.5815309631006590E-002  0.12659820829767307        0.0000000000000000     
   1.6183493568065675E-002  0.13395776318570612        0.0000000000000000     
   9.7038224895324224E-003  0.10522622484427314        0.0000000000000000     
   9.9880024923712125E-003  0.11218355798914539        0.0000000000000000     
   1.0259038794589536E-002  0.11927695423341964        0.0000000000000000     
   1.0516931396187397E-002  0.12650641357709594        0.0000000000000000     
   1.0761680297164799E-002  0.13387193602017428        0.0000000000000000     
   4.8400359329064547E-003  0.10516137583196326        0.0000000000000000     
   4.9815882670246657E-003  0.11212180480745092        0.0000000000000000     
   5.1166301298768259E-003  0.11921845844868945        0.0000000000000000     
   5.2451615214629396E-003  0.12645133675567879        0.0000000000000000     
   5.3671824417830015E-003  0.13382043972841901        0.0000000000000000     
   1.5371876514735927E-011  0.10513975951143745        0.0000000000000000     
   1.3559006565092013E-011  0.11210122043392017        0.0000000000000000     
   1.0712784392213903E-011  0.11919895987458157        0.0000000000000000     
   6.8332104297824658E-012  0.12643297783342164        0.0000000000000000     
   1.9202842441168322E-012  0.13380327431044040        0.0000000000000000     
   2.1632622254485631E-002  0.13407792122501463        0.0000000000000000     
   2.2097720498609967E-002  0.14155286954909901        0.0000000000000000     
   2.2535141610547177E-002  0.14913989708120209        0.0000000000000000     
   2.2944885590297254E-002  0.15683900382132385        0.0000000000000000     
   2.3326952437860211E-002  0.16465018976946422        0.0000000000000000     
   1.6183493568065675E-002  0.13395776318570612        0.0000000000000000     
   1.6531189031693802E-002  0.14144131984584749        0.0000000000000000     
   1.6857807237556605E-002  0.14903708623107328        0.0000000000000000     
   1.7163348185654088E-002  0.15674506234138358        0.0000000000000000     
   1.7447811875986242E-002  0.16456524817677828        0.0000000000000000     
   1.0761680297164799E-002  0.13387193602017428        0.0000000000000000     
   1.0992725125876424E-002  0.14136164148913452        0.0000000000000000     
   1.1209505510676969E-002  0.14896364991045682        0.0000000000000000     
   1.1412021451566430E-002  0.15667796128414110        0.0000000000000000     
   1.1600272948544810E-002  0.16450457561018733        0.0000000000000000     
   5.3671824417830015E-003  0.13382043972841901        0.0000000000000000     
   5.4823287811578362E-003  0.14131383447896026        0.0000000000000000     
   5.5902364299082663E-003  0.14891958811935274        0.0000000000000000     
   5.6909053880342926E-003  0.15663770064959645        0.0000000000000000     
   5.7843356555359153E-003  0.16446817206969144        0.0000000000000000     
   1.9202842441168322E-012  0.13380327431044040        0.0000000000000000     
  -2.4619640093953565E-012  0.14129789881532456        0.0000000000000000     
  -4.7495013564408106E-012  0.14890490085776101        0.0000000000000000     
  -4.9423293691126802E-012  0.15662428043774965        0.0000000000000000     
  -3.0404463668975978E-012  0.16445603755529054        0.0000000000000000     
   2.3326952437860211E-002  0.16465018976946422        0.0000000000000000     
   2.3679994425709699E-002  0.17256134785343558        0.0000000000000000     
   2.4002663826319385E-002  0.18056037100105019        0.0000000000000000     
   2.4294960639689264E-002  0.18864725921230813        0.0000000000000000     
   2.4556884865819341E-002  0.19682201248720929        0.0000000000000000     
   1.7447811875986242E-002  0.16456524817677828        0.0000000000000000     
   1.7710420533328740E-002  0.17248526343288792        0.0000000000000000     
   1.7950396382457226E-002  0.18049272780534303        0.0000000000000000     
   1.8167739423371711E-002  0.18858764129414360        0.0000000000000000     
   1.8362449656072186E-002  0.19677000389928961        0.0000000000000000     
   1.1600272948544810E-002  0.16450457561018733        0.0000000000000000     
   1.1773896831484233E-002  0.17243091741796865        0.0000000000000000     
   1.1932529930256822E-002  0.18044441123685806        0.0000000000000000     
   1.2076172244862574E-002  0.18854505706685556        0.0000000000000000     
   1.2204823775301495E-002  0.19673285490796125        0.0000000000000000     
   5.7843356555359153E-003  0.16446817206969144        0.0000000000000000     
   5.8704233201761873E-003  0.17239830980867760        0.0000000000000000     
   5.9490644697181693E-003  0.18041542129559518        0.0000000000000000     
   6.0202591041618606E-003  0.18851950653044403        0.0000000000000000     
   6.0840072235072602E-003  0.19671056551322416        0.0000000000000000     
  -3.0404463668975978E-012  0.16445603755529054        0.0000000000000000     
  -5.9539699559518766E-013  0.17238744060501499        0.0000000000000000     
   8.4127409899492633E-013  0.18040575798155445        0.0000000000000000     
   1.2695677842344821E-012  0.18851098968490893        0.0000000000000000     
   6.8948492748521772E-013  0.19670313571507836        0.0000000000000000     
   2.4556884865819341E-002  0.19682201248720929        0.0000000000000000     
   2.4789047071965914E-002  0.20506942882677615        0.0000000000000000     
   2.4992057825385300E-002  0.21337430623203107        0.0000000000000000     
   2.5165917126077481E-002  0.22173664470297411        0.0000000000000000     
   2.5310624974042475E-002  0.23015644423960524        0.0000000000000000     
   1.8362449656072186E-002  0.19677000389928961        0.0000000000000000     
   1.8535073751980144E-002  0.20502329170923389        0.0000000000000000     
   1.8686158382517058E-002  0.21333098081242929        0.0000000000000000     
   1.8815703547682923E-002  0.22169307120887577        0.0000000000000000     
   1.8923709247477750E-002  0.23010956289857340        0.0000000000000000     
   1.2204823775301495E-002  0.19673285490796125        0.0000000000000000     
   1.2318908133284923E-002  0.20499033662536217        0.0000000000000000     
   1.2418848930524204E-002  0.21330003408424561        0.0000000000000000     
   1.2504646167019337E-002  0.22166194728461153        0.0000000000000000     
   1.2576299842770323E-002  0.23007607622645992        0.0000000000000000     
   6.0840072235072602E-003  0.19671056551322416        0.0000000000000000     
   6.1405502158802588E-003  0.20497056357516105        0.0000000000000000     
   6.1901294694067461E-003  0.21328146604748008        0.0000000000000000     
   6.2327449840867254E-003  0.22164327293018143        0.0000000000000000     
   6.2683967599201935E-003  0.23005598422326490        0.0000000000000000     
   6.8948492748521772E-013  0.19670313571507836        0.0000000000000000     
  -2.3385113290252946E-013  0.20496397255863047        0.0000000000000000     
  -8.3531705857842198E-013  0.21327527670213278        0.0000000000000000     
  -1.1149119821807218E-012  0.22163704814558538        0.0000000000000000     
  -1.0726380721137740E-012  0.23004928688898824        0.0000000000000000     
   2.5310624974042475E-002  0.23015644423960524        0.0000000000000000     
   2.5432456559269401E-002  0.23860614516604584        0.0000000000000000     
   2.5537687071747393E-002  0.24705818780641733        0.0000000000000000     
   2.5626316511476448E-002  0.25551257216071976        0.0000000000000000     
   2.5698344878456569E-002  0.26396929822895304        0.0000000000000000     
   1.8923709247477750E-002  0.23010956289857340        0.0000000000000000     
   1.9014570761247913E-002  0.23855125295415602        0.0000000000000000     
   1.9092683368339799E-002  0.24698893844825756        0.0000000000000000     
   1.9158047068753400E-002  0.25542261938087812        0.0000000000000000     
   1.9210661862488716E-002  0.26385229575201752        0.0000000000000000     
   1.2576299842770323E-002  0.23007607622645992        0.0000000000000000     
   1.2636532735212327E-002  0.23851204423138497        0.0000000000000000     
   1.2688067621780518E-002  0.24693947462098098        0.0000000000000000     
   1.2730904502474895E-002  0.25535836739524792        0.0000000000000000     
   1.2765043377295456E-002  0.26376872255418571        0.0000000000000000     
   6.2683967599201935E-003  0.23005598422326490        0.0000000000000000     
   6.2983424811626394E-003  0.23848851899773280        0.0000000000000000     
   6.3238398320695534E-003  0.24690979632458768        0.0000000000000000     
   6.3448888126409310E-003  0.25531981620382921        0.0000000000000000     
   6.3614894228767749E-003  0.26371857863545767        0.0000000000000000     
  -1.0726380721137740E-012  0.23004928688898824        0.0000000000000000     
  -9.0114786292783133E-013  0.23848067725319955        0.0000000000000000     
  -7.9309627441792596E-013  0.24689990355907748        0.0000000000000000     
  -7.4848563761872877E-013  0.25530696580662204        0.0000000000000000     
  -7.6731589832013114E-013  0.26370186399583317        0.0000000000000000     
   2.5698344878456569E-002  0.26396929822895304        0.0000000000000000     
   2.5765968475815925E-002  0.27237326163703807        0.0000000000000000     
   2.5841383606682700E-002  0.28066935801089565        0.0000000000000000     
   2.5924590271056893E-002  0.28885758735052586        0.0000000000000000     
   2.6015588468938498E-002  0.29693794965592857        0.0000000000000000     
   1.9210661862488716E-002  0.26385229575201752        0.0000000000000000     
   1.9260487802771922E-002  0.27222065998091483        0.0000000000000000     
   1.9317484942829186E-002  0.28047040448680899        0.0000000000000000     
   1.9381653282660501E-002  0.28860152926969984        0.0000000000000000     
   1.9452992822265876E-002  0.29661403432958755        0.0000000000000000     
   1.2765043377295456E-002  0.26376872255418571        0.0000000000000000     
   1.2797666165653688E-002  0.27211165879796106        0.0000000000000000     
   1.2835954786961088E-002  0.28032829482674049        0.0000000000000000     
   1.2879909241217652E-002  0.28841863064052398        0.0000000000000000     
   1.2929529528423377E-002  0.29638266623931164        0.0000000000000000     
   6.3614894228767749E-003  0.26371857863545767        0.0000000000000000     
   6.3775035644612222E-003  0.27204625808817667        0.0000000000000000     
   6.3967931390784090E-003  0.28024302903069020        0.0000000000000000     
   6.4193581467283335E-003  0.28830889146299832        0.0000000000000000     
   6.4451985874109975E-003  0.29624384538510096        0.0000000000000000     
  -7.6731589832013114E-013  0.26370186399583317        0.0000000000000000     
  -8.0547330957858598E-013  0.27202445785156171        0.0000000000000000     
  -8.1885117176466737E-013  0.28021460709865831        0.0000000000000000     
  -8.0744636779712942E-013  0.28827231173712287        0.0000000000000000     
  -7.7125979214276441E-013  0.29619757176695549        0.0000000000000000     
   1.5644839633857655E-010   5.5316401172550572E-002   0.0000000000000000     
   4.5621827930025782E-011   6.0918813459695909E-002   0.0000000000000000     
  -2.4706641029922927E-011   6.6707551999858797E-002   0.0000000000000000     
  -5.4537013739665990E-011   7.2682616793039223E-002   0.0000000000000000     
  -4.3869286675546348E-011   7.8844007839237187E-002   0.0000000000000000     
  -3.5325598736124552E-003   5.5344983457005559E-002   0.0000000000000000     
  -3.7057269638306020E-003   6.0946875094618505E-002   0.0000000000000000     
  -3.8772677729876923E-003   6.6734952061481487E-002   0.0000000000000000     
  -4.0471823010837255E-003   7.2709214357594532E-002   0.0000000000000000     
  -4.2154705481187030E-003   7.8869661982957612E-002   0.0000000000000000     
  -7.0396513498854375E-003   5.5430730241135387E-002   0.0000000000000000     
  -7.4017563659438800E-003   6.1031060046928466E-002   0.0000000000000000     
  -7.7569411755160416E-003   6.6817152360487853E-002   0.0000000000000000     
  -8.1052057786019215E-003   7.2789007181813539E-002   0.0000000000000000     
  -8.4465501752015205E-003   7.8946624510905519E-002   0.0000000000000000     
  -1.0521274272370550E-002   5.5573641524940057E-002   0.0000000000000000     
  -1.1088088160718008E-002   6.1171368316625813E-002   0.0000000000000000     
  -1.1639020232291691E-002   6.6954152896877880E-002   0.0000000000000000     
  -1.2174070487091602E-002   7.2921995265696246E-002   0.0000000000000000     
  -1.2693238925117740E-002   7.9074895423080910E-002   0.0000000000000000     
  -1.3977428641067794E-002   5.5773717308419575E-002   0.0000000000000000     
  -1.4764722348152985E-002   6.1367799903710524E-002   0.0000000000000000     
  -1.5523504943314642E-002   6.7145953670651556E-002   0.0000000000000000     
  -1.6253776426552766E-002   7.3108178609242638E-002   0.0000000000000000     
  -1.6955536797867363E-002   7.9254474719483811E-002   0.0000000000000000     
  -4.3869286675546348E-011   7.8844007839237187E-002   0.0000000000000000     
  -1.6979133810740565E-011   8.5178407948279772E-002   0.0000000000000000     
   1.8577791215113049E-012   9.1672499929994003E-002   0.0000000000000000     
   1.2641448326501659E-011   9.8326283784379895E-002   0.0000000000000000     
   1.5371876514735927E-011  0.10513975951143745        0.0000000000000000     
  -4.2154705481187030E-003   7.8869661982957612E-002   0.0000000000000000     
  -4.3801122128183378E-003   8.5203049318505572E-002   0.0000000000000000     
  -4.5390869939083431E-003   9.1696130745173257E-002   0.0000000000000000     
  -4.6923948913887258E-003   9.8348906262960667E-002   0.0000000000000000     
  -4.8400359052594797E-003  0.10516137587186779        0.0000000000000000     
  -8.4465501752015205E-003   7.8946624510905519E-002   0.0000000000000000     
  -8.7785429137172549E-003   8.5276973472606918E-002   0.0000000000000000     
  -9.0987525425515400E-003   9.1767023191760860E-002   0.0000000000000000     
  -9.4071790617043845E-003   9.8416773668367374E-002   0.0000000000000000     
  -9.7038224711757798E-003  0.10522622490242643        0.0000000000000000     
  -1.2693238925117740E-002   7.9074895423080910E-002   0.0000000000000000     
  -1.3195292119675883E-002   8.5400180410583823E-002   0.0000000000000000     
  -1.3678996644071812E-002   9.1885177269756854E-002   0.0000000000000000     
  -1.4144352498305524E-002   9.8529886000600045E-002   0.0000000000000000     
  -1.4591359682377028E-002  0.10533430660311335        0.0000000000000000     
  -1.6955536797867363E-002   7.9254474719483811E-002   0.0000000000000000     
  -1.7630359830694227E-002   8.5572670132436260E-002   0.0000000000000000     
  -1.8279819298469155E-002   9.2050592979161211E-002   0.0000000000000000     
  -1.8903915201192154E-002   9.8688243259658651E-002   0.0000000000000000     
  -1.9502647538863219E-002  0.10548562097392861        0.0000000000000000     
   1.5371876514735927E-011  0.10513975951143745        0.0000000000000000     
   1.3559006565092013E-011  0.11210122043392017        0.0000000000000000     
   1.0712784392213903E-011  0.11919895987458157        0.0000000000000000     
   6.8332104297824658E-012  0.12643297783342164        0.0000000000000000     
   1.9202842441168322E-012  0.13380327431044040        0.0000000000000000     
  -4.8400359052594797E-003  0.10516137587186779        0.0000000000000000     
  -4.9815882426360513E-003  0.11212180485557784        0.0000000000000000     
  -5.1166301106338880E-003  0.11921845849777400        0.0000000000000000     
  -5.2451615092529913E-003  0.12645133679845630        0.0000000000000000     
  -5.3671824384933552E-003  0.13382043975762467        0.0000000000000000     
  -9.7038224711757798E-003  0.10522622490242643        0.0000000000000000     
  -9.9880024761707931E-003  0.11218355805944866        0.0000000000000000     
  -1.0259038781894488E-002  0.11927695430494470        0.0000000000000000     
  -1.0516931388346865E-002  0.12650641363891457        0.0000000000000000     
  -1.0761680295527922E-002  0.13387193606135822        0.0000000000000000     
  -1.4591359682377028E-002  0.10533430660311335        0.0000000000000000     
  -1.5019242687045221E-002  0.11228648004553263        0.0000000000000000     
  -1.5427226003069013E-002  0.11937444729609366        0.0000000000000000     
  -1.5815309630448408E-002  0.12659820835479646        0.0000000000000000     
  -1.6183493569183412E-002  0.13395776322164096        0.0000000000000000     
  -1.9502647538863219E-002  0.10548562097392861        0.0000000000000000     
  -2.0075308875259334E-002  0.11243057081382976        0.0000000000000000     
  -2.0621191774157471E-002  0.11951093747122088        0.0000000000000000     
  -2.1140296235557635E-002  0.12672672094610193        0.0000000000000000     
  -2.1632622259459826E-002  0.13407792123847295        0.0000000000000000     
   1.9202842441168322E-012  0.13380327431044040        0.0000000000000000     
  -2.4619640093953565E-012  0.14129789881532456        0.0000000000000000     
  -4.7495013564408106E-012  0.14890490085776101        0.0000000000000000     
  -4.9423293691126802E-012  0.15662428043774965        0.0000000000000000     
  -3.0404463668975978E-012  0.16445603755529054        0.0000000000000000     
  -5.3671824384933552E-003  0.13382043975762467        0.0000000000000000     
  -5.4823287858181569E-003  0.14131383449327720        0.0000000000000000     
  -5.5902364386905641E-003  0.14891958812341183        0.0000000000000000     
  -5.6909053971105732E-003  0.15663770064802857        0.0000000000000000     
  -5.7843356610781859E-003  0.16446817206712738        0.0000000000000000     
  -1.0761680295527922E-002  0.13387193606135822        0.0000000000000000     
  -1.0992725129745928E-002  0.14136164150786779        0.0000000000000000     
  -1.1209505517309145E-002  0.14896364991403543        0.0000000000000000     
  -1.1412021458217576E-002  0.15667796127986111        0.0000000000000000     
  -1.1600272952471222E-002  0.16450457560534479        0.0000000000000000     
  -1.6183493569183412E-002  0.13395776322164096        0.0000000000000000     
  -1.6531189034245265E-002  0.14144131985909639        0.0000000000000000     
  -1.6857807240605246E-002  0.14903708622963180        0.0000000000000000     
  -1.7163348188263341E-002  0.15674506233324725        0.0000000000000000     
  -1.7447811877219555E-002  0.16456524816994272        0.0000000000000000     
  -2.1632622259459826E-002  0.13407792123847295        0.0000000000000000     
  -2.2097720499316190E-002  0.14155286954696294        0.0000000000000000     
  -2.2535141608578866E-002  0.14913989707020098        0.0000000000000000     
  -2.2944885587247863E-002  0.15683900380818708        0.0000000000000000     
  -2.3326952435323175E-002  0.16465018976092122        0.0000000000000000     
  -3.0404463668975978E-012  0.16445603755529054        0.0000000000000000     
  -5.9539699559518766E-013  0.17238744060501499        0.0000000000000000     
   8.4127409899492633E-013  0.18040575798155445        0.0000000000000000     
   1.2695677842344821E-012  0.18851098968490893        0.0000000000000000     
   6.8948492748521772E-013  0.19670313571507836        0.0000000000000000     
  -5.7843356610781859E-003  0.16446817206712738        0.0000000000000000     
  -5.8704233212097858E-003  0.17239830980729220        0.0000000000000000     
  -5.9490644681217449E-003  0.18041542129510690        0.0000000000000000     
  -6.0202591018140642E-003  0.18851950653057142        0.0000000000000000     
  -6.0840072222867478E-003  0.19671056551368582        0.0000000000000000     
  -1.1600272952471222E-002  0.16450457560534479        0.0000000000000000     
  -1.1773896832046233E-002  0.17243091741582084        0.0000000000000000     
  -1.1932529928918759E-002  0.18044441123662339        0.0000000000000000     
  -1.2076172243088800E-002  0.18854505706775260        0.0000000000000000     
  -1.2204823774556357E-002  0.19673285490920830        0.0000000000000000     
  -1.7447811877219555E-002  0.16456524816994272        0.0000000000000000     
  -1.7710420533104738E-002  0.17248526343060080        0.0000000000000000     
  -1.7950396381549768E-002  0.18049272780610404        0.0000000000000000     
  -1.8167739422554639E-002  0.18858764129645236        0.0000000000000000     
  -1.8362449656119346E-002  0.19677000390164592        0.0000000000000000     
  -2.3326952435323175E-002  0.16465018976092122        0.0000000000000000     
  -2.3679994424385307E-002  0.17256134785163216        0.0000000000000000     
  -2.4002663826014778E-002  0.18056037100354871        0.0000000000000000     
  -2.4294960640211576E-002  0.18864725921667089        0.0000000000000000     
  -2.4556884866975704E-002  0.19682201249099868        0.0000000000000000     
   6.8948492748521772E-013  0.19670313571507836        0.0000000000000000     
  -2.3385113290252946E-013  0.20496397255863047        0.0000000000000000     
  -8.3531705857842198E-013  0.21327527670213278        0.0000000000000000     
  -1.1149119821807218E-012  0.22163704814558538        0.0000000000000000     
  -1.0726380721137740E-012  0.23004928688898824        0.0000000000000000     
  -6.0840072222867478E-003  0.19671056551368582        0.0000000000000000     
  -6.1405502164183371E-003  0.20497056357575646        0.0000000000000000     
  -6.1901294710873756E-003  0.21328146604808981        0.0000000000000000     
  -6.2327449862938601E-003  0.22164327293068589        0.0000000000000000     
  -6.2683967620377973E-003  0.23005598422354467        0.0000000000000000     
  -1.2204823774556357E-002  0.19673285490920830        0.0000000000000000     
  -1.2318908134034133E-002  0.20499033662652513        0.0000000000000000     
  -1.2418848932234810E-002  0.21330003408523746        0.0000000000000000     
  -1.2504646169158404E-002  0.22166194728534541        0.0000000000000000     
  -1.2576299844804904E-002  0.23007607622684881        0.0000000000000000     
  -1.8362449656119346E-002  0.19677000390164592        0.0000000000000000     
  -1.8535073753081225E-002  0.20502329171093644        0.0000000000000000     
  -1.8686158384277625E-002  0.21333098081357577        0.0000000000000000     
  -1.8815703549708535E-002  0.22169307120956383        0.0000000000000000     
  -1.8923709249373966E-002  0.23010956289890064        0.0000000000000000     
  -2.4556884866975704E-002  0.19682201249099868        0.0000000000000000     
  -2.4789047073559632E-002  0.20506942882899043        0.0000000000000000     
  -2.4992057827215822E-002  0.21337430623310463        0.0000000000000000     
  -2.5165917127944266E-002  0.22173664470334120        0.0000000000000000     
  -2.5310624975744978E-002  0.23015644423970022        0.0000000000000000     
  -1.0726380721137740E-012  0.23004928688898824        0.0000000000000000     
  -9.0114786292783133E-013  0.23848067725319955        0.0000000000000000     
  -7.9309627441792596E-013  0.24689990355907748        0.0000000000000000     
  -7.4848563761872877E-013  0.25530696580662204        0.0000000000000000     
  -7.6731589832013114E-013  0.26370186399583317        0.0000000000000000     
  -6.2683967620377973E-003  0.23005598422354467        0.0000000000000000     
  -6.2983424829448926E-003  0.23848851899777423        0.0000000000000000     
  -6.3238398336408624E-003  0.24690979632448259        0.0000000000000000     
  -6.3448888141257043E-003  0.25531981620366995        0.0000000000000000     
  -6.3614894243994181E-003  0.26371857863533599        0.0000000000000000     
  -1.2576299844804904E-002  0.23007607622684881        0.0000000000000000     
  -1.2636532736934452E-002  0.23851204423144601        0.0000000000000000     
  -1.2688067623307169E-002  0.24693947462083524        0.0000000000000000     
  -1.2730904503923061E-002  0.25535836739501638        0.0000000000000000     
  -1.2765043378782127E-002  0.26376872255398959        0.0000000000000000     
  -1.8923709249373966E-002  0.23010956289890064        0.0000000000000000     
  -1.9014570762869821E-002  0.23855125295421492        0.0000000000000000     
  -1.9092683369792023E-002  0.24698893844813521        0.0000000000000000     
  -1.9158047070140558E-002  0.25542261938066152        0.0000000000000000     
  -1.9210661863915440E-002  0.26385229575179386        0.0000000000000000     
  -2.5310624975744978E-002  0.23015644423970022        0.0000000000000000     
  -2.5432456560751011E-002  0.23860614516608092        0.0000000000000000     
  -2.5537687073095415E-002  0.24705818780638261        0.0000000000000000     
  -2.5626316512778198E-002  0.25551257216060524        0.0000000000000000     
  -2.5698344879799363E-002  0.26396929822874893        0.0000000000000000     
  -7.6731589832013114E-013  0.26370186399583317        0.0000000000000000     
  -8.0547330957858598E-013  0.27202445785156171        0.0000000000000000     
  -8.1885117176466737E-013  0.28021460709865831        0.0000000000000000     
  -8.0744636779712942E-013  0.28827231173712287        0.0000000000000000     
  -7.7125979214276441E-013  0.29619757176695549        0.0000000000000000     
  -6.3614894243994181E-003  0.26371857863533599        0.0000000000000000     
  -6.3775035660591402E-003  0.27204625808811189        0.0000000000000000     
  -6.3967931407019965E-003  0.28024302903062859        0.0000000000000000     
  -6.4193581483279940E-003  0.28830889146288591        0.0000000000000000     
  -6.4451985889371309E-003  0.29624384538488402        0.0000000000000000     
  -1.2765043378782127E-002  0.26376872255398959        0.0000000000000000     
  -1.2797666167212502E-002  0.27211165879782306        0.0000000000000000     
  -1.2835954788542334E-002  0.28032829482658517        0.0000000000000000     
  -1.2879909242771614E-002  0.28841863064027595        0.0000000000000000     
  -1.2929529529900344E-002  0.29638266623889531        0.0000000000000000     
  -1.9210661863915440E-002  0.26385229575179386        0.0000000000000000     
  -1.9260487804265574E-002  0.27222065998069511        0.0000000000000000     
  -1.9317484944339856E-002  0.28047040448652816        0.0000000000000000     
  -1.9381653284138305E-002  0.28860152926929289        0.0000000000000000     
  -1.9452992823660902E-002  0.29661403432898936        0.0000000000000000     
  -2.5698344879799363E-002  0.26396929822874893        0.0000000000000000     
  -2.5765968477218341E-002  0.27237326163672809        0.0000000000000000     
  -2.5841383608094577E-002  0.28066935801045739        0.0000000000000000     
  -2.5924590272428067E-002  0.28885758734993688        0.0000000000000000     
  -2.6015588470218804E-002  0.29693794965516629        0.0000000000000000     
  -1.3977428641067794E-002   5.5773717308419575E-002   0.0000000000000000     
  -1.4764722348152985E-002   6.1367799903710524E-002   0.0000000000000000     
  -1.5523504943314642E-002   6.7145953670651556E-002   0.0000000000000000     
  -1.6253776426552766E-002   7.3108178609242638E-002   0.0000000000000000     
  -1.6955536797867363E-002   7.9254474719483811E-002   0.0000000000000000     
  -1.7506081967302925E-002   5.6032228232163118E-002   0.0000000000000000     
  -1.8509638978950273E-002   6.1620677684872061E-002   0.0000000000000000     
  -1.9473016497054390E-002   6.7392306472193950E-002   0.0000000000000000     
  -2.0396214521615264E-002   7.3347114594128751E-002   0.0000000000000000     
  -2.1279233052632903E-002   7.9485102050676493E-002   0.0000000000000000     
  -2.1205201762401697E-002   5.6350444936759884E-002   0.0000000000000000     
  -2.2400818103811351E-002   6.1930324536799863E-002   0.0000000000000000     
  -2.3550176081980425E-002   6.7692963091890088E-002   0.0000000000000000     
  -2.4653275696908939E-002   7.3638360602030578E-002   0.0000000000000000     
  -2.5710116948596873E-002   7.9766517067221279E-002   0.0000000000000000     
  -2.5074788026364109E-002   5.6728367422209852E-002   0.0000000000000000     
  -2.6438259722736203E-002   6.2296740459493911E-002   0.0000000000000000     
  -2.7754983698092761E-002   6.8047923529739998E-002   0.0000000000000000     
  -2.9024959952433777E-002   7.3981916632948078E-002   0.0000000000000000     
  -3.0248188485759272E-002   8.0098719769118198E-002   0.0000000000000000     
  -2.9114840759190165E-002   5.7165995688513042E-002   0.0000000000000000     
  -3.0621963835724839E-002   6.2719925452954239E-002   0.0000000000000000     
  -3.2087439345391391E-002   6.8457187785743667E-002   0.0000000000000000     
  -3.3511267288189817E-002   7.4377782686881305E-002   0.0000000000000000     
  -3.4893447664120107E-002   8.0481710156367181E-002   0.0000000000000000     
  -1.6955536797867363E-002   7.9254474719483811E-002   0.0000000000000000     
  -1.7630359830694227E-002   8.5572670132436260E-002   0.0000000000000000     
  -1.8279819298469155E-002   9.2050592979161211E-002   0.0000000000000000     
  -1.8903915201192154E-002   9.8688243259658651E-002   0.0000000000000000     
  -1.9502647538863219E-002  0.10548562097392861        0.0000000000000000     
  -2.1279233052632903E-002   7.9485102050676493E-002   0.0000000000000000     
  -2.2126068798115611E-002   8.5794489716544658E-002   0.0000000000000000     
  -2.2940718466071677E-002   9.2263498466440677E-002   0.0000000000000000     
  -2.3723182056501119E-002   9.8892128300364590E-002   0.0000000000000000     
  -2.4473459569403930E-002  0.10568037921831636        0.0000000000000000     
  -2.5710116948596873E-002   7.9766517067221279E-002   0.0000000000000000     
  -2.6724741773283347E-002   8.6065686241289421E-002   0.0000000000000000     
  -2.7701192107207485E-002   9.2524121878062054E-002   0.0000000000000000     
  -2.8639467950369278E-002   9.9141823977539206E-002   0.0000000000000000     
  -2.9539569302768728E-002  0.10591879253972088        0.0000000000000000     
  -3.0248188485759272E-002   8.0098719769118198E-002   0.0000000000000000     
  -3.1426378756197457E-002   8.6386259706670493E-002   0.0000000000000000     
  -3.2561240221876578E-002   9.2832463214025288E-002   0.0000000000000000     
  -3.3652772882796639E-002   9.9437330291182499E-002   0.0000000000000000     
  -3.4700976738957619E-002  0.10620086093814216        0.0000000000000000     
  -3.4893447664120107E-002   8.0481710156367181E-002   0.0000000000000000     
  -3.6230979746857940E-002   8.6756210112687984E-002   0.0000000000000000     
  -3.7520862810078964E-002   9.3188522474330418E-002   0.0000000000000000     
  -3.8763096853783180E-002   9.9778647241294482E-002   0.0000000000000000     
  -3.9957681877970594E-002  0.10652658441358021        0.0000000000000000     
  -1.9502647538863219E-002  0.10548562097392861        0.0000000000000000     
  -2.0075308875259334E-002  0.11243057081382976        0.0000000000000000     
  -2.0621191774157471E-002  0.11951093747122088        0.0000000000000000     
  -2.1140296235557635E-002  0.12672672094610193        0.0000000000000000     
  -2.1632622259459826E-002  0.13407792123847295        0.0000000000000000     
  -2.4473459569403930E-002  0.10568037921831636        0.0000000000000000     
  -2.5190892229405071E-002  0.11261596433872807        0.0000000000000000     
  -2.5874821261129496E-002  0.11968659678003171        0.0000000000000000     
  -2.6525246664577212E-002  0.12689227654222737        0.0000000000000000     
  -2.7142168439748211E-002  0.13423300362531498        0.0000000000000000     
  -2.9539569302768728E-002  0.10591879253972088        0.0000000000000000     
  -3.0400683938074369E-002  0.11284279459461552        0.0000000000000000     
  -3.1221999629954734E-002  0.11990159717223162        0.0000000000000000     
  -3.2003516378409813E-002  0.12709520027256910        0.0000000000000000     
  -3.2745234183439623E-002  0.13442360389562805        0.0000000000000000     
  -3.4700976738957619E-002  0.10620086093814216        0.0000000000000000     
  -3.5704684001267237E-002  0.11311106158149220        0.0000000000000000     
  -3.6662726880633177E-002  0.12015593864782051        0.0000000000000000     
  -3.7575105377055454E-002  0.12733549213712711        0.0000000000000000     
  -3.8441819490534067E-002  0.13464972204941206        0.0000000000000000     
  -3.9957681877970594E-002  0.10652658441358021        0.0000000000000000     
  -4.1102892418983662E-002  0.11342076529935802        0.0000000000000000     
  -4.2197003013164841E-002  0.12044962120679843        0.0000000000000000     
  -4.3240013660514116E-002  0.12761315213590144        0.0000000000000000     
  -4.4231924361031516E-002  0.13491135808666702        0.0000000000000000     
  -2.1632622259459826E-002  0.13407792123847295        0.0000000000000000     
  -2.2097720499316190E-002  0.14155286954696294        0.0000000000000000     
  -2.2535141608578866E-002  0.14913989707020098        0.0000000000000000     
  -2.2944885587247863E-002  0.15683900380818708        0.0000000000000000     
  -2.3326952435323175E-002  0.16465018976092122        0.0000000000000000     
  -2.7142168439748211E-002  0.13423300362531498        0.0000000000000000     
  -2.7725278029597615E-002  0.14169720349264314        0.0000000000000000     
  -2.8274266877080532E-002  0.14927330160756033        0.0000000000000000     
  -2.8789134982196953E-002  0.15696129797006658        0.0000000000000000     
  -2.9269882344946884E-002  0.16476119258016186        0.0000000000000000     
  -3.2745234183439623E-002  0.13442360389562805        0.0000000000000000     
  -3.3446820129728487E-002  0.14187523461731269        0.0000000000000000     
  -3.4107941301960765E-002  0.14943851901352725        0.0000000000000000     
  -3.4728597700136414E-002  0.15711345708427182        0.0000000000000000     
  -3.5308789324255463E-002  0.16490004882954640        0.0000000000000000     
  -3.8441819490534067E-002  0.13464972204941206        0.0000000000000000     
  -3.9262346799708817E-002  0.14208696292097153        0.0000000000000000     
  -4.0036164883219552E-002  0.14963554928810177        0.0000000000000000     
  -4.0763273741066253E-002  0.15729548115080288        0.0000000000000000     
  -4.1443673373248932E-002  0.16506675850907479        0.0000000000000000     
  -4.4231924361031516E-002  0.13491135808666702        0.0000000000000000     
  -4.5171858039538590E-002  0.14233238840361967        0.0000000000000000     
  -4.6058937620856902E-002  0.14986439243128388        0.0000000000000000     
  -4.6893163104986466E-002  0.15750737016965968        0.0000000000000000     
  -4.7674534491927274E-002  0.16526132161874704        0.0000000000000000     
  -2.3326952435323175E-002  0.16465018976092122        0.0000000000000000     
  -2.3679994424385307E-002  0.17256134785163216        0.0000000000000000     
  -2.4002663826014778E-002  0.18056037100354871        0.0000000000000000     
  -2.4294960640211576E-002  0.18864725921667089        0.0000000000000000     
  -2.4556884866975704E-002  0.19682201249099868        0.0000000000000000     
  -2.9269882344946884E-002  0.16476119258016186        0.0000000000000000     
  -2.9714684828806830E-002  0.17266116876771279        0.0000000000000000     
  -3.0121718297253294E-002  0.18064940986258596        0.0000000000000000     
  -3.0490982750286284E-002  0.18872591586478138        0.0000000000000000     
  -3.0822478187905789E-002  0.19689068677429900        0.0000000000000000     
  -3.5308789324255463E-002  0.16490004882954640        0.0000000000000000     
  -3.5846558069288180E-002  0.17278672426764058        0.0000000000000000     
  -3.6339945830204834E-002  0.18076191341684422        0.0000000000000000     
  -3.6788952607005425E-002  0.18882561627715719        0.0000000000000000     
  -3.7193578399689946E-002  0.19697783284857956        0.0000000000000000     
  -4.1443673373248932E-002  0.16506675850907479        0.0000000000000000     
  -4.2075614145829388E-002  0.17293801435141562        0.0000000000000000     
  -4.2657346424869402E-002  0.18089788166632345        0.0000000000000000     
  -4.3188870210369011E-002  0.18894636045379834        0.0000000000000000     
  -4.3670185502328179E-002  0.19708345071384029        0.0000000000000000     
  -4.7674534491927274E-002  0.16526132161874704        0.0000000000000000     
  -4.8401853058430415E-002  0.17311503901903777        0.0000000000000000     
  -4.9073920081247002E-002  0.18105731461102373        0.0000000000000000     
  -4.9690735560377029E-002  0.18908814839470486        0.0000000000000000     
  -5.0252299495820482E-002  0.19720754037008120        0.0000000000000000     
  -2.4556884866975704E-002  0.19682201249099868        0.0000000000000000     
  -2.4789047073559632E-002  0.20506942882899043        0.0000000000000000     
  -2.4992057827215822E-002  0.21337430623310463        0.0000000000000000     
  -2.5165917127944266E-002  0.22173664470334120        0.0000000000000000     
  -2.5310624975744978E-002  0.23015644423970022        0.0000000000000000     
  -3.0822478187905789E-002  0.19689068677429900        0.0000000000000000     
  -3.1116628567565724E-002  0.20513006988302565        0.0000000000000000     
  -3.1373857846719984E-002  0.21343041248284825        0.0000000000000000     
  -3.1594166025368582E-002  0.22179171457376665        0.0000000000000000     
  -3.1777553103511498E-002  0.23021397615578090        0.0000000000000000     
  -3.7193578399689946E-002  0.19697783284857956        0.0000000000000000     
  -3.7553618707195889E-002  0.20520653677538084        0.0000000000000000     
  -3.7868869028460726E-002  0.21349970170183075        0.0000000000000000     
  -3.8139329363484450E-002  0.22185732762792917        0.0000000000000000     
  -3.8364999712267076E-002  0.23027941455367620        0.0000000000000000     
  -4.3670185502328179E-002  0.19708345071384029        0.0000000000000000     
  -4.4100017492450121E-002  0.20529882950605602        0.0000000000000000     
  -4.4477091372438021E-002  0.21358217389005216        0.0000000000000000     
  -4.4801407142291888E-002  0.22193348386582884        0.0000000000000000     
  -4.5072964802011707E-002  0.23035275943338598        0.0000000000000000     
  -5.0252299495820482E-002  0.19720754037008120        0.0000000000000000     
  -5.0755824923328419E-002  0.20540694807505100        0.0000000000000000     
  -5.1198524878651890E-002  0.21367782904751242        0.0000000000000000     
  -5.1580399361790881E-002  0.22202018328746556        0.0000000000000000     
  -5.1901448372745400E-002  0.23043401079491027        0.0000000000000000     
  -2.5310624975744978E-002  0.23015644423970022        0.0000000000000000     
  -2.5432456560751011E-002  0.23860614516608092        0.0000000000000000     
  -2.5537687073095415E-002  0.24705818780638261        0.0000000000000000     
  -2.5626316512778198E-002  0.25551257216060524        0.0000000000000000     
  -2.5698344879799363E-002  0.26396929822874893        0.0000000000000000     
  -3.1777553103511498E-002  0.23021397615578090        0.0000000000000000     
  -3.1931900385792071E-002  0.23867224908988777        0.0000000000000000     
  -3.2065089176853641E-002  0.24714158523708391        0.0000000000000000     
  -3.2177119476696187E-002  0.25562198459736940        0.0000000000000000     
  -3.2267991285319722E-002  0.26411344717074414        0.0000000000000000     
  -3.8364999712267076E-002  0.23027941455367620        0.0000000000000000     
  -3.8554612493207074E-002  0.23874509294847918        0.0000000000000000     
  -3.8716900124702955E-002  0.24723349328174560        0.0000000000000000     
  -3.8851862606754717E-002  0.25574461555347550        0.0000000000000000     
  -3.8959499939362353E-002  0.26427845976366887        0.0000000000000000     
  -4.5072964802011707E-002  0.23035275943338598        0.0000000000000000     
  -4.5300592882996024E-002  0.23882467674185506        0.0000000000000000     
  -4.5493119916643399E-002  0.24733391194036763        0.0000000000000000     
  -4.5650545902953796E-002  0.25588046502892364        0.0000000000000000     
  -4.5772870841927257E-002  0.26446433600752312        0.0000000000000000     
  -5.1901448372745400E-002  0.23043401079491027        0.0000000000000000     
  -5.2169841555158934E-002  0.23891100047001554        0.0000000000000000     
  -5.2393748552674937E-002  0.24744284121295007        0.0000000000000000     
  -5.2573169365293430E-002  0.25602953302371390        0.0000000000000000     
  -5.2708103993014420E-002  0.26467107590230687        0.0000000000000000     
  -2.5698344879799363E-002  0.26396929822874893        0.0000000000000000     
  -2.5765968477218341E-002  0.27237326163672809        0.0000000000000000     
  -2.5841383608094577E-002  0.28066935801045739        0.0000000000000000     
  -2.5924590272428067E-002  0.28885758734993688        0.0000000000000000     
  -2.6015588470218804E-002  0.29693794965516629        0.0000000000000000     
  -3.2267991285319722E-002  0.26411344717074414        0.0000000000000000     
  -3.2352540913011894E-002  0.27256312704500352        0.0000000000000000     
  -3.2445604670060343E-002  0.28091817830794313        0.0000000000000000     
  -3.2547182556465062E-002  0.28917860095956277        0.0000000000000000     
  -3.2657274572226072E-002  0.29734439499986259        0.0000000000000000     
  -3.8959499939362353E-002  0.26427845976366887        0.0000000000000000     
  -3.9058637838587304E-002  0.27278391948460301        0.0000000000000000     
  -3.9168102020491015E-002  0.28120988828855548        0.0000000000000000     
  -3.9287892485073479E-002  0.28955636617552605        0.0000000000000000     
  -3.9418009232334704E-002  0.29782335314551489        0.0000000000000000     
  -4.5772870841927257E-002  0.26446433600752312        0.0000000000000000     
  -4.5884259253944577E-002  0.27303563895552652        0.0000000000000000     
  -4.6008875659386578E-002  0.28154448795229436        0.0000000000000000     
  -4.6146720058253300E-002  0.28999088299782655        0.0000000000000000     
  -4.6297792450544724E-002  0.29837482409212318        0.0000000000000000     
  -5.2708103993014420E-002  0.26467107590230687        0.0000000000000000     
  -5.2829405159083700E-002  0.27331828545777404        0.0000000000000000     
  -5.2967925586747067E-002  0.28192197729915980        0.0000000000000000     
  -5.3123665276004539E-002  0.29048215142646433        0.0000000000000000     
  -5.3296624226856104E-002  0.29899880783968746        0.0000000000000000     
  -2.9114840759190165E-002   5.7165995688513042E-002   0.0000000000000000     
  -3.0621963835724839E-002   6.2719925452954239E-002   0.0000000000000000     
  -3.2087439345391391E-002   6.8457187785743667E-002   0.0000000000000000     
  -3.3511267288189817E-002   7.4377782686881305E-002   0.0000000000000000     
  -3.4893447664120107E-002   8.0481710156367181E-002   0.0000000000000000     
  -3.3217954910153370E-002   5.7662357619094828E-002   0.0000000000000000     
  -3.4883600722379518E-002   6.3200520744491548E-002   0.0000000000000000     
  -3.6509183015608161E-002   6.8922278434183082E-002   0.0000000000000000     
  -3.8094701789839307E-002   7.4827630688169486E-002   0.0000000000000000     
  -3.9640157045072948E-002   8.0916577506450732E-002   0.0000000000000000     
  -3.7276725428527245E-002   5.8216481097380618E-002   0.0000000000000000     
  -3.9154840662302494E-002   6.3739167561416538E-002   0.0000000000000000     
  -4.0981854700474933E-002   6.9444718049340284E-002   0.0000000000000000     
  -4.2757767543044556E-002   7.5333132561151858E-002   0.0000000000000000     
  -4.4482579190011369E-002   8.1404411096851245E-002   0.0000000000000000     
  -4.1291152314311796E-002   5.8828366123370383E-002   0.0000000000000000     
  -4.3435683655493780E-002   6.4335865903729236E-002   0.0000000000000000     
  -4.5505454399991707E-002   7.0024506631215233E-002   0.0000000000000000     
  -4.7500464547805578E-002   7.5894288305828436E-002   0.0000000000000000     
  -4.9420714098935385E-002   8.1945210927568762E-002   0.0000000000000000     
  -4.5261235567507004E-002   5.9498012697064145E-002   0.0000000000000000     
  -4.7726129701953363E-002   6.4990615771429616E-002   0.0000000000000000     
  -5.0079982114158476E-002   7.0661644179807970E-002   0.0000000000000000     
  -5.2322792804122359E-002   7.6511097922199178E-002   0.0000000000000000     
  -5.4454561771844975E-002   8.2538976998603256E-002   0.0000000000000000     
  -3.4893447664120107E-002   8.0481710156367181E-002   0.0000000000000000     
  -3.6230979746857940E-002   8.6756210112687984E-002   0.0000000000000000     
  -3.7520862810078964E-002   9.3188522474330418E-002   0.0000000000000000     
  -3.8763096853783180E-002   9.9778647241294482E-002   0.0000000000000000     
  -3.9957681877970594E-002  0.10652658441358021        0.0000000000000000     
  -3.9640157045072948E-002   8.0916577506450732E-002   0.0000000000000000     
  -4.1139398635791573E-002   8.7175908963284157E-002   0.0000000000000000     
  -4.2586276416477650E-002   9.3592415132927181E-002   0.0000000000000000     
  -4.3980790387131208E-002  0.10016609601537978        0.0000000000000000     
  -4.5322940547752204E-002  0.10689695161064197        0.0000000000000000     
  -4.4482579190011369E-002   8.1404411096851245E-002   0.0000000000000000     
  -4.6152489313525155E-002   8.7645727762401412E-002   0.0000000000000000     
  -4.7763697585735683E-002   9.4044256663765341E-002   0.0000000000000000     
  -4.9316204006642959E-002  0.10059999780094300        0.0000000000000000     
  -5.0810008576246984E-002  0.10731295117393440        0.0000000000000000     
  -4.9420714098935385E-002   8.1945210927568762E-002   0.0000000000000000     
  -5.1270251780058687E-002   8.8165666510039764E-002   0.0000000000000000     
  -5.3053126317853048E-002   9.4544047066844897E-002   0.0000000000000000     
  -5.4769337712318455E-002  0.10108035259798416        0.0000000000000000     
  -5.6418885963454915E-002  0.10777458310345756        0.0000000000000000     
  -5.4454561771844975E-002   8.2538976998603256E-002   0.0000000000000000     
  -5.6492686035392162E-002   8.8735725206199170E-002   0.0000000000000000     
  -5.8454562612829740E-002   9.5091786342165835E-002   0.0000000000000000     
  -6.0340191504157696E-002  0.10160716040650325        0.0000000000000000     
  -6.2149572709376037E-002  0.10828184739921143        0.0000000000000000     
  -3.9957681877970594E-002  0.10652658441358021        0.0000000000000000     
  -4.1102892418983662E-002  0.11342076529935802        0.0000000000000000     
  -4.2197003013164841E-002  0.12044962120679843        0.0000000000000000     
  -4.3240013660514116E-002  0.12761315213590144        0.0000000000000000     
  -4.4231924361031516E-002  0.13491135808666702        0.0000000000000000     
  -4.5322940547752204E-002  0.10689695161064197        0.0000000000000000     
  -4.6610643213594531E-002  0.11377366197025661        0.0000000000000000     
  -4.7841814699912007E-002  0.12078490714576659        0.0000000000000000     
  -4.9016455006704672E-002  0.12793068713717190        0.0000000000000000     
  -5.0134564133972492E-002  0.13521100194447258        0.0000000000000000     
  -5.0810008576246984E-002  0.10731295117393440        0.0000000000000000     
  -5.2243270407470684E-002  0.11417150781623150        0.0000000000000000     
  -5.3614148613237010E-002  0.12116405876132620        0.0000000000000000     
  -5.4922643193545936E-002  0.12829060400921849        0.0000000000000000     
  -5.6168754148397504E-002  0.13555114355990835        0.0000000000000000     
  -5.6418885963454915E-002  0.10777458310345756        0.0000000000000000     
  -5.8000774000612147E-002  0.11461430283728273        0.0000000000000000     
  -5.9514004753139810E-002  0.12158707605347727        0.0000000000000000     
  -6.0958578221037944E-002  0.12869290275204112        0.0000000000000000     
  -6.2334494404306523E-002  0.13593178293297439        0.0000000000000000     
  -6.2149572709376037E-002  0.10828184739921143        0.0000000000000000     
  -6.3883153993018901E-002  0.11510204703341027        0.0000000000000000     
  -6.5541383119620461E-002  0.12205395902221979        0.0000000000000000     
  -6.7124260089180668E-002  0.12913758336563988        0.0000000000000000     
  -6.8631784901699577E-002  0.13635292006367064        0.0000000000000000     
  -4.4231924361031516E-002  0.13491135808666702        0.0000000000000000     
  -4.5171858039538590E-002  0.14233238840361967        0.0000000000000000     
  -4.6058937620856902E-002  0.14986439243128388        0.0000000000000000     
  -4.6893163104986466E-002  0.15750737016965968        0.0000000000000000     
  -4.7674534491927274E-002  0.16526132161874704        0.0000000000000000     
  -5.0134564133972492E-002  0.13521100194447258        0.0000000000000000     
  -5.1195079273563773E-002  0.14261392328731534        0.0000000000000000     
  -5.2196937617326772E-002  0.15012752288534706        0.0000000000000000     
  -5.3140139165261509E-002  0.15775180073856765        0.0000000000000000     
  -5.4024683917367970E-002  0.16548675684697711        0.0000000000000000     
  -5.6168754148397504E-002  0.13555114355990835        0.0000000000000000     
  -5.7351735926130333E-002  0.14293397979411682        0.0000000000000000     
  -5.8470842975083114E-002  0.15042741509256474        0.0000000000000000     
  -5.9526075295255831E-002  0.15803144945525210        0.0000000000000000     
  -6.0517432886648515E-002  0.16574608288217901        0.0000000000000000     
  -6.2334494404306523E-002  0.13593178293297439        0.0000000000000000     
  -6.3641827997238276E-002  0.14329255792402398        0.0000000000000000     
  -6.4880653694125934E-002  0.15076406905293691        0.0000000000000000     
  -6.6050971494969454E-002  0.15834631631971310        0.0000000000000000     
  -6.7152781399768893E-002  0.16603929972435269        0.0000000000000000     
  -6.8631784901699577E-002  0.13635292006367064        0.0000000000000000     
  -7.0065355486887609E-002  0.14368965767703690        0.0000000000000000     
  -7.1426369774455212E-002  0.15113748476646358        0.0000000000000000     
  -7.2714827764402357E-002  0.15869640133195065        0.0000000000000000     
  -7.3930729456729100E-002  0.16636640737349817        0.0000000000000000     
  -4.7674534491927274E-002  0.16526132161874704        0.0000000000000000     
  -4.8401853058430415E-002  0.17311503901903777        0.0000000000000000     
  -4.9073920081247002E-002  0.18105731461102373        0.0000000000000000     
  -4.9690735560377029E-002  0.18908814839470486        0.0000000000000000     
  -5.0252299495820482E-002  0.19720754037008120        0.0000000000000000     
  -5.4024683917367970E-002  0.16548675684697711        0.0000000000000000     
  -5.4849900706815183E-002  0.17332129379706274        0.0000000000000000     
  -5.5615118366772152E-002  0.18124431417531175        0.0000000000000000     
  -5.6320336897238907E-002  0.18925581798172417        0.0000000000000000     
  -5.6965556298215425E-002  0.19735580521629995        0.0000000000000000     
  -6.0517432886648515E-002  0.16574608288217901        0.0000000000000000     
  -6.1444382990707556E-002  0.17356027421204617        0.0000000000000000     
  -6.2306392848879413E-002  0.18146298228355440        0.0000000000000000     
  -6.3103462461164092E-002  0.18945420709670369        0.0000000000000000     
  -6.3835591827561572E-002  0.19753394865149404        0.0000000000000000     
  -6.7152781399768893E-002  0.16603929972435269        0.0000000000000000     
  -6.8185299910107536E-002  0.17383198026398802        0.0000000000000000     
  -6.9147743527568778E-002  0.18171331893575166        0.0000000000000000     
  -7.0040112252152564E-002  0.18968331573964348        0.0000000000000000     
  -7.0862406083858923E-002  0.19774197067566360        0.0000000000000000     
  -7.3930729456729100E-002  0.16636640737349817        0.0000000000000000     
  -7.5072651465015142E-002  0.17413641195288834        0.0000000000000000     
  -7.6139170402840212E-002  0.18199532413190347        0.0000000000000000     
  -7.7130286270204337E-002  0.18994314391054351        0.0000000000000000     
  -7.8045999067107491E-002  0.19797987128880851        0.0000000000000000     
  -5.0252299495820482E-002  0.19720754037008120        0.0000000000000000     
  -5.0755824923328419E-002  0.20540694807505100        0.0000000000000000     
  -5.1198524878651890E-002  0.21367782904751242        0.0000000000000000     
  -5.1580399361790881E-002  0.22202018328746556        0.0000000000000000     
  -5.1901448372745400E-002  0.23043401079491027        0.0000000000000000     
  -5.6965556298215425E-002  0.19735580521629995        0.0000000000000000     
  -5.7546918982597436E-002  0.20553720114645790        0.0000000000000000     
  -5.8060567363280684E-002  0.21379293103961680        0.0000000000000000     
  -5.8506501440265146E-002  0.22212299489577661        0.0000000000000000     
  -5.8884721213550838E-002  0.23052739271493738        0.0000000000000000     
  -6.3835591827561572E-002  0.19753394865149404        0.0000000000000000     
  -6.4499177653023820E-002  0.20569589738436855        0.0000000000000000     
  -6.5090616642502749E-002  0.21393374373177035        0.0000000000000000     
  -6.5609908795998387E-002  0.22224748769369931        0.0000000000000000     
  -6.6057054113510705E-002  0.23063712927015548        0.0000000000000000     
  -7.0862406083858923E-002  0.19774197067566360        0.0000000000000000     
  -7.1612600934607556E-002  0.20588303678878306        0.0000000000000000     
  -7.2288672716318100E-002  0.21410026712397301        0.0000000000000000     
  -7.2890621428990582E-002  0.22239366168123356        0.0000000000000000     
  -7.3418447072625015E-002  0.23076322046056458        0.0000000000000000     
  -7.8045999067107491E-002  0.19797987128880851        0.0000000000000000     
  -7.8887188827348645E-002  0.20609861935970131        0.0000000000000000     
  -7.9654735584726730E-002  0.21429250121622498        0.0000000000000000     
  -8.0348639339241759E-002  0.22256151685837938        0.0000000000000000     
  -8.0968900090893733E-002  0.23090566628616460        0.0000000000000000     
  -5.1901448372745400E-002  0.23043401079491027        0.0000000000000000     
  -5.2169841555158934E-002  0.23891100047001554        0.0000000000000000     
  -5.2393748552674937E-002  0.24744284121295007        0.0000000000000000     
  -5.2573169365293430E-002  0.25602953302371390        0.0000000000000000     
  -5.2708103993014420E-002  0.26467107590230687        0.0000000000000000     
  -5.8884721213550838E-002  0.23052739271493738        0.0000000000000000     
  -5.9201459701659374E-002  0.23900543953215128        0.0000000000000000     
  -5.9462949923112386E-002  0.24755645038247034        0.0000000000000000     
  -5.9669191877909866E-002  0.25618042526589468        0.0000000000000000     
  -5.9820185566051821E-002  0.26487736418242419        0.0000000000000000     
  -6.6057054113510705E-002  0.23063712927015548        0.0000000000000000     
  -6.6434548514461012E-002  0.23910936932745305        0.0000000000000000     
  -6.6744887918270560E-002  0.24767090873190611        0.0000000000000000     
  -6.6988072324939363E-002  0.25632174748351472        0.0000000000000000     
  -6.7164101734467421E-002  0.26506188558227878        0.0000000000000000     
  -7.3418447072625015E-002  0.23076322046056458        0.0000000000000000     
  -7.3869107993563818E-002  0.23922278985592088        0.0000000000000000     
  -7.4239562538149464E-002  0.24778621626125732        0.0000000000000000     
  -7.4529810706381927E-002  0.25645349967657394        0.0000000000000000     
  -7.4739852498261219E-002  0.26522464010187069        0.0000000000000000     
  -8.0968900090893733E-002  0.23090566628616460        0.0000000000000000     
  -8.1505138138967786E-002  0.23934570111755474        0.0000000000000000     
  -8.1946973782749066E-002  0.24790237297052406        0.0000000000000000     
  -8.2294407022237545E-002  0.25657568184507240        0.0000000000000000     
  -8.2547437857433223E-002  0.26536562774119993        0.0000000000000000     
  -5.2708103993014420E-002  0.26467107590230687        0.0000000000000000     
  -5.2829405159083700E-002  0.27331828545777404        0.0000000000000000     
  -5.2967925586747067E-002  0.28192197729915980        0.0000000000000000     
  -5.3123665276004539E-002  0.29048215142646433        0.0000000000000000     
  -5.3296624226856104E-002  0.29899880783968746        0.0000000000000000     
  -5.9820185566051821E-002  0.26487736418242419        0.0000000000000000     
  -5.9952811200722635E-002  0.27360313550410292        0.0000000000000000     
  -6.0103948995106737E-002  0.28231360760297503        0.0000000000000000     
  -6.0273598949204109E-002  0.29100878047904027        0.0000000000000000     
  -6.0461761063014763E-002  0.29968865413229889        0.0000000000000000     
  -6.7164101734467421E-002  0.26506188558227878        0.0000000000000000     
  -6.7313213025579369E-002  0.27386146560727076        0.0000000000000000     
  -6.7475643076999894E-002  0.28269063013756307        0.0000000000000000     
  -6.7651391888728971E-002  0.29154937917315560        0.0000000000000000     
  -6.7840459460766611E-002  0.30043771271404845        0.0000000000000000     
  -7.4739852498261219E-002  0.26522464010187069        0.0000000000000000     
  -7.4910610633653910E-002  0.27409327576727732        0.0000000000000000     
  -7.5083007832426538E-002  0.28305304490292377        0.0000000000000000     
  -7.5257044094579117E-002  0.29210394750881014        0.0000000000000000     
  -7.5432719420111621E-002  0.30124598358493621        0.0000000000000000     
  -8.2547437857433223E-002  0.26536562774119993        0.0000000000000000     
  -8.2745004024946209E-002  0.27429856598412283        0.0000000000000000     
  -8.2926043261386653E-002  0.28340085189905756        0.0000000000000000     
  -8.3090555566754529E-002  0.29267248548600394        0.0000000000000000     
  -8.3238540941049835E-002  0.30211346674496220        0.0000000000000000     
  -4.5261235567507004E-002   5.9498012697064145E-002   0.0000000000000000     
  -4.7726129701953363E-002   6.4990615771429616E-002   0.0000000000000000     
  -5.0079982114158476E-002   7.0661644179807970E-002   0.0000000000000000     
  -5.2322792804122359E-002   7.6511097922199178E-002   0.0000000000000000     
  -5.4454561771844975E-002   8.2538976998603256E-002   0.0000000000000000     
  -4.9622244099323760E-002   6.0223644894066827E-002   0.0000000000000000     
  -5.2342863244343306E-002   6.5700567008461358E-002   0.0000000000000000     
  -5.4931223295704219E-002   7.1352811878598543E-002   0.0000000000000000     
  -5.7387324253406480E-002   7.7180379504478383E-002   0.0000000000000000     
  -5.9711166117450101E-002   8.3183269886100891E-002   0.0000000000000000     
  -5.4809446820972940E-002   6.1003486789983373E-002   0.0000000000000000     
  -5.7602568725325674E-002   6.6462869458768101E-002   0.0000000000000000     
  -6.0284963397357887E-002   7.2094690911067100E-002   0.0000000000000000     
  -6.2856630837069577E-002   7.7898951146880321E-002   0.0000000000000000     
  -6.5317571044460745E-002   8.3875650166207807E-002   0.0000000000000000     
  -6.0822843732454550E-002   6.1837538384813769E-002   0.0000000000000000     
  -6.3505246144900440E-002   6.7277523122349872E-002   0.0000000000000000     
  -6.6141202419119485E-002   7.2887281277213625E-002   0.0000000000000000     
  -6.8730712555111609E-002   7.8666812849404966E-002   0.0000000000000000     
  -7.1273776552876866E-002   8.4616117838923949E-002   0.0000000000000000     
  -6.7662434833768575E-002   6.2725799678558028E-002   0.0000000000000000     
  -7.0050895503067645E-002   6.8144527999206672E-002   0.0000000000000000     
  -7.2499940360989001E-002   7.3730582977038106E-002   0.0000000000000000     
  -7.5009569407532631E-002   7.9483964612052344E-002   0.0000000000000000     
  -7.7579782642698519E-002   8.5404672904249385E-002   0.0000000000000000     
  -5.4454561771844975E-002   8.2538976998603256E-002   0.0000000000000000     
  -5.6492686035392162E-002   8.8735725206199170E-002   0.0000000000000000     
  -5.8454562612829740E-002   9.5091786342165835E-002   0.0000000000000000     
  -6.0340191504157696E-002  0.10160716040650325        0.0000000000000000     
  -6.2149572709376037E-002  0.10828184739921143        0.0000000000000000     
  -5.9711166117450101E-002   8.3183269886100891E-002   0.0000000000000000     
  -6.1926933008847294E-002   8.9354294339957521E-002   0.0000000000000000     
  -6.4058809048610235E-002   9.5686264182539726E-002   0.0000000000000000     
  -6.6106794236738944E-002  0.10217917941384751        0.0000000000000000     
  -6.8070888573233401E-002  0.10883304003388085        0.0000000000000000     
  -6.5317571044460745E-002   8.3875650166207807E-002   0.0000000000000000     
  -6.7680133629745773E-002   9.0019764400392679E-002   0.0000000000000000     
  -6.9956668203138991E-002   9.6326270280778156E-002   0.0000000000000000     
  -7.2147174764640443E-002  0.10279516780736418        0.0000000000000000     
  -7.4251653314250099E-002  0.10942645698015077        0.0000000000000000     
  -7.1273776552876866E-002   8.4616117838923949E-002   0.0000000000000000     
  -7.3752287898087590E-002   9.0732135387504645E-002   0.0000000000000000     
  -7.6148140076416015E-002   9.7011804636881055E-002   0.0000000000000000     
  -7.8461333087862198E-002  0.10345512558705325        0.0000000000000000     
  -8.0691866932426096E-002  0.11006209823802120        0.0000000000000000     
  -7.7579782642698519E-002   8.5404672904249385E-002   0.0000000000000000     
  -8.0143395813872739E-002   9.1491407301293376E-002   0.0000000000000000     
  -8.2633224668441294E-002   9.7742867250848506E-002   0.0000000000000000     
  -8.5049269206404224E-002  0.10415905275291473        0.0000000000000000     
  -8.7391529427761488E-002  0.11073996380749208        0.0000000000000000     
  -6.2149572709376037E-002  0.10828184739921143        0.0000000000000000     
  -6.3883153993018901E-002  0.11510204703341027        0.0000000000000000     
  -6.5541383119620461E-002  0.12205395902221979        0.0000000000000000     
  -6.7124260089180668E-002  0.12913758336563988        0.0000000000000000     
  -6.8631784901699577E-002  0.13635292006367064        0.0000000000000000     
  -6.8070888573233401E-002  0.10883304003388085        0.0000000000000000     
  -6.9952297428714463E-002  0.11563248048456055        0.0000000000000000     
  -7.1752226173802988E-002  0.12256213520780741        0.0000000000000000     
  -7.3470674808498990E-002  0.12962200420362138        0.0000000000000000     
  -7.5107643332802412E-002  0.13681208747200249        0.0000000000000000     
  -7.4251653314250099E-002  0.10942645698015077        0.0000000000000000     
  -7.6270091351722330E-002  0.11620334327067999        0.0000000000000000     
  -7.8202476376811533E-002  0.12310903215049382        0.0000000000000000     
  -8.0048808389517681E-002  0.13014352361959225        0.0000000000000000     
  -8.1809087389840787E-002  0.13730681767797531        0.0000000000000000     
  -8.0691866932426096E-002  0.11006209823802120        0.0000000000000000     
  -8.2836535762042501E-002  0.11681463539176856        0.0000000000000000     
  -8.4892133728646055E-002  0.12369464985027902        0.0000000000000000     
  -8.6858660832236784E-002  0.13070214161355251        0.0000000000000000     
  -8.8736117072814674E-002  0.13783711068158908        0.0000000000000000     
  -8.7391529427761488E-002  0.11073996380749208        0.0000000000000000     
  -8.9651630659674977E-002  0.11746635684782625        0.0000000000000000     
  -9.1821198229306580E-002  0.12431898830716293        0.0000000000000000     
  -9.3900232136656298E-002  0.13129785818550216        0.0000000000000000     
  -9.5888732381724115E-002  0.13840296648284389        0.0000000000000000     
  -6.8631784901699577E-002  0.13635292006367064        0.0000000000000000     
  -7.0065355486887609E-002  0.14368965767703690        0.0000000000000000     
  -7.1426369774455212E-002  0.15113748476646358        0.0000000000000000     
  -7.2714827764402357E-002  0.15869640133195065        0.0000000000000000     
  -7.3930729456729100E-002  0.16636640737349817        0.0000000000000000     
  -7.5107643332802412E-002  0.13681208747200249        0.0000000000000000     
  -7.6665522290738961E-002  0.14412316405333184        0.0000000000000000     
  -7.8146702226334269E-002  0.15154601298799053        0.0000000000000000     
  -7.9551183139588325E-002  0.15908063427597857        0.0000000000000000     
  -8.0878965030501127E-002  0.16672702791729596        0.0000000000000000     
  -8.1809087389840787E-002  0.13730681767797531        0.0000000000000000     
  -8.3485532304452978E-002  0.14459096205308503        0.0000000000000000     
  -8.5080362060026393E-002  0.15198800447236349        0.0000000000000000     
  -8.6593576656561047E-002  0.15949794493581068        0.0000000000000000     
  -8.8025176094056898E-002  0.16712078344342657        0.0000000000000000     
  -8.8736117072814674E-002  0.13783711068158908        0.0000000000000000     
  -9.0525385528029662E-002  0.14509305167629652        0.0000000000000000     
  -9.2227349275531598E-002  0.15246345921958246        0.0000000000000000     
  -9.3842008315320538E-002  0.15994833331144695        0.0000000000000000     
  -9.5369362647396469E-002  0.16754767395188996        0.0000000000000000     
  -9.5888732381724115E-002  0.13840296648284389        0.0000000000000000     
  -9.7785081961468998E-002  0.14562943292296626        0.0000000000000000     
  -9.9587663872849896E-002  0.15297237722964746        0.0000000000000000     
 -0.10129647811586683       0.16043179940288743        0.0000000000000000     
 -0.10291152469051976       0.16800769944268618        0.0000000000000000     
  -7.3930729456729100E-002  0.16636640737349817        0.0000000000000000     
  -7.5072651465015142E-002  0.17413641195288834        0.0000000000000000     
  -7.6139170402840212E-002  0.18199532413190347        0.0000000000000000     
  -7.7130286270204337E-002  0.18994314391054351        0.0000000000000000     
  -7.8045999067107491E-002  0.19797987128880851        0.0000000000000000     
  -8.0878965030501127E-002  0.16672702791729596        0.0000000000000000     
  -8.2128484618981326E-002  0.17447379034615140        0.0000000000000000     
  -8.3298178624937491E-002  0.18230951799675363        0.0000000000000000     
  -8.4388047048369691E-002  0.19023421086910253        0.0000000000000000     
  -8.5398089889277870E-002  0.19824786896319824        0.0000000000000000     
  -8.8025176094056898E-002  0.16712078344342657        0.0000000000000000     
  -8.9374846335556993E-002  0.17484433651118148        0.0000000000000000     
  -9.0642273344104324E-002  0.18265642065504575        0.0000000000000000     
  -9.1827457119698891E-002  0.19055703587501935        0.0000000000000000     
  -9.2930397662340694E-002  0.19854618217110229        0.0000000000000000     
  -9.5369362647396469E-002  0.16754767395188996        0.0000000000000000     
  -9.6811736614742225E-002  0.17524805044797859        0.0000000000000000     
  -9.8171454560340723E-002  0.18303603210677993        0.0000000000000000     
  -9.9448516484191951E-002  0.19091161892829392        0.0000000000000000     
 -0.10064292238629592       0.19887481091252057        0.0000000000000000     
 -0.10291152469051976       0.16800769944268618        0.0000000000000000     
 -0.10443915545653695       0.17568493215654274        0.0000000000000000     
 -0.10588572227364666       0.18344835235195608        0.0000000000000000     
 -0.10725122514184889       0.19129796002892621        0.0000000000000000     
 -0.10853566406114361       0.19923375518745312        0.0000000000000000     
  -7.8045999067107491E-002  0.19797987128880851        0.0000000000000000     
  -7.8887188827348645E-002  0.20609861935970131        0.0000000000000000     
  -7.9654735584726730E-002  0.21429250121622498        0.0000000000000000     
  -8.0348639339241759E-002  0.22256151685837938        0.0000000000000000     
  -8.0968900090893733E-002  0.23090566628616460        0.0000000000000000     
  -8.5398089889277870E-002  0.19824786896319824        0.0000000000000000     
  -8.6331997950494441E-002  0.20634316678846737        0.0000000000000000     
  -8.7193462034851787E-002  0.21451277885433664        0.0000000000000000     
  -8.7982482142349869E-002  0.22275670516080603        0.0000000000000000     
  -8.8699058272988754E-002  0.23107494570787548        0.0000000000000000     
  -9.2930397662340694E-002  0.19854618217110229        0.0000000000000000     
  -9.3956084923292313E-002  0.20661720076642515        0.0000000000000000     
  -9.4909508853816396E-002  0.21476343288411856        0.0000000000000000     
  -9.5790669453912958E-002  0.22298487852418253        0.0000000000000000     
  -9.6599566723581942E-002  0.23128153768661713        0.0000000000000000     
 -0.10064292238629592       0.19887481091252057        0.0000000000000000     
 -0.10175944974574226       0.20692072129357461        0.0000000000000000     
 -0.10280287604162058       0.21504446330557081        0.0000000000000000     
 -0.10377320127393093       0.22324603694850909        0.0000000000000000     
 -0.10467042544267326       0.23152544222238941        0.0000000000000000     
 -0.10853566406114361       0.19923375518745312        0.0000000000000000     
 -0.10974209241784430       0.20725372836991582        0.0000000000000000     
 -0.11087356359826438       0.21535587011869328        0.0000000000000000     
 -0.11193007760240387       0.22354018043378548        0.0000000000000000     
 -0.11291163443026275       0.23180665931519245        0.0000000000000000     
  -8.0968900090893733E-002  0.23090566628616460        0.0000000000000000     
  -8.1505138138967786E-002  0.23934570111755474        0.0000000000000000     
  -8.1946973782749066E-002  0.24790237297052406        0.0000000000000000     
  -8.2294407022237545E-002  0.25657568184507240        0.0000000000000000     
  -8.2547437857433223E-002  0.26536562774119993        0.0000000000000000     
  -8.8699058272988754E-002  0.23107494570787548        0.0000000000000000     
  -8.9329029881028935E-002  0.23949306732818265        0.0000000000000000     
  -8.9858236420730916E-002  0.24803663685436506        0.0000000000000000     
  -9.0286677892094741E-002  0.25670565428642272        0.0000000000000000     
  -9.0614354295120381E-002  0.26550011962435560        0.0000000000000000     
  -9.6599566723581942E-002  0.23128153768661713        0.0000000000000000     
  -9.7327174150103210E-002  0.23967985270363260        0.0000000000000000     
  -9.7964465220756608E-002  0.24820626590743941        0.0000000000000000     
  -9.8511439935542094E-002  0.25686077729803747        0.0000000000000000     
  -9.8968098294459683E-002  0.26564338687542699        0.0000000000000000     
 -0.10467042544267326       0.23152544222238941        0.0000000000000000     
 -0.10549957094619061       0.23990605724390451        0.0000000000000000     
 -0.10626566018282607       0.24841126012974699        0.0000000000000000     
 -0.10696869315257958       0.25704105087991680        0.0000000000000000     
 -0.10760866985545114       0.26579542949441398        0.0000000000000000     
 -0.11291163443026275       0.23180665931519245        0.0000000000000000     
 -0.11384622026929118       0.24017168094899843        0.0000000000000000     
 -0.11476182130693934       0.24865161952128784        0.0000000000000000     
 -0.11565843754320719       0.25724647503206050        0.0000000000000000     
 -0.11653606897809474       0.26595624748131663        0.0000000000000000     
  -8.2547437857433223E-002  0.26536562774119993        0.0000000000000000     
  -8.2745004024946209E-002  0.27429856598412283        0.0000000000000000     
  -8.2926043261386653E-002  0.28340085189905756        0.0000000000000000     
  -8.3090555566754529E-002  0.29267248548600394        0.0000000000000000     
  -8.3238540941049835E-002  0.30211346674496220        0.0000000000000000     
  -9.0614354295120381E-002  0.26550011962435560        0.0000000000000000     
  -9.0871550019308578E-002  0.27448302311238471        0.0000000000000000     
  -9.1088549454160075E-002  0.28371735499473083        0.0000000000000000     
  -9.1265352599674873E-002  0.29320311527139409        0.0000000000000000     
  -9.1401959455852944E-002  0.30294030394237437        0.0000000000000000     
  -9.8968098294459683E-002  0.26564338687542699        0.0000000000000000     
  -9.9345405436593245E-002  0.27465233400664046        0.0000000000000000     
  -9.9654326501026583E-002  0.28398585805871052        0.0000000000000000     
  -9.9894861487759723E-002  0.29364395903163731        0.0000000000000000     
 -0.10006701039679265       0.30362663692542075        0.0000000000000000     
 -0.10760866985545114       0.26579542949441398        0.0000000000000000     
 -0.10816657027680024       0.27480649866689011        0.0000000000000000     
 -0.10862337440198620       0.28420636109099673        0.0000000000000000     
 -0.10897908223100913       0.29399501676673373        0.0000000000000000     
 -0.10923369376386896       0.30417246569410133        0.0000000000000000     
 -0.11653606897809474       0.26595624748131663        0.0000000000000000     
 -0.11733504453992949       0.27494551709313364        0.0000000000000000     
 -0.11799569315703895       0.28437886409158925        0.0000000000000000     
 -0.11851801482942309       0.29425628847668345        0.0000000000000000     
 -0.11890200955708191       0.30457779024841619        0.0000000000000000     
 </DataArray>
 <DataArray  type="Float64" Name="stress" NumberOfComponents="3" format="ascii">
   4396080345.0832920       -438678885.80434632       -1416091093.1297386     
   4537949016.9765396       -353521833.22311711       -1007810829.4136801     
   4681297225.3871145       -263432992.25079513       -694352648.55992687     
   4826124970.3150187       -168412362.88737679       -475716550.56847155     
   4972432251.7602472       -68459945.132880211       -351902535.43931133     
   5163488982.1697302       -104373591.50342441       -791184898.48761964     
   5078359126.4746447       -90884408.860895157       -516400343.79048645     
   4994847177.0292234       -72002205.386150122       -304869219.00545943     
   4912953133.8334627       -47726981.079205036       -156591524.13253090     
   4832676996.8873739       -18058735.940030098       -71567259.171706051     
   5499220827.5187321        100428665.27626657       -167731847.08507732     
   5277288595.5215883        69308823.365975142       -26281570.052475102     
   5057112639.5064478        44043234.729016304        83483930.018222690     
   4838692959.4733067        24631899.365400314        161564653.12701321     
   4622029555.4221659        11074817.275109768        207960599.27389354     
   5403275881.1303177        175727884.53473258        454268061.07788461     
   5134737424.1173935        127057863.45750546        462545491.80034721     
   4868093612.8188047        84703328.094732761        470706798.51109761     
   4603344447.2345552        48664278.446420670        478751981.21014798     
   4340489927.3646402        18940714.512559175        486681039.89748257     
   4875654143.0044727        121524066.27196908        1074814826.0012572     
   4650705612.2620440        82362711.413686037        950080841.76797903     
   4427790096.9662828        49978074.710975409        856799386.47318459     
   4206907597.1172047        24370156.163861752        794970460.11688042     
   3988058112.7147913        5538955.7723088264        764594062.69906139     
   4972432251.7602472       -68459945.132880211       -351902535.43931133     
   4835666179.4710169       -52127093.658715963       -281713859.70582330     
   4698279322.2073050       -37863525.432816982       -220111905.42884403     
   4560271679.9691267       -25669240.455134153       -167096672.60840178     
   4421643252.7564735       -15544238.725716114       -122668161.24447858     
   4832676996.8873739       -18058735.940030098       -71567259.171706051     
   4676434967.1476622       -9846707.6479370594       -24950861.081864651     
   4519454295.5479622       -4096818.8891603947        17144788.852303058     
   4361734982.0882759       -809069.66366434097        54719690.630801238     
   4203277026.7686043        16540.028557062149        87773844.253630221     
   4622029555.4221659        11074817.275109768        207960599.27389354     
   4457928634.8058519        14651142.357296467        230867220.02030867     
   4292971215.4440312        15372471.621126413        253319065.91190770     
   4127157297.3367114        13238805.066617727        275316136.94869262     
   3960486880.4838820        8250142.6937575340        296858433.13065147     
   4340489927.3646402        18940714.512559175        486681039.89748257     
   4180147182.4455814        21366456.356989622        485740383.60070366     
   4018830081.8955078        20544346.098025560        488410925.74996650     
   3856538625.7144127        16474383.735666513        494692666.34526294     
   3693272813.9023013        9156569.2699089050        504585605.38659179     
   3988058112.7147913        5538955.7723088264        764594062.69906139     
   3843090610.0668592        10299234.351152182        739668629.65932763     
   3697030894.9023991        11418804.541559696        722420368.36647677     
   3549878967.2213969        8897666.3434960842        712849278.82052410     
   3401634827.0238647        2735819.7570066452        710955361.02145314     
   4421643252.7564735       -15544238.725716114       -122668161.24447858     
   4247743674.9937019       -15794246.551910877       -110701220.37112841     
   4074600927.6621742       -13521486.273963928       -98228238.193364382     
   3902215010.7618799       -8725957.8918919563       -85249214.711190984     
   3730585924.2928391       -1407661.4056625366       -71764149.924584508     
   4203277026.7686043        16540.028557062149        87773844.253630221     
   4031327620.3839827       -3094758.0037236214        92681455.953284964     
   3860189731.1967468       -3500998.7113859653        99243455.917733625     
   3689863359.2068644       -1202182.0945179462        107459844.14697649     
   3520348504.4143662        3801691.8469290733        117330620.64101134     
   3960486880.4838820        8250142.6937575340        296858433.13065147     
   3793768636.7927732        3261851.8500332832        294770516.88376993     
   3627916597.0651655        1160907.5513250828        295485335.86205494     
   3462930761.3010554        1947309.7976112366        299002890.06549889     
   3298811129.5004458        5621058.5888929367        305323179.49412090     
   3693272813.9023013        9156569.2699089050        504585605.38659179     
   3535066724.2200537        3275583.0093357563        495565962.42032123     
   3377781525.2674360        464232.51419520378        490497401.63959396     
   3221417217.0444460        722517.78449022770        489379923.04440278     
   3065973799.5510926        4050438.8202236891        492213526.63476151     
   3401634827.0238647        2735819.7570066452        710955361.02145314     
   3255221882.6658287       -3053564.5258219242        695067792.56294692     
   3109784515.8035631       -5591023.8227691650        684279653.25036192     
   2965322726.4370513       -4876558.1338573694        678590943.08368218     
   2821836514.5663033       -910167.45907318592        678001662.06292105     
   3730585924.2928391       -1407661.4056625366       -71764149.924584508     
   3551805162.7864037        2769578.0012216568       -62704740.427560039     
   3371611161.2433691        2236017.2861309052       -48587113.250631027     
   3190003919.6637349       -3008343.5509653091       -29411268.393818621     
   3006983438.0475278       -12963504.509981990       -5177205.8570875851     
   3520348504.4143662        3801691.8469290733        117330620.64101134     
   3354399275.4862518        9387740.2374694347        120664197.97835404     
   3187317092.0133777        11197273.478805304        128484857.54599924     
   3019101953.9957361        9230291.5709183216        140792599.34390596     
   2849753861.4333315        3486794.5138106346        157587423.37210238     
   3298811129.5004458        5621058.5888929367        305323179.49412090     
   3144061617.5803251        12126371.292004943        303257924.41226399     
   2988459436.6072741        15789453.818672776        305108616.11106783     
   2832004586.5812678        16610306.168834448        310875254.59054488     
   2674697067.5023289        14588928.342548132        320557839.85066801     
   3065973799.5510926        4050438.8202236891        492213526.63476151     
   2920792189.0686259        10985471.164798498        485076438.87416017     
   2775038195.0250392        16012558.305661082        481284162.44460428     
   2628711817.4203420        19131700.242813230        480836697.34608662     
   2481813056.2545328        20342896.976254106        483734043.57861471     
   2821836514.5663033       -910167.45907318592        678001662.06292105     
   2684590989.9511404        5965039.8558695316        666119741.36404836     
   2547053367.2666903        11866586.939840674        657011496.54658830     
   2409223646.5129571        16794473.792870879        650676927.61055064     
   2271101827.6899257        20748700.414916635        647116034.55593896     
   3006983438.0475278       -12963504.509981990       -5177205.8570875851     
   2850586278.0385170       -15478061.749171376       -1740303.2301730972     
   2695242099.1019106       -14482682.080324173       -219340.90368863195     
   2540950901.2377458       -9977365.5033385754       -614318.87763034704     
   2387712684.4459944       -1962112.0183284283       -2925237.1519892751     
   2849753861.4333315        3486794.5138106346        157587423.37210238     
   2690018358.0433793        33685.016999483109        156571959.00430694     
   2531024563.5774550       -947061.39970648289        155121067.47261077     
   2372772478.0355711        544555.26372539997        153234748.77697158     
   2215262101.4177194        4508535.0072652102        150913002.91743162     
   2674697067.5023289        14588928.342548132        320557839.85066801     
   2515853258.2643061        11466277.847996354        314726857.64840549     
   2357439885.8019137        9778416.6055705547        309940961.41871774     
   2199456950.1151776        9525344.6153365374        306200151.16161329     
   2041904451.2040982        10707061.877268553        303504426.87708300     
   2481813056.2545328        20342896.976254106        483734043.57861471     
   2328090978.7012916        18819716.743800998        472724392.70208955     
   2174488065.7752986        17693751.935532808        464240340.93463910     
   2021004317.4765780        16965002.551479459        458281888.27626866     
   1867639733.8051119        16633468.591635942        454849034.72697598     
   2271101827.6899257        20748700.414916635        647116034.55593896     
   2126731519.3543355        22094001.704426169        630564564.16536331     
   1982169103.4976044        22798944.590156317        618019206.02036822     
   1837414580.1197596        22863529.072162986        609479960.12096047     
   1692467949.2207892        22287755.150428832        604946826.46712577     
   2387712684.4459944       -1962112.0183284283       -2925237.1519892751     
   2246241036.6532197        6191638.7772768736       -8288591.5565250171     
   2101480271.4875002        3381664.9964005947       -11905261.994835317     
   1953430388.9488235       -10392033.361003757       -13775248.466912488     
   1802091389.0372164       -35129456.294834256       -13898550.972759092     
   2215262101.4177194        4508535.0072652102        150913002.91743162     
   2077181925.7793739        12088079.036270976        141653498.06726661     
   1936900593.2993457        12330433.593011379        133388643.23889515     
   1794418103.9776866        5235598.6776328087        126118438.43230121     
   1649734457.8143525       -9196425.7099974155        119842883.64747904     
   2041904451.2040982        10707061.877268553        303504426.87708300     
   1905067079.3074675        17067798.615857005        291618058.86780840     
   1767116511.1004543        19717880.986506104        279974306.93584740     
   1628052746.5830524        18657308.989206374        268573171.08122915     
   1487875785.7552738        13886082.623968482        257414651.30393794     
   1867639733.8051119        16633468.591635942        454849034.72697598     
   1729896497.2374916        21130797.516003728        441605090.84507114     
   1592128024.8907623        25544007.176708162        427851729.09605038     
   1454334316.7649255        29873097.573719084        413588949.47990006     
   1316515372.8600059        34118068.707100868        398816751.99663401     
   1692467949.2207892        22287755.150428832        604946826.46712577     
   1551670179.5694470        24277075.736739874        591614593.99908590     
   1411935134.6702838        29808812.163662553        577020909.71947360     
   1273262814.5233130        38882964.431219995        561165773.62829053     
   1135653219.1285131        51499532.539345860        544049185.72553861     
   1802091389.0372164       -35129456.294834256       -13898550.972759092     
   1771238935.8259654       -16468231.427260160       -8341279.5137170441     
   1748457589.3006203        29096682.393344045       -41536367.255507335     
   1733747349.4611909        101565285.16700077       -113483814.19811332     
   1727108216.3076642        200937576.89365506       -224183620.34155935     
   1649734457.8143525       -9196425.7099974155        119842883.64747904     
   1527229469.8425591       -13986274.581057787        135423430.05455810     
   1408896129.7404101       -4870630.5533145070        124666172.09403068     
   1294734437.5079260        18150506.373305142        87571109.765922382     
   1184744393.1450896        55077136.198729634        24138243.070215281     
   1487875785.7552738        13886082.623968482        257414651.30393794     
   1309188419.6893592       -3713792.9858066440        278469104.04005730     
   1130773242.6768219       -20406371.750958085        285600307.24184346     
   952630254.71767330       -36191653.671486139        278808260.90926403     
   774759455.81191373       -51069638.747389466        258092965.04235578     
   1316515372.8600059        34118068.707100868        398816751.99663401     
   1117115785.3663526        14349213.358522415        420795742.44283569     
   914088928.10983300       -17510541.199622750        441266038.18793947     
   707434801.09043324       -61461194.967360646        460227639.23193198     
   497153404.30816424       -117502747.94468734        477680545.57481802     
   1135653219.1285131        51499532.539345860        544049185.72553861     
   951011566.87354720        40202744.451888561        562403345.26285613     
   758843186.03945088        3816861.1006796658        591663364.93231130     
   559148076.62620902       -57658117.514350802        631829244.73389637     
   351926238.63383716       -144222191.39315856        682900984.66763711     
   1727108216.3076642        200937576.89365506       -224183620.34155935     
   1456622760.7285583        184611834.66182876       -96606032.930775985     
   1153971162.9267430        61065618.354282022        60134038.118472204     
   819153422.90217662       -169701072.02907425        246036592.80614680     
   452169540.65493727       -507688236.48803997        461101631.13224524     
   1184744393.1450896        55077136.198729634        24138243.070215281     
   977669928.72835541        11845215.648047090        155554151.23853841     
   732775536.64424896       -157453130.46054277        312794379.35150832     
   450061216.89276254       -452817902.12707657        495858927.40914041     
   129526969.47389221       -874249099.35157943        704747795.41143966     
   774759455.81191373       -51069638.747389466        258092965.04235578     
   621558372.00392795       -124069020.78294855        386751110.94940025     
   424883575.08389872       -341980779.85865778        537895413.10733235     
   184735065.05180064       -704804915.97458982        711525871.51615965     
  -98887158.092335939       -1212541429.1306472        907642486.17585421     
   497153404.30816424       -117502747.94468734        477680545.57481802     
   388288090.55527055       -223130874.63123983        596984846.20182967     
   230295278.24565962       -492517329.84017277        735437139.38594544     
   23174967.379327238       -925662113.57151997        893037425.12716603     
  -233072842.04372373       -1522565225.8252761        1069785703.4255003     
   351926238.63383716       -144222191.39315856        682900984.66763711     
   277859084.38239092       -285340345.89679116        786255356.99581480     
   149010646.12955156       -609062780.40504503        905419558.18733609     
  -34619076.124678075       -1115389494.9179554        1040393588.2421833     
  -273030082.38028878       -1804320489.4354582        1191177447.1603639     
   4875654143.0044727        121524066.27196908        1074814826.0012572     
   4650705612.2620440        82362711.413686037        950080841.76797903     
   4427790096.9662828        49978074.710975409        856799386.47318459     
   4206907597.1172047        24370156.163861752        794970460.11688042     
   3988058112.7147913        5538955.7723088264        764594062.69906139     
   4198010475.6966896        29132855.743093729        1052066739.5757492     
   4049794679.3805556        13548206.518892527        969175666.04300487     
   3902983645.3200903        2646098.1469225883        908416465.67644370     
   3757577373.5152860       -3573469.3728404045        869789138.47607112     
   3613575863.9661579       -5110496.0403697491        853293684.44187796     
   3647503574.8469610       -25117324.848363876        1029899320.8345550     
   3549390067.8934073       -25114401.957594395        988118195.94617200     
   3452053070.0045109       -22523115.517959595        959148288.45167029     
   3355492581.1802778       -17343465.529457808        942989598.35105085     
   3259708601.4206996       -9575451.9921004772        939642125.64431584     
   3224133440.4552875       -41226475.502404571        1008312569.7776821     
   3149491777.8005981       -33625114.015780687        1006908431.4774821     
   3074998371.0195532       -25529566.283654928        1008994854.7988572     
   3000653220.1121635       -16939832.306016326        1014571839.7418203     
   2926456325.0784264       -7855912.0828750134        1023639386.3063639     
   2927900072.5216718       -19194596.219029784        987306486.40512109     
   2850099809.1021223       -11983929.655669212        1025546372.6369309     
   2771819548.3652182       -6373254.1501535177        1057956164.7180196     
   2693059290.3109574       -2362569.7024930716        1084535862.6483831     
   2613819034.9393382        48123.687305927277        1105285466.4280307     
   3988058112.7147913        5538955.7723088264        764594062.69906139     
   3843090610.0668592        10299234.351152182        739668629.65932763     
   3697030894.9023991        11418804.541559696        722420368.36647677     
   3549878967.2213969        8897666.3434960842        712849278.82052410     
   3401634827.0238647        2735819.7570066452        710955361.02145314     
   3613575863.9661579       -5110496.0403697491        853293684.44187796     
   3487029094.6509743       -288864.37188506126        833959203.77529144     
   3359817499.0795860        2316679.7759034634        821103187.82785654     
   3231941077.2519832        2706136.4029792547        814725636.59958172     
   3103399829.1681662        879505.50935232639        814826550.09046030     
   3259708601.4206996       -9575451.9921004772        939642125.64431584     
   3148157688.2161832       -5719930.4005872011        926397214.65458286     
   3036369335.0157723       -2655875.4620400667        918432061.35627007     
   2924343541.8194714       -383287.17646038532        915746665.74938202     
   2812080308.6272850        1097834.4561547041        918341027.83391726     
   2926456325.0784264       -7855912.0828750134        1023639386.3063639     
   2826476390.7624745       -5993963.7349678278        1016982662.2971951     
   2726686402.7109494       -3498861.1722977161        1014406988.9517164     
   2627086360.9238615       -370604.39483606815        1015912366.2699282     
   2527676265.4012051        3390806.5974014997        1021498794.2518302     
   2613819034.9393382        48123.687305927277        1105285466.4280307     
   2521985202.2898583       -1110964.3750194311        1105715546.7031343     
   2430768702.1651239       -212277.35484886169        1109027970.6141965     
   2340169534.5651541        2744184.7478652000        1115222738.1612170     
   2250187699.4899330        7758421.9330741167        1124299849.3441927     
   3401634827.0238647        2735819.7570066452        710955361.02145314     
   3255221882.6658287       -3053564.5258219242        695067792.56294692     
   3109784515.8035631       -5591023.8227691650        684279653.25036192     
   2965322726.4370513       -4876558.1338573694        678590943.08368218     
   2821836514.5663033       -910167.45907318592        678001662.06292105     
   3103399829.1681662        879505.50935232639        814826550.09046030     
   2970679883.5209327       -2113721.8827254772        802194242.66338778     
   2838682135.1874251       -2699624.8957053423        794350315.04699802     
   2707406584.1676488       -878203.52958071232        791294767.24128234     
   2576853230.4616003        3350542.2156325579        793027599.24624658     
   2812080308.6272850        1097834.4561547041        918341027.83391726     
   2692164649.3044496        634150.23889267445        908668371.22591162     
   2572717807.1133146        1733189.7939693928        903473045.09334874     
   2453739782.0538778        4394953.1213718653        902755049.43622851     
   2335230574.1261463        8619440.2211244106        906514384.25455368     
   2527676265.4012051        3390806.5974014997        1021498794.2518302     
   2419676180.0163846        5190051.8390374184        1014490178.2505192     
   2311891531.5812373        7707420.2462526560        1011647843.3894217     
   2204322320.0957580        10942911.819036603        1012971789.6685268     
   2096968545.5599537        14896526.557398796        1018462017.0878410     
   2250187699.4899330        7758421.9330741167        1124299849.3441927     
   2153214475.6567392        11553982.917708158        1119659663.7372174     
   2056203308.5911849        15223066.461141825        1118874709.9352124     
   1959154198.2932692        18765672.563373566        1121944987.9381766     
   1862067144.7630024        22181801.224429131        1128870497.7461112     
   2821836514.5663033       -910167.45907318592        678001662.06292105     
   2684590989.9511404        5965039.8558695316        666119741.36404836     
   2547053367.2666903        11866586.939840674        657011496.54658830     
   2409223646.5129571        16794473.792870879        650676927.61055064     
   2271101827.6899257        20748700.414916635        647116034.55593896     
   2576853230.4616003        3350542.2156325579        793027599.24624658     
   2446898559.9632630        8618824.8653131723        782276882.17786765     
   2316788680.2449222        13369743.448287249        774731667.31760812     
   2186523591.3065629        17603297.964546442        770391954.66546988     
   2056103293.1481953        21319488.414119601        769257744.22145247     
   2335230574.1261463        8619440.2211244106        906514384.25455368     
   2213800547.2495022        12650935.057005286        897054574.47415781     
   2092352200.0021181        16621361.990423322        891232093.22858655     
   1970885532.3840027        20530721.021402478        889046940.51783919     
   1849400544.3951466        24379012.149927139        890499116.34190786     
   2096968545.5599537        14896526.557398796        1018462017.0878410     
   1985296951.8098454        18061370.430918694        1010452818.2529259     
   1873743926.5382833        21621442.566246867        1006512774.2795268     
   1762309469.7452657        25576742.963397026        1006641885.1676577     
   1650993581.4307857        29927271.622337580        1010840150.9173125     
   1862067144.7630024        22181801.224429131        1128870497.7461112     
   1761387773.6443014        24850130.987072349        1122471613.5141592     
   1660963859.8534186        28369985.175770462        1120573710.4704323     
   1560795403.3903522        32741363.790526032        1123176788.6149259     
   1460882404.2551053        37964266.831352174        1130280847.9476426     
   2271101827.6899257        20748700.414916635        647116034.55593896     
   2126731519.3543355        22094001.704426169        630564564.16536331     
   1982169103.4976044        22798944.590156317        618019206.02036822     
   1837414580.1197596        22863529.072162986        609479960.12096047     
   1692467949.2207892        22287755.150428832        604946826.46712577     
   2056103293.1481953        21319488.414119601        769257744.22145247     
   1922237342.1462617        23578972.690281749        755354121.10901725     
   1788247692.4608064        25426128.021373749        745313695.31843209     
   1654134344.0918510        26860954.407468438        739136466.84970558     
   1519897297.0393760        27883451.848491013        736822435.70282793     
   1849400544.3951466        24379012.149927139        890499116.34190786     
   1725630622.3733652        27430180.906682014        879323150.81815791     
   1601805410.5056808        30297050.177100420        871867467.69253349     
   1477924908.7921000        32979619.961194694        868132066.96502721     
   1353989117.2326143        35477890.258942008        868116948.63565636     
   1650993581.4307857        29927271.622337580        1010840150.9173125     
   1536911360.0356481        33647626.353640378        1002471653.2927886     
   1422842257.6322243        37411711.057334125        997680523.14266992     
   1308786274.2205060        41219525.733374596        996466760.46694350     
   1194743409.8005025        45071070.381794631        998830365.26561797     
   1460882404.2551053        37964266.831352174        1130280847.9476426     
   1356079555.1331091        42231309.031162202        1124799628.5329063     
   1251358233.8404284        46770110.662040949        1122752861.6688337     
   1146718440.3770783        51580671.724009752        1124140547.3554330     
   1042160174.7430420        56662992.217035949        1128962685.5927100     
   1692467949.2207892        22287755.150428832        604946826.46712577     
   1551670179.5694470        24277075.736739874        591614593.99908590     
   1411935134.6702838        29808812.163662553        577020909.71947360     
   1273262814.5233130        38882964.431219995        561165773.62829053     
   1135653219.1285131        51499532.539345860        544049185.72553861     
   1519897297.0393760        27883451.848491013        736822435.70282793     
   1377178064.6492035        26540321.238609970        727489946.93436682     
   1234700571.0856669        26002986.717495382        718709888.91597426     
   1092464816.3487518        26271448.285136461        710482261.64762938     
   950470800.43847859        27345705.941568434        702807065.12934351     
   1353989117.2326143        35477890.258942008        868116948.63565636     
   1214530943.7082648        32357064.934253275        861826386.65363514     
   1074493523.0849969        27305415.946491361        857902137.98330986     
   933876855.36281157        20322943.295665860        856344202.62465894     
   792680940.54169416        11409646.981756061        857152580.57770097     
   1194743409.8005025        45071070.381794631        998830365.26561797     
   1063728816.7466298        41727306.823686838        994623913.15688848     
   931313990.66828299        33716099.850671291        994597656.92148268     
   797498931.56546855        21037449.462761194        998751596.55938840     
   662283639.43818283        3691355.6599338949        1007085732.0706029     
   1042160174.7430420        56662992.217035949        1128962685.5927100     
   924771683.76430130        54651046.906925738        1125882526.4441330     
   805161973.83553505        45235038.430070937        1128796445.7305019     
   683331044.95673978        28414966.786454886        1137704443.4518142     
   559278897.12792015        4190831.9760797322        1152606519.6080673     
   1135653219.1285131        51499532.539345860        544049185.72553861     
   951011566.87354720        40202744.451888561        562403345.26285613     
   758843186.03945088        3816861.1006796658        591663364.93231130     
   559148076.62620902       -57658117.514350802        631829244.73389637     
   351926238.63383716       -144222191.39315856        682900984.66763711     
   950470800.43847859        27345705.941568434        702807065.12934351     
   791436583.46574533        10552456.913542420        720888433.81727087     
   623750443.24942088       -35080536.259773999        749030383.57644188     
   447412379.78951889       -109553273.57835713        787232914.40687156     
   262422393.08601749       -212865755.04226887        835496026.30854821     
   792680940.54169416        11409646.981756061        857152580.57770097     
   656839075.82007921       -11604587.896191329        873648431.30771554     
   511220093.19042653       -67209215.800916165        899359584.04808068     
   355823992.65273821       -155404236.73242372        934286038.79880726     
   190650774.20701501       -276189650.69073403        978427795.55990267     
   662283639.43818283        3691355.6599338949        1007085732.0706029     
   547219043.93656981       -26268389.977263957        1020683337.7341731     
   421252135.86247444       -92569177.522745997        1042650966.3472215     
   284382915.21588886       -195211006.97652099        1072988617.9097309     
   136611381.99682754       -334193878.33855468        1111696292.4217162     
   559278897.12792015        4190831.9760797322        1152606519.6080673     
   462576487.81520802       -33438949.329692274        1161993153.0966692     
   353846571.26555932       -111160421.42525814        1178904530.4738531     
   233089147.47898087       -228973584.31058425        1203340651.7396181     
   100304216.45545381       -386878437.98574454        1235301516.8939650     
   351926238.63383716       -144222191.39315856        682900984.66763711     
   277859084.38239092       -285340345.89679116        786255356.99581480     
   149010646.12955156       -609062780.40504503        905419558.18733609     
  -34619076.124678075       -1115389494.9179554        1040393588.2421833     
  -273030082.38028878       -1804320489.4354582        1191177447.1603639     
   262422393.08601749       -212865755.04226887        835496026.30854821     
   223674958.79565358       -352513874.40438539        884903557.56150818     
   140694786.01995581       -639604455.38426208        945331036.42700088     
   13481874.758930027       -1074137497.9819129        1016778462.9050306     
  -157963774.98743016       -1656113002.1973255        1099245836.9956069     
   190650774.20701501       -276189650.69073403        978427795.55990267     
   173537684.87546027       -418473347.41202646        986195122.17303681     
   122740402.57464522       -673037687.36419511        1000192515.1479143     
   38258927.304551303       -1039882670.5472766        1020419974.4845442     
  -79906740.934797823       -1519008296.9612339        1046877500.1829078     
   136611381.99682754       -334193878.33855468        1111696292.4217162     
   127447262.62182909       -483218764.91968060        1090130050.8304346     
   95147495.793608129       -709362476.34485865        1070003994.3500977     
   39712081.512196779       -1012625012.6140214        1051318122.9807172     
  -38858980.222431719       -1393006373.7272418        1034072436.7222805     
   100304216.45545381       -386878437.98574454        1235301516.8939650     
   85403692.034735173       -546750126.92740679        1196708343.5336752     
   57916065.676873088       -748578822.32620811        1154765474.0335307     
   17841337.381855488       -992364524.18218625        1109472908.3935380     
  -34820492.850298047       -1278107232.4953065        1060830646.6137136     
   2927900072.5216718       -19194596.219029784        987306486.40512109     
   2850099809.1021223       -11983929.655669212        1025546372.6369309     
   2771819548.3652182       -6373254.1501535177        1057956164.7180196     
   2693059290.3109574       -2362569.7024930716        1084535862.6483831     
   2613819034.9393382        48123.687305927277        1105285466.4280307     
   2667983692.2519331        17465864.594643593        1124048332.2801898     
   2577563775.9506030        15252024.913520217        1144028579.0691574     
   2486962290.8561478        12432955.921984911        1162306380.7715864     
   2396179236.9685717        9008657.6200386286        1178881737.3874791     
   2305214614.2878666        4979130.0076757669        1193754648.9168301     
   2351102882.2379637        37036996.485047579        1258447398.5494726     
   2259856596.0953670        28936635.471591711        1260516172.5072057     
   2168727169.6838794        21225806.895167470        1265010150.4425836     
   2077714603.0034988        13904510.755764484        1271929332.3556020     
   1986818896.0542266        6972747.0533965826        1281273718.2462640     
   1977257642.4797585        39518799.452182651        1390503685.2129736     
   1896978269.5364106        29069902.018547058        1375009152.9510765     
   1817114184.8484051        20005298.769386530        1366067473.7310035     
   1737665388.4157438        12324989.704695344        1363678647.5527549     
   1658631880.2384167        6028974.8244621754        1367842674.4163284     
   1546447972.9773166        24911273.496043384        1520217192.2706892     
   1488928796.2737384        15651824.554389119        1487507520.4007652     
   1432123336.3497345        8771431.5446493030        1465478350.6368492     
   1376031593.2052989        4270094.4668033123        1454129682.9789331     
   1320653566.8404417        2147813.3208849430        1453461517.4270246     
   2613819034.9393382        48123.687305927277        1105285466.4280307     
   2521985202.2898583       -1110964.3750194311        1105715546.7031343     
   2430768702.1651239       -212277.35484886169        1109027970.6141965     
   2340169534.5651541        2744184.7478652000        1115222738.1612170     
   2250187699.4899330        7758421.9330741167        1124299849.3441927     
   2305214614.2878666        4979130.0076757669        1193754648.9168301     
   2221603016.8836951        3578078.3214856386        1191694300.5077820     
   2138451604.7626801        3710977.5791447163        1193132242.5646760     
   2055760377.9248197        5377827.7806609869        1198068475.0875139     
   1973529336.3701174        8578628.9260261059        1206502998.0762937     
   1986818896.0542266        6972747.0533965826        1281273718.2462640     
   1913189381.9810419        5857686.1690543890        1276539602.7045290     
   1839862905.9494121        5752752.0898936987        1275919724.4587243     
   1766839467.9593413        6657944.8159301281        1279414083.5088456     
   1694119068.0108206        8573264.3471354246        1287022679.8548970     
   1658631880.2384167        6028974.8244621754        1367842674.4163284     
   1596744297.5818920        5727859.1676721573        1360251453.2933738     
   1535002605.7253230        5913046.1774001122        1357390416.2963350     
   1473406804.6687069        6584535.8536424041        1359259563.4252081     
   1411956894.4120498        7742328.1964066029        1365858894.6799974     
   1320653566.8404417        2147813.3208849430        1453461517.4270246     
   1272267763.6862450        3188597.3173357248        1442829852.2743213     
   1223870704.0904059        4191859.8416481018        1437544318.0775123     
   1175462388.0529230        5157600.8938149214        1437604914.8366060     
   1127042815.5737908        6085820.4738180637        1443011642.5515978     
   2250187699.4899330        7758421.9330741167        1124299849.3441927     
   2153214475.6567392        11553982.917708158        1119659663.7372174     
   2056203308.5911849        15223066.461141825        1118874709.9352124     
   1959154198.2932692        18765672.563373566        1121944987.9381766     
   1862067144.7630024        22181801.224429131        1128870497.7461112     
   1973529336.3701174        8578628.9260261059        1206502998.0762937     
   1886620415.8075144        11134257.897984028        1201059405.9413679     
   1799751216.4643815        13822290.934835792        1199788491.9048507     
   1712921738.3407035        16642728.036534190        1202690255.9667466     
   1626131981.4364898        19595569.203127265        1209764698.1270523     
   1694119068.0108206        8573264.3471354246        1287022679.8548970     
   1618181440.1286490        10161058.129384458        1280866289.7191379     
   1542361197.9177611        12140137.482575476        1279200023.9752326     
   1466658341.3781519        14510502.406699121        1282023882.6231794     
   1391072870.5098307        17272152.901779771        1289337865.6629782     
   1411956894.4120498        7742328.1964066029        1365858894.6799974     
   1347897548.6201370        8634383.6118893027        1359080315.0705314     
   1284033252.9513254        10176606.104375124        1357109306.1463614     
   1220364007.4056189        12368995.673876226        1359945867.9074848     
   1156889811.9830129        15211552.320378840        1367590000.3539014     
   1127042815.5737908        6085820.4738180637        1443011642.5515978     
   1075768741.2819731        6554234.3454886079        1435701481.9955480     
   1024767381.5650769        7931696.8002375960        1433516338.4182363     
   974038736.42309797        10218207.838040352        1436456211.8196609     
   923582805.85604739        13413767.458943546        1444521102.1998134     
   1862067144.7630024        22181801.224429131        1128870497.7461112     
   1761387773.6443014        24850130.987072349        1122471613.5141592     
   1660963859.8534186        28369985.175770462        1120573710.4704323     
   1560795403.3903522        32741363.790526032        1123176788.6149259     
   1460882404.2551053        37964266.831352174        1130280847.9476426     
   1626131981.4364898        19595569.203127265        1209764698.1270523     
   1537265165.3766005        22311918.053303897        1203983748.9418948     
   1448613545.9633758        25745589.059038877        1202777318.0550859     
   1360177123.1968129        29896582.220314860        1206145405.4666343     
   1271955897.0769207        34764897.537146747        1214088011.1765356     
   1391072870.5098307        17272152.901779771        1289337865.6629782     
   1314228715.5376859        20099552.648171365        1284127880.7299385     
   1237559496.5310571        23510072.279604912        1283565951.2053754     
   1161065213.4899428        27503711.796087921        1287652077.0892973     
   1084745866.4143338        32080471.197597265        1296386258.3816969     
   1156889811.9830129        15211552.320378840        1367590000.3539014     
   1092278424.1275654        18213034.771683753        1362904008.8782926     
   1027801711.5564678        21663434.837496161        1362939609.9212995     
   963459674.26973486        25562752.517854571        1367696803.4829130     
   899252312.26736116        29910987.812737048        1377175589.5631392     
   923582805.85604739        13413767.458943546        1444521102.1998134     
   871414291.14622760        16652364.423817635        1440312133.3869617     
   819340191.03961170        20205676.732713223        1440898294.2028527     
   767360505.53620625        24073704.385639787        1446279584.6474836     
   715475234.63600111        28256447.382567257        1456456004.7208529     
   1460882404.2551053        37964266.831352174        1130280847.9476426     
   1356079555.1331091        42231309.031162202        1124799628.5329063     
   1251358233.8404284        46770110.662040949        1122752861.6688337     
   1146718440.3770783        51580671.724009752        1124140547.3554330     
   1042160174.7430420        56662992.217035949        1128962685.5927100     
   1271955897.0769207        34764897.537146747        1214088011.1765356     
   1176452171.3699527        37753494.065732896        1209536551.0549178     
   1080934368.4149384        40695166.434154510        1208998836.1644783     
   985402488.21187282        43589914.642409325        1212474866.5052178     
   889856530.76074648        46437738.690463513        1219964642.0771401     
   1084745866.4143338        32080471.197597265        1296386258.3816969     
   1000196386.0667218        34287158.638296247        1292653018.2962644     
   915537223.39367616        36128238.327549040        1293512816.1225188     
   830768378.39519608        37603710.265357256        1298965651.8604536     
   745889851.07128656        38713574.451728463        1309011525.5100775     
   899252312.26736116        29910987.812737048        1377175589.5631392     
   827312199.22340071        31832302.748815000        1374149030.2569478     
   755166798.77664125        33069326.342225492        1376294801.5429478     
   682816110.92705417        33622058.592874110        1383612903.4211397     
   610260135.67465973        33490499.500836670        1396103335.8915236     
   715475234.63600111        28256447.382567257        1456456004.7208529     
   657799610.84000611        30388926.397331744        1454024586.9369593     
   599823094.56381881        31518430.478122354        1457344792.4257669     
   541545685.80744255        31644959.624949187        1466416621.1872795     
   482967384.57088107        30768513.837825939        1481240073.2214868     
   1042160174.7430420        56662992.217035949        1128962685.5927100     
   924771683.76430130        54651046.906925738        1125882526.4441330     
   805161973.83553505        45235038.430070937        1128796445.7305019     
   683331044.95673978        28414966.786454886        1137704443.4518142     
   559278897.12792015        4190831.9760797322        1152606519.6080673     
   889856530.76074648        46437738.690463513        1219964642.0771401     
   787814486.42855585        43949497.760586292        1217175495.1387594     
   683553175.00576735        34063699.862057567        1220307143.0981166     
   577072596.49238634        16780344.994883239        1229359585.9552045     
   468372750.88841838       -7900566.8409143388        1244332823.7100379     
   745889851.07128656        38713574.451728463        1309011525.5100775     
   658984871.85076439        35686223.441616416        1306515667.9512384     
   569862577.39908576        25267821.660975039        1309867321.7529230     
   478522967.71624434        7458369.1097945869        1319066486.9151378     
   384966042.80224949       -17742134.211901829        1334113163.4378808     
   610260135.67465973        33490499.500836670        1396103335.8915236     
   538282840.03093719        29861223.950034142        1393903044.8815620     
   464090181.01548940        18847403.826812267        1397476981.6949172     
   387682158.62831146        449039.13115885854        1406825146.3315883     
   309058772.86941797       -25333870.136888146        1421947538.7915888     
   482967384.57088107        30768513.837825939        1481240073.2214868     
   425708390.96907866        26474499.285865843        1479337625.9297340     
   366235985.85498065        14802446.359584078        1483136122.9240956     
   304550169.22859132       -4247644.9409992844        1492635564.2045717     
   240650941.08991256       -30675774.615883261        1507835949.7711651     
   559278897.12792015        4190831.9760797322        1152606519.6080673     
   462576487.81520802       -33438949.329692274        1161993153.0966692     
   353846571.26555932       -111160421.42525814        1178904530.4738531     
   233089147.47898087       -228973584.31058425        1203340651.7396181     
   100304216.45545381       -386878437.98574454        1235301516.8939650     
   468372750.88841838       -7900566.8409143388        1244332823.7100379     
   390733564.61509621       -42051151.466804728        1242802502.2627738     
   302926038.45041490       -110096202.39723398        1247608563.1080093     
   204950172.39438522       -212035719.63215518        1258751006.2457724     
   96805966.446993545       -347869703.17161357        1276229831.6760387     
   384966042.80224949       -17742134.211901829        1334113163.4378808     
   322994760.72240448       -49432117.811697856        1323834915.6245859     
   252714306.09678009       -108819343.23075035        1318704688.5077317     
   174124678.92538509       -195903810.46904078        1318722482.0873227     
   87225879.208214879       -310685519.52658468        1323888296.3633568     
   309058772.86941797       -25333870.136888146        1421947538.7915888     
   259360076.13713050       -55581848.364368990        1405090393.1821098     
   203211374.20465279       -107329843.92582107        1392192906.6730053     
   140612667.07198212       -180577856.82125056        1383255079.2642765     
   71563954.739119187       -275325887.05065429        1378276910.9559219     
   240650941.08991256       -30675774.615883261        1507835949.7711651     
   199829510.85928062       -60500343.124799594        1486568934.9353523     
   154417242.77403283       -105627704.48243794        1468073217.6038368     
   104414136.83417487       -166057858.68877289        1452348797.7766321     
   49820193.039705396       -241790805.74381268        1439395675.4537363     
   100304216.45545381       -386878437.98574454        1235301516.8939650     
   85403692.034735173       -546750126.92740679        1196708343.5336752     
   57916065.676873088       -748578822.32620811        1154765474.0335307     
   17841337.381855488       -992364524.18218625        1109472908.3935380     
  -34820492.850298047       -1278107232.4953065        1060830646.6137136     
   96805966.446993545       -347869703.17161357        1276229831.6760387     
   79854092.852902800       -489035106.54730248        1221926630.5961890     
   51517293.517931134       -668150262.39258897        1165078329.6229825     
   11795568.442089200       -885215170.70745134        1105684928.7564135     
  -39311082.374629974       -1140229831.4918933        1043746427.9964811     
   87225879.208214879       -310685519.52658468        1323888296.3633568     
   70521502.859271884       -432454983.41074109        1255277606.4596033     
   43634376.965718955       -588166945.77692914        1184926412.9089673     
   6564501.5275625288       -777821406.62512398        1112834715.7114575     
  -40688123.455206692       -1001418365.9553670        1039002514.8670626     
   71563954.739119187       -275325887.05065429        1378276910.9559219     
   57405922.053842738       -377009757.51772422        1296761271.1239092     
   34267316.020227164       -508628872.47925735        1214309723.8915055     
   2148136.6382809281       -670183231.93523335        1130922269.2586904     
  -38951616.092019886       -861672835.88570511        1046598907.2254987     
   49820193.039705396       -241790805.74381268        1439395675.4537363     
   40507350.436614290       -322699428.86824703        1346377624.5891182     
   23416110.681451172       -429536042.49958253        1253228262.5705795     
  -1453526.2257678509       -562300646.63777244        1159947589.3981309     
  -34101560.285073578       -720993241.28291512        1066535605.0717654     
   1546447972.9773166        24911273.496043384        1520217192.2706892     
   1488928796.2737384        15651824.554389119        1487507520.4007652     
   1432123336.3497345        8771431.5446493030        1465478350.6368492     
   1376031593.2052989        4270094.4668033123        1454129682.9789331     
   1320653566.8404417        2147813.3208849430        1453461517.4270246     
   1104119556.2363153        1968544.6894599795        1503736382.0673892     
   1072587837.3674885       -1493770.9456743002        1483401556.3417437     
   1041591410.0537269       -3171781.3972665071        1471038780.6968598     
   1011130274.2950268       -3065486.6653174162        1466648055.1327424     
   981204430.09139132       -1174886.7498171926        1470229379.6493850     
   698935379.38586688       -9830912.1499542594        1486590767.0743115     
   685652683.99396157       -9817624.7859266996        1478422624.7310216     
   672726854.93260932       -8614782.9867148995        1475518080.4432461     
   660157892.20181203       -6222386.7523256838        1477877134.2109971     
   647945795.80156934       -2640436.0827540755        1485499786.0342689     
   330895442.42597342       -10487097.022202849        1468780347.2914650     
   328123336.15315437       -9319736.9663628042        1472570725.5685997     
   325529670.98638469       -7557573.2236938924        1478916249.8760066     
   323114446.92565608       -5200605.7942223102        1487816920.2136967     
   320877663.97097725       -2248834.6779170185        1499272736.5816708     
  -254.64337012630327       -9.9272881124337147        1450305122.7188544     
  -206.15493021472017       -107.48698044264623        1465845858.8544772     
  -141.78495012677590       -152.10820759998970        1481233288.9951408     
  -61.533436404856147       -143.79098861685887        1496467413.1408474     
   34.599613330088417       -82.535314869199880        1511548231.2915924     
   1320653566.8404417        2147813.3208849430        1453461517.4270246     
   1272267763.6862450        3188597.3173357248        1442829852.2743213     
   1223870704.0904059        4191859.8416481018        1437544318.0775123     
   1175462388.0529230        5157600.8938149214        1437604914.8366060     
   1127042815.5737908        6085820.4738180637        1443011642.5515978     
   981204430.09139132       -1174886.7498171926        1470229379.6493850     
   946337139.31752157        32332.532110095024        1461586991.7106845     
   911461405.34298599        1211407.8118220568        1457958920.3504565     
   876577228.16778588        2362339.0893172026        1459345165.5687044     
   841684607.79192507        3485126.3646093011        1465745727.3654230     
   647945795.80156934       -2640436.0827540755        1485499786.0342689     
   625648976.32966781       -1551193.8388621211        1478849957.4240496     
   603346526.89808333       -480718.12724536657        1476882631.0148761     
   581038447.50681353        570991.05208542943        1479597806.8067527     
   558724738.15586030        1603933.6991392672        1486995484.7996807     
   320877663.97097725       -2248834.6779170185        1499272736.5816708     
   310203274.72268921       -1561981.7955614030        1494618749.4144061     
   299526068.75569338       -884517.97556574643        1494315450.0707676     
   288846046.06999922       -216443.21789719164        1498362838.5507557     
   278163206.66559738        442242.47741226852        1506760914.8543644     
   34.599613330088417       -82.535314869199880        1511548231.2915924     
   34.496578350272898       -31.338015355785437        1508893367.6817658     
   30.915821253762289        8.2668767550340174        1510257377.5181379     
   23.857338151725934        36.279348847434321        1515640260.8007092     
   13.321135312043825        52.699422161293469        1525042017.5294774     
   1127042815.5737908        6085820.4738180637        1443011642.5515978     
   1075768741.2819731        6554234.3454886079        1435701481.9955480     
   1024767381.5650769        7931696.8002375960        1433516338.4182363     
   974038736.42309797        10218207.838040352        1436456211.8196609     
   923582805.85604739        13413767.458943546        1444521102.1998134     
   841684607.79192507        3485126.3646093011        1465745727.3654230     
   803617564.73367214        3952993.0552895963        1459508054.4256289     
   765755056.88935769        5102643.7924340367        1458304745.5746877     
   728097084.25896800        6934078.5759927332        1462135800.8126018     
   690643646.84251368        9447297.4060030282        1471001220.1393623     
   558724738.15586030        1603933.6991392672        1486995484.7996807     
   533605718.07437110        1993550.7318055332        1481750756.8883171     
   508623053.84582305        2837687.2742758393        1481449740.1759248     
   483776745.47021651        4136343.3265520036        1486092434.6625013     
   459066792.94755244        5889518.8886359334        1495678840.3480496     
   278163206.66559738        442242.47741226852        1506760914.8543644     
   265733201.30406156        675907.37500976026        1502429589.3836105     
   253371372.43447763        1136827.2457827628        1502951322.2219481     
   241077720.05684686        1825002.0897324830        1508326113.3693717     
   228852244.17116269        2740431.9068360925        1518553962.8258822     
   13.321135312043825        52.699422161293469        1525042017.5294774     
   14.422746696574428        62.984915726206459        1521544551.9115150     
   12.655318368340239        63.706942194124679        1522809491.7127566     
   8.0188534384057721        54.865513323041988        1528836836.9332037     
  0.51334952772169551        36.460622570572696        1539626587.5728562     
   923582805.85604739        13413767.458943546        1444521102.1998134     
   871414291.14622760        16652364.423817635        1440312133.3869617     
   819340191.03961170        20205676.732713223        1440898294.2028527     
   767360505.53620625        24073704.385639787        1446279584.6474836     
   715475234.63600111        28256447.382567257        1456456004.7208529     
   690643646.84251368        9447297.4060030282        1471001220.1393623     
   650843342.24343681        11674065.107145786        1467444063.7416470     
   611113849.04092169        14136870.796828568        1468839284.5535553     
   571455167.23497593        16835714.475079000        1475186882.5750697     
   531867296.82559466        19770596.141871572        1486486857.8062079     
   459066792.94755244        5889518.8886359334        1495678840.3480496     
   432083977.26171762        7239240.9667787552        1492745959.2910635     
   405148369.76581079        8746323.6780147403        1494922703.0245674     
   378259970.45983100        10410767.022340611        1502209071.5485704     
   351418779.34377795        12232570.999756142        1514605064.8630586     
   228852244.17116269        2740431.9068360925        1518553962.8258822     
   215136196.20107707        3347892.0027403235        1516217820.0352089     
   201443753.21428040        4034035.3762731776        1519148549.6159048     
   187774915.21077028        4798862.0274290964        1527346151.5679696     
   174129682.19054860        5642371.9562119320        1540810625.8914042     
  0.51334952772169551        36.460622570572696        1539626587.5728562     
 -0.93848317395727676        18.215035981370811        1537859645.9740837     
 -0.61366946323061855        5.8916041001876929        1541516824.3275559     
   1.4877978885515821      -0.50964967136634021        1550598122.6332753     
   5.3659114697356172      -0.98874795713547869        1565103540.8912446     
   715475234.63600111        28256447.382567257        1456456004.7208529     
   657799610.84000611        30388926.397331744        1454024586.9369593     
   599823094.56381881        31518430.478122354        1457344792.4257669     
   541545685.80744255        31644959.624949187        1466416621.1872795     
   482967384.57088107        30768513.837825939        1481240073.2214868     
   531867296.82559466        19770596.141871572        1486486857.8062079     
   488919956.92050433        21462769.027871162        1484817981.9098976     
   445746947.64165539        22402710.668007433        1488828540.9943748     
   402348268.98904413        22590421.062269405        1498518535.0596421     
   358723920.96267045        22025900.210658148        1513887964.1057017     
   351418779.34377795        12232570.999756142        1514605064.8630586     
   322993471.06699604        13422562.078221992        1513786491.1451614     
   294417716.52288067        14111065.598909140        1518575164.1161435     
   265691515.71143106        14298081.561815232        1528971083.7760022     
   236814868.63265201        13983609.966954663        1544974250.1247418     
   174129682.19054860        5642371.9562119320        1540810625.8914042     
   160020153.27947390        6268305.5483619943        1540930114.6427538     
   145835401.20749643        6643495.2708346397        1546584661.7910731     
   131575425.97460938        6767941.1236101389        1557774267.3363569     
   117240227.58081797        6641643.1067031622        1574498931.2786143     
   5.3659114697356172      -0.98874795713547869        1565103540.8912446     
   3.5579413042148587      -0.56170114347321665        1566248852.4026737     
   1.6954947061716024      -0.31624174432988750        1572857034.0191581     
 -0.22143120670392591      -0.25238144907291371        1584928085.7407048     
  -2.1928290685089671      -0.37009223524614510        1602462007.5673094     
   482967384.57088107        30768513.837825939        1481240073.2214868     
   425708390.96907866        26474499.285865843        1479337625.9297340     
   366235985.85498065        14802446.359584078        1483136122.9240956     
   304550169.22859132       -4247644.9409992844        1492635564.2045717     
   240650941.08991256       -30675774.615883261        1507835949.7711651     
   358723920.96267045        22025900.210658148        1513887964.1057017     
   316463542.17565954        19010549.295291737        1510463252.1078205     
   272543104.73896331        10461669.547644585        1512579915.6113675     
   226962608.65257233       -3620739.0323206186        1520237954.6163547     
   179722053.91650316       -23236676.444545262        1533437369.1227646     
   236814868.63265201        13983609.966954663        1544974250.1247418     
   209097193.84705549        12110149.444180459        1540672851.7604339     
   180272813.27437788        6547669.6311338544        1541753260.1128755     
   150341726.91461039       -2703829.4722117558        1548215475.1820734     
   119303934.76776181       -15644347.865826845        1560059496.9680104     
   117240227.58081797        6641643.1067031622        1574498931.2786143     
   103609345.98325805        5773299.7325020172        1569966424.8875828     
   89425111.461219847        3060446.6100384146        1570656156.4286182     
   74687524.014701068       -1496916.2606936395        1576568125.9017231     
   59396583.643703580       -7898788.8796868287        1587702333.3068955     
  -2.1928290685089671      -0.37009223524614510        1602462007.5673094     
  -1.4157304449637043       0.16026625997008070        1598343971.4892638     
 -0.70049726092962294       0.48440523570358646        1599288604.5585928     
  -4.7157149979809132E-002  0.60223396782286787        1605295906.7753201     
  0.54431386138291749       0.51383375576397294        1616365878.1394243     
   240650941.08991256       -30675774.615883261        1507835949.7711651     
   199829510.85928062       -60500343.124799594        1486568934.9353523     
   154417242.77403283       -105627704.48243794        1468073217.6038368     
   104414136.83417487       -166057858.68877289        1452348797.7766321     
   49820193.039705396       -241790805.74381268        1439395675.4537363     
   179722053.91650316       -23236676.444545262        1533437369.1227646     
   148477018.51126069       -45793791.721016325        1507736021.7700133     
   113788854.72482887       -79828001.601450443        1484952729.8788421     
   75657562.557223320       -125339306.08579630        1465087493.4492588     
   34083142.008429818       -182327705.17410478        1448140312.4812531     
   119303934.76776181       -15644347.865826845        1560059496.9680104     
   98054602.637273774       -30808217.375043146        1531262811.4839902     
   74509851.599032253       -53623483.243434906        1505530939.4188287     
   48669681.653037786       -84090145.471003428        1482863880.7725260     
   20534092.799294092       -122208204.05773821        1463261635.5450897     
   59396583.643703580       -7898788.8796868287        1587702333.3068955     
   48562263.237333357       -15543620.086836021        1557149304.0772734     
   36580233.396637067       -27014149.408408508        1529807846.2237859     
   23450494.121626750       -42310376.844358116        1505677959.7464421     
   9173045.4122916162       -61432302.394726694        1484759644.6452293     
  0.54431386138291749       0.51383375576397294        1616365878.1394243     
  0.31142753211419849       0.14356149053423312        1585395499.5498610     
  0.11765277397013141       -9.6338870946666905E-002   1557783450.2937238     
  -3.7023680824440658E-002 -0.20591294237469762        1533529730.3710001     
 -0.15258398939947909      -0.18509708418005463        1512634339.7816846     
   49820193.039705396       -241790805.74381268        1439395675.4537363     
   40507350.436614290       -322699428.86824703        1346377624.5891182     
   23416110.681451172       -429536042.49958253        1253228262.5705795     
  -1453526.2257678509       -562300646.63777244        1159947589.3981309     
  -34101560.285073578       -720993241.28291512        1066535605.0717654     
   34083142.008429818       -182327705.17410478        1448140312.4812531     
   29899493.926006958       -242168877.33613980        1347620833.7092361     
   19882047.974003583       -321456042.39677650        1246316480.8849437     
   4030804.1524211466       -420189200.35600734        1144227254.0083685     
  -17654237.538747549       -538368351.21385908        1041353153.0795230     
   20534092.799294092       -122208204.05773821        1463261635.5450897     
   19612316.670785837       -161542122.02741006        1357509428.0285780     
   14801341.955184102       -213840035.28739616        1250318783.5614262     
   6101168.6524906605       -279101943.83768845        1141689702.1436386     
  -6488203.2372929603       -357327847.67827773        1031622183.7751963     
   9173045.4122916162       -61432302.394726694        1484759644.6452293     
   9645818.6709488928       -80819162.942061678        1376043407.5471344     
   8173992.6249943674       -106688021.17143983        1265235170.6000276     
   4757567.2744522318       -139038877.08277676        1152334933.8039219     
  -603457.38070069253       -177871730.67614844        1037342697.1588233     
 -0.15258398939947909      -0.18509708418005463        1512634339.7816846     
  -7.3507500452841074E-002  -8.0112473431649511E-002   1403222772.2648978     
  -1.6548392692791219E-002  -4.8851078859757487E-002   1291065642.0007544     
   1.8286631366668797E-002  -9.1336976901193495E-002   1176162948.9892435     
   3.1024999419354729E-002 -0.20747908885460015        1058514693.2303673     
  -254.64337012630327       -9.9272881124337147        1450305122.7188544     
  -206.15493021472017       -107.48698044264623        1465845858.8544772     
  -141.78495012677590       -152.10820759998970        1481233288.9951408     
  -61.533436404856147       -143.79098861685887        1496467413.1408474     
   34.599613330088417       -82.535314869199880        1511548231.2915924     
  -330895902.51102161        10487135.088115647        1468780223.8678195     
  -328123699.20576781        9319613.9815299362        1472570655.8437750     
  -325529911.98003006        7557372.6098944992        1478916226.0307524     
  -323114540.83380979        5200410.9731989354        1487816934.4287527     
  -320877585.76710373        2248729.0714574903        1499272781.0377719     
  -698935720.32297158        9831029.1202315390        1486590537.2535789     
  -685652950.18381870        9817608.0718705058        1478422494.4486372     
  -672727028.08523214        8614693.5549557805        1475518034.0607002     
  -660157954.02721405        6222285.5694824159        1477877156.0897663     
  -647945728.00976396        2640384.1154452264        1485499860.5358355     
  -1104119708.0792239       -1968327.8309432864        1503736062.8761292     
  -1072587959.0890801        1493874.7840517163        1483401374.6690629     
  -1041591490.1005555        3171810.7269844413        1471038713.0849829     
  -1011130301.1136496        3065479.9978538752        1466648078.1238892     
  -981204392.12836576        1174882.5966513157        1470229469.7857754     
  -1546447865.7797766       -24910935.765409887        1520216800.7354646     
  -1488928725.9215529       -15651585.881932318        1487507296.5050478     
  -1432123298.0259981       -8771275.8740201592        1465478263.1036019     
  -1376031582.0931160       -4270005.7416799664        1454129700.5311172     
  -1320653578.1229088       -2147775.4849249125        1453461608.7876015     
   34.599613330088417       -82.535314869199880        1511548231.2915924     
   34.496578350272898       -31.338015355785437        1508893367.6817658     
   30.915821253762289        8.2668767550340174        1510257377.5181379     
   23.857338151725934        36.279348847434321        1515640260.8007092     
   13.321135312043825        52.699422161293469        1525042017.5294774     
  -320877585.76710373        2248729.0714574903        1499272781.0377719     
  -310203205.44158137        1561941.7215857953        1494618781.0993941     
  -299526013.22935748        884527.32738411427        1494315470.7861295     
  -288846009.13043571        216485.88884346187        1498362850.0979819     
  -278163193.14481241       -442182.59402804077        1506760919.0349512     
  -647945728.00976396        2640384.1154452264        1485499860.5358355     
  -625648921.03020430        1551172.0860554874        1478850008.8607306     
  -603346486.79952431        480717.56040126085        1476882662.9896572     
  -581038425.31772220       -570979.46151253581        1479597822.9226167     
  -558724736.58479786       -1603918.9796861708        1486995488.6596079     
  -981204392.12836576        1174882.5966513157        1470229469.7857754     
  -946337112.26929438       -32340.244617104530        1461587050.9657738     
  -911461389.79468250       -1211421.0340820551        1457958954.1287174     
  -876577224.70452344       -2362359.7717245221        1459345179.2746112     
  -841684616.99882376       -3485156.4575614929        1465745726.4034541     
  -1320653578.1229088       -2147775.4849249125        1453461608.7876015     
  -1272267779.1588514       -3188595.2704329491        1442829907.4145241     
  -1223870722.2148314       -4191888.4560659528        1437544344.2033112     
  -1175462407.2908416       -5157655.0417990685        1437604919.1539648     
  -1127042834.3868845       -6085895.0276405215        1443011632.2664828     
   13.321135312043825        52.699422161293469        1525042017.5294774     
   14.422746696574428        62.984915726206459        1521544551.9115150     
   12.655318368340239        63.706942194124679        1522809491.7127566     
   8.0188534384057721        54.865513323041988        1528836836.9332037     
  0.51334952772169551        36.460622570572696        1539626587.5728562     
  -278163193.14481241       -442182.59402804077        1506760919.0349512     
  -265733187.92003098       -675835.86866042018        1502429588.7420609     
  -253371362.64579803       -1136755.6451236159        1502951317.0232038     
  -241077717.32212007       -1824941.9234347641        1508326103.8783798     
  -228852251.94899029       -2740394.7035745531        1518553949.3075862     
  -558724736.58479786       -1603918.9796861708        1486995488.6596079     
  -533605718.22305292       -1993533.1103098392        1481750753.7633619     
  -508623056.89336938       -2837670.6811392307        1481449730.5959752     
  -483776752.59574914       -4136331.6921795309        1486092419.1574497     
  -459066805.33019191       -5889516.1434268951        1495678819.4477825     
  -841684616.99882376       -3485156.4575614929        1465745726.4034541     
  -803617576.48631847       -3953028.7400273383        1459508046.9754169     
  -765755070.08739030       -5102681.4010863602        1458304732.4310746     
  -728097097.80203676       -6934114.4407251775        1462135782.7704124     
  -690643659.63025570       -9447327.8589395881        1471001197.9934478     
  -1127042834.3868845       -6085895.0276405215        1443011632.2664828     
  -1075768762.7098308       -6554322.7578288913        1435701468.3782291     
  -1024767402.2278602       -7931787.8049632311        1433516322.5284922     
  -974038752.94097710       -10218290.169057071        1436456194.7172716     
  -923582814.84918118       -13413829.850104034        1444521084.9445662     
  0.51334952772169551        36.460622570572696        1539626587.5728562     
 -0.93848317395727676        18.215035981370811        1537859645.9740837     
 -0.61366946323061855        5.8916041001876929        1541516824.3275559     
   1.4877978885515821      -0.50964967136634021        1550598122.6332753     
   5.3659114697356172      -0.98874795713547869        1565103540.8912446     
  -228852251.94899029       -2740394.7035745531        1518553949.3075862     
  -215136203.00754845       -3347876.0607673824        1516217811.1396320     
  -201443756.74031270       -4034032.9986461401        1519148544.8092475     
  -187774913.14727709       -4798865.5171911493        1527346150.3164275     
  -174129672.22844651       -5642373.6164209396        1540810627.6611714     
  -459066805.33019191       -5889516.1434268951        1495678819.4477825     
  -432083986.32313025       -7239244.7105207145        1492745946.1846530     
  -405148374.44112939       -8746330.3611509204        1494922696.6444085     
  -378259969.68418258       -10410773.095291585        1502209070.8270512     
  -351418772.05229259       -12232572.912960351        1514605068.7325826     
  -690643659.63025570       -9447327.8589395881        1471001197.9934478     
  -650843350.88522995       -11674087.734231889        1467444051.1091404     
  -611113853.71611643       -14136886.195898890        1468839279.8330436     
  -571455168.12291574       -16835723.243942052        1475186884.1651552     
  -531867294.10562116       -19770598.878337860        1486486864.1054747     
  -923582814.84918118       -13413829.850104034        1444521084.9445662     
  -871414296.69385004       -16652405.131905854        1440312125.9130914     
  -819340194.56528068       -20205700.502913326        1440898294.3751502     
  -767360508.46347272       -24073715.963126391        1446279590.3307371     
  -715475238.38842916       -28256451.512552500        1456456013.7798474     
   5.3659114697356172      -0.98874795713547869        1565103540.8912446     
   3.5579413042148587      -0.56170114347321665        1566248852.4026737     
   1.6954947061716024      -0.31624174432988750        1572857034.0191581     
 -0.22143120670392591      -0.25238144907291371        1584928085.7407048     
  -2.1928290685089671      -0.37009223524614510        1602462007.5673094     
  -174129672.22844651       -5642373.6164209396        1540810627.6611714     
  -160020146.42828646       -6268305.5549064130        1540930115.6413536     
  -145835397.71457392       -6643494.4482143670        1546584662.2224619     
  -131575426.08729124       -6767940.2962893620        1557774267.4045119     
  -117240231.54645342       -6641643.0991814658        1574498931.1874924     
  -351418772.05229259       -12232572.912960351        1514605068.7325826     
  -322993465.79864216       -13422561.363356739        1513786493.3108842     
  -294417713.66339755       -14111063.541773528        1518575164.9859984     
  -265691515.64656517       -14298079.448231444        1528971083.7579172     
  -236814871.74813831       -13983609.082708843        1544974249.6266460     
  -531867294.10562116       -19770598.878337860        1486486864.1054747     
  -488919954.55312198       -21462767.987037599        1484817985.4112747     
  -445746946.15099847       -22402707.596992522        1488828542.3097534     
  -402348268.89925158       -22590417.708202273        1498518534.8009202     
  -358723922.79787296       -22025898.320637837        1513887962.8847694     
  -715475238.38842916       -28256451.512552500        1456456013.7798474     
  -657799612.69172943       -30388925.425966769        1454024591.9425154     
  -599823095.17736268       -31518426.613825530        1457344794.1937399     
  -541545685.84534585       -31644955.076181680        1466416620.5335255     
  -482967384.69566602       -30768510.812997654        1481240070.9618661     
  -2.1928290685089671      -0.37009223524614510        1602462007.5673094     
  -1.4157304449637043       0.16026625997008070        1598343971.4892638     
 -0.70049726092962294       0.48440523570358646        1599288604.5585928     
  -4.7157149979809132E-002  0.60223396782286787        1605295906.7753201     
  0.54431386138291749       0.51383375576397294        1616365878.1394243     
  -117240231.54645342       -6641643.0991814658        1574498931.1874924     
  -103609348.67575152       -5773299.4238355979        1569966424.8383055     
  -89425112.908076733       -3060446.0919133984        1570656156.3802850     
  -74687524.243437991        1496916.8965549730        1576568125.8134191     
  -59396582.681826025        7898789.5416014455        1587702333.1377065     
  -236814871.74813831       -13983609.082708843        1544974249.6266460     
  -209097196.08733767       -12110149.053413637        1540672851.4583199     
  -180272814.57072243       -6547669.5047335848        1541753259.9249191     
  -150341727.19829822        2703829.5633084103        1548215475.0264494     
  -119303933.97005977        15644348.150730982        1560059496.7629073     
  -358723922.79787296       -22025898.320637837        1513887962.8847694     
  -316463543.65048873       -19010548.728461146        1510463251.3492830     
  -272543105.68844849       -10461669.754100353        1512579915.1924956     
  -226962608.91174078        3620738.6024873555        1520237954.4144163     
  -179722053.32037920        23236676.341253139        1533437369.0150332     
  -482967384.69566602       -30768510.812997654        1481240070.9618661     
  -425708391.36520195       -26474498.448977321        1479337624.5112045     
  -366235986.26123834       -14802446.839957952        1483136122.1830230     
  -304550169.38376594        4247644.0140886158        1492635563.9773107     
  -240650940.73279744        30675774.113125652        1507835949.8940721     
  0.54431386138291749       0.51383375576397294        1616365878.1394243     
  0.31142753211419849       0.14356149053423312        1585395499.5498610     
  0.11765277397013141       -9.6338870946666905E-002   1557783450.2937238     
  -3.7023680824440658E-002 -0.20591294237469762        1533529730.3710001     
 -0.15258398939947909      -0.18509708418005463        1512634339.7816846     
  -59396582.681826025        7898789.5416014455        1587702333.1377065     
  -48562262.641717099        15543620.324084055        1557149303.9647934     
  -36580233.128957130        27014149.348738212        1529807846.1716683     
  -23450494.143555216        42310376.615531631        1505677959.7583349     
  -9173045.6855149604        61432302.124455318        1484759644.7247894     
  -119303933.97005977        15644348.150730982        1560059496.7629073     
  -98054602.095882595        30808217.554300360        1531262811.3457694     
  -74509851.315523773        53623483.311808288        1505530939.3547893     
  -48669681.628979288        84090145.423268467        1482863880.7899835     
  -20534093.036250561        122208203.88867630        1463261635.6513343     
  -179722053.32037920        23236676.341253139        1533437369.0150332     
  -148477018.05106348        45793791.834228687        1507736021.6927879     
  -113788854.44203730        79828001.792904288        1484952729.8430886     
  -75657562.493282437        125339306.21734157        1465087493.4659212     
  -34083142.204797387        182327705.10754895        1448140312.5613058     
  -240650940.73279744        30675774.113125652        1507835949.8940721     
  -199829510.50727701        60500343.163810611        1486568935.0058575     
  -154417242.50850198        105627704.79201162        1468073217.6365604     
  -104414136.73645614        166057858.99778268        1452348797.7861738     
  -49820193.191154212        241790805.78107196        1439395675.4547098     
 -0.15258398939947909      -0.18509708418005463        1512634339.7816846     
  -7.3507500452841074E-002  -8.0112473431649511E-002   1403222772.2648978     
  -1.6548392692791219E-002  -4.8851078859757487E-002   1291065642.0007544     
   1.8286631366668797E-002  -9.1336976901193495E-002   1176162948.9892435     
   3.1024999419354729E-002 -0.20747908885460015        1058514693.2303673     
  -9173045.6855149604        61432302.124455318        1484759644.7247894     
  -9645818.8211040087        80819162.764574409        1376043407.5884953     
  -8173992.6759872288        106688021.00704665        1265235170.6032658     
  -4757567.2501564175        139038876.85190070        1152334933.7690802     
   603457.45638113469        177871730.29911232        1037342697.0859437     
  -20534093.036250561        122208203.88867630        1463261635.6513343     
  -19612316.819603823        161542121.83398366        1357509428.0821621     
  -14801342.019419968        213840035.05774704        1250318783.5624607     
  -6101168.6356948316        279101943.55998337        1141689702.0922339     
   6488203.3315595984        357327847.34065044        1031622183.6714665     
  -34083142.204797387        182327705.10754895        1448140312.5613058     
  -29899494.068998963        242168877.12814090        1347620833.7458758     
  -19882048.046837851        321456042.10327810        1246316480.8783429     
  -4030804.1383285522        420189200.03291059        1144227253.9586792     
   17654237.656560034        538368350.91713524        1041353152.9869323     
  -49820193.191154212        241790805.78107196        1439395675.4547098     
  -40507350.569298446        322699428.64702028        1346377624.5796566     
  -23416110.758261859        429536042.14356565        1253228262.5509183     
   1453526.2419731617        562300646.27078140        1159947589.3684764     
   34101560.431382537        720993241.02856648        1066535605.0323405     
  -1546447865.7797766       -24910935.765409887        1520216800.7354646     
  -1488928725.9215529       -15651585.881932318        1487507296.5050478     
  -1432123298.0259981       -8771275.8740201592        1465478263.1036019     
  -1376031582.0931160       -4270005.7416799664        1454129700.5311172     
  -1320653578.1229088       -2147775.4849249125        1453461608.7876015     
  -1977257383.7389114       -39518691.914979696        1390503304.4200807     
  -1896978081.5732696       -29069776.706221461        1375008917.3067524     
  -1817114074.3315256       -20005177.910459280        1366067361.4489489     
  -1737665362.0136819       -12324895.527697086        1363678636.8466687     
  -1658631944.6197386       -6028929.5579355955        1367842743.4999089     
  -2351102546.6857362       -37037141.560856462        1258447084.0499139     
  -2259856338.1367979       -28936637.804056764        1260515967.2655785     
  -2168727007.4729905       -21225726.997681022        1265010042.1633213     
  -2077714554.6943054       -13904409.141729474        1271929308.7431450     
  -1986818979.8007495       -6972684.2362040281        1281273767.0050449     
  -2667983354.6202450       -17466284.703037858        1124048139.6249790     
  -2577563495.6121364       -15252169.175434589        1144028446.3815312     
  -2486962097.4503827       -12432923.135678411        1162306305.2467232     
  -2396179160.1349854       -9008546.5837783813        1178881716.2205470     
  -2305214683.6659455       -4979039.5197312832        1193754679.3030071     
  -2927899807.5424366        19193878.658474565        987306471.14526486     
  -2850099553.9992814        11983629.179647326        1025546354.6546090     
  -2771819344.2637115        6373233.6755386591        1057956150.6991445     
  -2693059178.3357234        2362692.1461578608        1084535859.2788730     
  -2613819056.2153192       -47995.408505082130        1105285480.3937950     
  -1320653578.1229088       -2147775.4849249125        1453461608.7876015     
  -1272267779.1588514       -3188595.2704329491        1442829907.4145241     
  -1223870722.2148314       -4191888.4560659528        1437544344.2033112     
  -1175462407.2908416       -5157655.0417990685        1437604919.1539648     
  -1127042834.3868845       -6085895.0276405215        1443011632.2664828     
  -1658631944.6197386       -6028929.5579355955        1367842743.4999089     
  -1596744348.9577119       -5727840.1882893443        1360251497.7877114     
  -1535002643.0402787       -5913049.9672830701        1357390440.0301278     
  -1473406826.8674326       -6584558.8949020505        1359259570.2271578     
  -1411956900.4391758       -7742366.9711533189        1365858888.3787990     
  -1986818979.8007495       -6972684.2362040281        1281273767.0050449     
  -1913189445.1757607       -5857643.0318971872        1276539637.9417450     
  -1839862948.0199184       -5752726.7247545719        1275919746.6258063     
  -1766839488.3332222       -6657935.3147611618        1279414093.0572286     
  -1694119066.1156735       -8573268.8019313812        1287022677.2360137     
  -2305214683.6659455       -4979039.5197312832        1193754679.3030071     
  -2221603067.8129945       -3578003.8012613058        1191694327.8766201     
  -2138451637.1537521       -3710918.7284873724        1193132263.9903419     
  -2055760391.6882100       -5377784.3013796806        1198068487.6441739     
  -1973529331.4163752       -8578600.5199688673        1206502998.8381150     
  -2613819056.2153192       -47995.408505082130        1105285480.3937950     
  -2521985216.8694162        1111077.5036164522        1105715567.5923381     
  -2430768710.4417768        212374.02152645588        1109027992.1237395     
  -2340169536.9323969       -2744105.8547611237        1115222753.9879973     
  -2250187696.3412809       -7758362.1252642870        1124299853.1851127     
  -1127042834.3868845       -6085895.0276405215        1443011632.2664828     
  -1075768762.7098308       -6554322.7578288913        1435701468.3782291     
  -1024767402.2278602       -7931787.8049632311        1433516322.5284922     
  -974038752.94097710       -10218290.169057071        1436456194.7172716     
  -923582814.84918118       -13413829.850104034        1444521084.9445662     
  -1411956900.4391758       -7742366.9711533189        1365858888.3787990     
  -1347897555.1541085       -8634436.9918842316        1359080307.2862799     
  -1284033257.0045784       -10176664.131070912        1357109297.6130693     
  -1220364005.9905770       -12369048.388687193        1359945859.3591726     
  -1156889802.1121025       -15211589.764727116        1367589992.5245879     
  -1694119066.1156735       -8573268.8019313812        1287022677.2360137     
  -1618181437.5631769       -10161078.215386689        1280866287.0087028     
  -1542361192.0866616       -12140164.548773944        1279200021.5815024     
  -1466658329.6861231       -14510527.802080929        1282023880.9544077     
  -1391072850.3615587       -17272167.975313783        1289337865.1274209     
  -1973529331.4163752       -8578600.5199688673        1206502998.8381150     
  -1886620409.9370360       -11134246.428328156        1201059407.5454974     
  -1799751207.4741218       -13822289.058100462        1199788494.4337835     
  -1712921724.0276260       -16642728.409265161        1202690259.5029755     
  -1626131959.5975575       -19595564.481861711        1209764702.7530723     
  -2250187696.3412809       -7758362.1252642870        1124299853.1851127     
  -2153214472.2756796       -11553941.630693197        1119659668.8966699     
  -2056203303.1669495       -15223037.659028888        1118874716.1699238     
  -1959154189.0150847       -18765650.210247397        1121944995.0048797     
  -1862067129.8200901       -22181779.284366250        1128870505.4015336     
  -923582814.84918118       -13413829.850104034        1444521084.9445662     
  -871414296.69385004       -16652405.131905854        1440312125.9130914     
  -819340194.56528068       -20205700.502913326        1440898294.3751502     
  -767360508.46347272       -24073715.963126391        1446279590.3307371     
  -715475238.38842916       -28256451.512552500        1456456013.7798474     
  -1156889802.1121025       -15211589.764727116        1367589992.5245879     
  -1092278417.1190097       -18213057.599961102        1362904006.8306539     
  -1027801708.5905387       -21663446.983928919        1362939612.5691819     
  -963459676.52668357       -25562757.916615427        1367696809.7401755     
  -899252320.92744994       -29910990.398048818        1377175598.3436325     
  -1391072850.3615587       -17272167.975313783        1289337865.1274209     
  -1314228701.5623252       -20099559.273473024        1284127882.2601948     
  -1237559489.6655664       -23510073.579875350        1283565954.7643652     
  -1161065214.6712852       -27503710.894534945        1287652082.6399314     
  -1084745876.5794744       -32080471.217439651        1296386265.8869019     
  -1626131959.5975575       -19595564.481861711        1209764702.7530723     
  -1537265150.0237918       -22311910.152415395        1203983752.2017174     
  -1448613537.7903647       -25745580.290756404        1202777320.9606979     
  -1360177122.8972597       -29896574.896843135        1206145409.0300086     
  -1271955905.3444955       -34764893.970729411        1214088016.4096549     
  -1862067129.8200901       -22181779.284366250        1128870505.4015336     
  -1761387762.5034180       -24850110.236822248        1122471616.6552236     
  -1660963852.9649320       -28369967.116565585        1120573711.1581795     
  -1560795401.2046320       -32741349.923598289        1123176788.9104056     
  -1460882407.2225206       -37964258.657920361        1130280849.9118946     
  -715475238.38842916       -28256451.512552500        1456456013.7798474     
  -657799612.69172943       -30388925.425966769        1454024591.9425154     
  -599823095.17736268       -31518426.613825530        1457344794.1937399     
  -541545685.84534585       -31644955.076181680        1466416620.5335255     
  -482967384.69566602       -30768510.812997654        1481240070.9618661     
  -899252320.92744994       -29910990.398048818        1377175598.3436325     
  -827312204.83925188       -31832302.083650947        1374149035.3924510     
  -755166801.74853802       -33069323.760872096        1376294803.5243735     
  -682816111.65531492       -33622055.429733902        1383612902.7393916     
  -610260134.55957723       -33490497.090205997        1396103333.0375154     
  -1084745876.5794744       -32080471.217439651        1296386265.8869019     
  -1000196392.9725128       -34287157.537055016        1292653022.8708687     
  -915537227.17818594       -36128236.565448016        1293512817.9324799     
  -830768379.19649482       -37603708.302629650        1298965651.0717309     
  -745889849.02743959       -38713572.748596281        1309011522.2886262     
  -1271955905.3444955       -34764893.970729411        1214088016.4096549     
  -1176452177.0915170       -37753491.786196113        1209536554.3777702     
  -1080934371.4663105       -40695165.027569830        1208998837.4180639     
  -985402488.46889162       -43589913.694906950        1212474865.5305431     
  -889856528.09925652       -46437737.788181275        1219964638.7152121     
  -1460882407.2225206       -37964258.657920361        1130280849.9118946     
  -1356079557.1962516       -42231304.831026554        1124799629.9131446     
  -1251358234.6129134       -46770109.147236764        1122752861.9811249     
  -1146718439.4725008       -51580671.606526792        1124140546.1158259     
  -1042160171.7750190       -56662992.208929956        1128962682.3172557     
  -482967384.69566602       -30768510.812997654        1481240070.9618661     
  -425708391.36520195       -26474498.448977321        1479337624.5112045     
  -366235986.26123834       -14802446.839957952        1483136122.1830230     
  -304550169.38376594        4247644.0140886158        1492635563.9773107     
  -240650940.73279744        30675774.113125652        1507835949.8940721     
  -610260134.55957723       -33490497.090205997        1396103333.0375154     
  -538282839.45184529       -29861223.300731987        1393903043.0447943     
  -464090180.76661128       -18847404.252909109        1397476980.7370067     
  -387682158.50386643       -449039.94671998918        1406825146.1141546     
  -309058772.66361785        25333869.617812768        1421947539.1762369     
  -745889849.02743959       -38713572.748596281        1309011522.2886262     
  -658984870.53540361       -35686223.051551193        1306515665.8585129     
  -569862576.66186142       -25267822.082810938        1309867320.6757901     
  -478522967.40680742       -7458369.8423676193        1319066486.7404664     
  -384966042.77024764        17742133.669760421        1334113164.0525441     
  -889856528.09925652       -46437737.788181275        1219964638.7152121     
  -787814484.61588371       -43949497.701455295        1217175492.9523668     
  -683553173.94699299       -34063700.329666734        1220307141.9993827     
  -577072596.09260130       -16780345.672877669        1229359585.8562591     
  -468372751.05269766        7900566.2689536214        1244332824.5229969     
  -1042160171.7750190       -56662992.208929956        1128962682.3172557     
  -924771681.69327700       -54651047.250419974        1125882524.3263578     
  -805161972.62201774       -45235038.993527174        1128796444.7077777     
  -683331044.56124270       -28414967.438242823        1137704443.4615257     
  -559278897.51095605       -4190832.5845889449        1152606520.5875888     
  -240650940.73279744        30675774.113125652        1507835949.8940721     
  -199829510.50727701        60500343.163810611        1486568935.0058575     
  -154417242.50850198        105627704.79201162        1468073217.6365604     
  -104414136.73645614        166057858.99778268        1452348797.7861738     
  -49820193.191154212        241790805.78107196        1439395675.4547098     
  -309058772.66361785        25333869.617812768        1421947539.1762369     
  -259360075.90963283        55581848.329414189        1405090393.4204080     
  -203211374.02572301        107329844.14075603        1392192906.7842660     
  -140612667.01188412        180577857.05186450        1383255079.2678163     
  -71563954.868131965        275325887.06268656        1378276910.8710730     
  -384966042.77024764        17742133.669760421        1334113164.0525441     
  -322994760.62843120        49432117.700080022        1323834916.0118673     
  -252714306.00002557        108819343.35236432        1318704688.6916595     
  -174124678.88503101        195903810.62661105        1318722482.0919271     
  -87225879.283453628        310685519.52280140        1323888296.2126653     
  -468372751.05269766        7900566.2689536214        1244332824.5229969     
  -390733564.66367477        42051151.275828123        1242802502.7802467     
  -302926038.43140668        110096202.42684819        1247608563.3587465     
  -204950172.35588300        212035719.72205585        1258751006.2584977     
  -96805966.437105894        347869703.16144198        1276229831.4795039     
  -559278897.51095605       -4190832.5845889449        1152606520.5875888     
  -462576488.01536947        33438949.056610882        1161993153.7255430     
  -353846571.31986147        111160421.36422160        1178904530.7855256     
  -233089147.42444670        228973584.33818674        1203340651.7675400     
  -100304216.32911605        386878437.97853529        1235301516.6715789     
  -49820193.191154212        241790805.78107196        1439395675.4547098     
  -40507350.569298446        322699428.64702028        1346377624.5796566     
  -23416110.758261859        429536042.14356565        1253228262.5509183     
   1453526.2419731617        562300646.27078140        1159947589.3684764     
   34101560.431382537        720993241.02856648        1066535605.0323405     
  -71563954.868131965        275325887.06268656        1378276910.8710730     
  -57405922.157164976        377009757.31275171        1296761271.0757132     
  -34267316.069024980        508628872.15340114        1214309723.8754973     
  -2148136.6037290394        670183231.58456874        1130922269.2704110     
   38951616.238734305        861672835.60629141        1046598907.2604790     
  -87225879.283453628        310685519.52280140        1323888296.2126653     
  -70521502.915275127        432454983.22745329        1255277606.3829839     
  -43634376.981957793        588166945.48257315        1184926412.8972719     
  -6564501.4835022986        777821406.28815484        1112834715.7555263     
   40688123.580095887        1001418365.6442060        1039002514.9577465     
  -96805966.437105894        347869703.16144198        1276229831.4795039     
  -79854092.843648911        489035106.39104086        1221926630.5014718     
  -51517293.497054011        668150262.13110244        1165078329.6162417     
  -11795568.397359371        885215170.38149917        1105684928.8238046     
   39311082.455467701        1140229831.1423237        1043746428.1241699     
  -100304216.32911605        386878437.97853529        1235301516.6715789     
  -85403691.942272484        546750126.80356681        1196708343.4311726     
  -57916065.614320219        748578822.09896088        1154765474.0323982     
  -17841337.345279574        992364523.86465609        1109472908.4752507     
   34820492.864857793        1278107232.1006603        1060830646.7597404     
  -2927899807.5424366        19193878.658474565        987306471.14526486     
  -2850099553.9992814        11983629.179647326        1025546354.6546090     
  -2771819344.2637115        6373233.6755386591        1057956150.6991445     
  -2693059178.3357234        2362692.1461578608        1084535859.2788730     
  -2613819056.2153192       -47995.408505082130        1105285480.3937950     
  -3224133120.8329000        41226056.262995839        1008312744.7980908     
  -3149491487.9114933        33624977.750356793        1006908549.6039145     
  -3074998141.5885372        25529610.576197863        1008994925.0194694     
  -3000653081.8640413        16939954.740511775        1014571871.0447546     
  -2926456308.7380004        7856010.2433047295        1023639387.6797698     
  -3647503238.8965039        25117192.435576677        1029899630.7786891     
  -3549389774.9553041        25114420.381587982        988118406.95830572     
  -3452052840.4034295        22523217.029832602        959148411.82219195     
  -3355492435.2408886        17343582.380308628        942989645.37034667     
  -3259708559.4676743        9575516.4330184460        939642107.60276842     
  -4198010161.7332549       -29132712.823789358        1052067129.0870570     
  -4049794415.1307178       -13548042.926660538        969175926.71778369     
  -3902983440.7083902       -2645946.9635510445        908416611.10731709     
  -3757577238.4662614        3573575.0655536652        869789182.25565350     
  -3613575808.4043388        5110523.1606390476        853293640.16280043     
  -4875653889.3431358       -121523659.51509047        1074815239.7231946     
  -4650705408.4377308       -82362412.174389124        950081108.88234544     
  -4427789942.5034113       -49977881.403953314        856799522.87483799     
  -4206907491.5401678       -24370067.203773499        794970481.70067573     
  -3988058055.5479970       -5538969.5738449097        764593985.35985839     
  -2613819056.2153192       -47995.408505082130        1105285480.3937950     
  -2521985216.8694162        1111077.5036164522        1105715567.5923381     
  -2430768710.4417768        212374.02152645588        1109027992.1237395     
  -2340169536.9323969       -2744105.8547611237        1115222753.9879973     
  -2250187696.3412809       -7758362.1252642870        1124299853.1851127     
  -2926456308.7380004        7856010.2433047295        1023639387.6797698     
  -2826476388.3857660        5994027.2091728449        1016982668.2372615     
  -2726686411.7898731        3498898.3205648661        1014406994.3774410     
  -2627086378.9503207        370623.57749009132        1015912366.1003089     
  -2527676289.8671155       -3390797.0200827122        1021498783.4058661     
  -3259708559.4676743        9575516.4330184460        939642107.60276842     
  -3148157677.3952990        5719941.6667871475        926397202.20811498     
  -3036369349.9173527        2655851.5857946873        918432050.64597940     
  -2924343577.0338302        383246.19005596638        915746652.91636562     
  -2812080358.7447295       -1097874.5204334259        918341009.01927006     
  -3613575808.4043388        5110523.1606390476        853293640.16280043     
  -3487029083.8980284        288820.87642431259        833959169.50490522     
  -3359817524.8242183       -2316766.1827909946        821103160.92935872     
  -3231941131.1829176       -2706238.0170433521        814725614.43616223     
  -3103399902.9741273       -879594.62631857395        814826530.02531660     
  -3988058055.5479970       -5538969.5738449097        764593985.35985839     
  -3843090607.8939362       -10299335.161866903        739668570.12762690     
  -3697030936.5104704       -11418954.985197067        722420325.22757471     
  -3549879041.3975887       -8897829.0438137054        712849250.65970397     
  -3401634922.5552993       -2735957.3377392292        710955346.42401457     
  -2250187696.3412809       -7758362.1252642870        1124299853.1851127     
  -2153214472.2756796       -11553941.630693197        1119659668.8966699     
  -2056203303.1669495       -15223037.659028888        1118874716.1699238     
  -1959154189.0150847       -18765650.210247397        1121944995.0048797     
  -1862067129.8200901       -22181779.284366250        1128870505.4015336     
  -2527676289.8671155       -3390797.0200827122        1021498783.4058661     
  -2419676199.1360998       -5190043.5422806740        1014490171.0661904     
  -2311891544.7052145       -7707411.0649124384        1011647840.0651574     
  -2204322326.5744543       -10942899.587968588        1012971790.4027683     
  -2096968544.7438209       -14896509.111447692        1018462022.0790223     
  -2812080358.7447295       -1097874.5204334259        918341009.01927006     
  -2692164687.6998911       -634173.96488523483        908668357.06122553     
  -2572717834.2984347       -1733198.8872836828        903473036.21876884     
  -2453739798.5403690       -4394949.2876502275        902755046.49189973     
  -2335230580.4256897       -8619425.1659654379        906514387.88061976     
  -3103399902.9741273       -879594.62631857395        814826530.02531660     
  -2970679937.9670491        2113667.1015064716        802194226.88177133     
  -2838682171.9466138        2699598.8738530874        794350304.63075292     
  -2707406604.9128280        878200.69070672989        791294763.27226996     
  -2576853236.8656840       -3350527.4479198456        793027602.80631518     
  -3401634922.5552993       -2735957.3377392292        710955346.42401457     
  -3255221949.9375744        3053479.6568846703        695067780.52782786     
  -3109784557.6497483        5590982.2185149193        684279645.30111492     
  -2965322745.6918378        4876550.3470853567        678590940.74387944     
  -2821836514.0638247        910184.04267501831        678001666.85611629     
  -1862067129.8200901       -22181779.284366250        1128870505.4015336     
  -1761387762.5034180       -24850110.236822248        1122471616.6552236     
  -1660963852.9649320       -28369967.116565585        1120573711.1581795     
  -1560795401.2046320       -32741349.923598289        1123176788.9104056     
  -1460882407.2225206       -37964258.657920361        1130280849.9118946     
  -2096968544.7438209       -14896509.111447692        1018462022.0790223     
  -1985296948.9636676       -18061349.811869144        1010452820.0428509     
  -1873743922.6164341       -21621421.955354810        1006512774.2865455     
  -1762309465.7021163       -25576725.541901112        1006641884.8101051     
  -1650993578.2207313       -29927260.571540594        1010840151.6135281     
  -2335230580.4256897       -8619425.1659654379        906514387.88061976     
  -2213800547.5231977       -12650913.016695023        897054575.62406135     
  -2092352195.7083628       -16621337.826264977        891232092.67797065     
  -1970885524.9811797       -20530699.594681025        889046939.04234314     
  -1849400535.3416522       -24378998.321950793        890499114.71717548     
  -2576853236.8656840       -3350527.4479198456        793027602.80631518     
  -2446898558.1820111       -8618799.8513019085        782276883.39885378     
  -2316788672.2407212       -13369714.729300976        774731666.33245516     
  -2186523579.0418205       -17603272.081932425        770391951.60711455     
  -2056103278.5853114       -21319471.909190536        769257739.22284186     
  -2821836514.0638247        910184.04267501831        678001666.85611629     
  -2684590980.9401083       -5965010.3157038689        666119743.36722422     
  -2547053352.2135167       -11866552.664486170        657011495.24999917     
  -2409223627.8840389       -16794443.003658414        650676922.50442648     
  -2271101807.9516916       -20748681.333253503        647116025.13051963     
  -1460882407.2225206       -37964258.657920361        1130280849.9118946     
  -1356079557.1962516       -42231304.831026554        1124799629.9131446     
  -1251358234.6129134       -46770109.147236764        1122752861.9811249     
  -1146718439.4725008       -51580671.606526792        1124140546.1158259     
  -1042160171.7750190       -56662992.208929956        1128962682.3172557     
  -1650993578.2207313       -29927260.571540594        1010840151.6135281     
  -1536911358.0676994       -33647622.132242858        1002471653.9289235     
  -1422842256.1735632       -37411711.222610533        997680523.21070850     
  -1308786272.5383201       -41219527.842615426        996466759.45887256     
  -1194743407.1619689       -45071071.992259800        998830362.67342043     
  -1849400535.3416522       -24378998.321950793        890499114.71717548     
  -1725630616.7771289       -27430176.784862161        879323150.06142735     
  -1601805407.2874591       -30297052.163957357        871867467.27172554     
  -1477924906.8726468       -32979624.459239542        868132066.34806430     
  -1353989115.5326908       -35477893.670711219        868116947.29044521     
  -2056103278.5853114       -21319471.909190536        769257739.22284186     
  -1922237333.3245482       -23578968.788877368        755354118.31065440     
  -1788247687.9546015       -25426131.971271753        745313694.16417658     
  -1654134342.4754810       -26860961.456417680        739136466.78339314     
  -1519897296.8871765       -27883457.244293451        736822436.16831577     
  -2271101807.9516916       -20748681.333253503        647116025.13051963     
  -2126731507.7099507       -22093998.144270897        630564558.67661023     
  -1982169098.1749969       -22798950.644577146        618019203.88805985     
  -1837414579.3468242       -22863538.834149003        609479960.76487231     
  -1692467951.2254341       -22287762.713007271        604946829.30703866     
  -1042160171.7750190       -56662992.208929956        1128962682.3172557     
  -924771681.69327700       -54651047.250419974        1125882524.3263578     
  -805161972.62201774       -45235038.993527174        1128796444.7077777     
  -683331044.56124270       -28414967.438242823        1137704443.4615257     
  -559278897.51095605       -4190832.5845889449        1152606520.5875888     
  -1194743407.1619689       -45071071.992259800        998830362.67342043     
  -1063728814.7024014       -41727307.465844929        994623911.49099600     
  -931313989.33486772       -33716099.912903190        994597656.17275202     
  -797498931.05937910       -21037449.333422035        998751596.71869206     
  -662283639.87591982       -3691355.7273911238        1007085733.1288178     
  -1353989115.5326908       -35477893.670711219        868116947.29044521     
  -1214530942.1471214       -32357066.011971891        861826385.82134569     
  -1074493521.9351430       -27305415.598525047        857902137.70829558     
  -933876854.89675045       -20322942.430371463        856344202.95128882     
  -792680941.03194773       -11409646.507515818        857152581.55032814     
  -1519897296.8871765       -27883457.244293451        736822436.16831577     
  -1377178064.0274382       -26540322.888779521        727489947.31740618     
  -1234700570.4228339       -26002986.050389230        718709889.31440508     
  -1092464816.0733643       -26271446.729107022        710482262.15931523     
  -950470800.97903526       -27345704.924953341        702807065.85212612     
  -1692467951.2254341       -22287762.713007271        604946829.30703866     
  -1551670180.3433399       -24277078.096235991        591614595.97918153     
  -1411935134.7979319       -29808811.268440366        577020910.99108720     
  -1273262814.5892096       -38882962.229590058        561165774.34276640     
  -1135653219.7171822       -51499530.979715466        544049186.03421223     
  -559278897.51095605       -4190832.5845889449        1152606520.5875888     
  -462576488.01536947        33438949.056610882        1161993153.7255430     
  -353846571.31986147        111160421.36422160        1178904530.7855256     
  -233089147.42444670        228973584.33818674        1203340651.7675400     
  -100304216.32911605        386878437.97853529        1235301516.6715789     
  -662283639.87591982       -3691355.7273911238        1007085733.1288178     
  -547219044.21656668        26268389.875063628        1020683338.4237065     
  -421252135.97925019        92569177.404064775        1042650966.7007172     
  -284382915.16396797        195211006.85962105        1072988617.9598397     
  -136611381.77071470        334193878.24174023        1111696292.2010834     
  -792680941.03194773       -11409646.507515818        857152581.55032814     
  -656839076.18000782        11604587.964831501        873648431.94321167     
  -511220093.37204796        67209215.623906076        899359584.37830508     
  -355823992.60807836        155404236.46968544        934286038.85559964     
  -190650773.88808423        276189650.50220728        978427795.37510049     
  -950470800.97903526       -27345704.924953341        702807065.85212612     
  -791436583.90568042       -10552456.674054205        720888434.28406394     
  -623750443.49826562        35080536.023717612        749030383.81830347     
  -447412379.75678116        109553273.16838872        787232914.45482183     
  -262422392.68123370        212865754.75993031        835496026.19364679     
  -1135653219.7171822       -51499530.979715466        544049186.03421223     
  -951011567.39359391       -40202744.041625559        562403345.44625807     
  -758843186.35790074       -3816861.3965027332        591663365.02069700     
  -559148076.61008310        57658116.955693930        631829244.75751019     
  -351926238.15015161        144222191.01493621        682900984.65670228     
  -100304216.32911605        386878437.97853529        1235301516.6715789     
  -85403691.942272484        546750126.80356681        1196708343.4311726     
  -57916065.614320219        748578822.09896088        1154765474.0323982     
  -17841337.345279574        992364523.86465609        1109472908.4752507     
   34820492.864857793        1278107232.1006603        1060830646.7597404     
  -136611381.77071470        334193878.24174023        1111696292.2010834     
  -127447262.45897797        483218764.77914906        1090130050.7280459     
  -95147495.694603860        709362476.15870166        1070003994.3450521     
  -39712081.477591932        1012625012.3803687        1051318123.0520931     
   38858980.192047060        1393006373.4441524        1034072436.8492060     
  -190650773.88808423        276189650.50220728        978427795.37510049     
  -173537684.65598977        418473347.25063276        986195122.09955776     
  -122740402.45971000        673037687.21300244        1000192515.1624788     
  -38258927.299264789        1039882670.3892698        1020419974.5638609     
   79906740.825365901        1519008296.7794700        1046877500.3036933     
  -262422392.68123370        212865754.75993031        835496026.19364679     
  -223674958.53329775        352513874.21802425        884903557.54572392     
  -140694785.90964565        639604455.26184452        945331036.48468518     
  -13481874.810275495        1074137497.8913782        1016778463.0105145     
   157963774.76480591        1656113002.1066372        1099245837.1232426     
  -351926238.15015161        144222191.01493621        682900984.65670228     
  -277859084.09090465        285340345.68133932        786255357.06653249     
  -149010646.04439583        609062780.30526543        905419558.31166232     
   34619075.989353836        1115389494.8866808        1040393588.3920814     
   273030082.01036632        1804320489.4256275        1191177447.3077948     
  -4875653889.3431358       -121523659.51509047        1074815239.7231946     
  -4650705408.4377308       -82362412.174389124        950081108.88234544     
  -4427789942.5034113       -49977881.403953314        856799522.87483799     
  -4206907491.5401678       -24370067.203773499        794970481.70067573     
  -3988058055.5479970       -5538969.5738449097        764593985.35985839     
  -5403275768.7792225       -175727601.43131185        454268388.76817232     
  -5134737325.9030190       -127057657.92594743        462545708.73578256     
  -4868093527.5802383       -84703196.265302658        470706909.34805137     
  -4603344373.8108654       -48664216.449356079        478751990.60497230     
  -4340489864.5949030       -18940718.478121281        486680952.50654739     
  -5499220740.7140913       -100428471.09716201       -167731598.42789498     
  -5277288519.2633476       -69308686.446014166       -26281395.497878365     
  -5057112571.9483547       -44043148.914034843        83484023.888106033     
  -4838692898.7691145       -24631858.501214027        161564659.73005527     
  -4622029499.7256165       -11074815.207547903        207960512.02796605     
  -5163488805.1477394        104373731.48735261       -791184721.86499929     
  -5078358988.5187159        90884502.265393496       -516400203.81863415     
  -4994847075.6077681        72002260.649838686       -304869133.50499326     
  -4912953066.4149151        47727006.640657187       -156591510.92407745     
  -4832676960.9401321        18058740.237892151       -71567336.075883552     
  -4396079962.0801764        438679006.32222772       -1416090981.5431423     
  -4537948733.6691141        353521908.20831609       -1007810716.2264910     
  -4681297038.5584745        263433032.42632771       -694352562.83125019     
  -4826124876.7482557        168412378.97628021       -475716521.35742098     
  -4972432248.2384548        68459947.858176470       -351902591.80500680     
  -3988058055.5479970       -5538969.5738449097        764593985.35985839     
  -3843090607.8939362       -10299335.161866903        739668570.12762690     
  -3697030936.5104704       -11418954.985197067        722420325.22757471     
  -3549879041.3975887       -8897829.0438137054        712849250.65970397     
  -3401634922.5552993       -2735957.3377392292        710955346.42401457     
  -4340489864.5949030       -18940718.478121281        486680952.50654739     
  -4180147171.4131846       -21366524.998196840        485740320.76993018     
  -4018830114.7864127       -20544453.368106842        488410886.24519157     
  -3856538694.7146068       -16474503.587893724        494692648.93232995     
  -3693272911.1977563       -9156675.6575374603        504585608.83134574     
  -4622029499.7256165       -11074815.207547903        207960512.02796605     
  -4457928627.0742388       -14651182.477055550        230867160.12186670     
  -4292971251.2621789       -15372539.210970402        253319032.30734175     
  -4127157372.2894516       -13238885.409324884        275316128.58438700     
  -3960486990.1560545       -8250221.0721015930        296858448.95301092     
  -4832676960.9401321        18058740.237892151       -71567336.075883552     
  -4676434974.8771009        9846692.4015502930       -24950911.816565946     
  -4519454345.9377689        4096787.4862225056        17144763.414026611     
  -4361735074.1221294        809025.49190855026        54719689.615886122     
  -4203277159.4301949       -16593.581415176392        87773866.789021075     
  -4972432248.2384548        68459947.858176470       -351902591.80500680     
  -4835666214.8217945        52127099.637573481       -281713895.04537123     
  -4698279398.8131762        37863526.723474503       -220111920.43476203     
  -4560271800.2126427        25669229.115769863       -167096667.97318515     
  -4421643419.0201693        15544206.814534664       -122668137.66063859     
  -3401634922.5552993       -2735957.3377392292        710955346.42401457     
  -3255221949.9375744        3053479.6568846703        695067780.52782786     
  -3109784557.6497483        5590982.2185149193        684279645.30111492     
  -2965322745.6918378        4876550.3470853567        678590940.74387944     
  -2821836514.0638247        910184.04267501831        678001666.85611629     
  -3693272911.1977563       -9156675.6575374603        504585608.83134574     
  -3535066791.4430060       -3275649.6539895535        495565962.54392123     
  -3377781564.4507756       -464266.19216513634        490497401.30575037     
  -3221417230.2210565       -722525.27204978466        489379925.11683029     
  -3065973788.7538605       -4050426.8936666250        492213533.97716069     
  -3960486990.1560545       -8250221.0721015930        296858448.95301092     
  -3793768710.7506337       -3261902.3055274487        294770524.43630385     
  -3627916636.5403461       -1160934.1893889904        295485339.34862691     
  -3462930767.5251822       -1947316.7236640453        299002893.68997926     
  -3298811103.7051506       -5621049.9083845615        305323187.46036077     
  -4203277159.4301949       -16593.581415176392        87773866.789021075     
  -4031327707.8604560        3094721.7022817135        92681466.204983577     
  -3860189773.9184570        3500978.2268388271        99243459.429751784     
  -3689863357.6042051        1202175.9922394753        107459846.46332416     
  -3520348458.9176912       -3801685.0014843941        117330627.30570625     
  -4421643419.0201693        15544206.814534664       -122668137.66063859     
  -4247743782.7724724        15794222.369429827       -110701212.15005459     
  -4074600976.5851312        13521471.056444407       -98228238.450885311     
  -3902215000.4581165        8725952.8757066727       -85249216.563134894     
  -3730585854.3914781        1407667.8270688057       -71764146.486801118     
  -2821836514.0638247        910184.04267501831        678001666.85611629     
  -2684590980.9401083       -5965010.3157038689        666119743.36722422     
  -2547053352.2135167       -11866552.664486170        657011495.24999917     
  -2409223627.8840389       -16794443.003658414        650676922.50442648     
  -2271101807.9516916       -20748681.333253503        647116025.13051963     
  -3065973788.7538605       -4050426.8936666250        492213533.97716069     
  -2920792173.0645156       -10985450.913151026        485076442.49452573     
  -2775038175.3804436       -16012534.950210452        481284161.38174409     
  -2628711795.7016616       -19131679.004912496        480836690.63881087     
  -2481813034.0281572       -20342883.077192307        483734030.26572514     
  -3298811103.7051506       -5621049.9083845615        305323187.46036077     
  -3144061591.1696229       -12126359.304783463        303257928.77445632     
  -2988459410.2475386       -15789440.745992661        305108615.45659840     
  -2832004560.9388971       -16610294.232013822        310875247.50677431     
  -2674697043.2437072       -14588919.762876391        320557824.92499644     
  -3520348458.9176912       -3801685.0014843941        117330627.30570625     
  -3354399235.2554450       -9387735.4906592369        120664202.20701320     
  -3187317056.8148041       -11197270.051852226        128484857.47455823     
  -3019101923.5957670       -9230288.6850570440        140792593.10832894     
  -2849753835.5983310       -3486791.3902693987        157587409.10834059     
  -3730585854.3914781        1407667.8270688057       -71764146.486801118     
  -3551805105.3219681       -2769579.4707252979       -62704737.207794562     
  -3371611115.0822225       -2236022.8677144051       -48587112.564369723     
  -3190003883.6722398        3008337.6360647678       -29411272.556532387     
  -3006983411.0920353        12963502.040607095       -5177217.1842626808     
  -2271101807.9516916       -20748681.333253503        647116025.13051963     
  -2126731507.7099507       -22093998.144270897        630564558.67661023     
  -1982169098.1749969       -22798950.644577146        618019203.88805985     
  -1837414579.3468242       -22863538.834149003        609479960.76487231     
  -1692467951.2254341       -22287762.713007271        604946829.30703866     
  -2481813034.0281572       -20342883.077192307        483734030.26572514     
  -2328090964.6928554       -18819713.446455956        472724384.83044231     
  -2174488058.8438001       -17693755.436546803        464240337.85367554     
  -2021004316.4810050       -16965009.047502637        458281889.33541399     
  -1867639737.6044676       -16633474.279318094        454849039.27567750     
  -2674697043.2437072       -14588919.762876391        320557824.92499644     
  -2515853242.5486760       -11466275.010494113        314726848.93228602     
  -2357439878.1193790       -9778417.8105617762        309940958.19124848     
  -2199456949.9558077       -9525348.1630461216        306200152.70187163     
  -2041904458.0579691       -10707066.067972422        303504432.46416825     
  -2849753835.5983310       -3486791.3902693987        157587409.10834059     
  -2690018341.2774262       -33682.836421966553        156571950.98215076     
  -2531024556.0017233        947062.23342001438        155121064.90078717     
  -2372772479.7712307       -544556.18077397346        153234750.86424258     
  -2215262112.5859308       -4508538.0789434910        150913008.87252206     
  -3006983411.0920353        12963502.040607095       -5177217.1842626808     
  -2850586260.8791065        15478063.075764418       -1740309.0199763493     
  -2695242092.4908481        14482684.695334315       -219342.01771609200     
  -2540950905.9272676        9977366.8993225098       -614316.17747566383     
  -2387712701.1883693        1962109.6877026558       -2925231.4992673947     
  -1692467951.2254341       -22287762.713007271        604946829.30703866     
  -1551670180.3433399       -24277078.096235991        591614595.97918153     
  -1411935134.7979319       -29808811.268440366        577020910.99108720     
  -1273262814.5892096       -38882962.229590058        561165774.34276640     
  -1135653219.7171822       -51499530.979715466        544049186.03421223     
  -1867639737.6044676       -16633474.279318094        454849039.27567750     
  -1729896499.5763679       -21130799.418054700        441605093.61035371     
  -1592128026.1844711       -25544006.677476466        427851730.43038028     
  -1454334317.4287813       -29873096.057591081        413588949.73575640     
  -1316515373.3092990       -34118067.558392167        398816751.52648860     
  -2041904458.0579691       -10707066.067972422        303504432.46416825     
  -1905067083.8964896       -17067800.265988111        291618061.94528002     
  -1767116513.6707325       -19717880.916436553        279974308.05732560     
  -1628052747.3807006       -18657308.019283354        268573170.80029601     
  -1487875785.0263920       -13886081.574541807        257414650.17420703     
  -2215262112.5859308       -4508538.0789434910        150913008.87252206     
  -2077181933.3036988       -12088080.640044570        141653500.98396507     
  -1936900597.2567217       -12330433.985334635        133388643.87191923     
  -1794418104.4449656       -5235598.1146891117        126118437.53638986     
  -1649734454.8684626        9196426.9717719555        119842881.97736531     
  -2387712701.1883693        1962109.6877026558       -2925231.4992673947     
  -2246241047.7980161       -6191640.5402600765       -8288589.2736011669     
  -2101480276.9424100       -3381665.8840792179       -11905262.125838859     
  -1953430388.6215701        10392033.656223893       -13775250.055981908     
  -1802091382.8354974        35129458.080649853       -13898553.064032400     
  -1135653219.7171822       -51499530.979715466        544049186.03421223     
  -951011567.39359391       -40202744.041625559        562403345.44625807     
  -758843186.35790074       -3816861.3965027332        591663365.02069700     
  -559148076.61008310        57658116.955693930        631829244.75751019     
  -351926238.15015161        144222191.01493621        682900984.65670228     
  -1316515373.3092990       -34118067.558392167        398816751.52648860     
  -1117115785.7605155       -14349213.093447864        420795742.28461742     
  -914088928.34236598        17510540.936052024        441266038.23970115     
  -707434801.05486870        61461194.530036926        460227639.39174616     
  -497153403.89800453        117502747.68859190        477680545.74075770     
  -1487875785.0263920       -13886081.574541807        257414650.17420703     
  -1309188419.2964697        3713793.3040232658        278469103.62853330     
  -1130773242.5399311        20406371.604650259        285600307.31438929     
  -952630254.75680041        36191653.327242792        278808261.23178744     
  -774759455.94704545        51069638.471924543        258092965.38072744     
  -1649734454.8684626        9196426.9717719555        119842881.97736531     
  -1527229468.0014417        13986275.150813997        135423429.47800231     
  -1408896128.9505904        4870630.6093134880        124666172.24475273     
  -1294734437.7158813       -18150506.652666211        87571110.277631164     
  -1184744394.2973166       -55077136.635141790        24138243.576630063     
  -1802091382.8354974        35129458.080649853       -13898553.064032400     
  -1771238931.8754780        16468232.446825624       -8341280.1669688551     
  -1748457587.5743368       -29096682.049926043       -41536366.969203025     
  -1733747349.9321265       -101565285.40979183       -113483813.47074068     
  -1727108218.9487925       -200937577.63255632       -224183619.67157474     
  -351926238.15015161        144222191.01493621        682900984.65670228     
  -277859084.09090465        285340345.68133932        786255357.06653249     
  -149010646.04439583        609062780.30526543        905419558.31166232     
   34619075.989353836        1115389494.8866808        1040393588.3920814     
   273030082.01036632        1804320489.4256275        1191177447.3077948     
  -497153403.89800453        117502747.68859190        477680545.74075770     
  -388288090.32200706        223130874.52031362        596984846.29963243     
  -230295278.21050206        492517329.80374098        735437139.45948398     
  -23174967.563452244        925662113.53898168        893037425.22031486     
   233072841.61911616        1522565225.7259648        1069785703.5821173     
  -774759455.94704545        51069638.471924543        258092965.38072744     
  -621558372.09523964        124069020.69660226        386751111.06163287     
  -424883575.15960789        341980779.86734492        537895413.10919487     
  -184735065.14018944        704804915.98408723        711525871.52342117     
   98887157.963041902        1212541429.0468285        907642486.30430532     
  -1184744394.2973166       -55077136.635141790        24138243.576630063     
  -977669929.41057861       -11845215.789711177        155554151.35254595     
  -732775536.89173889        157453130.49605384        312794379.26079869     
  -450061216.74084294        452817902.22202599        495858927.30141091     
  -129526968.95785254        874249099.38827920        704747795.47435606     
  -1727108218.9487925       -200937577.63255632       -224183619.67157474     
  -1456622762.2680273       -184611834.93863076       -96606032.827646941     
  -1153971163.4068925       -61065618.310174048        60134037.914293863     
  -819153422.36541390        169701072.25276870        246036592.55427954     
  -452169539.14358354        507688236.75023890        461101631.09228235     
 </DataArray>
 <DataArray  type="Float64" Name="VM" NumberOfComponents="1" format="ascii">
   5240455242.1607265     
   5036791739.4358120     
   4966238575.7441149     
   4981118626.6105194     
   5043975404.8678112     
   5393455741.5569410     
   5201878795.7444849     
   5058869278.1946001     
   4944434193.8708134     
   4843318152.8487692     
   5457438789.0692415     
   5243175386.4498549     
   5037311302.2586040     
   4834529915.0905285     
   4630532859.4621067     
   5375485346.5343447     
   5135280746.4372320     
   4894676804.1382265     
   4653680291.3881874     
   4412320804.6841269     
   5163326721.6265345     
   4894973176.8037300     
   4646379891.1040716     
   4414983186.5433598     
   4199566734.2074175     
   5043975404.8678112     
   4886362855.2599077     
   4732705717.3862352     
   4582309386.0321407     
   4434528632.1811600     
   4843318152.8487692     
   4681565559.0811853     
   4521601611.2162085     
   4363169076.4454079     
   4206017235.4517779     
   4630532859.4621067     
   4468548717.6248674     
   4307708931.5317564     
   4148055076.5115943     
   3989639658.0895658     
   4412320804.6841269     
   4253540081.0157118     
   4096887691.6958623     
   3942561347.9237833     
   3790824463.3334727     
   4199566734.2074175     
   4046133915.9366455     
   3897643611.1680684     
   3754277093.4924216     
   3616378478.1824155     
   4434528632.1811600     
   4259980044.3359222     
   4084923080.1996126     
   3909374755.9235234     
   3733359747.1328449     
   4206017235.4517779     
   4036069560.9280033     
   3865765037.8328605     
   3695155178.9922285     
   3524313293.2254758     
   3989639658.0895658     
   3826354057.1692061     
   3663264017.0103302     
   3500479686.4691539     
   3338159730.3892236     
   3790824463.3334727     
   3636190993.1908102     
   3482757998.3377447     
   3330717641.0360265     
   3180348357.2866035     
   3616378478.1824155     
   3472142936.0673428     
   3330599616.4576483     
   3192033869.7310252     
   3056859376.6143608     
   3733359747.1328449     
   3552081958.0819416     
   3371544151.3166633     
   3191915687.0828819     
   3013499444.6462641     
   3524313293.2254758     
   3356228828.0180945     
   3189506456.9125543     
   3024344934.6388531     
   2861061710.3403382     
   3338159730.3892236     
   3181672602.8363295     
   3027082220.8376341     
   2874615746.3535733     
   2724604239.5087595     
   3180348357.2866035     
   3033967512.7763214     
   2889906790.8901591     
   2748419892.0521564     
   2609850280.5881209     
   3056859376.6143608     
   2919280254.1517453     
   2784311254.3590136     
   2652229323.0881753     
   2523388415.4860368     
   3013499444.6462641     
   2858358328.7152462     
   2702512571.5958490     
   2545954469.0261126     
   2388699718.2859802     
   2861061710.3403382     
   2703636900.4491520     
   2545716188.1767459     
   2387299748.2551680     
   2228394740.9468822     
   2724604239.5087595     
   2568649568.3410158     
   2413038872.8676896     
   2257881002.1561675     
   2103323665.8005350     
   2609850280.5881209     
   2459055271.5305886     
   2310150178.4705429     
   2163452515.4331875     
   2019394080.8788326     
   2523388415.4860368     
   2381033829.9268680     
   2242803156.8120503     
   2109265930.1034718     
   1981187820.5952682     
   2388699718.2859802     
   2243197566.0382657     
   2099892728.3611672     
   1958792399.6706386     
   1820069628.6102800     
   2228394740.9468822     
   2085645913.3064368     
   1944538689.3063731     
   1805072428.4254882     
   1667323293.8489156     
   2103323665.8005350     
   1962697088.6830301     
   1823020187.2749231     
   1684316894.8762269     
   1546639362.9899950     
   2019394080.8788326     
   1881881897.9766734     
   1744713764.6395171     
   1608012031.4614835     
   1471945723.4094145     
   1981187820.5952682     
   1849492684.9278612     
   1717911718.1458440     
   1586796434.1772377     
   1456654858.0644178     
   1820069628.6102800     
   1779588849.6987650     
   1735584066.7537472     
   1696685758.5345781     
   1681372251.3220251     
   1667323293.8489156     
   1552096722.6203938     
   1427760205.1357183     
   1294670891.2645535     
   1158942795.8506827     
   1546639362.9899950     
   1396955722.6311152     
   1243721082.8830953     
   1084662915.9828422     
   917748845.65945613     
   1471945723.4094145     
   1327904746.4567432     
   1198339905.3507788     
   1087726851.8595023     
   1001958784.1862471     
   1456654858.0644178     
   1347849603.7331057     
   1274032088.5275743     
   1243316146.0880103     
   1262722834.1381230     
   1681372251.3220251     
   1383806262.8479764     
   1129494931.1996317     
   1010160389.8005143     
   1153087133.8938773     
   1158942795.8506827     
   1008458908.1552527     
   985215838.70100200     
   1161474560.7088993     
   1544129504.0747979     
   917748845.65945613     
   963106087.49086916     
   1144890103.3945835     
   1476443833.4571106     
   1957440997.7141786     
   1001958784.1862471     
   1164631619.6631098     
   1425355046.5957732     
   1808697637.7864547     
   2334734153.1685033     
   1262722834.1381230     
   1446548184.5525944     
   1715596750.5858538     
   2110434767.3733401     
   2663493047.5750518     
   5163326721.6265345     
   4894973176.8037300     
   4646379891.1040716     
   4414983186.5433598     
   4199566734.2074175     
   4563153944.0732298     
   4377677176.2332230     
   4206973031.1729355     
   4049991050.7963552     
   3906501522.1650820     
   4071683506.1028910     
   3951844392.6343021     
   3841200983.6312065     
   3739721283.1791801     
   3647709831.0493660     
   3685069665.2246385     
   3614958491.4612484     
   3548095540.7506032     
   3484695872.1869211     
   3425012569.4869180     
   3399042427.0889912     
   3363421475.1238303     
   3325432825.4984651     
   3284446768.5233507     
   3239890746.6160455     
   4199566734.2074175     
   4046133915.9366455     
   3897643611.1680684     
   3754277093.4924216     
   3616378478.1824155     
   3906501522.1650820     
   3774499056.7674999     
   3647358867.4627218     
   3525342247.9809370     
   3408839793.2669749     
   3647709831.0493660     
   3536039053.5604138     
   3429017696.8179293     
   3326962883.5264730     
   3230287974.6181607     
   3425012569.4869180     
   3332972804.9238815     
   3245217388.0410571     
   3162086384.4416494     
   3083985619.1070309     
   3239890746.6160455     
   3167180613.9195733     
   3098222336.1875548     
   3033338818.9663310     
   2972893779.4935689     
   3616378478.1824155     
   3472142936.0673428     
   3330599616.4576483     
   3192033869.7310252     
   3056859376.6143608     
   3408839793.2669749     
   3280513593.6525803     
   3155750972.2118058     
   3034941690.2544117     
   2918600394.2712283     
   3230287974.6181607     
   3118185095.6693759     
   3010516822.8012776     
   2907743833.3148265     
   2810436395.8873487     
   3083985619.1070309     
   2988289221.8239379     
   2897822840.6218429     
   2813071359.4600935     
   2734603459.4972343     
   2972893779.4935689     
   2893527459.2147050     
   2820025517.2581916     
   2752844736.7858133     
   2692494732.1553640     
   3056859376.6143608     
   2919280254.1517453     
   2784311254.3590136     
   2652229323.0881753     
   2523388415.4860368     
   2918600394.2712283     
   2793236262.4580498     
   2671580269.7479019     
   2554058839.6892796     
   2441199015.5410557     
   2810436395.8873487     
   2699479022.1379070     
   2593515025.4437027     
   2493102681.1120577     
   2398907288.7708139     
   2734603459.4972343     
   2639870775.2560802     
   2551484790.6052384     
   2470080637.4542727     
   2396384598.9894443     
   2692494732.1553640     
   2615179013.1260333     
   2545494176.2865863     
   2484075283.3785744     
   2431617104.0946345     
   2523388415.4860368     
   2381033829.9268680     
   2242803156.8120503     
   2109265930.1034718     
   1981187820.5952682     
   2441199015.5410557     
   2315579307.7606034     
   2195332684.6067710     
   2081206011.3925717     
   1974134545.2129354     
   2398907288.7708139     
   2291472607.3513880     
   2190576898.7050962     
   2097037945.9172137     
   2011812526.6768889     
   2396384598.9894443     
   2307891574.3924031     
   2226824654.4306526     
   2153952419.5131173     
   2090115104.0231569     
   2431617104.0946345     
   2361988323.7628675     
   2300278390.7026706     
   2247120635.4775653     
   2203162918.8553391     
   1981187820.5952682     
   1849492684.9278612     
   1717911718.1458440     
   1586796434.1772377     
   1456654858.0644178     
   1974134545.2129354     
   1857013174.6531906     
   1744330090.9759922     
   1637016818.2937720     
   1536217610.7218440     
   2011812526.6768889     
   1914436705.2642934     
   1825905435.4979546     
   1747436996.4998591     
   1680345405.8658898     
   2090115104.0231569     
   2014126066.2800937     
   1950578310.7999110     
   1900574658.2411144     
   1865168500.6812971     
   2203162918.8553391     
   2147203775.4738967     
   2106289326.6750095     
   2081212651.3988309     
   2072672663.7577653     
   1456654858.0644178     
   1347849603.7331057     
   1274032088.5275743     
   1243316146.0880103     
   1262722834.1381230     
   1536217610.7218440     
   1475524320.9051397     
   1447520744.6118340     
   1456160098.6027224     
   1504725527.4099276     
   1680345405.8658898     
   1651962266.3223031     
   1651291842.2231159     
   1680692997.9666438     
   1742769940.3418655     
   1865168500.6812971     
   1854695851.4517896     
   1867185178.6089156     
   1904838412.4248414     
   1970687404.2671828     
   2072672663.7577653     
   2069117566.9061205     
   2084789064.9139841     
   2122314039.6590843     
   2185509302.9141502     
   1262722834.1381230     
   1446548184.5525944     
   1715596750.5858538     
   2110434767.3733401     
   2663493047.5750518     
   1504725527.4099276     
   1613167060.0800047     
   1788806920.6721954     
   2066385695.0293844     
   2476102017.0984435     
   1742769940.3418655     
   1787623736.5429564     
   1884624380.0305278     
   2060673502.1593971     
   2340993334.5032063     
   1970687404.2671828     
   1968877515.6234353     
   2003613704.2383101     
   2093563779.7198563     
   2257379760.6137352     
   2185509302.9141502     
   2156213475.0106955     
   2146515586.7583621     
   2166933588.2380605     
   2228531180.6462884     
   3399042427.0889912     
   3363421475.1238303     
   3325432825.4984651     
   3284446768.5233507     
   3239890746.6160455     
   3295799956.9974413     
   3245174686.4553676     
   3194852749.3984122     
   3144750576.0372272     
   3094787833.0886416     
   3192655364.6672645     
   3131948208.4966726     
   3075475106.2981620     
   3023510274.7350097     
   2976345306.3316312     
   3103783524.6339073     
   3035815731.2273908     
   2977309740.1761160     
   2928664296.3680148     
   2890342014.1386199     
   3047421672.7090359     
   2971848811.3358474     
   2912279657.8069987     
   2868986719.9195633     
   2842348516.1589727     
   3239890746.6160455     
   3167180613.9195733     
   3098222336.1875548     
   3033338818.9663310     
   2972893779.4935689     
   3094787833.0886416     
   3031169677.7425289     
   2972498433.3132210     
   2919114307.4915743     
   2871395115.9040504     
   2976345306.3316312     
   2921948174.1895690     
   2873753253.4050980     
   2832084692.4719744     
   2797297074.3624067     
   2890342014.1386199     
   2844526548.0089664     
   2806192732.0068302     
   2775613256.6538835     
   2753082262.1522403     
   2842348516.1589727     
   2803550004.5356150     
   2773508207.4648075     
   2752417034.9345479     
   2740483783.3353128     
   2972893779.4935689     
   2893527459.2147050     
   2820025517.2581916     
   2752844736.7858133     
   2692494732.1553640     
   2871395115.9040504     
   2804654263.2873931     
   2744612192.6220036     
   2691702384.5198112     
   2646396814.5594902     
   2797297074.3624067     
   2742996051.9509883     
   2696174896.9242706     
   2657211132.4602094     
   2626505593.0864592     
   2753082262.1522403     
   2710454205.1266727     
   2676007261.5453672     
   2650038663.1920776     
   2632856730.9472322     
   2740483783.3353128     
   2708133441.7801466     
   2684583809.7382264     
   2670041626.4543376     
   2664717629.9835658     
   2692494732.1553640     
   2615179013.1260333     
   2545494176.2865863     
   2484075283.3785744     
   2431617104.0946345     
   2646396814.5594902     
   2584204573.7750759     
   2530191388.4779954     
   2484888565.3653331     
   2448854851.2363205     
   2626505593.0864592     
   2578398522.6695843     
   2538825667.7094474     
   2508194349.7320662     
   2486916883.5274158     
   2632856730.9472322     
   2597312491.3611684     
   2570484990.8452034     
   2552658017.7959752     
   2544108817.8030171     
   2664717629.9835658     
   2639815558.7956519     
   2623687286.5684395     
   2616509581.4149866     
   2618449680.8106489     
   2431617104.0946345     
   2361988323.7628675     
   2300278390.7026706     
   2247120635.4775653     
   2203162918.8553391     
   2448854851.2363205     
   2393738887.7607956     
   2347577678.9929338     
   2310898188.9740725     
   2284210885.1023321     
   2486916883.5274158     
   2445430433.4659014     
   2413703197.6693349     
   2392129899.9653153     
   2381072840.1815848     
   2544108817.8030171     
   2514752510.7169123     
   2495788404.3464413     
   2487481577.9049001     
   2490063192.6606998     
   2618449680.8106489     
   2599268452.6924920     
   2591030143.7378616     
   2593890719.0949326     
   2607980151.5539231     
   2203162918.8553391     
   2147203775.4738967     
   2106289326.6750095     
   2081212651.3988309     
   2072672663.7577653     
   2284210885.1023321     
   2243325150.3676190     
   2216431704.1146264     
   2203993162.2135835     
   2206406216.3261414     
   2381072840.1815848     
   2352226064.4539237     
   2336287618.3687148     
   2333512384.3015976     
   2344124048.5969009     
   2490063192.6606998     
   2470518856.3787994     
   2462887283.0062184     
   2467305119.0211267     
   2483906840.8671393     
   2607980151.5539231     
   2595376186.8437271     
   2593839817.4491777     
   2603448722.6821299     
   2624298722.8767715     
   2072672663.7577653     
   2069117566.9061205     
   2084789064.9139841     
   2122314039.6590843     
   2185509302.9141502     
   2206406216.3261414     
   2191927460.7197046     
   2192445608.2684193     
   2209928225.9908409     
   2247298008.3017807     
   2344124048.5969009     
   2319558603.7585526     
   2306545586.2086134     
   2306490049.6540165     
   2321481063.3276186     
   2483906840.8671393     
   2451042582.7437291     
   2426773263.2556581     
   2412043876.3646674     
   2408229823.5094028     
   2624298722.8767715     
   2585603116.0730000     
   2552847342.1738205     
   2526611842.6842561     
   2507702263.3356800     
   2185509302.9141502     
   2156213475.0106955     
   2146515586.7583621     
   2166933588.2380605     
   2228531180.6462884     
   2247298008.3017807     
   2182635456.9804173     
   2134413886.8363130     
   2112298306.3608167     
   2127220152.8887291     
   2321481063.3276186     
   2224781692.2629228     
   2141415519.0472703     
   2079749637.9550965     
   2049957831.4343350     
   2408229823.5094028     
   2282946292.1331978     
   2168167715.3277149     
   2070638877.5758872     
   1999135206.2369306     
   2507702263.3356800     
   2357338666.7309513     
   2215141264.9931636     
   2086097323.1521814     
   1977094273.5651658     
   3047421672.7090359     
   2971848811.3358474     
   2912279657.8069987     
   2868986719.9195633     
   2842348516.1589727     
   2828529597.0171638     
   2784508867.4378057     
   2753196634.6222377     
   2734714425.3196073     
   2729219596.2264137     
   2669332277.9219475     
   2652196795.4054933     
   2643840359.9390740     
   2644299035.6476784     
   2653616481.0654373     
   2566129192.2660613     
   2572198170.7900672     
   2582647231.1123781     
   2597481077.3516884     
   2616705055.8445182     
   2512002159.0264840     
   2538919503.6003981     
   2565571314.4019423     
   2591957591.4311166     
   2618078334.6879129     
   2842348516.1589727     
   2803550004.5356150     
   2773508207.4648075     
   2752417034.9345479     
   2740483783.3353128     
   2729219596.2264137     
   2702634453.2390585     
   2684509610.6664429     
   2674955585.0039139     
   2674087388.2041144     
   2653616481.0654373     
   2636930249.4266701     
   2628281609.6458645     
   2627718258.3906369     
   2635288686.9636292     
   2616705055.8445182     
   2607368148.4606466     
   2605555138.0442629     
   2611277118.9200239     
   2624545163.0965581     
   2618078334.6879129     
   2613479976.0285258     
   2615842510.3671460     
   2625165937.7037725     
   2641450258.0384016     
   2740483783.3353128     
   2708133441.7801466     
   2684583809.7382264     
   2670041626.4543376     
   2664717629.9835658     
   2674087388.2041144     
   2652005166.7841687     
   2638646937.6812615     
   2634131367.8730283     
   2638576690.4475970     
   2635288686.9636292     
   2621150736.4426270     
   2615595945.1350970     
   2618676794.7122769     
   2630444621.0985589     
   2624545163.0965581     
   2615782673.1710248     
   2615434636.1880541     
   2623513831.3364019     
   2640032598.2229667     
   2641450258.0384016     
   2635392469.8903656     
   2637583409.8946323     
   2648023078.0512042     
   2666711474.3600807     
   2664717629.9835658     
   2639815558.7956519     
   2623687286.5684395     
   2616509581.4149866     
   2618449680.8106489     
   2638576690.4475970     
   2622272219.4727664     
   2614858941.0564566     
   2616438917.4936266     
   2627106373.8778229     
   2630444621.0985589     
   2620780896.3982835     
   2620125913.9547129     
   2628525688.8271770     
   2646021834.1174464     
   2640032598.2229667     
   2634829021.3831587     
   2638791423.2322340     
   2651931398.4485574     
   2674259268.0451012     
   2666711474.3600807     
   2663651041.7369995     
   2669985460.4575543     
   2685714730.5217495     
   2710838851.9295897     
   2618449680.8106489     
   2599268452.6924920     
   2591030143.7378616     
   2593890719.0949326     
   2607980151.5539231     
   2627106373.8778229     
   2615924906.5731859     
   2615155359.8813739     
   2624876880.8506045     
   2645153507.4654818     
   2646021834.1174464     
   2640988104.8443084     
   2645928561.6725678     
   2660874905.5085154     
   2685852117.5301886     
   2674259268.0451012     
   2673581781.1569133     
   2682557658.6047029     
   2701194070.5801044     
   2729496541.2012367     
   2710838851.9295897     
   2712822589.6578784     
   2724268295.9632721     
   2745175970.8457823     
   2775545614.3054023     
   2607980151.5539231     
   2595376186.8437271     
   2593839817.4491777     
   2603448722.6821299     
   2624298722.8767715     
   2645153507.4654818     
   2634196677.6697941     
   2633482853.1630664     
   2643050741.8174739     
   2662950731.4404821     
   2685852117.5301886     
   2676257573.9983082     
   2676260476.4044733     
   2685876005.4621615     
   2705125044.9782782     
   2729496541.2012367     
   2721130975.4545670     
   2721877076.8158212     
   2731738170.9817510     
   2750719106.6434188     
   2775545614.3054023     
   2768412966.5908260     
   2770049119.0614133     
   2780454071.7172065     
   2799627824.5581675     
   2624298722.8767715     
   2585603116.0730000     
   2552847342.1738205     
   2526611842.6842561     
   2507702263.3356800     
   2662950731.4404821     
   2617392892.9520388     
   2577529394.6142197     
   2543690422.4369621     
   2516336711.8910475     
   2705125044.9782782     
   2654784761.9666677     
   2610036954.2137108     
   2571028665.2985888     
   2537965675.6708388     
   2750719106.6434188     
   2697683561.2190442     
   2650281532.3541684     
   2608549529.5863862     
   2572538668.5024552     
   2799627824.5581675     
   2745985555.3114004     
   2698160083.0986767     
   2656151407.9199734     
   2619959529.7752824     
   2507702263.3356800     
   2357338666.7309513     
   2215141264.9931636     
   2086097323.1521814     
   1977094273.5651658     
   2516336711.8910475     
   2348409292.7140675     
   2184040933.4666319     
   2026335840.4514608     
   1879866175.8811779     
   2537965675.6708388     
   2357571686.4957929     
   2176925111.5922570     
   1997499460.6472325     
   1821576202.6280625     
   2572538668.5024552     
   2384929920.2008328     
   2194260997.6675482     
   2000910625.0887280     
   1805483589.7266057     
   2619959529.7752824     
   2430453135.9004550     
   2236191287.8518376     
   2037173985.6294115     
   1833401229.2331800     
   2512002159.0264840     
   2538919503.6003981     
   2565571314.4019423     
   2591957591.4311166     
   2618078334.6879129     
   2566129043.2100806     
   2572198089.7194772     
   2582647207.6468596     
   2597481101.0467815     
   2616705116.0701809     
   2669331999.5932078     
   2652196644.6207275     
   2643840314.9527745     
   2644299074.9705210     
   2653616583.2007923     
   2828529189.3342557     
   2784508644.0628452     
   2753196562.1580286     
   2734714471.0014205     
   2729219727.4907837     
   3047421115.7241874     
   2971848498.6042662     
   2912279544.6838841     
   2868986762.4320955     
   2842348670.3125520     
   2618078334.6879129     
   2613479976.0285258     
   2615842510.3671460     
   2625165937.7037725     
   2641450258.0384016     
   2616705116.0701809     
   2607368192.2778068     
   2605555167.8339005     
   2611277137.0735407     
   2624545172.0282526     
   2653616583.2007923     
   2636930320.2370024     
   2628281654.2737913     
   2627718281.9887824     
   2635288694.7164812     
   2729219727.4907837     
   2702634538.5536056     
   2684509658.1871963     
   2674955602.9321432     
   2674087384.8174434     
   2842348670.3125520     
   2803550097.1432018     
   2773508249.8027830     
   2752417038.4364238     
   2740483759.6396213     
   2641450258.0384016     
   2635392469.8903656     
   2637583409.8946323     
   2648023078.0512042     
   2666711474.3600807     
   2624545172.0282526     
   2615782674.3212614     
   2615434629.7166238     
   2623513817.4387264     
   2640032577.1397433     
   2635288694.7164812     
   2621150732.9534383     
   2615595931.0434046     
   2618676770.6820903     
   2630444587.8272567     
   2674087384.8174434     
   2652005152.6827974     
   2638646914.3219423     
   2634131336.6921639     
   2638576652.8564973     
   2740483759.6396213     
   2708133411.2623906     
   2684583775.0402837     
   2670041590.1435332     
   2664717594.5179253     
   2666711474.3600807     
   2663651041.7369995     
   2669985460.4575543     
   2685714730.5217495     
   2710838851.9295897     
   2640032577.1397433     
   2634829007.2082362     
   2638791415.2842746     
   2651931396.0246515     
   2674259270.4154239     
   2630444587.8272567     
   2620780875.1859665     
   2620125903.2547846     
   2628525687.0671291     
   2646021839.6925588     
   2638576652.8564973     
   2622272197.6833911     
   2614858932.4653287     
   2616438919.4730678     
   2627106383.7738581     
   2664717594.5179253     
   2639815541.9138093     
   2623687284.4112639     
   2616509590.0931182     
   2618449696.4126606     
   2710838851.9295897     
   2712822589.6578784     
   2724268295.9632721     
   2745175970.8457823     
   2775545614.3054023     
   2674259270.4154239     
   2673581782.4813461     
   2682557659.1855917     
   2701194070.7214432     
   2729496541.2092013     
   2646021839.6925588     
   2640988107.9775648     
   2645928562.9631977     
   2660874905.5652018     
   2685852116.9715991     
   2627106383.7738581     
   2615924912.1913791     
   2615155362.1156621     
   2624876880.6223159     
   2645153505.7228327     
   2618449696.4126606     
   2599268461.6621289     
   2591030147.2596803     
   2593890718.4131908     
   2607980147.9705381     
   2775545614.3054023     
   2768412966.5908260     
   2770049119.0614133     
   2780454071.7172065     
   2799627824.5581675     
   2729496541.2092013     
   2721130975.4741588     
   2721877076.7867999     
   2731738170.8442197     
   2750719106.3373494     
   2685852116.9715991     
   2676257573.6600065     
   2676260476.1693211     
   2685876005.2117066     
   2705125044.5938687     
   2645153505.7228327     
   2634196676.5667620     
   2633482852.5278249     
   2643050741.4724083     
   2662950731.2071538     
   2607980147.9705381     
   2595376184.5411386     
   2593839816.2029910     
   2603448722.2537947     
   2624298723.0248628     
   2799627824.5581675     
   2745985555.3114004     
   2698160083.0986767     
   2656151407.9199734     
   2619959529.7752824     
   2750719106.3373494     
   2697683561.0153327     
   2650281532.2578387     
   2608549529.6026149     
   2572538668.6375117     
   2705125044.5938687     
   2654784761.7097459     
   2610036954.0942669     
   2571028665.3259330     
   2537965675.8534021     
   2662950731.2071538     
   2617392892.7936430     
   2577529394.5457177     
   2543690422.4707141     
   2516336712.0337577     
   2624298723.0248628     
   2585603116.1657062     
   2552847342.2308927     
   2526611842.7201552     
   2507702263.3516288     
   2619959529.7752824     
   2430453135.9004550     
   2236191287.8518376     
   2037173985.6294115     
   1833401229.2331800     
   2572538668.6375117     
   2384929920.2692037     
   2194260997.6662803     
   2000910625.0113118     
   1805483589.5602024     
   2537965675.8534021     
   2357571686.5806341     
   2176925111.5742917     
   1997499460.5186386     
   1821576202.3772860     
   2516336712.0337577     
   2348409292.7635641     
   2184040933.4168200     
   2026335840.2984760     
   1879866175.6279578     
   2507702263.3516288     
   2357338666.6939163     
   2215141264.8971353     
   2086097323.0017481     
   1977094273.3866484     
   3047421115.7241874     
   2971848498.6042662     
   2912279544.6838841     
   2868986762.4320955     
   2842348670.3125520     
   3103782882.5460086     
   3035815332.4368205     
   2977309554.6121206     
   2928664293.3458519     
   2890342161.9912214     
   3192654695.8765612     
   3131947774.9274530     
   3075474886.4782419     
   3023510246.2954187     
   2976345445.9264631     
   3295799319.6431713     
   3245174267.5042477     
   3194852529.4264245     
   3144750535.7829113     
   3094787953.4284191     
   3399041871.6913567     
   3363421113.6715388     
   3325432633.2277155     
   3284446723.6183844     
   3239890829.8170428     
   2842348670.3125520     
   2803550097.1432018     
   2773508249.8027830     
   2752417038.4364238     
   2740483759.6396213     
   2890342161.9912214     
   2844526645.9167438     
   2806192785.7914362     
   2775613272.3436255     
   2753082246.0223694     
   2976345445.9264631     
   2921948275.7230520     
   2873753317.8927069     
   2832084721.0406194     
   2797297068.2674327     
   3094787953.4284191     
   3031169774.5401378     
   2972498503.4911709     
   2919114347.8620753     
   2871395123.1439877     
   3239890829.8170428     
   3167180692.4910603     
   3098222403.7073226     
   3033338868.6089163     
   2972893803.9504061     
   2740483759.6396213     
   2708133411.2623906     
   2684583775.0402837     
   2670041590.1435332     
   2664717594.5179253     
   2753082246.0223694     
   2710454183.5532298     
   2676007236.7989736     
   2650038637.4915323     
   2632856706.4277601     
   2797297068.2674327     
   2742996040.7950182     
   2696174882.5747619     
   2657211116.7534137     
   2626505577.8003330     
   2871395123.1439877     
   2804654265.2231112     
   2744612190.6717620     
   2691702380.0794473     
   2646396808.9807191     
   2972893803.9504061     
   2893527477.8918209     
   2820025531.0838046     
   2752844746.6563869     
   2692494738.9175801     
   2664717594.5179253     
   2639815541.9138093     
   2623687284.4112639     
   2616509590.0931182     
   2618449696.4126606     
   2632856706.4277601     
   2597312480.5748959     
   2570484991.5577230     
   2552658027.7295461     
   2544108834.6457863     
   2626505577.8003330     
   2578398516.2502303     
   2538825669.4877629     
   2508194359.0199475     
   2486916899.6286178     
   2646396808.9807191     
   2584204571.5464807     
   2530191390.4048338     
   2484888572.3083158     
   2448854864.1308608     
   2692494738.9175801     
   2615179016.5106010     
   2545494178.4290795     
   2484075286.5941148     
   2431617110.9209967     
   2618449696.4126606     
   2599268461.6621289     
   2591030147.2596803     
   2593890718.4131908     
   2607980147.9705381     
   2544108834.6457863     
   2514752521.0485435     
   2495788408.8602571     
   2487481577.3536468     
   2490063187.8574219     
   2486916899.6286178     
   2445430443.7061663     
   2413703202.2942166     
   2392129899.2624006     
   2381072834.4839716     
   2448854864.1308608     
   2393738896.0888968     
   2347577682.6077099     
   2310898187.7312193     
   2284210878.8632860     
   2431617110.9209967     
   2361988328.0313802     
   2300278391.9535637     
   2247120633.1932449     
   2203162912.4559493     
   2607980147.9705381     
   2595376184.5411386     
   2593839816.2029910     
   2603448722.2537947     
   2624298723.0248628     
   2490063187.8574219     
   2470518853.2100186     
   2462887281.2927928     
   2467305118.5657258     
   2483906841.4634886     
   2381072834.4839716     
   2352226060.6569819     
   2336287616.3342733     
   2333512383.8696561     
   2344124049.5923758     
   2284210878.8632860     
   2243325146.1991668     
   2216431701.9165149     
   2203993161.8612604     
   2206406217.6739902     
   2203162912.4559493     
   2147203771.2117090     
   2106289324.4842741     
   2081212651.1894999     
   2072672665.4139924     
   2624298723.0248628     
   2585603116.1657062     
   2552847342.2308927     
   2526611842.7201552     
   2507702263.3516288     
   2483906841.4634886     
   2451042583.1242571     
   2426773263.4467072     
   2412043876.3889909     
   2408229823.3764839     
   2344124049.5923758     
   2319558604.3974118     
   2306545586.5235972     
   2306490049.6764846     
   2321481063.0770950     
   2206406217.6739902     
   2191927461.5883517     
   2192445608.6968937     
   2209928226.0199623     
   2247298007.9639621     
   2072672665.4139924     
   2069117567.9770534     
   2084789065.4449468     
   2122314039.7021415     
   2185509302.5186343     
   2507702263.3516288     
   2357338666.6939163     
   2215141264.8971353     
   2086097323.0017481     
   1977094273.3866484     
   2408229823.3764839     
   2282946292.0257716     
   2168167715.2282958     
   2070638877.4757862     
   1999135206.1453984     
   2321481063.0770950     
   2224781692.1019168     
   2141415518.9465694     
   2079749637.8909018     
   2049957831.3952801     
   2247298007.9639621     
   2182635456.7820921     
   2134413886.7364924     
   2112298306.3195131     
   2127220152.8723681     
   2185509302.5186343     
   2156213474.7907872     
   2146515586.6616230     
   2166933588.2081728     
   2228531180.6276226     
   3399041871.6913567     
   3363421113.6715388     
   3325432633.2277155     
   3284446723.6183844     
   3239890829.8170428     
   3685069339.3710136     
   3614958275.6316848     
   3548095420.5054226     
   3484695833.4568162     
   3425012598.8988209     
   4071683379.1825376     
   3951844295.2733049     
   3841200915.2436576     
   3739721240.4285955     
   3647709808.5237446     
   4563153990.4780188     
   4377677180.4803715     
   4206973005.6541381     
   4049991002.7692204     
   3906501454.2964745     
   5163326925.9219389     
   4894973277.5189953     
   4646379910.2238283     
   4414983139.7854309     
   4199566631.1802001     
   3239890829.8170428     
   3167180692.4910603     
   3098222403.7073226     
   3033338868.6089163     
   2972893803.9504061     
   3425012598.8988209     
   3332972835.3719649     
   3245217416.4085727     
   3162086407.2265434     
   3083985632.2830682     
   3647709808.5237446     
   3536039039.1687217     
   3429017690.8233566     
   3326962885.8665605     
   3230287984.7670960     
   3906501454.2964745     
   3774499004.0226908     
   3647358833.2606068     
   3525342235.5358939     
   3408839805.5185652     
   4199566631.1802001     
   4046133833.6074824     
   3897643555.6771083     
   3754277070.9654994     
   3616378494.7942529     
   2972893803.9504061     
   2893527477.8918209     
   2820025531.0838046     
   2752844746.6563869     
   2692494738.9175801     
   3083985632.2830682     
   2988289233.3165612     
   2897822851.2312036     
   2813071370.0619392     
   2734603471.0442762     
   3230287984.7670960     
   3118185106.1945934     
   3010516834.1550579     
   2907743846.0841551     
   2810436410.8294578     
   3408839805.5185652     
   3280513606.5576444     
   3155750985.7016835     
   3034941704.3921733     
   2918600409.3260431     
   3616378494.7942529     
   3472142952.0801444     
   3330599631.1722159     
   3192033882.5119605     
   3056859386.9990201     
   2692494738.9175801     
   2615179016.5106010     
   2545494178.4290795     
   2484075286.5941148     
   2431617110.9209967     
   2734603471.0442762     
   2639870782.7928724     
   2551484795.1434507     
   2470080640.1878238     
   2396384601.3476720     
   2810436410.8294578     
   2699479032.4422474     
   2593515031.0182915     
   2493102682.0046887     
   2398907285.2175179     
   2918600409.3260431     
   2793236272.8053179     
   2671580274.2784505     
   2554058837.3648453     
   2441199005.4201384     
   3056859386.9990201     
   2919280260.7679067     
   2784311255.2340250     
   2652229316.2561307     
   2523388398.9810438     
   2431617110.9209967     
   2361988328.0313802     
   2300278391.9535637     
   2247120633.1932449     
   2203162912.4559493     
   2396384601.3476720     
   2307891575.2692142     
   2226824653.5523100     
   2153952416.5075679     
   2090115098.4015203     
   2398907285.2175179     
   2291472603.8020506     
   2190576895.1727104     
   2097037942.2990079     
   2011812522.7184525     
   2441199005.4201384     
   2315579299.3234200     
   2195332678.2236671     
   2081206007.3374040     
   1974134543.6171277     
   2523388398.9810438     
   2381033816.7763638     
   2242803147.7584410     
   2109265925.8464332     
   1981187821.7528005     
   2203162912.4559493     
   2147203771.2117090     
   2106289324.4842741     
   2081212651.1894999     
   2072672665.4139924     
   2090115098.4015203     
   2014126062.5973997     
   1950578309.0156775     
   1900574658.3084021     
   1865168502.5385818     
   2011812522.7184525     
   1914436702.8394251     
   1825905434.5394299     
   1747436996.9548504     
   1680345407.6925602     
   1974134543.6171277     
   1857013174.0583904     
   1744330091.2304037     
   1637016819.2726698     
   1536217612.3398790     
   1981187821.7528005     
   1849492686.5134282     
   1717911719.8833508     
   1586796435.8166802     
   1456654859.4116457     
   2072672665.4139924     
   2069117567.9770534     
   2084789065.4449468     
   2122314039.7021415     
   2185509302.5186343     
   1865168502.5385818     
   1854695852.6582599     
   1867185179.2110689     
   1904838412.4784014     
   1970687403.8391747     
   1680345407.6925602     
   1651962267.4890630     
   1651291842.7879958     
   1680692997.9977291     
   1742769939.9302597     
   1536217612.3398790     
   1475524321.8862278     
   1447520745.0409582     
   1456160098.5753751     
   1504725527.0547454     
   1456654859.4116457     
   1347849604.4543605     
   1274032088.7526996     
   1243316145.9648566     
   1262722833.8620498     
   2185509302.5186343     
   2156213474.7907872     
   2146515586.6616230     
   2166933588.2081728     
   2228531180.6276226     
   1970687403.8391747     
   1968877515.3837991     
   2003613704.1376717     
   2093563779.7031286     
   2257379760.6247602     
   1742769939.9302597     
   1787623736.3287365     
   1884624379.9667912     
   2060673502.1945930     
   2340993334.5821786     
   1504725527.0547454     
   1613167059.9353426     
   1788806920.6866655     
   2066385695.1514201     
   2476102017.2709165     
   1262722833.8620498     
   1446548184.5199776     
   1715596750.7204275     
   2110434767.6122963     
   2663493047.8540773     
   5163326925.9219389     
   4894973277.5189953     
   4646379910.2238283     
   4414983139.7854309     
   4199566631.1802001     
   5375485451.5442696     
   5135280805.7373838     
   4894676815.3521299     
   4653680252.0570097     
   4412320712.2197218     
   5457438773.7312050     
   5243175374.6700840     
   5037311281.7232828     
   4834529875.3921909     
   4630532793.2065458     
   5393455562.3584080     
   5201878665.3986034     
   5058869189.9457541     
   4944434138.2472754     
   4843318122.4828491     
   5240454875.0172958     
   5036791445.3442917     
   4966238379.7877131     
   4981118534.3422432     
   5043975414.5497618     
   4199566631.1802001     
   4046133833.6074824     
   3897643555.6771083     
   3754277070.9654994     
   3616378494.7942529     
   4412320712.2197218     
   4253540015.2925596     
   4096887657.6737165     
   3942561350.6018691     
   3790824507.8152509     
   4630532793.2065458     
   4468548680.7596989     
   4307708927.7969027     
   4148055109.5890884     
   3989639731.6381207     
   4843318122.4828491     
   4681565559.9745636     
   4521601645.5930805     
   4363169146.3325510     
   4206017342.6787539     
   5043975414.5497618     
   4886362899.5669708     
   4732705796.4859791     
   4582309499.8211460     
   4434528780.2749262     
   3616378494.7942529     
   3472142952.0801444     
   3330599631.1722159     
   3192033882.5119605     
   3056859386.9990201     
   3790824507.8152509     
   3636191026.2289348     
   3482758019.8694277     
   3330717651.0730062     
   3180348356.0272660     
   3989639731.6381207     
   3826354107.2412920     
   3663264043.7599792     
   3500479690.1315427     
   3338159711.3800697     
   4206017342.6787539     
   4036069630.8842459     
   3865765070.5367341     
   3695155174.5449352     
   3524313251.8816485     
   4434528780.2749262     
   4259980139.2178335     
   4084923121.4585891     
   3909374743.2335882     
   3733359680.2827325     
   3056859386.9990201     
   2919280260.7679067     
   2784311255.2340250     
   2652229316.2561307     
   2523388398.9810438     
   3180348356.0272660     
   3033967508.8094497     
   2889906782.6339469     
   2748419877.8433146     
   2609850258.6364255     
   3338159711.3800697     
   3181672583.9125681     
   3027082201.0698285     
   2874615724.6781325     
   2724604214.6566033     
   3524313251.8816485     
   3356228790.6804085     
   3189506423.4915633     
   3024344904.8987408     
   2861061683.8180342     
   3733359680.2827325     
   3552081899.7403226     
   3371544102.3530917     
   3191915648.2497993     
   3013499416.5068178     
   2523388398.9810438     
   2381033816.7763638     
   2242803147.7584410     
   2109265925.8464332     
   1981187821.7528005     
   2609850258.6364255     
   2459055255.3177562     
   2310150168.4943204     
   2163452512.1969290     
   2019394084.8673966     
   2724604214.6566033     
   2568649551.1565480     
   2413038863.5503545     
   2257881000.9149113     
   2103323672.8425963     
   2861061683.8180342     
   2703636883.4587975     
   2545716180.5879512     
   2387299749.9264727     
   2228394751.7272902     
   3013499416.5068178     
   2858358312.2352858     
   2702512566.3031301     
   2545954474.4157434     
   2388699733.8408003     
   1981187821.7528005     
   1849492686.5134282     
   1717911719.8833508     
   1586796435.8166802     
   1456654859.4116457     
   2019394084.8673966     
   1881881901.2073796     
   1744713767.0127320     
   1608012032.9106004     
   1471945723.9109859     
   2103323672.8425963     
   1962697093.7026181     
   1823020190.3023853     
   1684316895.9664407     
   1546639362.2233541     
   2228394751.7272902     
   2085645920.5833755     
   1944538693.1730239     
   1805072428.9797201     
   1667323291.1970389     
   2388699733.8408003     
   2243197576.2796750     
   2099892733.3752913     
   1958792399.5257106     
   1820069623.3764346     
   1456654859.4116457     
   1347849604.4543605     
   1274032088.7526996     
   1243316145.9648566     
   1262722833.8620498     
   1471945723.9109859     
   1327904746.7444303     
   1198339905.4826572     
   1087726851.8713002     
   1001958784.1024488     
   1546639362.2233541     
   1396955722.1662462     
   1243721082.7385788     
   1084662916.1039131     
   917748845.93116629     
   1667323291.1970389     
   1552096720.9350102     
   1427760204.4222889     
   1294670891.4391258     
   1158942796.8305011     
   1820069623.3764346     
   1779588846.2745464     
   1735584065.1757996     
   1696685758.7462397     
   1681372253.3179879     
   1262722833.8620498     
   1446548184.5199776     
   1715596750.7204275     
   2110434767.6122963     
   2663493047.8540773     
   1001958784.1024488     
   1164631619.6736505     
   1425355046.6823175     
   1808697637.9570446     
   2334734153.4200473     
   917748845.93116629     
   963106087.65190113     
   1144890103.4408195     
   1476443833.5048933     
   1957440997.8765719     
   1158942796.8305011     
   1008458908.7983917     
   985215838.83733797     
   1161474560.5378549     
   1544129503.9938900     
   1681372253.3179879     
   1383806264.2354085     
   1129494931.6647425     
   1010160389.2644016     
   1153087133.0874138     
 </DataArray>
 <DataArray  type="Float64" Name="strain" NumberOfComponents="3" format="ascii">
   7.5461400180409921E-002  -2.9291716488822228E-002  -6.1363947368955341E-002
   7.7400092782391239E-002  -2.8581775638601314E-002  -4.3671802607926136E-002
   7.9338785384372557E-002  -2.7797035997782160E-002  -3.0088614770930167E-002
   8.1277477986353874E-002  -2.6937497566364710E-002  -2.0614383857967100E-002
   8.3216170588335192E-002  -2.6003160344349241E-002  -1.5249109869036825E-002
   8.6580017660345954E-002  -2.7557004769239057E-002  -3.4284678934463519E-002
   8.5093740818881880E-002  -2.6906535780054808E-002  -2.2377348230921079E-002
   8.3607463977417806E-002  -2.6174272641581953E-002  -1.3210999490236575E-002
   8.2121187135953733E-002  -2.5360215353820728E-002  -6.7856327124096727E-003
   8.0634910294489714E-002  -2.4464363916770704E-002  -3.1012478974405955E-003
   9.1151537132264204E-002  -2.5822293049655887E-002  -7.2683800403533505E-003
   8.7608265808529928E-002  -2.5231295921508357E-002  -1.1388680356072545E-003
   8.4064994484795708E-002  -2.4551509285381967E-002   3.6176369674563169E-003
   8.0521723161061431E-002  -2.3782933141276524E-002   7.0011349688372387E-003
   7.6978451837327211E-002  -2.2925567489192333E-002   9.0116259685353861E-003
   8.9175958596164978E-002  -2.4087581330072716E-002   1.9684949313375000E-002
   8.4943667751335702E-002  -2.3556056062961878E-002   2.0043637978015047E-002
   8.0711376906506427E-002  -2.2928745929181815E-002   2.0397294602147564E-002
   7.6479086061677151E-002  -2.2205650928732432E-002   2.0745919185773079E-002
   7.2246795216847876E-002  -2.1386771061613880E-002   2.1089511728890911E-002
   8.0653282052048025E-002  -2.2352869610489545E-002   4.6575309126721143E-002
   7.7099946647298967E-002  -2.1880816204415454E-002   4.1170169809945756E-002
   7.3546611242549853E-002  -2.1305982572981830E-002   3.7127973413838000E-002
   6.9993275837800767E-002  -2.0628368716188325E-002   3.4448719938398153E-002
   6.6439940433051653E-002  -1.9847974634035481E-002   3.3132409383625994E-002
   8.3216170588335192E-002  -2.6003160344349241E-002  -1.5249109869036825E-002
   8.0855071792810540E-002  -2.5047115791667018E-002  -1.2207600587252343E-002
   7.8493972997285832E-002  -2.4122455368250140E-002  -9.5381825685832422E-003
   7.6132874201761125E-002  -2.3229179074097869E-002  -7.2408558130307443E-003
   7.3771775406236473E-002  -2.2367286909210971E-002  -5.3156203205940722E-003
   8.0634910294489714E-002  -2.4464363916770704E-002  -3.1012478974405955E-003
   7.7989816324034067E-002  -2.3546286629870600E-002  -1.0812039802141349E-003
   7.5344722353578503E-002  -2.2665551792559149E-002   7.4294085026646584E-004
   7.2699628383122925E-002  -2.1822159404835787E-002   2.3711865940013871E-003
   7.0054534412667291E-002  -2.1016109466700406E-002   3.8035332509906428E-003
   7.6978451837327211E-002  -2.2925567489192333E-002   9.0116259685353861E-003
   7.4225554868311047E-002  -2.2045457468074320E-002   1.0004246200880043E-002
   7.1472657899294884E-002  -2.1208648216868048E-002   1.0977159522849333E-002
   6.8719760930278775E-002  -2.0415139735573261E-002   1.1930365934443347E-002
   6.5966863961262584E-002  -1.9664932024190118E-002   1.2863865435661564E-002
   7.2246795216847876E-002  -2.1386771061613880E-002   2.1089511728890911E-002
   6.9562287425641411E-002  -2.0544628306278082E-002   2.1048749956030493E-002
   6.6877779634435003E-002  -1.9751744641177113E-002   2.1164473449165215E-002
   6.4193271843228553E-002  -1.9008120066310957E-002   2.1436682208294727E-002
   6.1508764052022144E-002  -1.8313754581679692E-002   2.1865376233418977E-002
   6.6439940433051653E-002  -1.9847974634035481E-002   3.3132409383625994E-002
   6.4000013996025229E-002  -1.9043799144481760E-002   3.2052307285237530E-002
   6.1560087558998847E-002  -1.8294841065485998E-002   3.1304882629213993E-002
   5.9120161121972471E-002  -1.7601100397048718E-002   3.0890135415556047E-002
   5.6680234684946040E-002  -1.6962577139169210E-002   3.0808065644262972E-002
   7.3771775406236473E-002  -2.2367286909210971E-002  -5.3156203205940722E-003
   7.0874699149321263E-002  -2.1501955817500362E-002  -4.7970528827488979E-003
   6.7977622892406053E-002  -2.0598362742876936E-002  -4.2565569883791232E-003
   6.5080546635490788E-002  -1.9656507685340933E-002  -3.6941326374849426E-003
   6.2183470378575634E-002  -1.8676390644891905E-002  -3.1097798300653290E-003
   7.0054534412667291E-002  -2.1016109466700406E-002   3.8035332509906428E-003
   6.7204267463084999E-002  -2.0208217401981976E-002   4.0161964246423487E-003
   6.4354000513502707E-002  -1.9359298634506833E-002   4.3005497564351236E-003
   6.1503733563920332E-002  -1.8469353164276288E-002   4.6565932463689813E-003
   5.8653466614338123E-002  -1.7538380991289682E-002   5.0843268944438247E-003
   6.5966863961262584E-002  -1.9664932024190118E-002   1.2863865435661564E-002
   6.3213168020629387E-002  -1.8914478986463312E-002   1.2773389064963364E-002
   6.0459472079996135E-002  -1.8120234526137077E-002   1.2804364554022382E-002
   5.7705776139362869E-002  -1.7282198643211757E-002   1.2956791902838286E-002
   5.4952080198729630E-002  -1.6400371337687347E-002   1.3230671111411907E-002
   6.1508764052022144E-002  -1.8313754581679692E-002   2.1865376233418977E-002
   5.8901400821954220E-002  -1.7620740570944676E-002   2.1474525038213919E-002
   5.6294037591886288E-002  -1.6881170417767259E-002   2.1254887404382406E-002
   5.3686674361818315E-002  -1.6095044122147392E-002   2.1206463331924122E-002
   5.1079311131750425E-002  -1.5262361684085068E-002   2.1329252820839667E-002
   5.6680234684946040E-002  -1.6962577139169210E-002   3.0808065644262972E-002
   5.4268965867059593E-002  -1.6327002155426179E-002   3.0119604344394368E-002
   5.1857697049173229E-002  -1.5642106309397302E-002   2.9652118307515685E-002
   4.9446428231286810E-002  -1.4907889601082878E-002   2.9405607533626227E-002
   4.7035159413400418E-002  -1.4124352030482734E-002   2.9380072022726578E-002
   6.2183470378575634E-002  -1.8676390644891905E-002  -3.1097798300653290E-003
   5.9182904823100624E-002  -1.7712866180578324E-002  -2.7172054185276018E-003
   5.6182339267625503E-002  -1.6820788851447999E-002  -2.1054415741940113E-003
   5.3181773712150410E-002  -1.6000158657501429E-002  -1.2744882970654736E-003
   5.0181208156675372E-002  -1.5250975598737337E-002  -2.2434558714046204E-004
   5.8653466614338123E-002  -1.7538380991289682E-002   5.0843268944438247E-003
   5.5859715890250183E-002  -1.6615534040140101E-002   5.2287819123953416E-003
   5.3065965166162271E-002  -1.5749964235420133E-002   5.5676771603266340E-003
   5.0272214442074345E-002  -1.4941671577130042E-002   6.1010126382359253E-003
   4.7478463717986474E-002  -1.4190656065269813E-002   6.8287883461244370E-003
   5.4952080198729630E-002  -1.6400371337687347E-002   1.3230671111411907E-002
   5.2340395103212062E-002  -1.5518201899701545E-002   1.3141176724531439E-002
   4.9728710007694535E-002  -1.4679139619391823E-002   1.3221373364812938E-002
   4.7117024912176959E-002  -1.3883184496759099E-002   1.3471261032256945E-002
   4.4505339816659412E-002  -1.3130336531802511E-002   1.3890839726862281E-002
   5.1079311131750425E-002  -1.5262361684085068E-002   2.1329252820839667E-002
   4.8624942461986440E-002  -1.4420869759263155E-002   2.1019979017880275E-002
   4.6170573792222350E-002  -1.3608315003364180E-002   2.0855647039266186E-002
   4.3716205122458301E-002  -1.2824697416388156E-002   2.0836256884997087E-002
   4.1261836452694281E-002  -1.2070016998335098E-002   2.0961808555073305E-002
   4.7035159413400418E-002  -1.4124352030482734E-002   2.9380072022726578E-002
   4.4713357966572997E-002  -1.3323537618824544E-002   2.8865188792442098E-002
   4.2391556519745632E-002  -1.2537490387336106E-002   2.8470498183685494E-002
   4.0069755072918267E-002  -1.1766210336016939E-002   2.8196000196457197E-002
   3.7747953626090847E-002  -1.1009697464867685E-002   2.8041694830757358E-002
   5.0181208156675372E-002  -1.5250975598737337E-002  -2.2434558714046204E-004
   4.7587161609387807E-002  -1.4510899086012108E-002  -7.5413139974167542E-005
   4.4993115062100131E-002  -1.3717588530181624E-002  -9.5047724931740518E-006
   4.2399068514812455E-002  -1.2871043931244372E-002  -2.6620484697315039E-005
   3.9805021967524890E-002  -1.1971265289202115E-002  -1.2676027658620193E-004
   4.7478463717986474E-002  -1.4190656065269813E-002   6.8287883461244370E-003
   4.4833470875637993E-002  -1.3449530373266905E-002   6.7847848901866348E-003
   4.2188478033289456E-002  -1.2670907174549051E-002   6.7219129238131337E-003
   3.9543485190940891E-002  -1.1854786469115766E-002   6.6401724470021017E-003
   3.6898492348592327E-002  -1.1001168256967508E-002   6.5395634597553709E-003
   4.4505339816659412E-002  -1.3130336531802511E-002   1.3890839726862281E-002
   4.1873556248498450E-002  -1.2388161660521591E-002   1.3638163831430905E-002
   3.9241772680337378E-002  -1.1624225818916728E-002   1.3430774994811101E-002
   3.6609989112176278E-002  -1.0838529006986945E-002   1.3268673217003243E-002
   3.3978205544015289E-002  -1.0031071224732679E-002   1.3151858498006930E-002
   4.1261836452694281E-002  -1.2070016998335098E-002   2.0961808555073305E-002
   3.8707417727969193E-002  -1.1326792947776443E-002   2.0484723683757214E-002
   3.6152999003243980E-002  -1.0577544463284280E-002   2.0117081440501026E-002
   3.3598580278518905E-002  -9.8222715448582319E-003   1.9858881825304976E-002
   3.1044161553793685E-002  -9.0609741924982945E-003   1.9710124838168960E-002
   3.7747953626090847E-002  -1.1009697464867685E-002   2.8041694830757358E-002
   3.5335055314050123E-002  -1.0265424235031240E-002   2.7324464447165742E-002
   3.2922157002009289E-002  -9.5308631076520822E-003   2.6780832260882625E-002
   3.0509258689968510E-002  -8.8060140827294145E-003   2.6410798271908287E-002
   2.8096360377927676E-002  -8.0908771602634655E-003   2.6214362480242115E-002
   3.9805021967524890E-002  -1.1971265289202115E-002  -1.2676027658620193E-004
   3.7406392417000611E-002  -1.1128011203644816E-002  -3.5917230078275075E-004
   3.5007762866476333E-002  -1.0451040274164158E-002  -5.1589468644286374E-004
   3.2609133315952082E-002  -9.9403525007608490E-003  -5.9692743356620781E-004
   3.0210503765427776E-002  -9.5959478834333201E-003  -6.0227054215289400E-004
   3.6898492348592327E-002  -1.1001168256967508E-002   6.5395634597553709E-003
   3.4559258367808210E-002  -1.0184441644959019E-002   6.1383182495815536E-003
   3.2220024387024038E-002  -9.4789957399465385E-003   5.7801745403521232E-003
   2.9880790406239949E-002  -8.8848305419278878E-003   5.4651323320663858E-003
   2.7541556425455860E-002  -8.4019460509050514E-003   5.1931916247240917E-003
   3.3978205544015289E-002  -1.0031071224732679E-002   1.3151858498006930E-002
   3.1665778995378507E-002  -9.2408720862730553E-003   1.2636782550938364E-002
   2.9353352446741712E-002  -8.5069512057271701E-003   1.2132219967220054E-002
   2.7040925898104841E-002  -7.8293085830951556E-003   1.1638170746853263E-002
   2.4728499349468053E-002  -7.2079442183768938E-003   1.1154634889837312E-002
   3.1044161553793685E-002  -9.0609741924982945E-003   1.9710124838168960E-002
   2.8725954299711511E-002  -8.2973025275873968E-003   1.9136220603286416E-002
   2.6407747045629166E-002  -7.5349066715086760E-003   1.8540241594162184E-002
   2.4089539791546828E-002  -6.7737866242626420E-003   1.7922187810795669E-002
   2.1771332537464591E-002  -6.0139423858483476E-003   1.7282059253187473E-002
   2.8096360377927676E-002  -8.0908771602634655E-003   2.6214362480242115E-002
   2.5739784280807088E-002  -7.3537329689015718E-003   2.5636632406627058E-002
   2.3383208183686416E-002  -6.5628621372903762E-003   2.5004239421177188E-002
   2.1026632086565786E-002  -5.7182646654295663E-003   2.4317183523892588E-002
   1.8670055989445156E-002  -4.8199405533201345E-003   2.3575464714773342E-002
   3.0210503765427776E-002  -9.5959478834333201E-003  -6.0227054215289400E-004
   2.9602990087569059E-002  -9.1306652029174984E-003  -3.6145544559440523E-004
   2.8995476409710286E-002  -8.2573432399473679E-003  -1.7999092477386514E-003
   2.8387962731851513E-002  -6.9759819945226093E-003  -4.9176319485849107E-003
   2.7780449053992795E-002  -5.2865814666440691E-003  -9.7146235481342380E-003
   2.7541556425455860E-002  -8.4019460509050514E-003   5.1931916247240917E-003
   2.5523755870281273E-002  -7.8692519255637583E-003   5.8683486356975179E-003
   2.3505955315106741E-002  -7.1256578245906255E-003   5.4022007907413294E-003
   2.1488154759932238E-002  -6.1711637479845427E-003   3.7947480898566366E-003
   1.9470354204757845E-002  -5.0057696957466202E-003   1.0459905330426622E-003
   2.4728499349468053E-002  -7.2079442183768938E-003   1.1154634889837312E-002
   2.1838375959751688E-002  -6.6078386482102403E-003   1.2066994508402484E-002
   1.8948252570035157E-002  -5.9939724092334112E-003   1.2376013313813217E-002
   1.6058129180318653E-002  -5.3663455014464692E-003   1.2081691306068107E-002
   1.3168005790602177E-002  -4.7249579248493934E-003   1.1184028485168751E-002
   2.1771332537464591E-002  -6.0139423858483476E-003   1.7282059253187473E-002
   1.8546850355979930E-002  -5.3464253708563891E-003   1.8234482172522881E-002
   1.5322368174495331E-002  -4.8622869938762109E-003   1.9121528321477378E-002
   1.2097885993010690E-002  -4.5615272549081771E-003   1.9943197700050385E-002
   8.8734038115261746E-003  -4.4441461539522775E-003   2.0699490308242113E-002
   1.8670055989445156E-002  -4.8199405533201345E-003   2.3575464714773342E-002
   1.5649179058966345E-002  -4.0850120935029266E-003   2.4370811628057099E-002
   1.2628302128487451E-002  -3.7306015785192603E-003   2.5638745813733488E-002
   9.6074251980085706E-003  -3.7567090083702251E-003   2.7379267271802177E-002
   6.5865482675297460E-003  -4.1633343830551617E-003   2.9592376002264276E-002
   2.7780449053992795E-002  -5.2865814666440691E-003  -9.7146235481342380E-003
   2.3353986838833496E-002  -4.2062498926123126E-003  -4.1862614270002929E-003
   1.8927524623674308E-002  -4.7520955087290151E-003   2.6058083184671288E-003
   1.4501062408514981E-002  -6.9241183149954533E-003   1.0661585688266362E-002
   1.0074600193355820E-002  -1.0722318311408685E-002   1.9981070682397295E-002
   1.9470354204757845E-002  -5.0057696957466202E-003   1.0459905330426622E-003
   1.6235272733899020E-002  -4.6909293828409915E-003   6.7406798870033313E-003
   1.3000191263040195E-002  -6.2880965242302911E-003   1.3554423105232027E-002
   9.7651097921814256E-003  -9.7972711199150880E-003   2.1487220187729417E-002
   6.5300283213227672E-003  -1.5218453169895785E-002   3.0539071134495721E-002
   1.3168005790602177E-002  -4.7249579248493934E-003   1.1184028485168751E-002
   1.0979651303980209E-002  -5.1756088730687821E-003   1.6759214807807343E-002
   8.7912968173582684E-003  -7.8240975397304569E-003   2.3308801234651066E-002
   6.6029423307362931E-003  -1.2670423924835500E-002   3.0832787765700254E-002
   4.4145878441143038E-003  -1.9714588028382440E-002   3.9331174400953683E-002
   8.8734038115261746E-003  -4.4441461539522775E-003   2.0699490308242113E-002
   7.5871225490773755E-003  -5.6602883632970169E-003   2.5869343335412617E-002
   6.3008412866285245E-003  -9.3600985552311777E-003   3.1868942706724301E-002
   5.0145600241797202E-003  -1.5543576729755301E-002   3.8698288422177193E-002
   3.7282787617309854E-003  -2.4210722886869318E-002   4.6357380481771682E-002
   6.5865482675297460E-003  -4.1633343830551617E-003   2.9592376002264276E-002
   6.0576864691904708E-003  -6.1449678535251406E-003   3.4071065469818640E-002
   5.5288246708510846E-003  -1.0896099570731843E-002   3.9234847521451233E-002
   4.9999628725118095E-003  -1.8416729534675866E-002   4.5083722157161277E-002
   4.4711010741724788E-003  -2.8706857745356196E-002   5.1617689376949105E-002
   8.0653282052048025E-002  -2.2352869610489545E-002   4.6575309126721143E-002
   7.7099946647298967E-002  -2.1880816204415454E-002   4.1170169809945756E-002
   7.3546611242549853E-002  -2.1305982572981830E-002   3.7127973413838000E-002
   6.9993275837800767E-002  -2.0628368716188325E-002   3.4448719938398153E-002
   6.6439940433051653E-002  -1.9847974634035481E-002   3.3132409383625994E-002
   6.9821176982896027E-002  -2.0504504782765220E-002   4.5589558714949130E-002
   6.7428836957081462E-002  -2.0023169954921233E-002   4.1997612195196876E-002
   6.5036496931266896E-002  -1.9470816590818410E-002   3.9364713512645894E-002
   6.2644156905452303E-002  -1.8847444690457103E-002   3.7690862667296418E-002
   6.0251816879637821E-002  -1.8153054253836953E-002   3.6976059659148047E-002
   6.0917312871691165E-002  -1.8656139955040868E-002   4.4628970569497384E-002
   5.9282073141344760E-002  -1.8165523705426942E-002   4.2818455157667454E-002
   5.7646833410998313E-002  -1.7635650608655212E-002   4.1563092499572379E-002
   5.6011593680651922E-002  -1.7066520664725686E-002   4.0862882595212202E-002
   5.4376353950305496E-002  -1.6458133873638509E-002   4.0717825444587019E-002
   5.3941689718433480E-002  -1.6807775127316515E-002   4.3693544690366223E-002
   5.2659655200088876E-002  -1.6307877455932672E-002   4.3632698697357558E-002
   5.1377620681744160E-002  -1.5800484626492015E-002   4.3723110374617145E-002
   5.0095586163399472E-002  -1.5285596638994422E-002   4.3964779722145547E-002
   4.8813551645054819E-002  -1.4763213493440050E-002   4.4357706739942437E-002
   4.8894307523123015E-002  -1.4959410299592191E-002   4.2783281077555246E-002
   4.7561583133313712E-002  -1.4450231206438430E-002   4.4440342814267009E-002
   4.6228858743504408E-002  -1.3965318644328650E-002   4.5844767137780851E-002
   4.4896134353695091E-002  -1.3504672613263005E-002   4.6996554048096606E-002
   4.3563409963885774E-002  -1.3068293113241591E-002   4.7895703545214663E-002
   6.6439940433051653E-002  -1.9847974634035481E-002   3.3132409383625994E-002
   6.4000013996025229E-002  -1.9043799144481760E-002   3.2052307285237530E-002
   6.1560087558998847E-002  -1.8294841065485998E-002   3.1304882629213993E-002
   5.9120161121972471E-002  -1.7601100397048718E-002   3.0890135415556047E-002
   5.6680234684946040E-002  -1.6962577139169210E-002   3.0808065644262972E-002
   6.0251816879637821E-002  -1.8153054253836953E-002   3.6976059659148047E-002
   5.8118595899375666E-002  -1.7439959879452960E-002   3.6138232163595962E-002
   5.5985374919113581E-002  -1.6760476165799537E-002   3.5581138139207116E-002
   5.3852153938851489E-002  -1.6114603112876928E-002   3.5304777585981877E-002
   5.1718932958589342E-002  -1.5502340720684959E-002   3.5309150503919945E-002
   5.4376353950305496E-002  -1.6458133873638509E-002   4.0717825444587019E-002
   5.2497894455605987E-002  -1.5836120614424035E-002   4.0143879301698590E-002
   5.0619434960906401E-002  -1.5226111266112861E-002   3.9798722658771706E-002
   4.8740975466206822E-002  -1.4628105828705029E-002   3.9682355515806553E-002
   4.6862515971507313E-002  -1.4042104302200514E-002   3.9794777872803083E-002
   4.8813551645054819E-002  -1.4763213493440050E-002   4.4357706739942437E-002
   4.7137909664716086E-002  -1.4232281349395172E-002   4.4069248699545122E-002
   4.5462267684377312E-002  -1.3691746366426377E-002   4.3957636187907712E-002
   4.3786625704038538E-002  -1.3141608544533240E-002   4.4022869205030221E-002
   4.2110983723699744E-002  -1.2581867883716000E-002   4.4264947750912643E-002
   4.3563409963885774E-002  -1.3068293113241591E-002   4.7895703545214663E-002
   4.2038641526706069E-002  -1.2628442084366281E-002   4.7914340357135821E-002
   4.0513873089526309E-002  -1.2157381466739767E-002   4.8057878726615183E-002
   3.8989104652346576E-002  -1.1655111260361350E-002   4.8326318653652736E-002
   3.7464336215166844E-002  -1.1121631465231763E-002   4.8719660138248355E-002
   5.6680234684946040E-002  -1.6962577139169210E-002   3.0808065644262972E-002
   5.4268965867059593E-002  -1.6327002155426179E-002   3.0119604344394368E-002
   5.1857697049173229E-002  -1.5642106309397302E-002   2.9652118307515685E-002
   4.9446428231286810E-002  -1.4907889601082878E-002   2.9405607533626227E-002
   4.7035159413400418E-002  -1.4124352030482734E-002   2.9380072022726578E-002
   5.1718932958589342E-002  -1.5502340720684959E-002   3.5309150503919945E-002
   4.9521900001429170E-002  -1.4888628115650088E-002   3.4761750515413470E-002
   4.7324867044268942E-002  -1.4238404424198881E-002   3.4421846985369917E-002
   4.5127834087108715E-002  -1.3551669646331255E-002   3.4289439913788904E-002
   4.2930801129948515E-002  -1.2828423782047460E-002   3.4364529300670688E-002
   4.6862515971507313E-002  -1.4042104302200514E-002   3.9794777872803083E-002
   4.4866240070546362E-002  -1.3450254075874038E-002   3.9375629419789504E-002
   4.2869964169585398E-002  -1.2834702539000417E-002   3.9150498620711779E-002
   4.0873688268624433E-002  -1.2195449691579856E-002   3.9119385475569902E-002
   3.8877412367663483E-002  -1.1532495533611992E-002   3.9282289984363991E-002
   4.2110983723699744E-002  -1.2581867883716000E-002   4.4264947750912643E-002
   4.0301986074411225E-002  -1.2011880036097967E-002   4.3961241057522499E-002
   3.8492988425122686E-002  -1.1431000653801975E-002   4.3838073213541606E-002
   3.6683990775834119E-002  -1.0839229736828179E-002   4.3895444218969494E-002
   3.4874993126545566E-002  -1.0236567285176454E-002   4.4133354073806447E-002
   3.7464336215166844E-002  -1.1121631465231763E-002   4.8719660138248355E-002
   3.5829138013023787E-002  -1.0573505996321897E-002   4.8518585428612759E-002
   3.4193939810880702E-002  -1.0027298768603560E-002   4.8484570763859203E-002
   3.2558741608737618E-002  -9.4830097820767859E-003   4.8617616143987658E-002
   3.0923543406594561E-002  -8.9406390367411936E-003   4.8917721568998151E-002
   4.7035159413400418E-002  -1.4124352030482734E-002   2.9380072022726578E-002
   4.4713357966572997E-002  -1.3323537618824544E-002   2.8865188792442098E-002
   4.2391556519745632E-002  -1.2537490387336106E-002   2.8470498183685494E-002
   4.0069755072918267E-002  -1.1766210336016939E-002   2.8196000196457197E-002
   3.7747953626090847E-002  -1.1009697464867685E-002   2.8041694830757358E-002
   4.2930801129948515E-002  -1.2828423782047460E-002   3.4364529300670688E-002
   4.0738548541727815E-002  -1.2090845718727761E-002   3.3898664894374264E-002
   3.8546295953507267E-002  -1.1361114343753156E-002   3.3571705583763017E-002
   3.6354043365286644E-002  -1.0639229657123706E-002   3.3383651368837031E-002
   3.4161790777065992E-002  -9.9251916588389832E-003   3.3334502249596276E-002
   3.8877412367663483E-002  -1.1532495533611992E-002   3.9282289984363991E-002
   3.6833421112206680E-002  -1.0858153818630756E-002   3.8872364893880171E-002
   3.4789429856749848E-002  -1.0184738300170200E-002   3.8620057373238752E-002
   3.2745438601293031E-002  -9.5122489782299719E-003   3.8525367422439699E-002
   3.0701447345836144E-002  -8.8406858528102816E-003   3.8588295041482673E-002
   3.4874993126545566E-002  -1.0236567285176454E-002   4.4133354073806447E-002
   3.2997975678009502E-002  -9.6254619185339174E-003   4.3786288790960123E-002
   3.1120958229473486E-002  -9.0083622565873024E-003   4.3615553552112829E-002
   2.9243940780937443E-002  -8.3852682993363764E-003   4.3621148357265167E-002
   2.7366923332401406E-002  -7.7561800467816355E-003   4.3803073206416875E-002
   3.0923543406594561E-002  -8.9406390367411936E-003   4.8917721568998151E-002
   2.9232212239136329E-002  -8.3927700184369680E-003   4.8640436585613567E-002
   2.7540881071678125E-002  -7.8319862130042522E-003   4.8558194120385395E-002
   2.5849549904219907E-002  -7.2582876204429943E-003   4.8670994173313456E-002
   2.4158218736761661E-002  -6.6716742407529894E-003   4.8978836744397847E-002
   3.7747953626090847E-002  -1.1009697464867685E-002   2.8041694830757358E-002
   3.5335055314050123E-002  -1.0265424235031240E-002   2.7324464447165742E-002
   3.2922157002009289E-002  -9.5308631076520822E-003   2.6780832260882625E-002
   3.0509258689968510E-002  -8.8060140827294145E-003   2.6410798271908287E-002
   2.8096360377927676E-002  -8.0908771602634655E-003   2.6214362480242115E-002
   3.4161790777065992E-002  -9.9251916588389832E-003   3.3334502249596276E-002
   3.1919394172319621E-002  -9.2182038325599458E-003   3.2732011914724080E-002
   2.9676997567573235E-002  -8.5174696619478019E-003   3.2296926797132058E-002
   2.7434600962826843E-002  -7.8229891470014482E-003   3.2029246896820573E-002
   2.5192204358080478E-002  -7.1347622877220296E-003   3.1928972213789208E-002
   3.0701447345836144E-002  -8.8406858528102816E-003   3.8588295041482673E-002
   2.8623359468356008E-002  -8.1709834300887907E-003   3.8104003202120179E-002
   2.6545271590875844E-002  -7.5040762162433966E-003   3.7780923600009786E-002
   2.4467183713395693E-002  -6.8399642112739224E-003   3.7619056235151181E-002
   2.2389095835915529E-002  -6.1786474151807047E-003   3.7618401107545107E-002
   2.7366923332401406E-002  -7.7561800467816355E-003   4.3803073206416875E-002
   2.5446951202159264E-002  -7.1237630276175662E-003   4.3440438309354172E-002
   2.3526979071917069E-002  -6.4906827705388873E-003   4.3232822669515697E-002
   2.1607006941674896E-002  -5.8569392755462874E-003   4.3180226286900887E-002
   1.9687034811432736E-002  -5.2225325426392688E-003   4.3282649161510110E-002
   2.4158218736761661E-002  -6.6716742407529894E-003   4.8978836744397847E-002
   2.2390169373729341E-002  -6.0765426251461752E-003   4.8741317236425941E-002
   2.0622120010696937E-002  -5.4772893248347942E-003   4.8652624005649459E-002
   1.8854070647664589E-002  -4.8739143398185622E-003   4.8712757052068761E-002
   1.7086021284632186E-002  -4.2664176700979439E-003   4.8921716375684099E-002
   2.8096360377927676E-002  -8.0908771602634655E-003   2.6214362480242115E-002
   2.5739784280807088E-002  -7.3537329689015718E-003   2.5636632406627058E-002
   2.3383208183686416E-002  -6.5628621372903762E-003   2.5004239421177188E-002
   2.1026632086565786E-002  -5.7182646654295663E-003   2.4317183523892588E-002
   1.8670055989445156E-002  -4.8199405533201345E-003   2.3575464714773342E-002
   2.5192204358080478E-002  -7.1347622877220296E-003   3.1928972213789208E-002
   2.2820266137960343E-002  -6.4435516359358513E-003   3.1524564367155894E-002
   2.0448327917840306E-002  -5.7401197434700790E-003   3.1144095186358883E-002
   1.8076389697720179E-002  -5.0244666103248167E-003   3.0787564671397274E-002
   1.5704451477600134E-002  -4.2965922364995857E-003   3.0454972822271553E-002
   2.2389095835915529E-002  -6.1786474151807047E-003   3.7618401107545107E-002
   2.0080397070466480E-002  -5.5333703029704362E-003   3.7345810088324188E-002
   1.7771698305017493E-002  -4.9173773496501288E-003   3.7175759312610093E-002
   1.5462999539568530E-002  -4.3306685552196265E-003   3.7108248780401885E-002
   1.3154300774119457E-002  -3.7732439196792034E-003   3.7143278491700377E-002
   1.9687034811432736E-002  -5.2225325426392688E-003   4.3282649161510110E-002
   1.7520177078325396E-002  -4.6231889700050349E-003   4.3100369570131837E-002
   1.5353319345218027E-002  -4.0946349558302272E-003   4.3099231799930915E-002
   1.3186461612110671E-002  -3.6368705001146567E-003   4.3279235850906830E-002
   1.1019603879003376E-002  -3.2498956028586823E-003   4.3640381723059458E-002
   1.7086021284632186E-002  -4.2664176700979439E-003   4.8921716375684099E-002
   1.5139606161537061E-002  -3.7130076370394116E-003   4.8788242812579097E-002
   1.3193191038441895E-002  -3.2718925620098260E-003   4.8914512648321751E-002
   1.1246775915346723E-002  -2.9430724450094509E-003   4.9300525882911950E-002
   9.3003607922516052E-003  -2.7265472860382722E-003   4.9946282516349583E-002
   1.8670055989445156E-002  -4.8199405533201345E-003   2.3575464714773342E-002
   1.5649179058966345E-002  -4.0850120935029266E-003   2.4370811628057099E-002
   1.2628302128487451E-002  -3.7306015785192603E-003   2.5638745813733488E-002
   9.6074251980085706E-003  -3.7567090083702251E-003   2.7379267271802177E-002
   6.5865482675297460E-003  -4.1633343830551617E-003   2.9592376002264276E-002
   1.5704451477600134E-002  -4.2965922364995857E-003   3.0454972822271553E-002
   1.3137847439861378E-002  -3.7813086354363534E-003   3.1238498798748404E-002
   1.0571243402122552E-002  -3.7034278205766713E-003   3.2457983288312481E-002
   8.0046393643837671E-003  -4.0629497919202132E-003   3.4113426290964435E-002
   5.4380353266449688E-003  -4.8598745494679019E-003   3.6204827806703754E-002
   1.3154300774119457E-002  -3.7732439196792034E-003   3.7143278491700377E-002
   1.1005340869815611E-002  -3.4776051773702521E-003   3.7858098690001007E-002
   8.8563809655116885E-003  -3.6762540626340684E-003   3.8972248642083498E-002
   6.7074210612077557E-003  -4.3691905754707529E-003   4.0485728347948315E-002
   4.5584611569039202E-003  -5.5564147158806421E-003   4.2398537807595782E-002
   1.1019603879003376E-002  -3.2498956028586823E-003   4.3640381723059458E-002
   9.2516593488291485E-003  -3.1739017193039148E-003   4.4229611301814166E-002
   7.4837148186549709E-003  -3.6490803046914724E-003   4.5181541875046263E-002
   5.7157702884807525E-003  -4.6754313590214609E-003   4.6496173442755008E-002
   3.9478257583065654E-003  -6.2529548822933823E-003   4.8173506004941039E-002
   9.3003607922516052E-003  -2.7265472860382722E-003   4.9946282516349583E-002
   7.8768028769019283E-003  -2.8701982612375776E-003   5.0353036634188997E-002
   6.4532449615522791E-003  -3.6219065467487654E-003   5.1085862987200303E-002
   5.0296870462026022E-003  -4.9816721425713084E-003   5.2144761575383447E-002
   3.6061291308529531E-003  -6.9494950487063445E-003   5.3529732398738483E-002
   6.5865482675297460E-003  -4.1633343830551617E-003   2.9592376002264276E-002
   6.0576864691904708E-003  -6.1449678535251406E-003   3.4071065469818640E-002
   5.5288246708510846E-003  -1.0896099570731843E-002   3.9234847521451233E-002
   4.9999628725118095E-003  -1.8416729534675866E-002   4.5083722157161277E-002
   4.4711010741724788E-003  -2.8706857745356196E-002   5.1617689376949105E-002
   5.4380353266449688E-003  -4.8598745494679019E-003   3.6204827806703754E-002
   5.4904853519494867E-003  -6.9936060340513584E-003   3.8345820827665356E-002
   5.5429353772539075E-003  -1.1363548186504147E-002   4.0964344911836703E-002
   5.5953854025583977E-003  -1.7969701006826530E-002   4.4060400059217991E-002
   5.6478354278627907E-003  -2.6812064495018273E-002   4.7633986269809636E-002
   4.5584611569039202E-003  -5.5564147158806421E-003   4.2398537807595782E-002
   4.9846614849844706E-003  -7.8422442145777427E-003   4.2735121960831596E-002
   5.4108618130650626E-003  -1.1830996802276478E-002   4.3341675656409617E-002
   5.8370621411455714E-003  -1.7522672478977368E-002   4.4218198894330249E-002
   6.2632624692262051E-003  -2.4917271244679906E-002   4.5364691674592672E-002
   3.9478257583065654E-003  -6.2529548822933823E-003   4.8173506004941039E-002
   4.5402148682955543E-003  -8.6908823951038217E-003   4.7238968869318831E-002
   5.1326039782844286E-003  -1.2298445418049017E-002   4.6366839755170898E-002
   5.7249930882733863E-003  -1.7075643951128008E-002   4.5557118662497745E-002
   6.3173821982623474E-003  -2.3022477994341872E-002   4.4809805591298824E-002
   3.6061291308529531E-003  -6.9494950487063445E-003   5.3529732398738483E-002
   4.1571455018826198E-003  -9.5395205756304557E-003   5.1857361553125925E-002
   4.7081618729122587E-003  -1.2765894033821168E-002   5.0039837208119664E-002
   5.2591782439418561E-003  -1.6628615423279050E-002   4.8077159363719979E-002
   5.8101946149715644E-003  -2.1127684744003616E-002   4.5969328019927591E-002
   4.8894307523123015E-002  -1.4959410299592191E-002   4.2783281077555246E-002
   4.7561583133313712E-002  -1.4450231206438430E-002   4.4440342814267009E-002
   4.6228858743504408E-002  -1.3965318644328650E-002   4.5844767137780851E-002
   4.4896134353695091E-002  -1.3504672613263005E-002   4.6996554048096606E-002
   4.3563409963885774E-002  -1.3068293113241591E-002   4.7895703545214663E-002
   4.4379065547892338E-002  -1.3048820718015608E-002   4.8708761065474893E-002
   4.2883136141275785E-002  -1.2633618464527679E-002   4.9574571759663483E-002
   4.1387206734659204E-002  -1.2227595522247656E-002   5.0366609833435411E-002
   3.9891277328042665E-002  -1.1830751891175547E-002   5.1084875286790760E-002
   3.8395347921426071E-002  -1.1443087571311406E-002   5.1729368119729308E-002
   3.8999863054874156E-002  -1.1138231136439025E-002   5.4532720603810481E-002
   3.7519593424231487E-002  -1.0817005722616971E-002   5.4622367475312253E-002
   3.6039323793588818E-002  -1.0489872400166605E-002   5.4817106519178621E-002
   3.4559054162946162E-002  -1.0156831169088089E-002   5.5116937735409419E-002
   3.3078784532303465E-002  -9.8178820293811919E-003   5.5521861124004770E-002
   3.2756700044068394E-002  -9.2276415548624147E-003   6.0255159692562191E-002
   3.1470954982180777E-002  -9.0003929807062691E-003   5.9583729961213319E-002
   3.0185209920293152E-002  -8.7521492780855831E-003   5.9196257195010156E-002
   2.8899464858405589E-002  -8.4829104470004642E-003   5.9092741393952708E-002
   2.7613719796517968E-002  -8.1926764874510477E-003   5.9273182558040899E-002
   2.5649576515475059E-002  -7.3170519732858597E-003   6.5876078331729870E-002
   2.4737220815123695E-002  -7.1837802387955396E-003   6.4458659217366487E-002
   2.3824865114772331E-002  -7.0144261560045190E-003   6.3504061860930133E-002
   2.2912509414420967E-002  -6.8089897249131066E-003   6.3012286262420433E-002
   2.2000153714069604E-002  -6.5674709455207925E-003   6.2983332421837734E-002
   4.3563409963885774E-002  -1.3068293113241591E-002   4.7895703545214663E-002
   4.2038641526706069E-002  -1.2628442084366281E-002   4.7914340357135821E-002
   4.0513873089526309E-002  -1.2157381466739767E-002   4.8057878726615183E-002
   3.8989104652346576E-002  -1.1655111260361350E-002   4.8326318653652736E-002
   3.7464336215166844E-002  -1.1121631465231763E-002   4.8719660138248355E-002
   3.8395347921426071E-002  -1.1443087571311406E-002   5.1729368119729308E-002
   3.7008826556454155E-002  -1.1048380445727049E-002   5.1640086355337220E-002
   3.5622305191482281E-002  -1.0630408397494323E-002   5.1702397177802631E-002
   3.4235783826510359E-002  -1.0189171426613082E-002   5.1916300587125604E-002
   3.2849262461538492E-002  -9.7246695330834854E-003   5.2281796583306062E-002
   3.3078784532303465E-002  -9.8178820293811919E-003   5.5521861124004770E-002
   3.1857201268838758E-002  -9.4683188070876362E-003   5.5316716117196255E-002
   3.0635618005374066E-002  -9.1034353282488309E-003   5.5289854726544720E-002
   2.9414034741909369E-002  -8.7232315928645384E-003   5.5441276952049978E-002
   2.8192451478444666E-002  -8.3277076009351803E-003   5.5770982793712204E-002
   2.7613719796517968E-002  -8.1926764874510477E-003   5.9273182558040899E-002
   2.6583765663859841E-002  -7.8882571684482580E-003   5.8944229642712863E-002
   2.5553811531201717E-002  -7.5764622590032797E-003   5.8820251372841185E-002
   2.4523857398543569E-002  -7.2572917591161605E-003   5.8901247748425686E-002
   2.3493903265885463E-002  -6.9307456687868058E-003   5.9187218769466553E-002
   2.2000153714069604E-002  -6.5674709455207925E-003   6.2983332421837734E-002
   2.1188519741517406E-002  -6.3081955298089631E-003   6.2522626931887260E-002
   2.0376885768965194E-002  -6.0494891897578951E-003   6.2293587116692195E-002
   1.9565251796412976E-002  -5.7913519253676993E-003   6.2296212976252929E-002
   1.8753617823860758E-002  -5.5337837366386533E-003   6.2530504510569240E-002
   3.7464336215166844E-002  -1.1121631465231763E-002   4.8719660138248355E-002
   3.5829138013023787E-002  -1.0573505996321897E-002   4.8518585428612759E-002
   3.4193939810880702E-002  -1.0027298768603560E-002   4.8484570763859203E-002
   3.2558741608737618E-002  -9.4830097820767859E-003   4.8617616143987658E-002
   3.0923543406594561E-002  -8.9406390367411936E-003   4.8917721568998151E-002
   3.2849262461538492E-002  -9.7246695330834854E-003   5.2281796583306062E-002
   3.1388002307301988E-002  -9.2475311140711725E-003   5.2045907590792612E-002
   2.9926742153065511E-002  -8.7683845667413107E-003   5.1990834649210199E-002
   2.8465481998829055E-002  -8.2872298910946149E-003   5.2116577758559018E-002
   2.7004221844592530E-002  -7.8040670871303286E-003   5.2423136918838931E-002
   2.8192451478444666E-002  -8.3277076009351803E-003   5.5770982793712204E-002
   2.6918885378163893E-002  -7.9215562318201704E-003   5.5504205887829311E-002
   2.5645319277883140E-002  -7.5094703648792144E-003   5.5432001038926745E-002
   2.4371753177602366E-002  -7.0914500001124404E-003   5.5554368247004444E-002
   2.3098187077321614E-002  -6.6674951375194913E-003   5.5871307512062388E-002
   2.3493903265885463E-002  -6.9307456687868058E-003   5.9187218769466553E-002
   2.2421787225609502E-002  -6.5955813495691962E-003   5.8893480319723031E-002
   2.1349671185333548E-002  -6.2505561630170417E-003   5.8808069933008994E-002
   2.0277555145057601E-002  -5.8956701091301567E-003   5.8930987609324345E-002
   1.9205439104781657E-002  -5.5309231879087511E-003   5.9262233348669063E-002
   1.8753617823860758E-002  -5.5337837366386533E-003   6.2530504510569240E-002
   1.7896707849638774E-002  -5.2696064673183884E-003   6.2213730886473750E-002
   1.7039797875416762E-002  -4.9916419611547580E-003   6.2119041331456903E-002
   1.6182887901194765E-002  -4.6998902181481506E-003   6.2246435845518644E-002
   1.5325977926972739E-002  -4.3943512382978445E-003   6.2595914428658583E-002
   3.0923543406594561E-002  -8.9406390367411936E-003   4.8917721568998151E-002
   2.9232212239136329E-002  -8.3927700184369680E-003   4.8640436585613567E-002
   2.7540881071678125E-002  -7.8319862130042522E-003   4.8558194120385395E-002
   2.5849549904219907E-002  -7.2582876204429943E-003   4.8670994173313456E-002
   2.4158218736761661E-002  -6.6716742407529894E-003   4.8978836744397847E-002
   2.7004221844592530E-002  -7.8040670871303286E-003   5.2423136918838931E-002
   2.5509526499343488E-002  -7.3144605259946038E-003   5.2172629120815439E-002
   2.4014831154094404E-002  -6.8139745788328987E-003   5.2120350449053721E-002
   2.2520135808845307E-002  -6.3026092456454838E-003   5.2266300903554150E-002
   2.1025440463596279E-002  -5.7803645264321579E-003   5.2610480484316546E-002
   2.3098187077321614E-002  -6.6674951375194913E-003   5.5871307512062388E-002
   2.1803314162387240E-002  -6.2361510335522397E-003   5.5645541498297341E-002
   2.0508441247452928E-002  -5.7959629446618713E-003   5.5621191218899600E-002
   1.9213568332518607E-002  -5.3469308708482492E-003   5.5798256673869548E-002
   1.7918695417584243E-002  -4.8890548121117150E-003   5.6176737863206871E-002
   1.9205439104781657E-002  -5.5309231879087511E-003   5.9262233348669063E-002
   1.8113575228267672E-002  -5.1578415411097644E-003   5.9059173718059348E-002
   1.7021711351753649E-002  -4.7779513104907363E-003   5.9060716429922978E-002
   1.5929847475239643E-002  -4.3912524960510986E-003   5.9266861484259567E-002
   1.4837983598725669E-002  -3.9977450977911888E-003   5.9677608881069370E-002
   1.5325977926972739E-002  -4.3943512382978445E-003   6.2595914428658583E-002
   1.4440309696984704E-002  -4.0795320486675113E-003   6.2413525780101675E-002
   1.3554641466996628E-002  -3.7599396763195042E-003   6.2438926082123619E-002
   1.2668973237008573E-002  -3.4355741212537018E-003   6.2672115334724290E-002
   1.1783305007020517E-002  -3.1064353834705516E-003   6.3113093537903620E-002
   2.4158218736761661E-002  -6.6716742407529894E-003   4.8978836744397847E-002
   2.2390169373729341E-002  -6.0765426251461752E-003   4.8741317236425941E-002
   2.0622120010696937E-002  -5.4772893248347942E-003   4.8652624005649459E-002
   1.8854070647664589E-002  -4.8739143398185622E-003   4.8712757052068761E-002
   1.7086021284632186E-002  -4.2664176700979439E-003   4.8921716375684099E-002
   2.1025440463596279E-002  -5.7803645264321579E-003   5.2610480484316546E-002
   1.9418768719170545E-002  -5.2530359557542150E-003   5.2413250545713108E-002
   1.7812096974744868E-002  -4.7264190681721163E-003   5.2389949567127392E-002
   1.6205425230319169E-002  -4.2005138636858758E-003   5.2540577548559439E-002
   1.4598753485893456E-002  -3.6753203422960068E-003   5.2865134490009402E-002
   1.7918695417584243E-002  -4.8890548121117150E-003   5.6176737863206871E-002
   1.6498503974587214E-002  -4.4295292863620050E-003   5.6014964126171463E-002
   1.5078312531590192E-002  -3.9755488115092302E-003   5.6052222031975810E-002
   1.3658121088593149E-002  -3.5271133875533593E-003   5.6288511580619656E-002
   1.2237929645596134E-002  -3.0842230144942917E-003   5.6723832772103355E-002
   1.4837983598725669E-002  -3.9977450977911888E-003   5.9677608881069370E-002
   1.3629375139979270E-002  -3.6060226169700865E-003   5.9546457977801073E-002
   1.2420766681232894E-002  -3.2246785548461152E-003   5.9639441400194407E-002
   1.1212158222486533E-002  -2.8537129114207024E-003   5.9956559148249385E-002
   1.0003549763740146E-002  -2.4931256866926876E-003   6.0497811221966027E-002
   1.1783305007020517E-002  -3.1064353834705516E-003   6.3113093537903620E-002
   1.0811382215346776E-002  -2.7825159475778349E-003   6.3007732100601566E-002
   9.8394594236730359E-003  -2.4738082981837217E-003   6.3151607671783239E-002
   8.8675366319992954E-003  -2.1803124352880593E-003   6.3544720251448777E-002
   7.8956138403255549E-003  -1.9020283588906395E-003   6.4187069839597766E-002
   1.7086021284632186E-002  -4.2664176700979439E-003   4.8921716375684099E-002
   1.5139606161537061E-002  -3.7130076370394116E-003   4.8788242812579097E-002
   1.3193191038441895E-002  -3.2718925620098260E-003   4.8914512648321751E-002
   1.1246775915346723E-002  -2.9430724450094509E-003   4.9300525882911950E-002
   9.3003607922516052E-003  -2.7265472860382722E-003   4.9946282516349583E-002
   1.4598753485893456E-002  -3.6753203422960068E-003   5.2865134490009402E-002
   1.2910493951672999E-002  -3.2065808027996745E-003   5.2744271456012903E-002
   1.1222234417452501E-002  -2.8500375439945436E-003   5.2879976200918388E-002
   9.5339748832320229E-003  -2.6056905658805446E-003   5.3272248724725524E-002
   7.8457153490115450E-003  -2.4735398684573306E-003   5.3921089027434976E-002
   1.2237929645596134E-002  -3.0842230144942917E-003   5.6723832772103355E-002
   1.0804650080304658E-002  -2.7001539685602149E-003   5.6615678944553660E-002
   9.3713705150132200E-003  -2.4281825259791778E-003   5.6760917275959999E-002
   7.9380909497217666E-003  -2.2683086867513122E-003   5.7159547766322635E-002
   6.5048113844303340E-003  -2.2205324508762780E-003   5.7811570415641500E-002
   1.0003549763740146E-002  -2.4931256866926876E-003   6.0497811221966027E-002
   8.8220745474321145E-003  -2.1937271343207831E-003   6.0402465278201020E-002
   7.6405993311240957E-003  -2.0063275079639092E-003   6.0557335873446409E-002
   6.4591241148160630E-003  -1.9309268076222429E-003   6.0962423007702160E-002
   5.2776488985080729E-003  -1.9675250332952254E-003   6.1617726680968848E-002
   7.8956138403255549E-003  -1.9020283588906395E-003   6.4187069839597766E-002
   6.9627673530553158E-003  -1.6873003000809628E-003   6.4104630456955136E-002
   6.0299208657850906E-003  -1.5844724899485019E-003   6.4269231993377474E-002
   5.0970743785148515E-003  -1.5935449284929445E-003   6.4680874448864778E-002
   4.1642278912446262E-003  -1.7145176157142838E-003   6.5339557823417160E-002
   9.3003607922516052E-003  -2.7265472860382722E-003   4.9946282516349583E-002
   7.8768028769019283E-003  -2.8701982612375776E-003   5.0353036634188997E-002
   6.4532449615522791E-003  -3.6219065467487654E-003   5.1085862987200303E-002
   5.0296870462026022E-003  -4.9816721425713084E-003   5.2144761575383447E-002
   3.6061291308529531E-003  -6.9494950487063445E-003   5.3529732398738483E-002
   7.8457153490115450E-003  -2.4735398684573306E-003   5.3921089027434976E-002
   6.7224818342522946E-003  -2.6545203475222268E-003   5.3854775098053531E-002
   5.5992483194930859E-003  -3.3495668988726413E-003   5.4063037734680408E-002
   4.4760148047338633E-003  -4.5586795225078455E-003   5.4545876937316801E-002
   3.3527812899746268E-003  -6.2818582184285265E-003   5.5303292705961682E-002
   6.5048113844303340E-003  -2.2205324508762780E-003   5.7811570415641500E-002
   5.6304066010985643E-003  -2.4388424338069870E-003   5.7366179677065393E-002
   4.7560018177667529E-003  -3.0772272509964060E-003   5.7143869835335037E-002
   3.8815970344349554E-003  -4.1356869024442716E-003   5.7144640890450654E-002
   3.0071922511031718E-003  -5.6142213881508196E-003   5.7368492842412133E-002
   5.2776488985080729E-003  -1.9675250332952254E-003   6.1617726680968848E-002
   4.6005771774406869E-003  -2.2231645200918027E-003   6.0887250371224756E-002
   3.9235054563733184E-003  -2.8048876031202818E-003   6.0328359289163566E-002
   3.2464337353059550E-003  -3.7126942823807532E-003   5.9941053434785320E-002
   2.5693620142385916E-003  -4.9465845578731682E-003   5.9725332808089948E-002
   4.1642278912446262E-003  -1.7145176157142838E-003   6.5339557823417160E-002
   3.6329935632786747E-003  -2.0074866063763963E-003   6.4417987180531933E-002
   3.1017592353127371E-003  -2.5325479552441299E-003   6.3616506096166259E-002
   2.5705249073467787E-003  -3.2897016623170891E-003   6.2935114570320722E-002
   2.0392905793808203E-003  -4.2789477275954058E-003   6.2373812602995238E-002
   3.6061291308529531E-003  -6.9494950487063445E-003   5.3529732398738483E-002
   4.1571455018826198E-003  -9.5395205756304557E-003   5.1857361553125925E-002
   4.7081618729122587E-003  -1.2765894033821168E-002   5.0039837208119664E-002
   5.2591782439418561E-003  -1.6628615423279050E-002   4.8077159363719979E-002
   5.8101946149715644E-003  -2.1127684744003616E-002   4.5969328019927591E-002
   3.3527812899746268E-003  -6.2818582184285265E-003   5.5303292705961682E-002
   3.7760770802848925E-003  -8.5498555733862225E-003   5.2950153992501525E-002
   4.1993728705951305E-003  -1.1393424174132805E-002   5.0486727616995908E-002
   4.6226686609054102E-003  -1.4812564020667968E-002   4.7913013579444580E-002
   5.0459644512156343E-003  -1.8807275112991739E-002   4.5229011879847514E-002
   3.0071922511031718E-003  -5.6142213881508196E-003   5.7368492842412133E-002
   3.3376332980415702E-003  -7.5601905711420447E-003   5.4395362946582815E-002
   3.6680743449799616E-003  -1.0020954314444080E-002   5.1346811226055250E-002
   3.9985153919183287E-003  -1.2996512618056545E-002   4.8222837680829828E-002
   4.3289564388567237E-003  -1.6486865481980084E-002   4.5023442310906048E-002
   2.5693620142385916E-003  -4.9465845578731682E-003   5.9725332808089948E-002
   2.8418141551526666E-003  -6.5705255688979503E-003   5.6192988415369405E-002
   3.1142662960667398E-003  -8.6484844547554257E-003   5.2620088035298572E-002
   3.3867184369808486E-003  -1.1180461215445293E-002   4.9006631667876582E-002
   3.6591705778948602E-003  -1.4166455850968318E-002   4.5352619313104942E-002
   2.0392905793808203E-003  -4.2789477275954058E-003   6.2373812602995238E-002
   2.2886196516181401E-003  -5.5808605666538558E-003   5.8343030398861795E-002
   2.5379487238554321E-003  -7.2760145950669652E-003   5.4306558044725117E-002
   2.7872777960927311E-003  -9.3644098128340333E-003   5.0264395540585677E-002
   3.0366068683300163E-003  -1.1846046219956552E-002   4.6216542886443168E-002
   2.5649576515475059E-002  -7.3170519732858597E-003   6.5876078331729870E-002
   2.4737220815123695E-002  -7.1837802387955396E-003   6.4458659217366487E-002
   2.3824865114772331E-002  -7.0144261560045190E-003   6.3504061860930133E-002
   2.2912509414420967E-002  -6.8089897249131066E-003   6.3012286262420433E-002
   2.2000153714069604E-002  -6.5674709455207925E-003   6.2983332421837734E-002
   1.8392149880491288E-002  -5.4877887030239103E-003   6.5161909889586866E-002
   1.7883932810853181E-002  -5.3878353692653480E-003   6.4280734108142223E-002
   1.7375715741215117E-002  -5.2608200735564103E-003   6.3745013830197261E-002
   1.6867498671577032E-002  -5.1067428158970904E-003   6.3554749055752174E-002
   1.6359281601938939E-002  -4.9256035962872424E-003   6.3709939784806685E-002
   1.1698077550514219E-002  -3.6585254327619054E-003   6.4418933239886830E-002
   1.1476632857162328E-002  -3.5918904997352535E-003   6.4064980405010935E-002
   1.1255188163810395E-002  -3.5072139911082947E-003   6.3939116819207331E-002
   1.1033743470458497E-002  -3.4044959068811557E-003   6.4041342482476546E-002
   1.0812298777106592E-002  -3.2837362470537479E-003   6.4371657394818316E-002
   5.5673595255439044E-003  -1.8292621624999145E-003   6.3647148382630150E-002
   5.5153209540510541E-003  -1.7959456302051521E-003   6.3811398107972650E-002
   5.4632823825582141E-003  -1.7536079086601548E-003   6.4086370827960287E-002
   5.4112438110653794E-003  -1.7022489978653190E-003   6.4472066542593520E-002
   5.3592052395725395E-003  -1.6418688978201701E-003   6.4968485251872404E-002
  -4.1944197282095530E-009   1.1077620487576212E-009   6.2846555317817021E-002
  -2.8984806013654385E-009  -7.6067502297050282E-010   6.3519987217027341E-002
  -1.6025414641129831E-009  -1.8262120426992823E-009   6.4186775856456102E-002
  -3.0660233032997475E-010  -2.0888492949233672E-009   6.4846921236103389E-002
   9.8933679651413975E-010  -1.5485866478037735E-009   6.5500423355969006E-002
   2.2000153714069604E-002  -6.5674709455207925E-003   6.2983332421837734E-002
   2.1188519741517406E-002  -6.3081955298089631E-003   6.2522626931887260E-002
   2.0376885768965194E-002  -6.0494891897578951E-003   6.2293587116692195E-002
   1.9565251796412976E-002  -5.7913519253676993E-003   6.2296212976252929E-002
   1.8753617823860758E-002  -5.5337837366386533E-003   6.2530504510569240E-002
   1.6359281601938939E-002  -4.9256035962872424E-003   6.3709939784806685E-002
   1.5772123992631476E-002  -4.7311468210524399E-003   6.3335436307462994E-002
   1.5184966383323988E-002  -4.5371168965178954E-003   6.3178219881853112E-002
   1.4597808774016513E-002  -4.3435138226836437E-003   6.3238290507977191E-002
   1.4010651164709037E-002  -4.1503375995494696E-003   6.3515648185834994E-002
   1.0812298777106592E-002  -3.2837362470537479E-003   6.4371657394818316E-002
   1.0435238908022108E-002  -3.1540981122960415E-003   6.4083498155042148E-002
   1.0058179038937617E-002  -3.0247446032778402E-003   6.3998247343977965E-002
   9.6811191698531317E-003  -2.8956757199993105E-003   6.4115904961625947E-002
   9.3040593007686426E-003  -2.7668914624603136E-003   6.4436471007986162E-002
   5.3592052395725395E-003  -1.6418688978201701E-003   6.4968485251872404E-002
   5.1778644876892942E-003  -1.5770494035394697E-003   6.4766812474624263E-002
   4.9965237358060516E-003  -1.5123723100378961E-003   6.4753669503066602E-002
   4.8151829839228073E-003  -1.4478376173149496E-003   6.4929056337199420E-002
   4.6338422320395620E-003  -1.3834453253711160E-003   6.5292972977022454E-002
   9.8933679651413975E-010  -1.5485866478037735E-009   6.5500423355969006E-002
   7.3163304928347550E-010  -6.9478314768112170E-010   6.5385379266209853E-002
   4.7392930378753473E-010  -1.6797827018244504E-011   6.5444486359119314E-002
   2.1622555829159396E-010   4.8536912336527571E-010   6.5677744634697402E-002
  -4.1478188939070293E-011   8.1171802612800548E-010   6.6085154092944021E-002
   1.8753617823860758E-002  -5.5337837366386533E-003   6.2530504510569240E-002
   1.7896707849638774E-002  -5.2696064673183884E-003   6.2213730886473750E-002
   1.7039797875416762E-002  -4.9916419611547580E-003   6.2119041331456903E-002
   1.6182887901194765E-002  -4.6998902181481506E-003   6.2246435845518644E-002
   1.5325977926972739E-002  -4.3943512382978445E-003   6.2595914428658583E-002
   1.4010651164709037E-002  -4.1503375995494696E-003   6.3515648185834994E-002
   1.3373861113618088E-002  -3.9522046060802007E-003   6.3245349025110587E-002
   1.2737071062527125E-002  -3.7437312212395546E-003   6.3193205641569800E-002
   1.2100281011436169E-002  -3.5249174450282944E-003   6.3359218035212744E-002
   1.1463490960345213E-002  -3.2957632774458512E-003   6.3743386206039032E-002
   9.3040593007686426E-003  -2.7668914624603136E-003   6.4436471007986162E-002
   8.8834608809138238E-003  -2.6348027448417632E-003   6.4209199465160405E-002
   8.4628624610590050E-003  -2.4958204813245177E-003   6.4196155407623412E-002
   8.0422640412041828E-003  -2.3499446719085493E-003   6.4397338835375059E-002
   7.6216656213493605E-003  -2.1971753165938301E-003   6.4812749748415485E-002
   4.6338422320395620E-003  -1.3834453253711160E-003   6.5292972977022454E-002
   4.4255071515259771E-003  -1.3174008836034784E-003   6.5105282206623122E-002
   4.2171720710123799E-003  -1.2479097414093421E-003   6.5127890629617755E-002
   4.0088369904987854E-003  -1.1749718987886931E-003   6.5360798246006102E-002
   3.8005019099851978E-003  -1.0985873557418785E-003   6.5804005055788234E-002
  -4.1478188939070293E-011   8.1171802612800548E-010   6.6085154092944021E-002
  -7.4545467021458478E-011   9.7763486195390215E-010   6.5933597249498987E-002
  -1.0761273816495276E-010   9.9850577806037677E-010   6.5988411307552786E-002
  -1.4068000930844704E-010   8.7433095485867085E-010   6.6249596267105498E-002
  -1.7374728739083523E-010   6.0511029520426973E-010   6.6717152128157098E-002
   1.5325977926972739E-002  -4.3943512382978445E-003   6.2595914428658583E-002
   1.4440309696984704E-002  -4.0795320486675113E-003   6.2413525780101675E-002
   1.3554641466996628E-002  -3.7599396763195042E-003   6.2438926082123619E-002
   1.2668973237008573E-002  -3.4355741212537018E-003   6.2672115334724290E-002
   1.1783305007020517E-002  -3.1064353834705516E-003   6.3113093537903620E-002
   1.1463490960345213E-002  -3.2957632774458512E-003   6.3743386206039032E-002
   1.0789018711854885E-002  -3.0596489594314213E-003   6.3589242762138037E-002
   1.0114546463364550E-002  -2.8199547319241319E-003   6.3649702330654062E-002
   9.4400742148742049E-003  -2.5766805949235631E-003   6.3924764911586357E-002
   8.7656019663838874E-003  -2.3298265484301139E-003   6.4414430504935671E-002
   7.6216656213493605E-003  -2.1971753165938301E-003   6.4812749748415485E-002
   7.1652034161947334E-003  -2.0397658701956090E-003   6.4685658235946089E-002
   6.7087412110401062E-003  -1.8799697875288082E-003   6.4779983797731255E-002
   6.2522790058854808E-003  -1.7177870685934783E-003   6.5095726433771386E-002
   5.7958168007308519E-003  -1.5532177133896208E-003   6.5632886144065872E-002
   3.8005019099851978E-003  -1.0985873557418785E-003   6.5804005055788234E-002
   3.5688638100042497E-003  -1.0198827809597133E-003   6.5702772201525719E-002
   3.3372257100233076E-003  -9.3998484313351574E-004   6.5829770483355879E-002
   3.1055876100423590E-003  -8.5889354226336648E-004   6.6184999901278685E-002
   2.8739495100614174E-003  -7.7660887834921088E-004   6.6768460455294179E-002
  -1.7374728739083523E-010   6.0511029520426973E-010   6.6717152128157098E-002
  -1.0671656613947533E-010   3.0827634889263322E-010   6.6640584658876956E-002
  -3.9685844888115440E-011   1.0126174898594797E-010   6.6799062387527419E-002
   2.7344879832691404E-011  -1.5933150632196913E-011   6.7192585314108599E-002
   9.4375597614604345E-011  -4.3308689967602731E-011   6.7821153438620607E-002
   1.1783305007020517E-002  -3.1064353834705516E-003   6.3113093537903620E-002
   1.0811382215346776E-002  -2.7825159475778349E-003   6.3007732100601566E-002
   9.8394594236730359E-003  -2.4738082981837217E-003   6.3151607671783239E-002
   8.8675366319992954E-003  -2.1803124352880593E-003   6.3544720251448777E-002
   7.8956138403255549E-003  -1.9020283588906395E-003   6.4187069839597766E-002
   8.7656019663838874E-003  -2.3298265484301139E-003   6.4414430504935671E-002
   8.0413521035357163E-003  -2.0868869674713353E-003   6.4342112549428898E-002
   7.3171022406875522E-003  -1.8553562270748197E-003   6.4515903443089578E-002
   6.5928523778393880E-003  -1.6352343272407303E-003   6.4935803185917823E-002
   5.8686025149912169E-003  -1.4265212679690498E-003   6.5601811777913743E-002
   5.7958168007308519E-003  -1.5532177133896208E-003   6.5632886144065872E-002
   5.3161117073921571E-003  -1.3912579873646136E-003   6.5597414616290331E-002
   4.8364066140534658E-003  -1.2369041559659177E-003   6.5804923778366220E-002
   4.3567015207147744E-003  -1.0901562191935679E-003   6.6255413630293428E-002
   3.8769964273760935E-003  -9.5101417704734903E-004   6.6948884172072148E-002
   2.8739495100614174E-003  -7.7660887834921088E-004   6.6768460455294179E-002
   2.6356610269160884E-003  -6.9562900725800292E-004   6.6773638301186003E-002
   2.3973725437707672E-003  -6.1845208485690473E-004   6.7018668677613163E-002
   2.1590840606254390E-003  -5.4507811114621121E-004   6.7503551584575466E-002
   1.9207955774801170E-003  -4.7550708612570380E-004   6.8228287022073286E-002
   9.4375597614604345E-011  -4.3308689967602731E-011   6.7821153438620607E-002
   6.2107527454280387E-011  -2.7151392245627903E-011   6.7870783604115859E-002
   2.9839453824509476E-011  -1.3748169269689470E-011   6.8157138140830187E-002
  -2.4286128663675299E-012  -3.0992014510289323E-012   6.8680217048763870E-002
  -3.4696689965585392E-011   4.7959414217757512E-012   6.9440020327916741E-002
   7.8956138403255549E-003  -1.9020283588906395E-003   6.4187069839597766E-002
   6.9627673530553158E-003  -1.6873003000809628E-003   6.4104630456955136E-002
   6.0299208657850906E-003  -1.5844724899485019E-003   6.4269231993377474E-002
   5.0970743785148515E-003  -1.5935449284929445E-003   6.4680874448864778E-002
   4.1642278912446262E-003  -1.7145176157142838E-003   6.5339557823417160E-002
   5.8686025149912169E-003  -1.4265212679690498E-003   6.5601811777913743E-002
   5.1793396231178679E-003  -1.2654752226234356E-003   6.5453407591338886E-002
   4.4900767312444981E-003  -1.1883543645674066E-003   6.5545129676492592E-002
   3.8008138393711421E-003  -1.1951586938015388E-003   6.5876978033375375E-002
   3.1115509474977793E-003  -1.2858882103249369E-003   6.6448952661986471E-002
   3.8769964273760935E-003  -9.5101417704734903E-004   6.6948884172072148E-002
   3.4244024835633560E-003  -8.4365014516560310E-004   6.6762490242952138E-002
   2.9718085397506290E-003  -7.9223623918632524E-004   6.6809307938224607E-002
   2.5192145959378985E-003  -7.9677245910991443E-004   6.7089337257889847E-002
   2.0666206521251645E-003  -8.5725880493592310E-004   6.7602578201947122E-002
   1.9207955774801170E-003  -4.7550708612570380E-004   6.8228287022073286E-002
   1.6979559343917906E-003  -4.2182506770792327E-004   6.8031878411795255E-002
   1.4751162913034721E-003  -3.9611811380545897E-004   6.8061766778573451E-002
   1.2522766482151526E-003  -3.9838622441839937E-004   6.8317952122408002E-002
   1.0294370051268271E-003  -4.2862939954663171E-004   6.8800434443298808E-002
  -3.4696689965585392E-011   4.7959414217757512E-012   6.9440020327916741E-002
  -2.4396838715912139E-011   9.7497565576531997E-012   6.9261572097868096E-002
  -1.4096980527344982E-011   1.1575906899707888E-011   6.9302506197539027E-002
  -3.7971223387778252E-012   1.0273018546946844E-011   6.9562822626930532E-002
   6.5027289108954278E-012   5.8423266224849613E-012   7.0042521386041723E-002
   4.1642278912446262E-003  -1.7145176157142838E-003   6.5339557823417160E-002
   3.6329935632786747E-003  -2.0074866063763963E-003   6.4417987180531933E-002
   3.1017592353127371E-003  -2.5325479552441299E-003   6.3616506096166259E-002
   2.5705249073467787E-003  -3.2897016623170891E-003   6.2935114570320722E-002
   2.0392905793808203E-003  -4.2789477275954058E-003   6.2373812602995238E-002
   3.1115509474977793E-003  -1.2858882103249369E-003   6.6448952661986471E-002
   2.7035859337927598E-003  -1.5056149545732422E-003   6.5335227610033908E-002
   2.2956209200877334E-003  -1.8994109669816517E-003   6.4347951628083155E-002
   1.8876559063827035E-003  -2.4672762475493881E-003   6.3487124716134546E-002
   1.4796908926776875E-003  -3.2092107962772287E-003   6.2752746874187637E-002
   2.0666206521251645E-003  -8.5725880493592310E-004   6.7602578201947122E-002
   1.7882844641631118E-003  -1.0037433027704212E-003   6.6354721830972907E-002
   1.5099482762010452E-003  -1.2662739787190763E-003   6.5239674041482579E-002
   1.2316120882389803E-003  -1.6448508327819127E-003   6.4257434833476124E-002
   9.5327590027692588E-004  -2.1394738649587741E-003   6.3408004206953889E-002
   1.0294370051268271E-003  -4.2862939954663171E-004   6.8800434443298808E-002
   8.8708915438973600E-004  -5.0187165096726716E-004   6.7476469843348513E-002
   7.4474130365266046E-004  -6.3313699045666055E-004   6.6291673336364057E-002
   6.0239345291556974E-004  -8.2242541801410239E-004   6.5246044922345828E-002
   4.6004560217849377E-004  -1.0697369336402363E-003   6.4339584601293270E-002
   6.5027289108954278E-012   5.8423266224849613E-012   7.0042521386041723E-002
   4.4726514158988095E-012   8.3555384833289281E-013   6.8700471647160644E-002
   2.4425739209021913E-012  -2.1939117189617718E-012   6.7503949512728034E-002
   4.1250336479947691E-013  -3.2467639687894234E-012   6.6452954982743340E-002
  -1.6175810690910453E-012  -2.3220314560035149E-012   6.5547488057206338E-002
   2.0392905793808203E-003  -4.2789477275954058E-003   6.2373812602995238E-002
   2.2886196516181401E-003  -5.5808605666538558E-003   5.8343030398861795E-002
   2.5379487238554321E-003  -7.2760145950669652E-003   5.4306558044725117E-002
   2.7872777960927311E-003  -9.3644098128340333E-003   5.0264395540585677E-002
   3.0366068683300163E-003  -1.1846046219956552E-002   4.6216542886443168E-002
   1.4796908926776875E-003  -3.2092107962772287E-003   6.2752746874187637E-002
   1.7091692854474816E-003  -4.1856454252323649E-003   5.8396902794066896E-002
   1.9386476782172757E-003  -5.4570109464829597E-003   5.4007047505014227E-002
   2.1681260709870559E-003  -7.0233073600288951E-003   4.9583181007029298E-002
   2.3976044637568361E-003  -8.8845346658705804E-003   4.5125303300112662E-002
   9.5327590027692588E-004  -2.1394738649587741E-003   6.3408004206953889E-002
   1.1345825546501473E-003  -2.7904302838107631E-003   5.8825408547905050E-002
   1.3158892090233826E-003  -3.6380072978991901E-003   5.4180480620995133E-002
   1.4971958633966196E-003  -4.6822049072239268E-003   4.9473220426224339E-002
   1.6785025177698393E-003  -5.9230231117848309E-003   4.4703627963591841E-002
   4.6004560217849377E-004  -1.0697369336402363E-003   6.4339584601293270E-002
   5.6485945922612329E-004  -1.3952151423891057E-003   5.9628547660375820E-002
   6.6967331627377190E-004  -1.8190036493156356E-003   5.4826857392667863E-002
   7.7448717332142094E-004  -2.3411024544185404E-003   4.9934513798169947E-002
   8.7930103036906390E-004  -2.9615115576989703E-003   4.4951516876882341E-002
  -1.6175810690910453E-012  -2.3220314560035149E-012   6.5547488057206338E-002
  -8.2456264038910376E-013  -9.6767038826328644E-013   6.0806320131478908E-002
  -3.1551150581066167E-014  -7.3144268419866876E-013   5.5946177820032694E-002
   7.6146207395044740E-013  -1.6137161051865689E-012   5.0967061122867224E-002
   1.5544787679289129E-012  -3.6131098113401094E-012   4.5868970039982582E-002
  -4.1944197282095530E-009   1.1077620487576212E-009   6.2846555317817021E-002
  -2.8984806013654385E-009  -7.6067502297050282E-010   6.3519987217027341E-002
  -1.6025414641129831E-009  -1.8262120426992823E-009   6.4186775856456102E-002
  -3.0660233032997475E-010  -2.0888492949233672E-009   6.4846921236103389E-002
   9.8933679651413975E-010  -1.5485866478037735E-009   6.5500423355969006E-002
  -5.5673673839576054E-003   1.8292650973570357E-003   6.3647143034272186E-002
  -5.5153263900037802E-003   1.7959453957210048E-003   6.3811395086563583E-002
  -5.4632853960499741E-003   1.7536057700650587E-003   6.4086369794665934E-002
  -5.4112444020961575E-003   1.7022462203890310E-003   6.4472067158579283E-002
  -5.3592034081423497E-003   1.6418667466931436E-003   6.4968487178303447E-002
  -1.1698083817650685E-002   3.6585290869520504E-003   6.4418923280988416E-002
  -1.1476637210089664E-002   3.5918915521169353E-003   6.4064974759440951E-002
  -1.1255190602528648E-002   3.5072133663420907E-003   6.3939114809297010E-002
  -1.1033743994967645E-002   3.4044945296274436E-003   6.4041343430556535E-002
  -1.0812297387406626E-002   3.2837350419729072E-003   6.4371660623219543E-002
  -1.8392153495499015E-002   5.4877930765470651E-003   6.5161896057965601E-002
  -1.7883935358738258E-002   5.3878377085129284E-003   6.4280726235659391E-002
  -1.7375717221977515E-002   5.2608209626191851E-003   6.3745010900349258E-002
  -1.6867499085216762E-002   5.1067428388658128E-003   6.3554750052035203E-002
  -1.6359280948456019E-002   4.9256033372526847E-003   6.3709943690716933E-002
  -2.5649576417502561E-002   7.3170570661420520E-003   6.5876061365203464E-002
  -2.4737220835949557E-002   7.1837838649088936E-003   6.4458649515218736E-002
  -2.3824865254396536E-002   7.0144285588963212E-003   6.3504058067822750E-002
  -2.2912509672843535E-002   6.8089911481042480E-003   6.3012287023015076E-002
  -2.2000154091290521E-002   6.5674716325324622E-003   6.2983336380796062E-002
   9.8933679651413975E-010  -1.5485866478037735E-009   6.5500423355969006E-002
   7.3163304928347550E-010  -6.9478314768112170E-010   6.5385379266209853E-002
   4.7392930378753473E-010  -1.6797827018244504E-011   6.5444486359119314E-002
   2.1622555829159396E-010   4.8536912336527571E-010   6.5677744634697402E-002
  -4.1478188939070293E-011   8.1171802612800548E-010   6.6085154092944021E-002
  -5.3592034081423497E-003   1.6418667466931436E-003   6.4968487178303447E-002
  -5.1778631326342851E-003   1.5770483892343368E-003   6.4766813847640409E-002
  -4.9965228571262118E-003   1.5123721882698560E-003   6.4753670400732280E-002
  -4.8151825816181455E-003   1.4478381437995694E-003   6.4929056837579213E-002
  -4.6338423061100670E-003   1.3834462558235949E-003   6.5292973158181222E-002
  -1.0812297387406626E-002   3.2837350419729072E-003   6.4371660623219543E-002
  -1.0435237877600348E-002   3.1540974732519461E-003   6.4083500383965000E-002
  -1.0058178367794079E-002   3.0247443933376431E-003   6.3998248729551815E-002
  -9.6811188579878082E-003   2.8956758022300692E-003   6.4115905659980058E-002
  -9.3040593481815322E-003   2.7668916999292192E-003   6.4436471175249671E-002
  -1.6359280948456019E-002   4.9256033372526847E-003   6.3709943690716933E-002
  -1.5772123503265154E-002   4.7311465572695208E-003   6.3335438875183531E-002
  -1.5184966058074297E-002   4.5371165984053781E-003   6.3178221345577754E-002
  -1.4597808612883435E-002   4.3435134606605421E-003   6.3238291101899824E-002
  -1.4010651167692588E-002   4.1503371440347603E-003   6.3515648144149672E-002
  -2.2000154091290521E-002   6.5674716325324622E-003   6.2983336380796062E-002
  -2.1188520009628689E-002   6.3081956412870399E-003   6.2522629321296042E-002
  -2.0376885927966860E-002   6.0494888034730576E-003   6.2293588248810150E-002
  -1.9565251846305032E-002   5.7913511190908901E-003   6.2296213163338471E-002
  -1.8753617764643203E-002   5.5337825881404124E-003   6.2530504064880921E-002
  -4.1478188939070293E-011   8.1171802612800548E-010   6.6085154092944021E-002
  -7.4545467021458478E-011   9.7763486195390215E-010   6.5933597249498987E-002
  -1.0761273816495276E-010   9.9850577806037677E-010   6.5988411307552786E-002
  -1.4068000930844704E-010   8.7433095485867085E-010   6.6249596267105498E-002
  -1.7374728739083523E-010   6.0511029520426973E-010   6.6717152128157098E-002
  -4.6338423061100670E-003   1.3834462558235949E-003   6.5292973158181222E-002
  -4.4255072859905476E-003   1.3174020084558147E-003   6.5105282178822638E-002
  -4.2171722658710161E-003   1.2479108858102633E-003   6.5127890404338834E-002
  -4.0088372457514941E-003   1.1749728878866876E-003   6.5360797834729797E-002
  -3.8005022256319652E-003   1.0985880146853755E-003   6.5804004469995403E-002
  -9.3040593481815322E-003   2.7668916999292192E-003   6.4436471175249671E-002
  -8.8834609714993334E-003   2.6348030392767674E-003   6.4209199329745684E-002
  -8.4628625948171277E-003   2.4958207731145265E-003   6.4196154992492260E-002
  -8.0422642181349219E-003   2.3499449014424204E-003   6.4397338163489484E-002
  -7.6216658414527301E-003   2.1971754242605113E-003   6.4812748842737244E-002
  -1.4010651167692588E-002   4.1503371440347603E-003   6.3515648144149672E-002
  -1.3373861131071838E-002   3.9522040700978034E-003   6.3245348702268070E-002
  -1.2737071094451073E-002   3.7437306604188453E-003   6.3193205072013231E-002
  -1.2100281057830321E-002   3.5249169149980976E-003   6.3359217253384545E-002
  -1.1463491021209565E-002   3.2957628338356193E-003   6.3743385246382733E-002
  -1.8753617764643203E-002   5.5337825881404124E-003   6.2530504064880921E-002
  -1.7896707764708038E-002   5.2696051009186728E-003   6.2213730296389935E-002
  -1.7039797764772855E-002   4.9916405477232473E-003   6.2119040642901330E-002
  -1.6182887764837665E-002   4.6998889285539344E-003   6.2246435104415104E-002
  -1.5325977764902500E-002   4.3943502434108384E-003   6.2595913680931203E-002
  -1.7374728739083523E-010   6.0511029520426973E-010   6.6717152128157098E-002
  -1.0671656613947533E-010   3.0827634889263322E-010   6.6640584658876956E-002
  -3.9685844888115440E-011   1.0126174898594797E-010   6.6799062387527419E-002
   2.7344879832691404E-011  -1.5933150632196913E-011   6.7192585314108599E-002
   9.4375597614604345E-011  -4.3308689967602731E-011   6.7821153438620607E-002
  -3.8005022256319652E-003   1.0985880146853755E-003   6.5804004469995403E-002
  -3.5688640031553039E-003   1.0198830806916193E-003   6.5702771816050720E-002
  -3.3372257806786477E-003   9.3998490039079452E-004   6.5829770275067395E-002
  -3.1055875582019958E-003   8.5889347378319963E-004   6.6184999847045192E-002
  -2.8739493357253371E-003   7.7660880086855011E-004   6.6768460531984097E-002
  -7.6216658414527301E-003   2.1971754242605113E-003   6.4812748842737244E-002
  -7.1652035484995680E-003   2.0397658531069729E-003   6.4685657668001634E-002
  -6.7087412555464025E-003   1.8799696995197984E-003   6.4779983521257703E-002
  -6.2522789625932525E-003   1.7177869634993868E-003   6.5095726402505549E-002
  -5.7958166696400748E-003   1.5532176450454571E-003   6.5632886311745242E-002
  -1.1463491021209565E-002   3.2957628338356193E-003   6.3743385246382733E-002
  -1.0789018742749340E-002   3.0596486255222849E-003   6.3589242214729419E-002
  -1.0114546464289114E-002   2.8199544986489342E-003   6.3649702126098551E-002
  -9.4400741858288850E-003   2.5766804532155446E-003   6.3924764980490059E-002
  -8.7656019073686642E-003   2.3298264892224751E-003   6.4414430777903903E-002
  -1.5325977764902500E-002   4.3943502434108384E-003   6.2595913680931203E-002
  -1.4440309585904639E-002   4.0795313979374859E-003   6.2413525456233965E-002
  -1.3554641406906778E-002   3.7599392977778479E-003   6.2438926089589841E-002
  -1.2668973227908914E-002   3.4355739429319243E-003   6.2672115580998611E-002
  -1.1783305048911057E-002   3.1064353333996042E-003   6.3113093930460051E-002
   9.4375597614604345E-011  -4.3308689967602731E-011   6.7821153438620607E-002
   6.2107527454280387E-011  -2.7151392245627903E-011   6.7870783604115859E-002
   2.9839453824509476E-011  -1.3748169269689470E-011   6.8157138140830187E-002
  -2.4286128663675299E-012  -3.0992014510289323E-012   6.8680217048763870E-002
  -3.4696689965585392E-011   4.7959414217757512E-012   6.9440020327916741E-002
  -2.8739493357253371E-003   7.7660880086855011E-004   6.6768460531984097E-002
  -2.6356609126969091E-003   6.9562897289299208E-004   6.6773638344458652E-002
  -2.3973724896684933E-003   6.1845208110263006E-004   6.7018668696306682E-002
  -2.1590840666400740E-003   5.4507812549830018E-004   6.7503551587528854E-002
  -1.9207956436116495E-003   4.7550710607924263E-004   6.8228287018124667E-002
  -5.7958166696400748E-003   1.5532176450454571E-003   6.5632886311745242E-002
  -5.3161116231605866E-003   1.3912579729372654E-003   6.5597414710138316E-002
  -4.8364065766810915E-003   1.2369041759540955E-003   6.5804923816059929E-002
  -4.3567015302015955E-003   1.0901562540956353E-003   6.6255413629509749E-002
  -3.8769964837220942E-003   9.5101420736221076E-004   6.6948884150487997E-002
  -8.7656019073686642E-003   2.3298264892224751E-003   6.4414430777903903E-002
  -8.0413520692835111E-003   2.0868869729816497E-003   6.4342112701155238E-002
  -7.3171022311983459E-003   1.8553562708051169E-003   6.4515903500089317E-002
  -6.5928523931131824E-003   1.6352343826928871E-003   6.4935803174706541E-002
  -5.8686025550280267E-003   1.4265213086454009E-003   6.5601811725006676E-002
  -1.1783305048911057E-002   3.1064353333996042E-003   6.3113093930460051E-002
  -1.0811382251065656E-002   2.7825159730258675E-003   6.3007732317509002E-002
  -9.8394594532202513E-003   2.4738083656563881E-003   6.3151607748395400E-002
  -8.8675366553748556E-003   2.1803125112903679E-003   6.3544720223119439E-002
  -7.8956138575294460E-003   1.9020284099283691E-003   6.4187069741680869E-002
  -3.4696689965585392E-011   4.7959414217757512E-012   6.9440020327916741E-002
  -2.4396838715912139E-011   9.7497565576531997E-012   6.9261572097868096E-002
  -1.4096980527344982E-011   1.1575906899707888E-011   6.9302506197539027E-002
  -3.7971223387778252E-012   1.0273018546946844E-011   6.9562822626930532E-002
   6.5027289108954278E-012   5.8423266224849613E-012   7.0042521386041723E-002
  -1.9207956436116495E-003   4.7550710607924263E-004   6.8228287018124667E-002
  -1.6979559808100141E-003   4.2182508631483095E-004   6.8031878409659907E-002
  -1.4751163180083786E-003   3.9611812967516036E-004   6.8061766776479016E-002
  -1.2522766552067414E-003   3.9838623615977287E-004   6.8317952118581493E-002
  -1.0294369924051076E-003   4.2862940576915420E-004   6.8800434435967284E-002
  -3.8769964837220942E-003   9.5101420736221076E-004   6.6948884150487997E-002
  -3.4244025228552261E-003   8.4365016287979433E-004   6.6762490229860527E-002
  -2.9718085619883728E-003   7.9223624777471913E-004   6.6809307930079831E-002
  -2.5192146011215125E-003   7.9677246204663127E-004   6.7089337251146144E-002
  -2.0666206402546513E-003   8.5725880569581525E-004   6.7602578193059315E-002
  -5.8686025550280267E-003   1.4265213086454009E-003   6.5601811725006676E-002
  -5.1793396505325062E-003   1.2654752394447577E-003   6.5453407558468929E-002
  -4.4900767460369726E-003   1.1883543658739032E-003   6.5545129658341472E-002
  -3.8008138415414495E-003   1.1951586879334931E-003   6.5876978024624708E-002
  -3.1115509370459190E-003   1.2858882056227816E-003   6.6448952657318108E-002
  -7.8956138575294460E-003   1.9020284099283691E-003   6.4187069741680869E-002
  -6.9627673638418125E-003   1.6873003160097211E-003   6.4104630395485529E-002
  -6.0299208701541825E-003   1.5844724839735591E-003   6.4269231961264328E-002
  -5.0970743764665420E-003   1.5935449138203064E-003   6.4680874439016794E-002
  -4.1642278827789189E-003   1.7145176055494149E-003   6.5339557828743122E-002
   6.5027289108954278E-012   5.8423266224849613E-012   7.0042521386041723E-002
   4.4726514158988095E-012   8.3555384833289281E-013   6.8700471647160644E-002
   2.4425739209021913E-012  -2.1939117189617718E-012   6.7503949512728034E-002
   4.1250336479947691E-013  -3.2467639687894234E-012   6.6452954982743340E-002
  -1.6175810690910453E-012  -2.3220314560035149E-012   6.5547488057206338E-002
  -1.0294369924051076E-003   4.2862940576915420E-004   6.8800434435967284E-002
  -8.8708914564903860E-004   5.0187165194331973E-004   6.7476469838474384E-002
  -7.4474129889297649E-004   6.3313698812375585E-004   6.6291673334105627E-002
  -6.0239345213691179E-004   8.2242541430996990E-004   6.5246044922861179E-002
  -4.6004560538085923E-004   1.0697369305018301E-003   6.4339584604740874E-002
  -2.0666206402546513E-003   8.5725880569581525E-004   6.7602578193059315E-002
  -1.7882844560362116E-003   1.0037433030510856E-003   6.6354721824983337E-002
  -1.5099482718177711E-003   1.2662739784410904E-003   6.5239674038707535E-002
  -1.2316120875993306E-003   1.6448508318660376E-003   6.4257434834232616E-002
  -9.5327590338089088E-004   2.1394738633258581E-003   6.3408004211557817E-002
  -3.1115509370459190E-003   1.2858882056227816E-003   6.6448952657318108E-002
  -2.7035859266888685E-003   1.5056149541591290E-003   6.5335227606687474E-002
  -2.2956209163318099E-003   1.8994109687585914E-003   6.4347951626533839E-002
  -1.8876559059747486E-003   2.4672762494221054E-003   6.3487124716856580E-002
  -1.4796908956177012E-003   3.2092107961498029E-003   6.2752746877656584E-002
  -4.1642278827789189E-003   1.7145176055494149E-003   6.5339557828743122E-002
  -3.6329935576070033E-003   2.0074866052665619E-003   6.4417987183587155E-002
  -3.1017592324350911E-003   2.5325479590760369E-003   6.3616506097584291E-002
  -2.5705249072631824E-003   3.2897016669786588E-003   6.2935114570734196E-002
  -2.0392905820912632E-003   4.2789477289736366E-003   6.2373812603037426E-002
  -1.6175810690910453E-012  -2.3220314560035149E-012   6.5547488057206338E-002
  -8.2456264038910376E-013  -9.6767038826328644E-013   6.0806320131478908E-002
  -3.1551150581066167E-014  -7.3144268419866876E-013   5.5946177820032694E-002
   7.6146207395044740E-013  -1.6137161051865689E-012   5.0967061122867224E-002
   1.5544787679289129E-012  -3.6131098113401094E-012   4.5868970039982582E-002
  -4.6004560538085923E-004   1.0697369305018301E-003   6.4339584604740874E-002
  -5.6485946084127228E-004   1.3952151401817603E-003   5.9628547662168130E-002
  -6.6967331630168707E-004   1.8190036468307136E-003   5.4826857392808181E-002
  -7.7448717176211053E-004   2.3411024504491271E-003   4.9934513796660140E-002
  -8.7930102722254266E-004   2.9615115510366330E-003   4.4951516873724229E-002
  -9.5327590338089088E-004   2.1394738633258581E-003   6.3408004211557817E-002
  -1.1345825561633154E-003   2.7904302813310800E-003   5.8825408550227026E-002
  -1.3158892089457346E-003   3.6380072943928837E-003   5.4180480621039959E-002
  -1.4971958617281639E-003   4.6822049025115296E-003   4.9473220423996801E-002
  -1.6785025145105922E-003   5.9230231056863758E-003   4.4703627959096881E-002
  -1.4796908956177012E-003   3.2092107961498029E-003   6.2752746877656584E-002
  -1.7091692867906875E-003   4.1856454224806772E-003   5.8396902795654619E-002
  -1.9386476779636882E-003   5.4570109419554910E-003   5.4007047504728192E-002
  -2.1681260691366958E-003   7.0233073545734864E-003   4.9583181004876103E-002
  -2.3976044603096752E-003   8.8845346603361186E-003   4.5125303296100400E-002
  -2.0392905820912632E-003   4.2789477289736366E-003   6.2373812603037426E-002
  -2.2886196527234087E-003   5.5808605636301634E-003   5.8343030398451790E-002
  -2.5379487233555265E-003   7.2760145895174044E-003   5.4306558043873132E-002
  -2.7872777939876876E-003   9.3644098066364909E-003   5.0264395539300649E-002
  -3.0366068646197897E-003   1.1846046214985861E-002   4.6216542884734757E-002
  -2.5649576417502561E-002   7.3170570661420520E-003   6.5876061365203464E-002
  -2.4737220835949557E-002   7.1837838649088936E-003   6.4458649515218736E-002
  -2.3824865254396536E-002   7.0144285588963212E-003   6.3504058067822750E-002
  -2.2912509672843535E-002   6.8089911481042480E-003   6.3012287023015076E-002
  -2.2000154091290521E-002   6.5674716325324622E-003   6.2983336380796062E-002
  -3.2756696269406957E-002   9.2276420534448955E-003   6.0255143191536825E-002
  -3.1470952476023384E-002   9.0003941294293233E-003   5.9583719749959269E-002
  -3.0185208682639797E-002   8.7521507398166387E-003   5.9196252329454455E-002
  -2.8899464889256217E-002   8.4829118846067933E-003   5.9092740930022307E-002
  -2.7613721095872630E-002   8.1926775637997662E-003   5.9273185551662722E-002
  -3.8999856736957987E-002   1.1138227040747739E-002   5.4532706975496267E-002
  -3.7519589113259685E-002   1.0817004393949711E-002   5.4622358581508407E-002
  -3.6039321489561439E-002   1.0489872920736935E-002   5.4817101827077254E-002
  -3.4559053865863110E-002   1.0156832621109368E-002   5.5116936712202955E-002
  -3.3078786242164808E-002   9.8178834950670146E-003   5.5521863236885280E-002
  -4.4379057820155568E-002   1.3048812028050596E-002   4.8708752717082429E-002
  -4.2883130747658434E-002   1.2633614658470106E-002   4.9574566009866351E-002
  -4.1387203675161313E-002   1.2227595101657270E-002   5.0366606560691342E-002
  -3.9891276602664207E-002   1.1830753357611957E-002   5.1084874369557033E-002
  -3.8395349530167107E-002   1.1443089426334208E-002   5.1729369436463640E-002
  -4.8894299518999651E-002   1.4959397015353426E-002   4.2783280416294811E-002
  -4.7561577379219594E-002   1.4450224922990529E-002   4.4440342035033054E-002
  -4.6228855239439551E-002   1.3965317282577536E-002   4.5844766530296260E-002
  -4.4896133099659515E-002   1.3504674094114582E-002   4.6996553902084501E-002
  -4.3563410959879464E-002   1.3068295357601512E-002   4.7895704150397789E-002
  -2.2000154091290521E-002   6.5674716325324622E-003   6.2983336380796062E-002
  -2.1188520009628689E-002   6.3081956412870399E-003   6.2522629321296042E-002
  -2.0376885927966860E-002   6.0494888034730576E-003   6.2293588248810150E-002
  -1.9565251846305032E-002   5.7913511190908901E-003   6.2296213163338471E-002
  -1.8753617764643203E-002   5.5337825881404124E-003   6.2530504064880921E-002
  -2.7613721095872630E-002   8.1926775637997662E-003   5.9273185551662722E-002
  -2.6583766615020418E-002   7.8882577416504035E-003   5.8944231570800823E-002
  -2.5553812134168231E-002   7.5764623824133431E-003   5.8820252401305534E-002
  -2.4523857653316036E-002   7.2572914860887967E-003   5.8901248043176840E-002
  -2.3493903172463828E-002   6.9307450526766567E-003   5.9187218496414618E-002
  -3.3078786242164808E-002   9.8178834950670146E-003   5.5521863236885280E-002
  -3.1857202537769858E-002   9.4683198420138504E-003   5.5316717644142283E-002
  -3.0635618833374869E-002   9.1034359613536842E-003   5.5289855687118278E-002
  -2.9414035128979898E-002   8.7232318530867589E-003   5.5441277365813238E-002
  -2.8192451424584902E-002   8.3277075172128456E-003   5.5770982680227260E-002
  -3.8395349530167107E-002   1.1443089426334208E-002   5.1729369436463640E-002
  -3.7008827777876931E-002   1.1048381942377283E-002   5.1640087541320198E-002
  -3.5622306025586761E-002   1.0630409540293970E-002   5.1702398106248153E-002
  -3.4235784273296599E-002   1.0189172220084721E-002   5.1916301131247539E-002
  -3.2849262521006409E-002   9.7246699817490623E-003   5.2281796616318314E-002
  -4.3563410959879464E-002   1.3068295357601512E-002   4.7895704150397789E-002
  -4.2038642335341686E-002   1.2628444042740689E-002   4.7914341262334653E-002
  -4.0513873710803915E-002   1.2157383119234325E-002   4.8057879658695374E-002
  -3.8989105086266143E-002   1.1655112587082631E-002   4.8326319339479881E-002
  -3.7464336461728365E-002   1.1121632446285334E-002   4.8719660304688217E-002
  -1.8753617764643203E-002   5.5337825881404124E-003   6.2530504064880921E-002
  -1.7896707764708038E-002   5.2696051009186728E-003   6.2213730296389935E-002
  -1.7039797764772855E-002   4.9916405477232473E-003   6.2119040642901330E-002
  -1.6182887764837665E-002   4.6998889285539344E-003   6.2246435104415104E-002
  -1.5325977764902500E-002   4.3943502434108384E-003   6.2595913680931203E-002
  -2.3493903172463828E-002   6.9307450526766567E-003   5.9187218496414618E-002
  -2.2421787067609056E-002   6.5955804925724726E-003   5.8893479982405461E-002
  -2.1349670962754287E-002   6.2505552161717104E-003   5.8808069563233006E-002
  -2.0277554857899515E-002   5.8956692234747657E-003   5.8930987238897475E-002
  -1.9205438753044743E-002   5.5309225144817287E-003   5.9262233009398813E-002
  -2.8192451424584902E-002   8.3277075172128456E-003   5.5770982680227260E-002
  -2.6918885234976014E-002   7.9215558842261058E-003   5.5504205770377124E-002
  -2.5645319045367158E-002   7.5094698846204094E-003   5.5432000935198442E-002
  -2.4371752855758315E-002   7.0914495183959335E-003   5.5554368174690998E-002
  -2.3098186666149410E-002   6.6674947855525635E-003   5.5871307488854910E-002
  -3.2849262521006409E-002   9.7246699817490623E-003   5.2281796616318314E-002
  -3.1388002266808962E-002   9.2475312758797112E-003   5.2045907660304890E-002
  -2.9926742012611529E-002   8.7683845530689350E-003   5.1990834758797289E-002
  -2.8465481758414107E-002   8.2872298133170440E-003   5.2116577911795609E-002
  -2.7004221504216649E-002   7.8040670566234260E-003   5.2423137119299801E-002
  -3.7464336461728365E-002   1.1121632446285334E-002   4.8719660304688217E-002
  -3.5829138163107857E-002   1.0573506667533511E-002   4.8518585652189028E-002
  -3.4193939864487349E-002   1.0027299221517599E-002   4.8484571034030033E-002
  -3.2558741565866842E-002   9.4830101082379673E-003   4.8617616450211454E-002
  -3.0923543267246334E-002   8.9406393276943441E-003   4.8917721900733124E-002
  -1.5325977764902500E-002   4.3943502434108384E-003   6.2595913680931203E-002
  -1.4440309585904639E-002   4.0795313979374859E-003   6.2413525456233965E-002
  -1.3554641406906778E-002   3.7599392977778479E-003   6.2438926089589841E-002
  -1.2668973227908914E-002   3.4355739429319243E-003   6.2672115580998611E-002
  -1.1783305048911057E-002   3.1064353333996042E-003   6.3113093930460051E-002
  -1.9205438753044743E-002   5.5309225144817287E-003   5.9262233009398813E-002
  -1.8113574997317024E-002   5.1578411255956969E-003   5.9059173629328332E-002
  -1.7021711241589334E-002   4.7779510932205449E-003   5.9060716544664549E-002
  -1.5929847485861650E-002   4.3912524173564949E-003   5.9266861755407602E-002
  -1.4837983730133921E-002   3.9977450980031026E-003   5.9677609261557407E-002
  -2.3098186666149410E-002   6.6674947855525635E-003   5.5871307488854910E-002
  -2.1803313896338054E-002   6.2361508532537413E-003   5.5645541564608436E-002
  -2.0508441126526729E-002   5.7959628886632419E-003   5.5621191373122492E-002
  -1.9213568356715411E-002   5.3469308917808434E-003   5.5798256914397035E-002
  -1.7918695586904045E-002   4.8890548626067121E-003   5.6176738188432412E-002
  -2.7004221504216649E-002   7.8040670566234260E-003   5.2423137119299801E-002
  -2.5509526282967786E-002   7.3144605809120355E-003   5.2172629262074416E-002
  -2.4014831061718964E-002   6.8139746841058835E-003   5.2120350574963573E-002
  -2.2520135840470114E-002   6.3026093662055804E-003   5.2266301057967035E-002
  -2.1025440619221281E-002   5.7803646272103215E-003   5.2610480711085046E-002
  -3.0923543267246334E-002   8.9406393276943441E-003   4.8917721900733124E-002
  -2.9232212157206186E-002   8.3927703085700522E-003   4.8640436721726354E-002
  -2.7540881047166038E-002   7.8319864795485666E-003   4.8558194150187778E-002
  -2.5849549937125876E-002   7.2582878406298561E-003   4.8670994186117575E-002
  -2.4158218827085742E-002   6.6716743918139310E-003   4.8978836829515426E-002
  -1.1783305048911057E-002   3.1064353333996042E-003   6.3113093930460051E-002
  -1.0811382251065656E-002   2.7825159730258675E-003   6.3007732317509002E-002
  -9.8394594532202513E-003   2.4738083656563881E-003   6.3151607748395400E-002
  -8.8675366553748556E-003   2.1803125112903679E-003   6.3544720223119439E-002
  -7.8956138575294460E-003   1.9020284099283691E-003   6.4187069741680869E-002
  -1.4837983730133921E-002   3.9977450980031026E-003   5.9677609261557407E-002
  -1.3629375236902611E-002   3.6060226561354103E-003   5.9546458200339547E-002
  -1.2420766743671272E-002   3.2246786127281546E-003   5.9639441486056183E-002
  -1.1212158250439912E-002   2.8537129677810094E-003   5.9956559118706967E-002
  -1.0003549757208591E-002   2.4931257212944535E-003   6.0497811098292331E-002
  -1.7918695586904045E-002   4.8890548626067121E-003   5.6176738188432412E-002
  -1.6498504095189940E-002   4.4295293392449808E-003   5.6014964324404309E-002
  -1.5078312603475860E-002   3.9755488598001293E-003   5.6052222110407460E-002
  -1.3658121111761767E-002   3.5271134242719805E-003   5.6288511546441676E-002
  -1.2237929620047678E-002   3.0842230326605935E-003   5.6723832632507132E-002
  -2.1025440619221281E-002   5.7803646272103215E-003   5.2610480711085046E-002
  -1.9418768825927635E-002   5.2530360223543154E-003   5.2413250689703379E-002
  -1.7812097032633992E-002   4.7264191068720554E-003   5.2389949621449439E-002
  -1.6205425239340324E-002   4.2005138807626758E-003   5.2540577506323530E-002
  -1.4598753446046702E-002   3.6753203440265947E-003   5.2865134344325861E-002
  -2.4158218827085742E-002   6.6716743918139310E-003   4.8978836829515426E-002
  -2.2390169429115730E-002   6.0765427054641497E-003   4.8741317296236264E-002
  -2.0622120031145705E-002   5.4772893539439538E-003   4.8652624019182078E-002
  -1.8854070633175714E-002   4.8739143372537250E-003   4.8712756998352452E-002
  -1.7086021235205667E-002   4.2664176553929289E-003   4.8921716233747747E-002
  -7.8956138575294460E-003   1.9020284099283691E-003   6.4187069741680869E-002
  -6.9627673638418125E-003   1.6873003160097211E-003   6.4104630395485529E-002
  -6.0299208701541825E-003   1.5844724839735591E-003   6.4269231961264328E-002
  -5.0970743764665420E-003   1.5935449138203064E-003   6.4680874439016794E-002
  -4.1642278827789189E-003   1.7145176055494149E-003   6.5339557828743122E-002
  -1.0003549757208591E-002   2.4931257212944535E-003   6.0497811098292331E-002
  -8.8220745410270938E-003   2.1937271422470261E-003   6.0402465198607758E-002
  -7.6405993248456431E-003   2.0063274996179048E-003   6.0557335831936954E-002
  -6.4591241086641741E-003   1.9309267934073324E-003   6.0962422998280030E-002
  -5.2776488924826948E-003   1.9675250236149688E-003   6.1617726697636932E-002
  -1.2237929620047678E-002   3.0842230326605935E-003   5.6723832632507132E-002
  -1.0804650060332304E-002   2.7001539684844977E-003   5.6615678853868895E-002
  -9.3713705006169701E-003   2.4281825152624587E-003   5.6760917229284238E-002
  -7.9380909409016188E-003   2.2683086729945769E-003   5.7159547758753544E-002
  -6.5048113811862623E-003   2.2205324416805783E-003   5.7811570442276916E-002
  -1.4598753446046702E-002   3.6753203440265947E-003   5.2865134344325861E-002
  -1.2910493921757452E-002   3.2065807947218306E-003   5.2744271361269225E-002
  -1.1222234397468216E-002   2.8500375309071860E-003   5.2879976153306585E-002
  -9.5339748731789655E-003   2.6056905525817121E-003   5.3272248720437898E-002
  -7.8457153488897292E-003   2.4735398597460490E-003   5.3921089062663199E-002
  -1.7086021235205667E-002   4.2664176553929289E-003   4.8921716233747747E-002
  -1.5139606125302518E-002   3.7130076209593854E-003   4.8788242720808839E-002
  -1.3193191015399328E-002   3.2718925465513027E-003   4.8914512604003701E-002
  -1.1246775905496165E-002   2.9430724321688334E-003   4.9300525883332780E-002
  -9.3003607955929879E-003   2.7265472778116306E-003   4.9946282558795518E-002
  -4.1642278827789189E-003   1.7145176055494149E-003   6.5339557828743122E-002
  -3.6329935576070033E-003   2.0074866052665619E-003   6.4417987183587155E-002
  -3.1017592324350911E-003   2.5325479590760369E-003   6.3616506097584291E-002
  -2.5705249072631824E-003   3.2897016669786588E-003   6.2935114570734196E-002
  -2.0392905820912632E-003   4.2789477289736366E-003   6.2373812603037426E-002
  -5.2776488924826948E-003   1.9675250236149688E-003   6.1617726697636932E-002
  -4.6005771734742851E-003   2.2231645183717341E-003   6.0887250381551017E-002
  -3.9235054544658303E-003   2.8048876058078820E-003   6.0328359293984862E-002
  -3.2464337354573911E-003   3.7126942859238288E-003   5.9941053434938704E-002
  -2.5693620164489658E-003   4.9465845587187696E-003   5.9725332804413167E-002
  -6.5048113811862623E-003   2.2205324416805783E-003   5.7811570442276916E-002
  -5.6304065989742531E-003   2.4388424314768231E-003   5.7366179693847580E-002
  -4.7560018167622474E-003   3.0772272525395328E-003   5.7143869843305245E-002
  -3.8815970345502391E-003   4.1356869048686726E-003   5.7144640890650175E-002
  -3.0071922523382342E-003   5.6142213884639580E-003   5.7368492835882162E-002
  -7.8457153488897292E-003   2.4735398597460490E-003   5.3921089062663199E-002
  -6.7224818341070532E-003   2.6545203445821758E-003   5.3854775120477358E-002
  -5.5992483193243519E-003   3.3495668992711697E-003   5.4063037745545682E-002
  -4.4760148045416628E-003   4.5586795238136794E-003   5.4545876937868235E-002
  -3.3527812897589751E-003   6.2818582182095628E-003   5.5303292697445168E-002
  -9.3003607955929879E-003   2.7265472778116306E-003   4.9946282558795518E-002
  -7.8768028788725464E-003   2.8701982576870289E-003   5.0353036661440198E-002
  -6.4532449621521326E-003   3.6219065460030009E-003   5.1085863000706111E-002
  -5.0296870454317119E-003   4.9816721427586794E-003   5.2144761576593396E-002
  -3.6061291287112773E-003   6.9494950479545015E-003   5.3529732389101747E-002
  -2.0392905820912632E-003   4.2789477289736366E-003   6.2373812603037426E-002
  -2.2886196527234087E-003   5.5808605636301634E-003   5.8343030398451790E-002
  -2.5379487233555265E-003   7.2760145895174044E-003   5.4306558043873132E-002
  -2.7872777939876876E-003   9.3644098066364909E-003   5.0264395539300649E-002
  -3.0366068646197897E-003   1.1846046214985861E-002   4.6216542884734757E-002
  -2.5693620164489658E-003   4.9465845587187696E-003   5.9725332804413167E-002
  -2.8418141558498415E-003   6.5705255659983530E-003   5.6192988413280909E-002
  -3.1142662952507554E-003   8.6484844495684776E-003   5.2620088034604884E-002
  -3.3867184346516605E-003   1.1180461209428123E-002   4.9006631668384482E-002
  -3.6591705740525518E-003   1.4166455845577852E-002   4.5352619314620757E-002
  -3.0071922523382342E-003   5.6142213884639580E-003   5.7368492835882162E-002
  -3.3376332980585184E-003   7.5601905683672643E-003   5.4395362943262637E-002
  -3.6680743437788295E-003   1.0020954309619343E-002   5.1346811225548447E-002
  -3.9985153894991458E-003   1.2996512612220092E-002   4.8222837682739474E-002
  -4.3289564352194318E-003   1.6486865476169621E-002   4.5023442314835682E-002
  -3.3527812897589751E-003   6.2818582182095628E-003   5.5303292697445168E-002
  -3.7760770793493531E-003   8.5498555707355928E-003   5.2950153988397107E-002
  -4.1993728689397455E-003   1.1393424169670312E-002   5.0486727616703808E-002
  -4.6226686585301522E-003   1.4812564015011782E-002   4.7913013582364869E-002
  -5.0459644481204895E-003   1.8807275106761390E-002   4.5229011885380699E-002
  -3.6061291287112773E-003   6.9494950479545015E-003   5.3529732389101747E-002
  -4.1571454997223756E-003   9.5395205731041433E-003   5.1857361548684144E-002
  -4.7081618707334738E-003   1.2765894029720948E-002   5.0039837208070592E-002
  -5.2591782417446067E-003   1.6628615417803999E-002   4.8077159367260869E-002
  -5.8101946127556703E-003   2.1127684737353380E-002   4.5969328026255418E-002
  -4.8894299518999651E-002   1.4959397015353426E-002   4.2783280416294811E-002
  -4.7561577379219594E-002   1.4450224922990529E-002   4.4440342035033054E-002
  -4.6228855239439551E-002   1.3965317282577536E-002   4.5844766530296260E-002
  -4.4896133099659515E-002   1.3504674094114582E-002   4.6996553902084501E-002
  -4.3563410959879464E-002   1.3068295357601512E-002   4.7895704150397789E-002
  -5.3941682295196650E-002   1.6807766541881097E-002   4.3693552274583936E-002
  -5.2659649687276669E-002   1.6307873735396744E-002   4.3632703816169627E-002
  -5.1377617079356612E-002   1.5800484217545985E-002   4.3723113417510340E-002
  -5.0095584471436583E-002   1.5285597988328736E-002   4.3964781078606033E-002
  -4.8813551863516533E-002   1.4763215047745082E-002   4.4357706799456692E-002
  -6.0917306610452950E-002   1.8656136068408796E-002   4.4628984000409863E-002
  -5.9282068351163009E-002   1.8165522547802987E-002   4.2818464301526582E-002
  -5.7646830091872991E-002   1.7635651152514357E-002   4.1563097845628318E-002
  -5.6011591832583023E-002   1.7066521882542922E-002   4.0862884632715021E-002
  -5.4376353573292999E-002   1.6458134737888680E-002   4.0717824662786631E-002
  -6.9821172464768641E-002   2.0504505594936454E-002   4.5589575593772469E-002
  -6.7428833370878655E-002   2.0023171360209244E-002   4.1997623491103961E-002
  -6.5036494276988752E-002   1.9470818087482768E-002   3.9364719814650409E-002
  -6.2644155183098793E-002   1.8847445776757201E-002   3.7690864564411654E-002
  -6.0251816089208841E-002   1.8153054428032347E-002   3.6976057740388021E-002
  -8.0653279858143467E-002   2.2352875121464166E-002   4.6575327054671767E-002
  -7.7099944746423565E-002   2.1880820172615500E-002   4.1170181384901638E-002
  -7.3546609634703747E-002   2.1305985022451165E-002   3.7127979324576316E-002
  -6.9993274522983928E-002   2.0628369670971283E-002   3.4448720873695951E-002
  -6.6439939411264054E-002   1.9847974118175904E-002   3.3132406032260531E-002
  -4.3563410959879464E-002   1.3068295357601512E-002   4.7895704150397789E-002
  -4.2038642335341686E-002   1.2628444042740689E-002   4.7914341262334653E-002
  -4.0513873710803915E-002   1.2157383119234325E-002   4.8057879658695374E-002
  -3.8989105086266143E-002   1.1655112587082631E-002   4.8326319339479881E-002
  -3.7464336461728365E-002   1.1121632446285334E-002   4.8719660304688217E-002
  -4.8813551863516533E-002   1.4763215047745082E-002   4.4357706799456692E-002
  -4.7137909942475305E-002   1.4232282395415047E-002   4.4069248956947998E-002
  -4.5462268021434049E-002   1.3691747030958781E-002   4.3957636423022445E-002
  -4.3786626100392800E-002   1.3141608954376442E-002   4.4022869197680052E-002
  -4.2110984179351510E-002   1.2581868165667531E-002   4.4264947280920869E-002
  -5.4376353573292999E-002   1.6458134737888680E-002   4.0717824662786631E-002
  -5.2497894331588912E-002   1.5836120748089613E-002   4.0143878762351648E-002
  -5.0619435089884854E-002   1.5226110942683342E-002   3.9798722194659110E-002
  -4.8740975848180781E-002   1.4628105321670084E-002   3.9682354959709176E-002
  -4.6862516606476654E-002   1.4042103885049756E-002   3.9794777057501701E-002
  -6.0251816089208841E-002   1.8153054428032347E-002   3.6976057740388021E-002
  -5.8118595502682599E-002   1.7439959100763881E-002   3.6138230678545893E-002
  -5.5985374916156350E-002   1.6760474854407906E-002   3.5581136973605543E-002
  -5.3852154329630073E-002   1.6114601688963864E-002   3.5304776625567032E-002
  -5.1718933743103865E-002   1.5502339604431994E-002   3.5309149634430388E-002
  -6.6439939411264054E-002   1.9847974118175904E-002   3.3132406032260531E-002
  -6.4000013455756274E-002   1.9043797453438566E-002   3.2052304705530499E-002
  -6.1560087500248523E-002   1.8294838766132401E-002   3.1304880759861570E-002
  -5.9120161544740743E-002   1.7601098056257713E-002   3.0890134195253841E-002
  -5.6680235589232963E-002   1.6962575323814177E-002   3.0808065011707297E-002
  -3.7464336461728365E-002   1.1121632446285334E-002   4.8719660304688217E-002
  -3.5829138163107857E-002   1.0573506667533511E-002   4.8518585652189028E-002
  -3.4193939864487349E-002   1.0027299221517599E-002   4.8484571034030033E-002
  -3.2558741565866842E-002   9.4830101082379673E-003   4.8617616450211454E-002
  -3.0923543267246334E-002   8.9406393276943441E-003   4.8917721900733124E-002
  -4.2110984179351510E-002   1.2581868165667531E-002   4.4264947280920869E-002
  -4.0301986434556930E-002   1.2011880269975822E-002   4.3961240746201585E-002
  -3.8492988689762343E-002   1.1431000872444197E-002   4.3838073069490155E-002
  -3.6683990944967729E-002   1.0839229973072795E-002   4.3895444250786626E-002
  -3.4874993200173107E-002   1.0236567571861643E-002   4.4133354290090965E-002
  -4.6862516606476654E-002   1.4042103885049756E-002   3.9794777057501701E-002
  -4.4866240591840426E-002   1.3450253872418036E-002   3.9375628805986440E-002
  -4.2869964577204163E-002   1.2834702523370781E-002   3.9150498236146650E-002
  -4.0873688562567900E-002   1.2195449837907674E-002   3.9119385347982323E-002
  -3.8877412547931672E-002   1.1532495816029026E-002   3.9282290141493523E-002
  -5.1718933743103865E-002   1.5502339604431994E-002   3.5309149634430388E-002
  -4.9521900634958350E-002   1.4888627474860354E-002   3.4761749831543426E-002
  -4.7324867526812829E-002   1.4238404174297288E-002   3.4421846533999295E-002
  -4.5127834418667329E-002   1.3551669702742583E-002   3.4289439741798364E-002
  -4.2930801310521800E-002   1.2828424060196422E-002   3.4364529454940326E-002
  -5.6680235589232963E-002   1.6962575323814177E-002   3.0808065011707297E-002
  -5.4268966563910670E-002   1.6327001077302616E-002   3.0119603822872543E-002
  -5.1857697538588376E-002   1.5642105825223990E-002   2.9652117963048313E-002
  -4.9446428513266055E-002   1.4907889567577277E-002   2.9405607432234776E-002
  -4.7035159487943790E-002   1.4124352304363708E-002   2.9380072230431709E-002
  -3.0923543267246334E-002   8.9406393276943441E-003   4.8917721900733124E-002
  -2.9232212157206186E-002   8.3927703085700522E-003   4.8640436721726354E-002
  -2.7540881047166038E-002   7.8319864795485666E-003   4.8558194150187778E-002
  -2.5849549937125876E-002   7.2582878406298561E-003   4.8670994186117575E-002
  -2.4158218827085742E-002   6.6716743918139310E-003   4.8978836829515426E-002
  -3.4874993200173107E-002   1.0236567571861643E-002   4.4133354290090965E-002
  -3.2997975733668451E-002   9.6254622479538532E-003   4.3786288868523537E-002
  -3.1120958267163795E-002   9.0083625804929235E-003   4.3615553552416975E-002
  -2.9243940800659098E-002   8.3852685694788959E-003   4.3621148341771221E-002
  -2.7366923334154483E-002   7.7561802149113124E-003   4.3803073236586221E-002
  -3.8877412547931672E-002   1.1532495816029026E-002   3.9282290141493523E-002
  -3.6833421226969816E-002   1.0858154187337737E-002   3.8872364943709325E-002
  -3.4789429906008057E-002   1.0184738681437398E-002   3.8620057349378727E-002
  -3.2745438585046256E-002   9.5122492983278819E-003   3.8525367358501539E-002
  -3.0701447264084449E-002   8.8406860380090824E-003   3.8588294971077602E-002
  -4.2930801310521800E-002   1.2828424060196422E-002   3.4364529454940326E-002
  -4.0738548637110343E-002   1.2090846126721691E-002   3.3898664947283663E-002
  -3.8546295963698851E-002   1.1361114782381925E-002   3.3571705541073055E-002
  -3.6354043290287345E-002   1.0639230027176896E-002   3.3383651236308300E-002
  -3.4161790616875902E-002   9.9251918611067136E-003   3.3334502032989814E-002
  -4.7035159487943790E-002   1.4124352304363708E-002   2.9380072230431709E-002
  -4.4713357964089956E-002   1.3323538066105478E-002   2.8865188879246384E-002
  -4.2391556440236178E-002   1.2537490883326147E-002   2.8470498127499966E-002
  -4.0069754916382358E-002   1.1766210756025887E-002   2.8195999975191816E-002
  -3.7747953392528594E-002   1.1009697684204234E-002   2.8041694422322516E-002
  -2.4158218827085742E-002   6.6716743918139310E-003   4.8978836829515426E-002
  -2.2390169429115730E-002   6.0765427054641497E-003   4.8741317296236264E-002
  -2.0622120031145705E-002   5.4772893539439538E-003   4.8652624019182078E-002
  -1.8854070633175714E-002   4.8739143372537250E-003   4.8712756998352452E-002
  -1.7086021235205667E-002   4.2664176553929289E-003   4.8921716233747747E-002
  -2.7366923334154483E-002   7.7561802149113124E-003   4.3803073236586221E-002
  -2.5446951190467110E-002   7.1237630881344494E-003   4.3440438336920018E-002
  -2.3526979046779667E-002   6.4906827604909734E-003   4.3232822672464033E-002
  -2.1607006903092255E-002   5.8569392319813424E-003   4.3180226243217809E-002
  -1.9687034759404851E-002   5.2225325026055147E-003   4.3282649049181554E-002
  -3.0701447264084449E-002   8.8406860380090824E-003   3.8588294971077602E-002
  -2.8623359395694506E-002   8.1709834708046103E-003   3.8104003169328521E-002
  -2.6545271527304532E-002   7.5040761670380068E-003   3.7780923581774775E-002
  -2.4467183658914579E-002   6.8399641267092408E-003   3.7619056208416123E-002
  -2.2389095790524623E-002   6.1786473498182670E-003   3.7618401049252626E-002
  -3.4161790616875902E-002   9.9251918611067136E-003   3.3334502032989814E-002
  -3.1919394044798086E-002   9.2182038534747851E-003   3.2732011793461691E-002
  -2.9676997472720332E-002   8.5174695735851444E-003   3.2296926747114318E-002
  -2.7434600900642595E-002   7.8229890214371097E-003   3.2029246893947039E-002
  -2.5192204328564810E-002   7.1347621970309916E-003   3.1928972233960351E-002
  -3.7747953392528594E-002   1.1009697684204234E-002   2.8041694422322516E-002
  -3.5335055137777821E-002   1.0265424236145237E-002   2.7324464209319776E-002
  -3.2922156883027062E-002   9.5308629801320321E-003   2.6780832168482593E-002
  -3.0509258628276324E-002   8.8060139161649717E-003   2.6410798299811133E-002
  -2.8096360373525531E-002   8.0908770442437161E-003   2.6214362603305008E-002
  -1.7086021235205667E-002   4.2664176553929289E-003   4.8921716233747747E-002
  -1.5139606125302518E-002   3.7130076209593854E-003   4.8788242720808839E-002
  -1.3193191015399328E-002   3.2718925465513027E-003   4.8914512604003701E-002
  -1.1246775905496165E-002   2.9430724321688334E-003   4.9300525883332780E-002
  -9.3003607955929879E-003   2.7265472778116306E-003   4.9946282558795518E-002
  -1.9687034759404851E-002   5.2225325026055147E-003   4.3282649049181554E-002
  -1.7520177041044131E-002   4.6231889490812583E-003   4.3100369497943158E-002
  -1.5353319322683280E-002   4.0946349481259525E-003   4.3099231767485924E-002
  -1.3186461604322540E-002   3.6368704997398610E-003   4.3279235857809989E-002
  -1.1019603885961710E-002   3.2498956039230809E-003   4.3640381768915437E-002
  -2.2389095790524623E-002   6.1786473498182670E-003   3.7618401049252626E-002
  -2.0080397039058832E-002   5.5333702772027427E-003   3.7345810052258316E-002
  -1.7771698287593091E-002   4.9173773497002971E-003   3.7175759300692807E-002
  -1.5462999536127318E-002   4.3306685673108955E-003   3.7108248794555848E-002
  -1.3154300784661552E-002   3.7732439300344756E-003   3.7143278533847551E-002
  -2.5192204328564810E-002   7.1347621970309916E-003   3.1928972233960351E-002
  -2.2820266119346740E-002   6.4435516053241992E-003   3.1524564383754269E-002
  -2.0448327910128621E-002   5.7401197512743501E-003   3.1144095203624218E-002
  -1.8076389700910536E-002   5.0244666348817045E-003   3.0787564693570326E-002
  -1.5704451491692487E-002   4.2965922561459535E-003   3.0454972853592131E-002
  -2.8096360373525531E-002   8.0908770442437161E-003   2.6214362603305008E-002
  -2.5739784281907818E-002   7.3537329334460999E-003   2.5636632492431199E-002
  -2.3383208190289995E-002   6.5628621528489861E-003   2.5004239476280443E-002
  -2.1026632098672213E-002   5.7182647024528813E-003   2.4317183554853211E-002
  -1.8670056007054459E-002   4.8199405822573205E-003   2.3575464728149198E-002
  -9.3003607955929879E-003   2.7265472778116306E-003   4.9946282558795518E-002
  -7.8768028788725464E-003   2.8701982576870289E-003   5.0353036661440198E-002
  -6.4532449621521326E-003   3.6219065460030009E-003   5.1085863000706111E-002
  -5.0296870454317119E-003   4.9816721427586794E-003   5.2144761576593396E-002
  -3.6061291287112773E-003   6.9494950479545015E-003   5.3529732389101747E-002
  -1.1019603885961710E-002   3.2498956039230809E-003   4.3640381768915437E-002
  -9.2516593529847618E-003   3.1739017190005603E-003   4.4229611331693952E-002
  -7.4837148200078280E-003   3.6490803032973307E-003   4.5181541890364413E-002
  -5.7157702870309045E-003   4.6754313568135239E-003   4.6496173444926389E-002
  -3.9478257540539463E-003   6.2529548795492440E-003   4.8173505995380284E-002
  -1.3154300784661552E-002   3.7732439300344756E-003   3.7143278533847551E-002
  -1.1005340876157621E-002   3.4776051803138974E-003   3.7858098717539174E-002
  -8.8563809676536626E-003   3.6762540605920074E-003   3.8972248656393219E-002
  -6.7074210591497336E-003   4.3691905708684829E-003   4.0485728350409318E-002
  -4.5584611506457734E-003   5.5564147111438755E-003   4.2398537799587688E-002
  -1.5704451491692487E-002   4.2965922561459535E-003   3.0454972853592131E-002
  -1.3137847448391068E-002   3.7813086416274982E-003   3.1238498818976106E-002
  -1.0571243405089682E-002   3.7034278178866217E-003   3.2457983298793153E-002
  -8.0046393617882964E-003   4.0629497849237178E-003   3.4113426293042280E-002
  -5.4380353184868800E-003   4.8598745427383405E-003   3.6204827801724696E-002
  -1.8670056007054459E-002   4.8199405822573205E-003   2.3575464728149198E-002
  -1.5649179069685104E-002   4.0850121029408770E-003   2.4370811636004519E-002
  -1.2628302132315833E-002   3.7306015751811250E-003   2.5638745817563535E-002
  -9.6074251949465200E-003   3.7567089989786473E-003   2.7379267272825442E-002
  -6.5865482575772072E-003   4.1633343743330276E-003   2.9592376001790432E-002
  -3.6061291287112773E-003   6.9494950479545015E-003   5.3529732389101747E-002
  -4.1571454997223756E-003   9.5395205731041433E-003   5.1857361548684144E-002
  -4.7081618707334738E-003   1.2765894029720948E-002   5.0039837208070592E-002
  -5.2591782417446067E-003   1.6628615417803999E-002   4.8077159367260869E-002
  -5.8101946127556703E-003   2.1127684737353380E-002   4.5969328026255418E-002
  -3.9478257540539463E-003   6.2529548795492440E-003   4.8173505995380284E-002
  -4.5402148648787111E-003   8.6908823919473743E-003   4.7238968864881992E-002
  -5.1326039757035730E-003   1.2298445414451381E-002   4.6366839754952260E-002
  -5.7249930865283759E-003   1.7075643947060772E-002   4.5557118665590701E-002
  -6.3173821973533106E-003   2.3022477989775636E-002   4.4809805596798924E-002
  -4.5584611506457734E-003   5.5564147111438755E-003   4.2398537799587688E-002
  -4.9846614805196601E-003   7.8422442107904944E-003   4.2735121957647504E-002
  -5.4108618103935122E-003   1.1830996799181925E-002   4.3341675657040751E-002
  -5.8370621402674284E-003   1.7522672476317488E-002   4.4218198897767305E-002
  -6.2632624701412509E-003   2.4917271242197669E-002   4.5364691679826707E-002
  -5.4380353184868800E-003   4.8598745427383405E-003   3.6204827801724696E-002
  -5.4904853466450840E-003   6.9936060296335589E-003   3.8345820826981368E-002
  -5.5429353748033166E-003   1.1363548183912303E-002   4.0964344914336356E-002
  -5.5953854029614815E-003   1.7969701005574344E-002   4.4060400063788960E-002
  -5.6478354311197548E-003   2.6812064494619925E-002   4.7633986275340517E-002
  -6.5865482575772072E-003   4.1633343743330276E-003   2.9592376001790432E-002
  -6.0576864632551075E-003   6.1449678484768455E-003   3.4071065472883078E-002
  -5.5288246689329246E-003   1.0896099568643069E-002   3.9234847526838701E-002
  -4.9999628746108388E-003   1.8416729534831242E-002   4.5083722163656859E-002
  -4.4711010802886975E-003   2.8706857747041958E-002   5.1617689383337773E-002
  -8.0653279858143467E-002   2.2352875121464166E-002   4.6575327054671767E-002
  -7.7099944746423565E-002   2.1880820172615500E-002   4.1170181384901638E-002
  -7.3546609634703747E-002   2.1305985022451165E-002   3.7127979324576316E-002
  -6.9993274522983928E-002   2.0628369670971283E-002   3.4448720873695951E-002
  -6.6439939411264054E-002   1.9847974118175904E-002   3.3132406032260531E-002
  -8.9175958139163819E-002   2.4087585486707586E-002   1.9684963513287468E-002
  -8.4943667142087259E-002   2.3556058997415974E-002   2.0043647378550578E-002
  -8.0711376145010796E-002   2.2928747700146149E-002   2.0397299405082225E-002
  -7.6479085147934306E-002   2.2205651594898391E-002   2.0745919592882134E-002
  -7.2246794150857774E-002   2.1386770681672496E-002   2.1089507941950386E-002
  -9.1151536656415705E-002   2.5822295851951088E-002  -7.2683692652087822E-003
  -8.7608265222159060E-002   2.5231297822216503E-002  -1.1388604715747291E-003
  -8.4064993787902415E-002   2.4551510377841194E-002   3.6176410351512617E-003
  -8.0521722353645825E-002   2.3782933518825336E-002   7.0011352549690618E-003
  -7.6978450919389194E-002   2.2925567245168949E-002   9.0116221878785291E-003
  -8.6580015409899097E-002   2.7557006217194577E-002  -3.4284671280816637E-002
  -8.5093738986638912E-002   2.6906536647016810E-002  -2.2377342165474146E-002
  -8.3607462563378671E-002   2.6174273055536153E-002  -1.3210995785216376E-002
  -8.2121186140118541E-002   2.5360215442752194E-002  -6.7856321400433569E-003
  -8.0634909716858327E-002   2.4464363808665526E-002  -3.1012512299549537E-003
  -7.5461394399614079E-002   2.9291716582438010E-002  -6.1363942533536164E-002
  -7.7400088435526815E-002   2.8581775471817505E-002  -4.3671797703147941E-002
  -7.9338782471439551E-002   2.7797035733231168E-002  -3.0088611056020842E-002
  -8.1277476507352342E-002   2.6937497366679289E-002  -2.0614382592154909E-002
  -8.3216170543265133E-002   2.6003160372161882E-002  -1.5249112311550295E-002
  -6.6439939411264054E-002   1.9847974118175904E-002   3.3132406032260531E-002
  -6.4000013455756274E-002   1.9043797453438566E-002   3.2052304705530499E-002
  -6.1560087500248523E-002   1.8294838766132401E-002   3.1304880759861570E-002
  -5.9120161544740743E-002   1.7601098056257713E-002   3.0890134195253841E-002
  -5.6680235589232963E-002   1.6962575323814177E-002   3.0808065011707297E-002
  -7.2246794150857774E-002   2.1386770681672496E-002   2.1089507941950386E-002
  -6.9562286898562101E-002   2.0544627107095981E-002   2.1048747233363641E-002
  -6.6877779646266344E-002   1.9751743017796947E-002   2.1164471737291635E-002
  -6.4193272393970643E-002   1.9008118413774804E-002   2.1436681453734299E-002
  -6.1508765141674915E-002   1.8313753295029822E-002   2.1865376382691648E-002
  -7.6978450919389194E-002   2.2925567245168949E-002   9.0116221878785291E-003
  -7.4225554538852045E-002   2.2045456760753604E-002   1.0004243605280891E-002
  -7.1472658158314800E-002   2.1208647269461388E-002   1.0977158066651477E-002
  -6.8719761777777569E-002   2.0415138771291842E-002   1.1930365571990103E-002
  -6.5966865397240393E-002   1.9664931266245245E-002   1.2863866121297141E-002
  -8.0634909716858327E-002   2.4464363808665526E-002  -3.1012512299549537E-003
  -7.7989816376626109E-002   2.3546286414411345E-002  -1.0812061787178577E-003
  -7.5344723036393918E-002   2.2665551521125881E-002   7.4293974794115321E-004
  -7.2699629696161713E-002   2.1822159128809127E-002   2.3711865500217321E-003
  -7.0054536355929509E-002   2.1016109237460723E-002   3.8035342275242467E-003
  -8.3216170543265133E-002   2.6003160372161882E-002  -1.5249112311550295E-002
  -8.0855072411884443E-002   2.5047116068068531E-002  -1.2207602118632754E-002
  -7.8493974280503642E-002   2.4122455772790458E-002  -9.5381832188396881E-003
  -7.6132876149122897E-002   2.3229179486326045E-002  -7.2408556121713562E-003
  -7.3771778017742151E-002   2.2367287208676423E-002  -5.3156192986276718E-003
  -5.6680235589232963E-002   1.6962575323814177E-002   3.0808065011707297E-002
  -5.4268966563910670E-002   1.6327001077302616E-002   3.0119603822872543E-002
  -5.1857697538588376E-002   1.5642105825223990E-002   2.9652117963048313E-002
  -4.9446428513266055E-002   1.4907889567577277E-002   2.9405607432234776E-002
  -4.7035159487943790E-002   1.4124352304363708E-002   2.9380072230431709E-002
  -6.1508765141674915E-002   1.8313753295029822E-002   2.1865376382691648E-002
  -5.8901401609113488E-002   1.7620739796315205E-002   2.1474525043569920E-002
  -5.6294038076552103E-002   1.6881170052384459E-002   2.1254887389915850E-002
  -5.3686674543990690E-002   1.6095044063237786E-002   2.1206463421729313E-002
  -5.1079311011429346E-002   1.5262361828874860E-002   2.1329253139010296E-002
  -6.5966865397240393E-002   1.9664931266245245E-002   1.2863866121297141E-002
  -6.3213169000982922E-002   1.8914478515327710E-002   1.2773389392239834E-002
  -6.0459472604725492E-002   1.8120234279545247E-002   1.2804364705107166E-002
  -5.7705776208468056E-002   1.7282198558898180E-002   1.2956792059899101E-002
  -5.4952079812210591E-002   1.6400371353386012E-002   1.3230671456615634E-002
  -7.0054536355929509E-002   2.1016109237460723E-002   3.8035342275242467E-003
  -6.7204268739519013E-002   2.0208217234340312E-002   4.0161968688826218E-003
  -6.4354001123108476E-002   1.9359298506706264E-002   4.3005499086225772E-003
  -6.1503733506697952E-002   1.8469353054558352E-002   4.6565933467440472E-003
  -5.8653465890287436E-002   1.7538380877897053E-002   5.0843271832472711E-003
  -7.3771778017742151E-002   2.2367287208676423E-002  -5.3156192986276718E-003
  -7.0874700824721693E-002   2.1501955953352858E-002  -4.7970525265023656E-003
  -6.7977623631701067E-002   2.0598362733866393E-002  -4.2565569995383634E-003
  -6.5080546438680470E-002   1.9656507550219027E-002  -3.6941327177358457E-003
  -6.2183469245659984E-002   1.8676390402408538E-002  -3.1097796810947154E-003
  -4.7035159487943790E-002   1.4124352304363708E-002   2.9380072230431709E-002
  -4.4713357964089956E-002   1.3323538066105478E-002   2.8865188879246384E-002
  -4.2391556440236178E-002   1.2537490883326147E-002   2.8470498127499966E-002
  -4.0069754916382358E-002   1.1766210756025887E-002   2.8195999975191816E-002
  -3.7747953392528594E-002   1.1009697684204234E-002   2.8041694422322516E-002
  -5.1079311011429346E-002   1.5262361828874860E-002   2.1329253139010296E-002
  -4.8624942296509502E-002   1.4420870016770060E-002   2.1019979174762782E-002
  -4.6170573581589672E-002   1.3608315294398710E-002   2.0855646993208909E-002
  -4.3716204866669800E-002   1.2824697661759768E-002   2.0836256594348471E-002
  -4.1261836151749998E-002   1.2070017118854248E-002   2.0961807978181424E-002
  -5.4952079812210591E-002   1.6400371353386012E-002   1.3230671456615634E-002
  -5.2340394722969801E-002   1.5518201967435058E-002   1.3141176913559774E-002
  -4.9728709633729010E-002   1.4679139705471148E-002   1.3221373336452596E-002
  -4.7117024544488219E-002   1.3883184567494256E-002   1.3471260725293553E-002
  -4.4505339455247407E-002   1.3130336553503930E-002   1.3890839080083178E-002
  -5.8653465890287436E-002   1.7538380877897053E-002   5.0843271832472711E-003
  -5.5859715243470782E-002   1.6615533918099570E-002   5.2287820956372390E-003
  -5.3065964596654136E-002   1.5749964116543148E-002   5.5676771572308568E-003
  -5.0272213949837503E-002   1.4941671473227886E-002   6.1010123680275870E-003
  -4.7478463303020843E-002   1.4190655988153833E-002   6.8287877280280920E-003
  -6.2183469245659984E-002   1.8676390402408538E-002  -3.1097796810947154E-003
  -5.9182903858012503E-002   1.7712865868764416E-002  -2.7172052790044310E-003
  -5.6182338470365134E-002   1.6820788527615871E-002  -2.1054415444560215E-003
  -5.3181773082717654E-002   1.6000158378962279E-002  -1.2744884774497367E-003
  -5.0181207695070285E-002   1.5250975422803625E-002  -2.2434607798471617E-004
  -3.7747953392528594E-002   1.1009697684204234E-002   2.8041694422322516E-002
  -3.5335055137777821E-002   1.0265424236145237E-002   2.7324464209319776E-002
  -3.2922156883027062E-002   9.5308629801320321E-003   2.6780832168482593E-002
  -3.0509258628276324E-002   8.8060139161649717E-003   2.6410798299811133E-002
  -2.8096360373525531E-002   8.0908770442437161E-003   2.6214362603305008E-002
  -4.1261836151749998E-002   1.2070017118854248E-002   2.0961807978181424E-002
  -3.8707417510981973E-002   1.1326792932690011E-002   2.0484723342652500E-002
  -3.6152998870213934E-002   1.0577544370276554E-002   2.0117081306992607E-002
  -3.3598580229445903E-002   9.8222714316133150E-003   1.9858881871201273E-002
  -3.1044161588677871E-002   9.0609741167003710E-003   1.9710125035279358E-002
  -4.4505339455247407E-002   1.3130336553503930E-002   1.3890839080083178E-002
  -4.1873556000758795E-002   1.2388161629235145E-002   1.3638163453732394E-002
  -3.9241772546270176E-002   1.1624225760420867E-002   1.3430774854954100E-002
  -3.6609989091781571E-002   1.0838528947061606E-002   1.3268673283747770E-002
  -3.3978205637292952E-002   1.0031071189156970E-002   1.3151858740113959E-002
  -4.7478463303020843E-002   1.4190655988153833E-002   6.8287877280280920E-003
  -4.4833470607108329E-002   1.3449530325780099E-002   6.7847845425598671E-003
  -4.2188477911195822E-002   1.2670907150565618E-002   6.7219128123674442E-003
  -3.9543485215283315E-002   1.1854786462509924E-002   6.6401725374505127E-003
  -3.6898492519370801E-002   1.1001168261613931E-002   6.5395637178092894E-003
  -5.0181207695070285E-002   1.5250975422803625E-002  -2.2434607798471617E-004
  -4.7587161330030603E-002   1.4510899022324941E-002  -7.5413390865641805E-005
  -4.4993114964990810E-002   1.3717588540709813E-002  -9.5048207676973195E-006
  -4.2399068599951073E-002   1.2871043977958380E-002  -2.6620367690612101E-005
  -3.9805022234911336E-002   1.1971265334070225E-002  -1.2676003163492044E-004
  -2.8096360373525531E-002   8.0908770442437161E-003   2.6214362603305008E-002
  -2.5739784281907818E-002   7.3537329334460999E-003   2.5636632492431199E-002
  -2.3383208190289995E-002   6.5628621528489861E-003   2.5004239476280443E-002
  -2.1026632098672213E-002   5.7182647024528813E-003   2.4317183554853211E-002
  -1.8670056007054459E-002   4.8199405822573205E-003   2.3575464728149198E-002
  -3.1044161588677871E-002   9.0609741167003710E-003   1.9710125035279358E-002
  -2.8725954329182526E-002   8.2973025075809281E-003   1.9136220723115327E-002
  -2.6407747069687140E-002   7.5349066862977487E-003   1.8540241651983147E-002
  -2.4089539810191733E-002   6.7737866528507218E-003   1.7922187821882776E-002
  -2.1771332550696354E-002   6.0139424072399583E-003   1.7282059232814506E-002
  -3.3978205637292952E-002   1.0031071189156970E-002   1.3151858740113959E-002
  -3.1665779063611552E-002   9.2408720817159784E-003   1.2636782684295467E-002
  -2.9353352489930026E-002   8.5069512197463865E-003   1.2132220015817444E-002
  -2.7040925916248595E-002   7.8293086032487809E-003   1.1638170734679494E-002
  -2.4728499342567156E-002   7.2079442322229292E-003   1.1154634840882305E-002
  -3.6898492519370801E-002   1.1001168261613931E-002   6.5395637178092894E-003
  -3.4559258485194755E-002   1.0184441655851084E-002   6.1383183759718199E-003
  -3.2220024451018688E-002   9.4789957531946981E-003   5.7801745677831667E-003
  -2.9880790416842648E-002   8.8848305536466752E-003   5.4651322932435607E-003
  -2.7541556382666570E-002   8.4019460572051785E-003   5.1931915523524969E-003
  -3.9805022234911336E-002   1.1971265334070225E-002  -1.2676003163492044E-004
  -3.7406392593932303E-002   1.1128011229985746E-002  -3.5917220185605059E-004
  -3.5007762952953103E-002   1.0451040286644064E-002  -5.1589469211968386E-004
  -3.2609133311973959E-002   9.9403525040449164E-003  -5.9692750242588272E-004
  -3.0210503670994870E-002   9.5959478821883160E-003  -6.0227063277473736E-004
  -1.8670056007054459E-002   4.8199405822573205E-003   2.3575464728149198E-002
  -1.5649179069685104E-002   4.0850121029408770E-003   2.4370811636004519E-002
  -1.2628302132315833E-002   3.7306015751811250E-003   2.5638745817563535E-002
  -9.6074251949465200E-003   3.7567089989786473E-003   2.7379267272825442E-002
  -6.5865482575772072E-003   4.1633343743330276E-003   2.9592376001790432E-002
  -2.1771332550696354E-002   6.0139424072399583E-003   1.7282059232814506E-002
  -1.8546850363874684E-002   5.3464253772451120E-003   1.8234482165666754E-002
  -1.5322368177053028E-002   4.8622869906460309E-003   1.9121528323720383E-002
  -1.2097885990231330E-002   4.5615272474416255E-003   1.9943197706975668E-002
  -8.8734038034097018E-003   4.4441461476332211E-003   2.0699490315432834E-002
  -2.4728499342567156E-002   7.2079442322229292E-003   1.1154634840882305E-002
  -2.1838375954794612E-002   6.6078386515494025E-003   1.2066994490569777E-002
  -1.8948252567022102E-002   5.9939724061104926E-003   1.2376013316956869E-002
  -1.6058129179249554E-002   5.3663454959047147E-003   1.2081691320044122E-002
  -1.3168005791477047E-002   4.7249579209339698E-003   1.1184028499831522E-002
  -2.7541556382666570E-002   8.4019460572051785E-003   5.1931915523524969E-003
  -2.5523755842444765E-002   7.8692519258541094E-003   5.8683486107134336E-003
  -2.3505955302223075E-002   7.1256578215748434E-003   5.4022007972726188E-003
  -2.1488154762001360E-002   6.1711637443683034E-003   3.7947481120306839E-003
  -1.9470354221779566E-002   5.0057696942342189E-003   1.0459905549873028E-003
  -3.0210503670994870E-002   9.5959478821883160E-003  -6.0227063277473736E-004
  -2.9602990026825426E-002   9.1306652001578170E-003  -3.6145547390198374E-004
  -2.8995476382655982E-002   8.2573432370395827E-003  -1.7999092353321311E-003
  -2.8387962738486483E-002   6.9759819928307681E-003  -4.9176319170654292E-003
  -2.7780449094317095E-002   5.2865814675346900E-003  -9.7146235191015728E-003
  -6.5865482575772072E-003   4.1633343743330276E-003   2.9592376001790432E-002
  -6.0576864632551075E-003   6.1449678484768455E-003   3.4071065472883078E-002
  -5.5288246689329246E-003   1.0896099568643069E-002   3.9234847526838701E-002
  -4.9999628746108388E-003   1.8416729534831242E-002   4.5083722163656859E-002
  -4.4711010802886975E-003   2.8706857747041958E-002   5.1617689383337773E-002
  -8.8734038034097018E-003   4.4441461476332211E-003   2.0699490315432834E-002
  -7.5871225446350193E-003   5.6602883602819287E-003   2.5869343339650741E-002
  -6.3008412858604063E-003   9.3600985544481929E-003   3.1868942709910975E-002
  -5.0145600270857793E-003   1.5543576730133624E-002   3.8698288426213645E-002
  -3.7282787683112217E-003   2.4210722887337166E-002   4.6357380488558420E-002
  -1.3168005791477047E-002   4.7249579209339698E-003   1.1184028499831522E-002
  -1.0979651305070337E-002   5.1756088720862348E-003   1.6759214812670759E-002
  -8.7912968186635229E-003   7.8240975402537882E-003   2.3308801234731780E-002
  -6.6029423322569274E-003   1.2670423925435735E-002   3.0832787766014919E-002
  -4.4145878458501098E-003   1.9714588027631930E-002   3.9331174406519898E-002
  -1.9470354221779566E-002   5.0057696942342189E-003   1.0459905549873028E-003
  -1.6235272744561088E-002   4.6909293838910404E-003   6.7406798919436572E-003
  -1.3000191267342585E-002   6.2880965260595917E-003   1.3554423101301276E-002
  -9.7651097901241789E-003   9.7972711207379819E-003   2.1487220183061140E-002
  -6.5300283129056044E-003   1.5218453167927248E-002   3.0539071137222096E-002
  -2.7780449094317095E-002   5.2865814675346900E-003  -9.7146235191015728E-003
  -2.3353986863107301E-002   4.2062498956962902E-003  -4.1862614225313677E-003
  -1.8927524631897341E-002   4.7520955118648955E-003   2.6058083096194007E-003
  -1.4501062400687409E-002   6.9241183160398817E-003   1.0661585677352113E-002
  -1.0074600169477588E-002   1.0722318308221901E-002   1.9981070680665569E-002
 </DataArray>
 </PointData>
 </Piece>
 </UnstructuredGrid>
 </VTKFile>
