 <VTKFile type="UnstructuredGrid"  version="0.1"   >
 <UnstructuredGrid>
 <Piece  NumberOfPoints="          1600 "  NumberOfCells="         1024 ">
 <Points>
 <DataArray  type="Float64" NumberOfComponents="3"  format="ascii" >
   0.0000000000000000        0.0000000000000000        0.0000000000000000     
   3.1250000000000000E-002   0.0000000000000000        0.0000000000000000     
   6.2500000000000000E-002   0.0000000000000000        0.0000000000000000     
   9.3750000000000000E-002   0.0000000000000000        0.0000000000000000     
  0.12500000000000000        0.0000000000000000        0.0000000000000000     
   0.0000000000000000        3.1250000000000000E-002   0.0000000000000000     
   3.1250000000000000E-002   3.1250000000000000E-002   0.0000000000000000     
   6.2500000000000000E-002   3.1250000000000000E-002   0.0000000000000000     
   9.3750000000000000E-002   3.1250000000000000E-002   0.0000000000000000     
  0.12500000000000000        3.1250000000000000E-002   0.0000000000000000     
   0.0000000000000000        6.2500000000000000E-002   0.0000000000000000     
   3.1250000000000000E-002   6.2500000000000000E-002   0.0000000000000000     
   6.2500000000000000E-002   6.2500000000000000E-002   0.0000000000000000     
   9.3750000000000000E-002   6.2500000000000000E-002   0.0000000000000000     
  0.12500000000000000        6.2500000000000000E-002   0.0000000000000000     
   0.0000000000000000        9.3750000000000000E-002   0.0000000000000000     
   3.1250000000000000E-002   9.3750000000000000E-002   0.0000000000000000     
   6.2500000000000000E-002   9.3750000000000000E-002   0.0000000000000000     
   9.3750000000000000E-002   9.3750000000000000E-002   0.0000000000000000     
  0.12500000000000000        9.3750000000000000E-002   0.0000000000000000     
   0.0000000000000000       0.12500000000000000        0.0000000000000000     
   3.1250000000000000E-002  0.12500000000000000        0.0000000000000000     
   6.2500000000000000E-002  0.12500000000000000        0.0000000000000000     
   9.3750000000000000E-002  0.12500000000000000        0.0000000000000000     
  0.12500000000000000       0.12500000000000000        0.0000000000000000     
  0.12500000000000000        0.0000000000000000        0.0000000000000000     
  0.15625000000000000        0.0000000000000000        0.0000000000000000     
  0.18750000000000000        0.0000000000000000        0.0000000000000000     
  0.21875000000000000        0.0000000000000000        0.0000000000000000     
  0.25000000000000000        0.0000000000000000        0.0000000000000000     
  0.12500000000000000        3.1250000000000000E-002   0.0000000000000000     
  0.15625000000000000        3.1250000000000000E-002   0.0000000000000000     
  0.18750000000000000        3.1250000000000000E-002   0.0000000000000000     
  0.21875000000000000        3.1250000000000000E-002   0.0000000000000000     
  0.25000000000000000        3.1250000000000000E-002   0.0000000000000000     
  0.12500000000000000        6.2500000000000000E-002   0.0000000000000000     
  0.15625000000000000        6.2500000000000000E-002   0.0000000000000000     
  0.18750000000000000        6.2500000000000000E-002   0.0000000000000000     
  0.21875000000000000        6.2500000000000000E-002   0.0000000000000000     
  0.25000000000000000        6.2500000000000000E-002   0.0000000000000000     
  0.12500000000000000        9.3750000000000000E-002   0.0000000000000000     
  0.15625000000000000        9.3750000000000000E-002   0.0000000000000000     
  0.18750000000000000        9.3750000000000000E-002   0.0000000000000000     
  0.21875000000000000        9.3750000000000000E-002   0.0000000000000000     
  0.25000000000000000        9.3750000000000000E-002   0.0000000000000000     
  0.12500000000000000       0.12500000000000000        0.0000000000000000     
  0.15625000000000000       0.12500000000000000        0.0000000000000000     
  0.18750000000000000       0.12500000000000000        0.0000000000000000     
  0.21875000000000000       0.12500000000000000        0.0000000000000000     
  0.25000000000000000       0.12500000000000000        0.0000000000000000     
  0.25000000000000000        0.0000000000000000        0.0000000000000000     
  0.28125000000000000        0.0000000000000000        0.0000000000000000     
  0.31250000000000000        0.0000000000000000        0.0000000000000000     
  0.34375000000000000        0.0000000000000000        0.0000000000000000     
  0.37500000000000000        0.0000000000000000        0.0000000000000000     
  0.25000000000000000        3.1250000000000000E-002   0.0000000000000000     
  0.28125000000000000        3.1250000000000000E-002   0.0000000000000000     
  0.31250000000000000        3.1250000000000000E-002   0.0000000000000000     
  0.34375000000000000        3.1250000000000000E-002   0.0000000000000000     
  0.37500000000000000        3.1250000000000000E-002   0.0000000000000000     
  0.25000000000000000        6.2500000000000000E-002   0.0000000000000000     
  0.28125000000000000        6.2500000000000000E-002   0.0000000000000000     
  0.31250000000000000        6.2500000000000000E-002   0.0000000000000000     
  0.34375000000000000        6.2500000000000000E-002   0.0000000000000000     
  0.37500000000000000        6.2500000000000000E-002   0.0000000000000000     
  0.25000000000000000        9.3750000000000000E-002   0.0000000000000000     
  0.28125000000000000        9.3750000000000000E-002   0.0000000000000000     
  0.31250000000000000        9.3750000000000000E-002   0.0000000000000000     
  0.34375000000000000        9.3750000000000000E-002   0.0000000000000000     
  0.37500000000000000        9.3750000000000000E-002   0.0000000000000000     
  0.25000000000000000       0.12500000000000000        0.0000000000000000     
  0.28125000000000000       0.12500000000000000        0.0000000000000000     
  0.31250000000000000       0.12500000000000000        0.0000000000000000     
  0.34375000000000000       0.12500000000000000        0.0000000000000000     
  0.37500000000000000       0.12500000000000000        0.0000000000000000     
  0.37500000000000000        0.0000000000000000        0.0000000000000000     
  0.40625000000000000        0.0000000000000000        0.0000000000000000     
  0.43750000000000000        0.0000000000000000        0.0000000000000000     
  0.46875000000000000        0.0000000000000000        0.0000000000000000     
  0.50000000000000000        0.0000000000000000        0.0000000000000000     
  0.37500000000000000        3.1250000000000000E-002   0.0000000000000000     
  0.40625000000000000        3.1250000000000000E-002   0.0000000000000000     
  0.43750000000000000        3.1250000000000000E-002   0.0000000000000000     
  0.46875000000000000        3.1250000000000000E-002   0.0000000000000000     
  0.50000000000000000        3.1250000000000000E-002   0.0000000000000000     
  0.37500000000000000        6.2500000000000000E-002   0.0000000000000000     
  0.40625000000000000        6.2500000000000000E-002   0.0000000000000000     
  0.43750000000000000        6.2500000000000000E-002   0.0000000000000000     
  0.46875000000000000        6.2500000000000000E-002   0.0000000000000000     
  0.50000000000000000        6.2500000000000000E-002   0.0000000000000000     
  0.37500000000000000        9.3750000000000000E-002   0.0000000000000000     
  0.40625000000000000        9.3750000000000000E-002   0.0000000000000000     
  0.43750000000000000        9.3750000000000000E-002   0.0000000000000000     
  0.46875000000000000        9.3750000000000000E-002   0.0000000000000000     
  0.50000000000000000        9.3750000000000000E-002   0.0000000000000000     
  0.37500000000000000       0.12500000000000000        0.0000000000000000     
  0.40625000000000000       0.12500000000000000        0.0000000000000000     
  0.43750000000000000       0.12500000000000000        0.0000000000000000     
  0.46875000000000000       0.12500000000000000        0.0000000000000000     
  0.50000000000000000       0.12500000000000000        0.0000000000000000     
  0.50000000000000000        0.0000000000000000        0.0000000000000000     
  0.53125000000000000        0.0000000000000000        0.0000000000000000     
  0.56250000000000000        0.0000000000000000        0.0000000000000000     
  0.59375000000000000        0.0000000000000000        0.0000000000000000     
  0.62500000000000000        0.0000000000000000        0.0000000000000000     
  0.50000000000000000        3.1250000000000000E-002   0.0000000000000000     
  0.53125000000000000        3.1250000000000000E-002   0.0000000000000000     
  0.56250000000000000        3.1250000000000000E-002   0.0000000000000000     
  0.59375000000000000        3.1250000000000000E-002   0.0000000000000000     
  0.62500000000000000        3.1250000000000000E-002   0.0000000000000000     
  0.50000000000000000        6.2500000000000000E-002   0.0000000000000000     
  0.53125000000000000        6.2500000000000000E-002   0.0000000000000000     
  0.56250000000000000        6.2500000000000000E-002   0.0000000000000000     
  0.59375000000000000        6.2500000000000000E-002   0.0000000000000000     
  0.62500000000000000        6.2500000000000000E-002   0.0000000000000000     
  0.50000000000000000        9.3750000000000000E-002   0.0000000000000000     
  0.53125000000000000        9.3750000000000000E-002   0.0000000000000000     
  0.56250000000000000        9.3750000000000000E-002   0.0000000000000000     
  0.59375000000000000        9.3750000000000000E-002   0.0000000000000000     
  0.62500000000000000        9.3750000000000000E-002   0.0000000000000000     
  0.50000000000000000       0.12500000000000000        0.0000000000000000     
  0.53125000000000000       0.12500000000000000        0.0000000000000000     
  0.56250000000000000       0.12500000000000000        0.0000000000000000     
  0.59375000000000000       0.12500000000000000        0.0000000000000000     
  0.62500000000000000       0.12500000000000000        0.0000000000000000     
  0.62500000000000000        0.0000000000000000        0.0000000000000000     
  0.65625000000000000        0.0000000000000000        0.0000000000000000     
  0.68750000000000000        0.0000000000000000        0.0000000000000000     
  0.71875000000000000        0.0000000000000000        0.0000000000000000     
  0.75000000000000000        0.0000000000000000        0.0000000000000000     
  0.62500000000000000        3.1250000000000000E-002   0.0000000000000000     
  0.65625000000000000        3.1250000000000000E-002   0.0000000000000000     
  0.68750000000000000        3.1250000000000000E-002   0.0000000000000000     
  0.71875000000000000        3.1250000000000000E-002   0.0000000000000000     
  0.75000000000000000        3.1250000000000000E-002   0.0000000000000000     
  0.62500000000000000        6.2500000000000000E-002   0.0000000000000000     
  0.65625000000000000        6.2500000000000000E-002   0.0000000000000000     
  0.68750000000000000        6.2500000000000000E-002   0.0000000000000000     
  0.71875000000000000        6.2500000000000000E-002   0.0000000000000000     
  0.75000000000000000        6.2500000000000000E-002   0.0000000000000000     
  0.62500000000000000        9.3750000000000000E-002   0.0000000000000000     
  0.65625000000000000        9.3750000000000000E-002   0.0000000000000000     
  0.68750000000000000        9.3750000000000000E-002   0.0000000000000000     
  0.71875000000000000        9.3750000000000000E-002   0.0000000000000000     
  0.75000000000000000        9.3750000000000000E-002   0.0000000000000000     
  0.62500000000000000       0.12500000000000000        0.0000000000000000     
  0.65625000000000000       0.12500000000000000        0.0000000000000000     
  0.68750000000000000       0.12500000000000000        0.0000000000000000     
  0.71875000000000000       0.12500000000000000        0.0000000000000000     
  0.75000000000000000       0.12500000000000000        0.0000000000000000     
  0.75000000000000000        0.0000000000000000        0.0000000000000000     
  0.78125000000000000        0.0000000000000000        0.0000000000000000     
  0.81250000000000000        0.0000000000000000        0.0000000000000000     
  0.84375000000000000        0.0000000000000000        0.0000000000000000     
  0.87500000000000000        0.0000000000000000        0.0000000000000000     
  0.75000000000000000        3.1250000000000000E-002   0.0000000000000000     
  0.78125000000000000        3.1250000000000000E-002   0.0000000000000000     
  0.81250000000000000        3.1250000000000000E-002   0.0000000000000000     
  0.84375000000000000        3.1250000000000000E-002   0.0000000000000000     
  0.87500000000000000        3.1250000000000000E-002   0.0000000000000000     
  0.75000000000000000        6.2500000000000000E-002   0.0000000000000000     
  0.78125000000000000        6.2500000000000000E-002   0.0000000000000000     
  0.81250000000000000        6.2500000000000000E-002   0.0000000000000000     
  0.84375000000000000        6.2500000000000000E-002   0.0000000000000000     
  0.87500000000000000        6.2500000000000000E-002   0.0000000000000000     
  0.75000000000000000        9.3750000000000000E-002   0.0000000000000000     
  0.78125000000000000        9.3750000000000000E-002   0.0000000000000000     
  0.81250000000000000        9.3750000000000000E-002   0.0000000000000000     
  0.84375000000000000        9.3750000000000000E-002   0.0000000000000000     
  0.87500000000000000        9.3750000000000000E-002   0.0000000000000000     
  0.75000000000000000       0.12500000000000000        0.0000000000000000     
  0.78125000000000000       0.12500000000000000        0.0000000000000000     
  0.81250000000000000       0.12500000000000000        0.0000000000000000     
  0.84375000000000000       0.12500000000000000        0.0000000000000000     
  0.87500000000000000       0.12500000000000000        0.0000000000000000     
  0.87500000000000000        0.0000000000000000        0.0000000000000000     
  0.90625000000000000        0.0000000000000000        0.0000000000000000     
  0.93750000000000000        0.0000000000000000        0.0000000000000000     
  0.96875000000000000        0.0000000000000000        0.0000000000000000     
   1.0000000000000000        0.0000000000000000        0.0000000000000000     
  0.87500000000000000        3.1250000000000000E-002   0.0000000000000000     
  0.90625000000000000        3.1250000000000000E-002   0.0000000000000000     
  0.93750000000000000        3.1250000000000000E-002   0.0000000000000000     
  0.96875000000000000        3.1250000000000000E-002   0.0000000000000000     
   1.0000000000000000        3.1250000000000000E-002   0.0000000000000000     
  0.87500000000000000        6.2500000000000000E-002   0.0000000000000000     
  0.90625000000000000        6.2500000000000000E-002   0.0000000000000000     
  0.93750000000000000        6.2500000000000000E-002   0.0000000000000000     
  0.96875000000000000        6.2500000000000000E-002   0.0000000000000000     
   1.0000000000000000        6.2500000000000000E-002   0.0000000000000000     
  0.87500000000000000        9.3750000000000000E-002   0.0000000000000000     
  0.90625000000000000        9.3750000000000000E-002   0.0000000000000000     
  0.93750000000000000        9.3750000000000000E-002   0.0000000000000000     
  0.96875000000000000        9.3750000000000000E-002   0.0000000000000000     
   1.0000000000000000        9.3750000000000000E-002   0.0000000000000000     
  0.87500000000000000       0.12500000000000000        0.0000000000000000     
  0.90625000000000000       0.12500000000000000        0.0000000000000000     
  0.93750000000000000       0.12500000000000000        0.0000000000000000     
  0.96875000000000000       0.12500000000000000        0.0000000000000000     
   1.0000000000000000       0.12500000000000000        0.0000000000000000     
   0.0000000000000000       0.12500000000000000        0.0000000000000000     
   3.1250000000000000E-002  0.12500000000000000        0.0000000000000000     
   6.2500000000000000E-002  0.12500000000000000        0.0000000000000000     
   9.3750000000000000E-002  0.12500000000000000        0.0000000000000000     
  0.12500000000000000       0.12500000000000000        0.0000000000000000     
   0.0000000000000000       0.15625000000000000        0.0000000000000000     
   3.1250000000000000E-002  0.15625000000000000        0.0000000000000000     
   6.2500000000000000E-002  0.15625000000000000        0.0000000000000000     
   9.3750000000000000E-002  0.15625000000000000        0.0000000000000000     
  0.12500000000000000       0.15625000000000000        0.0000000000000000     
   0.0000000000000000       0.18750000000000000        0.0000000000000000     
   3.1250000000000000E-002  0.18750000000000000        0.0000000000000000     
   6.2500000000000000E-002  0.18750000000000000        0.0000000000000000     
   9.3750000000000000E-002  0.18750000000000000        0.0000000000000000     
  0.12500000000000000       0.18750000000000000        0.0000000000000000     
   0.0000000000000000       0.21875000000000000        0.0000000000000000     
   3.1250000000000000E-002  0.21875000000000000        0.0000000000000000     
   6.2500000000000000E-002  0.21875000000000000        0.0000000000000000     
   9.3750000000000000E-002  0.21875000000000000        0.0000000000000000     
  0.12500000000000000       0.21875000000000000        0.0000000000000000     
   0.0000000000000000       0.25000000000000000        0.0000000000000000     
   3.1250000000000000E-002  0.25000000000000000        0.0000000000000000     
   6.2500000000000000E-002  0.25000000000000000        0.0000000000000000     
   9.3750000000000000E-002  0.25000000000000000        0.0000000000000000     
  0.12500000000000000       0.25000000000000000        0.0000000000000000     
  0.12500000000000000       0.12500000000000000        0.0000000000000000     
  0.15625000000000000       0.12500000000000000        0.0000000000000000     
  0.18750000000000000       0.12500000000000000        0.0000000000000000     
  0.21875000000000000       0.12500000000000000        0.0000000000000000     
  0.25000000000000000       0.12500000000000000        0.0000000000000000     
  0.12500000000000000       0.15625000000000000        0.0000000000000000     
  0.15625000000000000       0.15625000000000000        0.0000000000000000     
  0.18750000000000000       0.15625000000000000        0.0000000000000000     
  0.21875000000000000       0.15625000000000000        0.0000000000000000     
  0.25000000000000000       0.15625000000000000        0.0000000000000000     
  0.12500000000000000       0.18750000000000000        0.0000000000000000     
  0.15625000000000000       0.18750000000000000        0.0000000000000000     
  0.18750000000000000       0.18750000000000000        0.0000000000000000     
  0.21875000000000000       0.18750000000000000        0.0000000000000000     
  0.25000000000000000       0.18750000000000000        0.0000000000000000     
  0.12500000000000000       0.21875000000000000        0.0000000000000000     
  0.15625000000000000       0.21875000000000000        0.0000000000000000     
  0.18750000000000000       0.21875000000000000        0.0000000000000000     
  0.21875000000000000       0.21875000000000000        0.0000000000000000     
  0.25000000000000000       0.21875000000000000        0.0000000000000000     
  0.12500000000000000       0.25000000000000000        0.0000000000000000     
  0.15625000000000000       0.25000000000000000        0.0000000000000000     
  0.18750000000000000       0.25000000000000000        0.0000000000000000     
  0.21875000000000000       0.25000000000000000        0.0000000000000000     
  0.25000000000000000       0.25000000000000000        0.0000000000000000     
  0.25000000000000000       0.12500000000000000        0.0000000000000000     
  0.28125000000000000       0.12500000000000000        0.0000000000000000     
  0.31250000000000000       0.12500000000000000        0.0000000000000000     
  0.34375000000000000       0.12500000000000000        0.0000000000000000     
  0.37500000000000000       0.12500000000000000        0.0000000000000000     
  0.25000000000000000       0.15625000000000000        0.0000000000000000     
  0.28125000000000000       0.15625000000000000        0.0000000000000000     
  0.31250000000000000       0.15625000000000000        0.0000000000000000     
  0.34375000000000000       0.15625000000000000        0.0000000000000000     
  0.37500000000000000       0.15625000000000000        0.0000000000000000     
  0.25000000000000000       0.18750000000000000        0.0000000000000000     
  0.28125000000000000       0.18750000000000000        0.0000000000000000     
  0.31250000000000000       0.18750000000000000        0.0000000000000000     
  0.34375000000000000       0.18750000000000000        0.0000000000000000     
  0.37500000000000000       0.18750000000000000        0.0000000000000000     
  0.25000000000000000       0.21875000000000000        0.0000000000000000     
  0.28125000000000000       0.21875000000000000        0.0000000000000000     
  0.31250000000000000       0.21875000000000000        0.0000000000000000     
  0.34375000000000000       0.21875000000000000        0.0000000000000000     
  0.37500000000000000       0.21875000000000000        0.0000000000000000     
  0.25000000000000000       0.25000000000000000        0.0000000000000000     
  0.28125000000000000       0.25000000000000000        0.0000000000000000     
  0.31250000000000000       0.25000000000000000        0.0000000000000000     
  0.34375000000000000       0.25000000000000000        0.0000000000000000     
  0.37500000000000000       0.25000000000000000        0.0000000000000000     
  0.37500000000000000       0.12500000000000000        0.0000000000000000     
  0.40625000000000000       0.12500000000000000        0.0000000000000000     
  0.43750000000000000       0.12500000000000000        0.0000000000000000     
  0.46875000000000000       0.12500000000000000        0.0000000000000000     
  0.50000000000000000       0.12500000000000000        0.0000000000000000     
  0.37500000000000000       0.15625000000000000        0.0000000000000000     
  0.40625000000000000       0.15625000000000000        0.0000000000000000     
  0.43750000000000000       0.15625000000000000        0.0000000000000000     
  0.46875000000000000       0.15625000000000000        0.0000000000000000     
  0.50000000000000000       0.15625000000000000        0.0000000000000000     
  0.37500000000000000       0.18750000000000000        0.0000000000000000     
  0.40625000000000000       0.18750000000000000        0.0000000000000000     
  0.43750000000000000       0.18750000000000000        0.0000000000000000     
  0.46875000000000000       0.18750000000000000        0.0000000000000000     
  0.50000000000000000       0.18750000000000000        0.0000000000000000     
  0.37500000000000000       0.21875000000000000        0.0000000000000000     
  0.40625000000000000       0.21875000000000000        0.0000000000000000     
  0.43750000000000000       0.21875000000000000        0.0000000000000000     
  0.46875000000000000       0.21875000000000000        0.0000000000000000     
  0.50000000000000000       0.21875000000000000        0.0000000000000000     
  0.37500000000000000       0.25000000000000000        0.0000000000000000     
  0.40625000000000000       0.25000000000000000        0.0000000000000000     
  0.43750000000000000       0.25000000000000000        0.0000000000000000     
  0.46875000000000000       0.25000000000000000        0.0000000000000000     
  0.50000000000000000       0.25000000000000000        0.0000000000000000     
  0.50000000000000000       0.12500000000000000        0.0000000000000000     
  0.53125000000000000       0.12500000000000000        0.0000000000000000     
  0.56250000000000000       0.12500000000000000        0.0000000000000000     
  0.59375000000000000       0.12500000000000000        0.0000000000000000     
  0.62500000000000000       0.12500000000000000        0.0000000000000000     
  0.50000000000000000       0.15625000000000000        0.0000000000000000     
  0.53125000000000000       0.15625000000000000        0.0000000000000000     
  0.56250000000000000       0.15625000000000000        0.0000000000000000     
  0.59375000000000000       0.15625000000000000        0.0000000000000000     
  0.62500000000000000       0.15625000000000000        0.0000000000000000     
  0.50000000000000000       0.18750000000000000        0.0000000000000000     
  0.53125000000000000       0.18750000000000000        0.0000000000000000     
  0.56250000000000000       0.18750000000000000        0.0000000000000000     
  0.59375000000000000       0.18750000000000000        0.0000000000000000     
  0.62500000000000000       0.18750000000000000        0.0000000000000000     
  0.50000000000000000       0.21875000000000000        0.0000000000000000     
  0.53125000000000000       0.21875000000000000        0.0000000000000000     
  0.56250000000000000       0.21875000000000000        0.0000000000000000     
  0.59375000000000000       0.21875000000000000        0.0000000000000000     
  0.62500000000000000       0.21875000000000000        0.0000000000000000     
  0.50000000000000000       0.25000000000000000        0.0000000000000000     
  0.53125000000000000       0.25000000000000000        0.0000000000000000     
  0.56250000000000000       0.25000000000000000        0.0000000000000000     
  0.59375000000000000       0.25000000000000000        0.0000000000000000     
  0.62500000000000000       0.25000000000000000        0.0000000000000000     
  0.62500000000000000       0.12500000000000000        0.0000000000000000     
  0.65625000000000000       0.12500000000000000        0.0000000000000000     
  0.68750000000000000       0.12500000000000000        0.0000000000000000     
  0.71875000000000000       0.12500000000000000        0.0000000000000000     
  0.75000000000000000       0.12500000000000000        0.0000000000000000     
  0.62500000000000000       0.15625000000000000        0.0000000000000000     
  0.65625000000000000       0.15625000000000000        0.0000000000000000     
  0.68750000000000000       0.15625000000000000        0.0000000000000000     
  0.71875000000000000       0.15625000000000000        0.0000000000000000     
  0.75000000000000000       0.15625000000000000        0.0000000000000000     
  0.62500000000000000       0.18750000000000000        0.0000000000000000     
  0.65625000000000000       0.18750000000000000        0.0000000000000000     
  0.68750000000000000       0.18750000000000000        0.0000000000000000     
  0.71875000000000000       0.18750000000000000        0.0000000000000000     
  0.75000000000000000       0.18750000000000000        0.0000000000000000     
  0.62500000000000000       0.21875000000000000        0.0000000000000000     
  0.65625000000000000       0.21875000000000000        0.0000000000000000     
  0.68750000000000000       0.21875000000000000        0.0000000000000000     
  0.71875000000000000       0.21875000000000000        0.0000000000000000     
  0.75000000000000000       0.21875000000000000        0.0000000000000000     
  0.62500000000000000       0.25000000000000000        0.0000000000000000     
  0.65625000000000000       0.25000000000000000        0.0000000000000000     
  0.68750000000000000       0.25000000000000000        0.0000000000000000     
  0.71875000000000000       0.25000000000000000        0.0000000000000000     
  0.75000000000000000       0.25000000000000000        0.0000000000000000     
  0.75000000000000000       0.12500000000000000        0.0000000000000000     
  0.78125000000000000       0.12500000000000000        0.0000000000000000     
  0.81250000000000000       0.12500000000000000        0.0000000000000000     
  0.84375000000000000       0.12500000000000000        0.0000000000000000     
  0.87500000000000000       0.12500000000000000        0.0000000000000000     
  0.75000000000000000       0.15625000000000000        0.0000000000000000     
  0.78125000000000000       0.15625000000000000        0.0000000000000000     
  0.81250000000000000       0.15625000000000000        0.0000000000000000     
  0.84375000000000000       0.15625000000000000        0.0000000000000000     
  0.87500000000000000       0.15625000000000000        0.0000000000000000     
  0.75000000000000000       0.18750000000000000        0.0000000000000000     
  0.78125000000000000       0.18750000000000000        0.0000000000000000     
  0.81250000000000000       0.18750000000000000        0.0000000000000000     
  0.84375000000000000       0.18750000000000000        0.0000000000000000     
  0.87500000000000000       0.18750000000000000        0.0000000000000000     
  0.75000000000000000       0.21875000000000000        0.0000000000000000     
  0.78125000000000000       0.21875000000000000        0.0000000000000000     
  0.81250000000000000       0.21875000000000000        0.0000000000000000     
  0.84375000000000000       0.21875000000000000        0.0000000000000000     
  0.87500000000000000       0.21875000000000000        0.0000000000000000     
  0.75000000000000000       0.25000000000000000        0.0000000000000000     
  0.78125000000000000       0.25000000000000000        0.0000000000000000     
  0.81250000000000000       0.25000000000000000        0.0000000000000000     
  0.84375000000000000       0.25000000000000000        0.0000000000000000     
  0.87500000000000000       0.25000000000000000        0.0000000000000000     
  0.87500000000000000       0.12500000000000000        0.0000000000000000     
  0.90625000000000000       0.12500000000000000        0.0000000000000000     
  0.93750000000000000       0.12500000000000000        0.0000000000000000     
  0.96875000000000000       0.12500000000000000        0.0000000000000000     
   1.0000000000000000       0.12500000000000000        0.0000000000000000     
  0.87500000000000000       0.15625000000000000        0.0000000000000000     
  0.90625000000000000       0.15625000000000000        0.0000000000000000     
  0.93750000000000000       0.15625000000000000        0.0000000000000000     
  0.96875000000000000       0.15625000000000000        0.0000000000000000     
   1.0000000000000000       0.15625000000000000        0.0000000000000000     
  0.87500000000000000       0.18750000000000000        0.0000000000000000     
  0.90625000000000000       0.18750000000000000        0.0000000000000000     
  0.93750000000000000       0.18750000000000000        0.0000000000000000     
  0.96875000000000000       0.18750000000000000        0.0000000000000000     
   1.0000000000000000       0.18750000000000000        0.0000000000000000     
  0.87500000000000000       0.21875000000000000        0.0000000000000000     
  0.90625000000000000       0.21875000000000000        0.0000000000000000     
  0.93750000000000000       0.21875000000000000        0.0000000000000000     
  0.96875000000000000       0.21875000000000000        0.0000000000000000     
   1.0000000000000000       0.21875000000000000        0.0000000000000000     
  0.87500000000000000       0.25000000000000000        0.0000000000000000     
  0.90625000000000000       0.25000000000000000        0.0000000000000000     
  0.93750000000000000       0.25000000000000000        0.0000000000000000     
  0.96875000000000000       0.25000000000000000        0.0000000000000000     
   1.0000000000000000       0.25000000000000000        0.0000000000000000     
   0.0000000000000000       0.25000000000000000        0.0000000000000000     
   3.1250000000000000E-002  0.25000000000000000        0.0000000000000000     
   6.2500000000000000E-002  0.25000000000000000        0.0000000000000000     
   9.3750000000000000E-002  0.25000000000000000        0.0000000000000000     
  0.12500000000000000       0.25000000000000000        0.0000000000000000     
   0.0000000000000000       0.28125000000000000        0.0000000000000000     
   3.1250000000000000E-002  0.28125000000000000        0.0000000000000000     
   6.2500000000000000E-002  0.28125000000000000        0.0000000000000000     
   9.3750000000000000E-002  0.28125000000000000        0.0000000000000000     
  0.12500000000000000       0.28125000000000000        0.0000000000000000     
   0.0000000000000000       0.31250000000000000        0.0000000000000000     
   3.1250000000000000E-002  0.31250000000000000        0.0000000000000000     
   6.2500000000000000E-002  0.31250000000000000        0.0000000000000000     
   9.3750000000000000E-002  0.31250000000000000        0.0000000000000000     
  0.12500000000000000       0.31250000000000000        0.0000000000000000     
   0.0000000000000000       0.34375000000000000        0.0000000000000000     
   3.1250000000000000E-002  0.34375000000000000        0.0000000000000000     
   6.2500000000000000E-002  0.34375000000000000        0.0000000000000000     
   9.3750000000000000E-002  0.34375000000000000        0.0000000000000000     
  0.12500000000000000       0.34375000000000000        0.0000000000000000     
   0.0000000000000000       0.37500000000000000        0.0000000000000000     
   3.1250000000000000E-002  0.37500000000000000        0.0000000000000000     
   6.2500000000000000E-002  0.37500000000000000        0.0000000000000000     
   9.3750000000000000E-002  0.37500000000000000        0.0000000000000000     
  0.12500000000000000       0.37500000000000000        0.0000000000000000     
  0.12500000000000000       0.25000000000000000        0.0000000000000000     
  0.15625000000000000       0.25000000000000000        0.0000000000000000     
  0.18750000000000000       0.25000000000000000        0.0000000000000000     
  0.21875000000000000       0.25000000000000000        0.0000000000000000     
  0.25000000000000000       0.25000000000000000        0.0000000000000000     
  0.12500000000000000       0.28125000000000000        0.0000000000000000     
  0.15625000000000000       0.28125000000000000        0.0000000000000000     
  0.18750000000000000       0.28125000000000000        0.0000000000000000     
  0.21875000000000000       0.28125000000000000        0.0000000000000000     
  0.25000000000000000       0.28125000000000000        0.0000000000000000     
  0.12500000000000000       0.31250000000000000        0.0000000000000000     
  0.15625000000000000       0.31250000000000000        0.0000000000000000     
  0.18750000000000000       0.31250000000000000        0.0000000000000000     
  0.21875000000000000       0.31250000000000000        0.0000000000000000     
  0.25000000000000000       0.31250000000000000        0.0000000000000000     
  0.12500000000000000       0.34375000000000000        0.0000000000000000     
  0.15625000000000000       0.34375000000000000        0.0000000000000000     
  0.18750000000000000       0.34375000000000000        0.0000000000000000     
  0.21875000000000000       0.34375000000000000        0.0000000000000000     
  0.25000000000000000       0.34375000000000000        0.0000000000000000     
  0.12500000000000000       0.37500000000000000        0.0000000000000000     
  0.15625000000000000       0.37500000000000000        0.0000000000000000     
  0.18750000000000000       0.37500000000000000        0.0000000000000000     
  0.21875000000000000       0.37500000000000000        0.0000000000000000     
  0.25000000000000000       0.37500000000000000        0.0000000000000000     
  0.25000000000000000       0.25000000000000000        0.0000000000000000     
  0.28125000000000000       0.25000000000000000        0.0000000000000000     
  0.31250000000000000       0.25000000000000000        0.0000000000000000     
  0.34375000000000000       0.25000000000000000        0.0000000000000000     
  0.37500000000000000       0.25000000000000000        0.0000000000000000     
  0.25000000000000000       0.28125000000000000        0.0000000000000000     
  0.28125000000000000       0.28125000000000000        0.0000000000000000     
  0.31250000000000000       0.28125000000000000        0.0000000000000000     
  0.34375000000000000       0.28125000000000000        0.0000000000000000     
  0.37500000000000000       0.28125000000000000        0.0000000000000000     
  0.25000000000000000       0.31250000000000000        0.0000000000000000     
  0.28125000000000000       0.31250000000000000        0.0000000000000000     
  0.31250000000000000       0.31250000000000000        0.0000000000000000     
  0.34375000000000000       0.31250000000000000        0.0000000000000000     
  0.37500000000000000       0.31250000000000000        0.0000000000000000     
  0.25000000000000000       0.34375000000000000        0.0000000000000000     
  0.28125000000000000       0.34375000000000000        0.0000000000000000     
  0.31250000000000000       0.34375000000000000        0.0000000000000000     
  0.34375000000000000       0.34375000000000000        0.0000000000000000     
  0.37500000000000000       0.34375000000000000        0.0000000000000000     
  0.25000000000000000       0.37500000000000000        0.0000000000000000     
  0.28125000000000000       0.37500000000000000        0.0000000000000000     
  0.31250000000000000       0.37500000000000000        0.0000000000000000     
  0.34375000000000000       0.37500000000000000        0.0000000000000000     
  0.37500000000000000       0.37500000000000000        0.0000000000000000     
  0.37500000000000000       0.25000000000000000        0.0000000000000000     
  0.40625000000000000       0.25000000000000000        0.0000000000000000     
  0.43750000000000000       0.25000000000000000        0.0000000000000000     
  0.46875000000000000       0.25000000000000000        0.0000000000000000     
  0.50000000000000000       0.25000000000000000        0.0000000000000000     
  0.37500000000000000       0.28125000000000000        0.0000000000000000     
  0.40625000000000000       0.28125000000000000        0.0000000000000000     
  0.43750000000000000       0.28125000000000000        0.0000000000000000     
  0.46875000000000000       0.28125000000000000        0.0000000000000000     
  0.50000000000000000       0.28125000000000000        0.0000000000000000     
  0.37500000000000000       0.31250000000000000        0.0000000000000000     
  0.40625000000000000       0.31250000000000000        0.0000000000000000     
  0.43750000000000000       0.31250000000000000        0.0000000000000000     
  0.46875000000000000       0.31250000000000000        0.0000000000000000     
  0.50000000000000000       0.31250000000000000        0.0000000000000000     
  0.37500000000000000       0.34375000000000000        0.0000000000000000     
  0.40625000000000000       0.34375000000000000        0.0000000000000000     
  0.43750000000000000       0.34375000000000000        0.0000000000000000     
  0.46875000000000000       0.34375000000000000        0.0000000000000000     
  0.50000000000000000       0.34375000000000000        0.0000000000000000     
  0.37500000000000000       0.37500000000000000        0.0000000000000000     
  0.40625000000000000       0.37500000000000000        0.0000000000000000     
  0.43750000000000000       0.37500000000000000        0.0000000000000000     
  0.46875000000000000       0.37500000000000000        0.0000000000000000     
  0.50000000000000000       0.37500000000000000        0.0000000000000000     
  0.50000000000000000       0.25000000000000000        0.0000000000000000     
  0.53125000000000000       0.25000000000000000        0.0000000000000000     
  0.56250000000000000       0.25000000000000000        0.0000000000000000     
  0.59375000000000000       0.25000000000000000        0.0000000000000000     
  0.62500000000000000       0.25000000000000000        0.0000000000000000     
  0.50000000000000000       0.28125000000000000        0.0000000000000000     
  0.53125000000000000       0.28125000000000000        0.0000000000000000     
  0.56250000000000000       0.28125000000000000        0.0000000000000000     
  0.59375000000000000       0.28125000000000000        0.0000000000000000     
  0.62500000000000000       0.28125000000000000        0.0000000000000000     
  0.50000000000000000       0.31250000000000000        0.0000000000000000     
  0.53125000000000000       0.31250000000000000        0.0000000000000000     
  0.56250000000000000       0.31250000000000000        0.0000000000000000     
  0.59375000000000000       0.31250000000000000        0.0000000000000000     
  0.62500000000000000       0.31250000000000000        0.0000000000000000     
  0.50000000000000000       0.34375000000000000        0.0000000000000000     
  0.53125000000000000       0.34375000000000000        0.0000000000000000     
  0.56250000000000000       0.34375000000000000        0.0000000000000000     
  0.59375000000000000       0.34375000000000000        0.0000000000000000     
  0.62500000000000000       0.34375000000000000        0.0000000000000000     
  0.50000000000000000       0.37500000000000000        0.0000000000000000     
  0.53125000000000000       0.37500000000000000        0.0000000000000000     
  0.56250000000000000       0.37500000000000000        0.0000000000000000     
  0.59375000000000000       0.37500000000000000        0.0000000000000000     
  0.62500000000000000       0.37500000000000000        0.0000000000000000     
  0.62500000000000000       0.25000000000000000        0.0000000000000000     
  0.65625000000000000       0.25000000000000000        0.0000000000000000     
  0.68750000000000000       0.25000000000000000        0.0000000000000000     
  0.71875000000000000       0.25000000000000000        0.0000000000000000     
  0.75000000000000000       0.25000000000000000        0.0000000000000000     
  0.62500000000000000       0.28125000000000000        0.0000000000000000     
  0.65625000000000000       0.28125000000000000        0.0000000000000000     
  0.68750000000000000       0.28125000000000000        0.0000000000000000     
  0.71875000000000000       0.28125000000000000        0.0000000000000000     
  0.75000000000000000       0.28125000000000000        0.0000000000000000     
  0.62500000000000000       0.31250000000000000        0.0000000000000000     
  0.65625000000000000       0.31250000000000000        0.0000000000000000     
  0.68750000000000000       0.31250000000000000        0.0000000000000000     
  0.71875000000000000       0.31250000000000000        0.0000000000000000     
  0.75000000000000000       0.31250000000000000        0.0000000000000000     
  0.62500000000000000       0.34375000000000000        0.0000000000000000     
  0.65625000000000000       0.34375000000000000        0.0000000000000000     
  0.68750000000000000       0.34375000000000000        0.0000000000000000     
  0.71875000000000000       0.34375000000000000        0.0000000000000000     
  0.75000000000000000       0.34375000000000000        0.0000000000000000     
  0.62500000000000000       0.37500000000000000        0.0000000000000000     
  0.65625000000000000       0.37500000000000000        0.0000000000000000     
  0.68750000000000000       0.37500000000000000        0.0000000000000000     
  0.71875000000000000       0.37500000000000000        0.0000000000000000     
  0.75000000000000000       0.37500000000000000        0.0000000000000000     
  0.75000000000000000       0.25000000000000000        0.0000000000000000     
  0.78125000000000000       0.25000000000000000        0.0000000000000000     
  0.81250000000000000       0.25000000000000000        0.0000000000000000     
  0.84375000000000000       0.25000000000000000        0.0000000000000000     
  0.87500000000000000       0.25000000000000000        0.0000000000000000     
  0.75000000000000000       0.28125000000000000        0.0000000000000000     
  0.78125000000000000       0.28125000000000000        0.0000000000000000     
  0.81250000000000000       0.28125000000000000        0.0000000000000000     
  0.84375000000000000       0.28125000000000000        0.0000000000000000     
  0.87500000000000000       0.28125000000000000        0.0000000000000000     
  0.75000000000000000       0.31250000000000000        0.0000000000000000     
  0.78125000000000000       0.31250000000000000        0.0000000000000000     
  0.81250000000000000       0.31250000000000000        0.0000000000000000     
  0.84375000000000000       0.31250000000000000        0.0000000000000000     
  0.87500000000000000       0.31250000000000000        0.0000000000000000     
  0.75000000000000000       0.34375000000000000        0.0000000000000000     
  0.78125000000000000       0.34375000000000000        0.0000000000000000     
  0.81250000000000000       0.34375000000000000        0.0000000000000000     
  0.84375000000000000       0.34375000000000000        0.0000000000000000     
  0.87500000000000000       0.34375000000000000        0.0000000000000000     
  0.75000000000000000       0.37500000000000000        0.0000000000000000     
  0.78125000000000000       0.37500000000000000        0.0000000000000000     
  0.81250000000000000       0.37500000000000000        0.0000000000000000     
  0.84375000000000000       0.37500000000000000        0.0000000000000000     
  0.87500000000000000       0.37500000000000000        0.0000000000000000     
  0.87500000000000000       0.25000000000000000        0.0000000000000000     
  0.90625000000000000       0.25000000000000000        0.0000000000000000     
  0.93750000000000000       0.25000000000000000        0.0000000000000000     
  0.96875000000000000       0.25000000000000000        0.0000000000000000     
   1.0000000000000000       0.25000000000000000        0.0000000000000000     
  0.87500000000000000       0.28125000000000000        0.0000000000000000     
  0.90625000000000000       0.28125000000000000        0.0000000000000000     
  0.93750000000000000       0.28125000000000000        0.0000000000000000     
  0.96875000000000000       0.28125000000000000        0.0000000000000000     
   1.0000000000000000       0.28125000000000000        0.0000000000000000     
  0.87500000000000000       0.31250000000000000        0.0000000000000000     
  0.90625000000000000       0.31250000000000000        0.0000000000000000     
  0.93750000000000000       0.31250000000000000        0.0000000000000000     
  0.96875000000000000       0.31250000000000000        0.0000000000000000     
   1.0000000000000000       0.31250000000000000        0.0000000000000000     
  0.87500000000000000       0.34375000000000000        0.0000000000000000     
  0.90625000000000000       0.34375000000000000        0.0000000000000000     
  0.93750000000000000       0.34375000000000000        0.0000000000000000     
  0.96875000000000000       0.34375000000000000        0.0000000000000000     
   1.0000000000000000       0.34375000000000000        0.0000000000000000     
  0.87500000000000000       0.37500000000000000        0.0000000000000000     
  0.90625000000000000       0.37500000000000000        0.0000000000000000     
  0.93750000000000000       0.37500000000000000        0.0000000000000000     
  0.96875000000000000       0.37500000000000000        0.0000000000000000     
   1.0000000000000000       0.37500000000000000        0.0000000000000000     
   0.0000000000000000       0.37500000000000000        0.0000000000000000     
   3.1250000000000000E-002  0.37500000000000000        0.0000000000000000     
   6.2500000000000000E-002  0.37500000000000000        0.0000000000000000     
   9.3750000000000000E-002  0.37500000000000000        0.0000000000000000     
  0.12500000000000000       0.37500000000000000        0.0000000000000000     
   0.0000000000000000       0.40625000000000000        0.0000000000000000     
   3.1250000000000000E-002  0.40625000000000000        0.0000000000000000     
   6.2500000000000000E-002  0.40625000000000000        0.0000000000000000     
   9.3750000000000000E-002  0.40625000000000000        0.0000000000000000     
  0.12500000000000000       0.40625000000000000        0.0000000000000000     
   0.0000000000000000       0.43750000000000000        0.0000000000000000     
   3.1250000000000000E-002  0.43750000000000000        0.0000000000000000     
   6.2500000000000000E-002  0.43750000000000000        0.0000000000000000     
   9.3750000000000000E-002  0.43750000000000000        0.0000000000000000     
  0.12500000000000000       0.43750000000000000        0.0000000000000000     
   0.0000000000000000       0.46875000000000000        0.0000000000000000     
   3.1250000000000000E-002  0.46875000000000000        0.0000000000000000     
   6.2500000000000000E-002  0.46875000000000000        0.0000000000000000     
   9.3750000000000000E-002  0.46875000000000000        0.0000000000000000     
  0.12500000000000000       0.46875000000000000        0.0000000000000000     
   0.0000000000000000       0.50000000000000000        0.0000000000000000     
   3.1250000000000000E-002  0.50000000000000000        0.0000000000000000     
   6.2500000000000000E-002  0.50000000000000000        0.0000000000000000     
   9.3750000000000000E-002  0.50000000000000000        0.0000000000000000     
  0.12500000000000000       0.50000000000000000        0.0000000000000000     
  0.12500000000000000       0.37500000000000000        0.0000000000000000     
  0.15625000000000000       0.37500000000000000        0.0000000000000000     
  0.18750000000000000       0.37500000000000000        0.0000000000000000     
  0.21875000000000000       0.37500000000000000        0.0000000000000000     
  0.25000000000000000       0.37500000000000000        0.0000000000000000     
  0.12500000000000000       0.40625000000000000        0.0000000000000000     
  0.15625000000000000       0.40625000000000000        0.0000000000000000     
  0.18750000000000000       0.40625000000000000        0.0000000000000000     
  0.21875000000000000       0.40625000000000000        0.0000000000000000     
  0.25000000000000000       0.40625000000000000        0.0000000000000000     
  0.12500000000000000       0.43750000000000000        0.0000000000000000     
  0.15625000000000000       0.43750000000000000        0.0000000000000000     
  0.18750000000000000       0.43750000000000000        0.0000000000000000     
  0.21875000000000000       0.43750000000000000        0.0000000000000000     
  0.25000000000000000       0.43750000000000000        0.0000000000000000     
  0.12500000000000000       0.46875000000000000        0.0000000000000000     
  0.15625000000000000       0.46875000000000000        0.0000000000000000     
  0.18750000000000000       0.46875000000000000        0.0000000000000000     
  0.21875000000000000       0.46875000000000000        0.0000000000000000     
  0.25000000000000000       0.46875000000000000        0.0000000000000000     
  0.12500000000000000       0.50000000000000000        0.0000000000000000     
  0.15625000000000000       0.50000000000000000        0.0000000000000000     
  0.18750000000000000       0.50000000000000000        0.0000000000000000     
  0.21875000000000000       0.50000000000000000        0.0000000000000000     
  0.25000000000000000       0.50000000000000000        0.0000000000000000     
  0.25000000000000000       0.37500000000000000        0.0000000000000000     
  0.28125000000000000       0.37500000000000000        0.0000000000000000     
  0.31250000000000000       0.37500000000000000        0.0000000000000000     
  0.34375000000000000       0.37500000000000000        0.0000000000000000     
  0.37500000000000000       0.37500000000000000        0.0000000000000000     
  0.25000000000000000       0.40625000000000000        0.0000000000000000     
  0.28125000000000000       0.40625000000000000        0.0000000000000000     
  0.31250000000000000       0.40625000000000000        0.0000000000000000     
  0.34375000000000000       0.40625000000000000        0.0000000000000000     
  0.37500000000000000       0.40625000000000000        0.0000000000000000     
  0.25000000000000000       0.43750000000000000        0.0000000000000000     
  0.28125000000000000       0.43750000000000000        0.0000000000000000     
  0.31250000000000000       0.43750000000000000        0.0000000000000000     
  0.34375000000000000       0.43750000000000000        0.0000000000000000     
  0.37500000000000000       0.43750000000000000        0.0000000000000000     
  0.25000000000000000       0.46875000000000000        0.0000000000000000     
  0.28125000000000000       0.46875000000000000        0.0000000000000000     
  0.31250000000000000       0.46875000000000000        0.0000000000000000     
  0.34375000000000000       0.46875000000000000        0.0000000000000000     
  0.37500000000000000       0.46875000000000000        0.0000000000000000     
  0.25000000000000000       0.50000000000000000        0.0000000000000000     
  0.28125000000000000       0.50000000000000000        0.0000000000000000     
  0.31250000000000000       0.50000000000000000        0.0000000000000000     
  0.34375000000000000       0.50000000000000000        0.0000000000000000     
  0.37500000000000000       0.50000000000000000        0.0000000000000000     
  0.37500000000000000       0.37500000000000000        0.0000000000000000     
  0.40625000000000000       0.37500000000000000        0.0000000000000000     
  0.43750000000000000       0.37500000000000000        0.0000000000000000     
  0.46875000000000000       0.37500000000000000        0.0000000000000000     
  0.50000000000000000       0.37500000000000000        0.0000000000000000     
  0.37500000000000000       0.40625000000000000        0.0000000000000000     
  0.40625000000000000       0.40625000000000000        0.0000000000000000     
  0.43750000000000000       0.40625000000000000        0.0000000000000000     
  0.46875000000000000       0.40625000000000000        0.0000000000000000     
  0.50000000000000000       0.40625000000000000        0.0000000000000000     
  0.37500000000000000       0.43750000000000000        0.0000000000000000     
  0.40625000000000000       0.43750000000000000        0.0000000000000000     
  0.43750000000000000       0.43750000000000000        0.0000000000000000     
  0.46875000000000000       0.43750000000000000        0.0000000000000000     
  0.50000000000000000       0.43750000000000000        0.0000000000000000     
  0.37500000000000000       0.46875000000000000        0.0000000000000000     
  0.40625000000000000       0.46875000000000000        0.0000000000000000     
  0.43750000000000000       0.46875000000000000        0.0000000000000000     
  0.46875000000000000       0.46875000000000000        0.0000000000000000     
  0.50000000000000000       0.46875000000000000        0.0000000000000000     
  0.37500000000000000       0.50000000000000000        0.0000000000000000     
  0.40625000000000000       0.50000000000000000        0.0000000000000000     
  0.43750000000000000       0.50000000000000000        0.0000000000000000     
  0.46875000000000000       0.50000000000000000        0.0000000000000000     
  0.50000000000000000       0.50000000000000000        0.0000000000000000     
  0.50000000000000000       0.37500000000000000        0.0000000000000000     
  0.53125000000000000       0.37500000000000000        0.0000000000000000     
  0.56250000000000000       0.37500000000000000        0.0000000000000000     
  0.59375000000000000       0.37500000000000000        0.0000000000000000     
  0.62500000000000000       0.37500000000000000        0.0000000000000000     
  0.50000000000000000       0.40625000000000000        0.0000000000000000     
  0.53125000000000000       0.40625000000000000        0.0000000000000000     
  0.56250000000000000       0.40625000000000000        0.0000000000000000     
  0.59375000000000000       0.40625000000000000        0.0000000000000000     
  0.62500000000000000       0.40625000000000000        0.0000000000000000     
  0.50000000000000000       0.43750000000000000        0.0000000000000000     
  0.53125000000000000       0.43750000000000000        0.0000000000000000     
  0.56250000000000000       0.43750000000000000        0.0000000000000000     
  0.59375000000000000       0.43750000000000000        0.0000000000000000     
  0.62500000000000000       0.43750000000000000        0.0000000000000000     
  0.50000000000000000       0.46875000000000000        0.0000000000000000     
  0.53125000000000000       0.46875000000000000        0.0000000000000000     
  0.56250000000000000       0.46875000000000000        0.0000000000000000     
  0.59375000000000000       0.46875000000000000        0.0000000000000000     
  0.62500000000000000       0.46875000000000000        0.0000000000000000     
  0.50000000000000000       0.50000000000000000        0.0000000000000000     
  0.53125000000000000       0.50000000000000000        0.0000000000000000     
  0.56250000000000000       0.50000000000000000        0.0000000000000000     
  0.59375000000000000       0.50000000000000000        0.0000000000000000     
  0.62500000000000000       0.50000000000000000        0.0000000000000000     
  0.62500000000000000       0.37500000000000000        0.0000000000000000     
  0.65625000000000000       0.37500000000000000        0.0000000000000000     
  0.68750000000000000       0.37500000000000000        0.0000000000000000     
  0.71875000000000000       0.37500000000000000        0.0000000000000000     
  0.75000000000000000       0.37500000000000000        0.0000000000000000     
  0.62500000000000000       0.40625000000000000        0.0000000000000000     
  0.65625000000000000       0.40625000000000000        0.0000000000000000     
  0.68750000000000000       0.40625000000000000        0.0000000000000000     
  0.71875000000000000       0.40625000000000000        0.0000000000000000     
  0.75000000000000000       0.40625000000000000        0.0000000000000000     
  0.62500000000000000       0.43750000000000000        0.0000000000000000     
  0.65625000000000000       0.43750000000000000        0.0000000000000000     
  0.68750000000000000       0.43750000000000000        0.0000000000000000     
  0.71875000000000000       0.43750000000000000        0.0000000000000000     
  0.75000000000000000       0.43750000000000000        0.0000000000000000     
  0.62500000000000000       0.46875000000000000        0.0000000000000000     
  0.65625000000000000       0.46875000000000000        0.0000000000000000     
  0.68750000000000000       0.46875000000000000        0.0000000000000000     
  0.71875000000000000       0.46875000000000000        0.0000000000000000     
  0.75000000000000000       0.46875000000000000        0.0000000000000000     
  0.62500000000000000       0.50000000000000000        0.0000000000000000     
  0.65625000000000000       0.50000000000000000        0.0000000000000000     
  0.68750000000000000       0.50000000000000000        0.0000000000000000     
  0.71875000000000000       0.50000000000000000        0.0000000000000000     
  0.75000000000000000       0.50000000000000000        0.0000000000000000     
  0.75000000000000000       0.37500000000000000        0.0000000000000000     
  0.78125000000000000       0.37500000000000000        0.0000000000000000     
  0.81250000000000000       0.37500000000000000        0.0000000000000000     
  0.84375000000000000       0.37500000000000000        0.0000000000000000     
  0.87500000000000000       0.37500000000000000        0.0000000000000000     
  0.75000000000000000       0.40625000000000000        0.0000000000000000     
  0.78125000000000000       0.40625000000000000        0.0000000000000000     
  0.81250000000000000       0.40625000000000000        0.0000000000000000     
  0.84375000000000000       0.40625000000000000        0.0000000000000000     
  0.87500000000000000       0.40625000000000000        0.0000000000000000     
  0.75000000000000000       0.43750000000000000        0.0000000000000000     
  0.78125000000000000       0.43750000000000000        0.0000000000000000     
  0.81250000000000000       0.43750000000000000        0.0000000000000000     
  0.84375000000000000       0.43750000000000000        0.0000000000000000     
  0.87500000000000000       0.43750000000000000        0.0000000000000000     
  0.75000000000000000       0.46875000000000000        0.0000000000000000     
  0.78125000000000000       0.46875000000000000        0.0000000000000000     
  0.81250000000000000       0.46875000000000000        0.0000000000000000     
  0.84375000000000000       0.46875000000000000        0.0000000000000000     
  0.87500000000000000       0.46875000000000000        0.0000000000000000     
  0.75000000000000000       0.50000000000000000        0.0000000000000000     
  0.78125000000000000       0.50000000000000000        0.0000000000000000     
  0.81250000000000000       0.50000000000000000        0.0000000000000000     
  0.84375000000000000       0.50000000000000000        0.0000000000000000     
  0.87500000000000000       0.50000000000000000        0.0000000000000000     
  0.87500000000000000       0.37500000000000000        0.0000000000000000     
  0.90625000000000000       0.37500000000000000        0.0000000000000000     
  0.93750000000000000       0.37500000000000000        0.0000000000000000     
  0.96875000000000000       0.37500000000000000        0.0000000000000000     
   1.0000000000000000       0.37500000000000000        0.0000000000000000     
  0.87500000000000000       0.40625000000000000        0.0000000000000000     
  0.90625000000000000       0.40625000000000000        0.0000000000000000     
  0.93750000000000000       0.40625000000000000        0.0000000000000000     
  0.96875000000000000       0.40625000000000000        0.0000000000000000     
   1.0000000000000000       0.40625000000000000        0.0000000000000000     
  0.87500000000000000       0.43750000000000000        0.0000000000000000     
  0.90625000000000000       0.43750000000000000        0.0000000000000000     
  0.93750000000000000       0.43750000000000000        0.0000000000000000     
  0.96875000000000000       0.43750000000000000        0.0000000000000000     
   1.0000000000000000       0.43750000000000000        0.0000000000000000     
  0.87500000000000000       0.46875000000000000        0.0000000000000000     
  0.90625000000000000       0.46875000000000000        0.0000000000000000     
  0.93750000000000000       0.46875000000000000        0.0000000000000000     
  0.96875000000000000       0.46875000000000000        0.0000000000000000     
   1.0000000000000000       0.46875000000000000        0.0000000000000000     
  0.87500000000000000       0.50000000000000000        0.0000000000000000     
  0.90625000000000000       0.50000000000000000        0.0000000000000000     
  0.93750000000000000       0.50000000000000000        0.0000000000000000     
  0.96875000000000000       0.50000000000000000        0.0000000000000000     
   1.0000000000000000       0.50000000000000000        0.0000000000000000     
   0.0000000000000000       0.50000000000000000        0.0000000000000000     
   3.1250000000000000E-002  0.50000000000000000        0.0000000000000000     
   6.2500000000000000E-002  0.50000000000000000        0.0000000000000000     
   9.3750000000000000E-002  0.50000000000000000        0.0000000000000000     
  0.12500000000000000       0.50000000000000000        0.0000000000000000     
   0.0000000000000000       0.53125000000000000        0.0000000000000000     
   3.1250000000000000E-002  0.53125000000000000        0.0000000000000000     
   6.2500000000000000E-002  0.53125000000000000        0.0000000000000000     
   9.3750000000000000E-002  0.53125000000000000        0.0000000000000000     
  0.12500000000000000       0.53125000000000000        0.0000000000000000     
   0.0000000000000000       0.56250000000000000        0.0000000000000000     
   3.1250000000000000E-002  0.56250000000000000        0.0000000000000000     
   6.2500000000000000E-002  0.56250000000000000        0.0000000000000000     
   9.3750000000000000E-002  0.56250000000000000        0.0000000000000000     
  0.12500000000000000       0.56250000000000000        0.0000000000000000     
   0.0000000000000000       0.59375000000000000        0.0000000000000000     
   3.1250000000000000E-002  0.59375000000000000        0.0000000000000000     
   6.2500000000000000E-002  0.59375000000000000        0.0000000000000000     
   9.3750000000000000E-002  0.59375000000000000        0.0000000000000000     
  0.12500000000000000       0.59375000000000000        0.0000000000000000     
   0.0000000000000000       0.62500000000000000        0.0000000000000000     
   3.1250000000000000E-002  0.62500000000000000        0.0000000000000000     
   6.2500000000000000E-002  0.62500000000000000        0.0000000000000000     
   9.3750000000000000E-002  0.62500000000000000        0.0000000000000000     
  0.12500000000000000       0.62500000000000000        0.0000000000000000     
  0.12500000000000000       0.50000000000000000        0.0000000000000000     
  0.15625000000000000       0.50000000000000000        0.0000000000000000     
  0.18750000000000000       0.50000000000000000        0.0000000000000000     
  0.21875000000000000       0.50000000000000000        0.0000000000000000     
  0.25000000000000000       0.50000000000000000        0.0000000000000000     
  0.12500000000000000       0.53125000000000000        0.0000000000000000     
  0.15625000000000000       0.53125000000000000        0.0000000000000000     
  0.18750000000000000       0.53125000000000000        0.0000000000000000     
  0.21875000000000000       0.53125000000000000        0.0000000000000000     
  0.25000000000000000       0.53125000000000000        0.0000000000000000     
  0.12500000000000000       0.56250000000000000        0.0000000000000000     
  0.15625000000000000       0.56250000000000000        0.0000000000000000     
  0.18750000000000000       0.56250000000000000        0.0000000000000000     
  0.21875000000000000       0.56250000000000000        0.0000000000000000     
  0.25000000000000000       0.56250000000000000        0.0000000000000000     
  0.12500000000000000       0.59375000000000000        0.0000000000000000     
  0.15625000000000000       0.59375000000000000        0.0000000000000000     
  0.18750000000000000       0.59375000000000000        0.0000000000000000     
  0.21875000000000000       0.59375000000000000        0.0000000000000000     
  0.25000000000000000       0.59375000000000000        0.0000000000000000     
  0.12500000000000000       0.62500000000000000        0.0000000000000000     
  0.15625000000000000       0.62500000000000000        0.0000000000000000     
  0.18750000000000000       0.62500000000000000        0.0000000000000000     
  0.21875000000000000       0.62500000000000000        0.0000000000000000     
  0.25000000000000000       0.62500000000000000        0.0000000000000000     
  0.25000000000000000       0.50000000000000000        0.0000000000000000     
  0.28125000000000000       0.50000000000000000        0.0000000000000000     
  0.31250000000000000       0.50000000000000000        0.0000000000000000     
  0.34375000000000000       0.50000000000000000        0.0000000000000000     
  0.37500000000000000       0.50000000000000000        0.0000000000000000     
  0.25000000000000000       0.53125000000000000        0.0000000000000000     
  0.28125000000000000       0.53125000000000000        0.0000000000000000     
  0.31250000000000000       0.53125000000000000        0.0000000000000000     
  0.34375000000000000       0.53125000000000000        0.0000000000000000     
  0.37500000000000000       0.53125000000000000        0.0000000000000000     
  0.25000000000000000       0.56250000000000000        0.0000000000000000     
  0.28125000000000000       0.56250000000000000        0.0000000000000000     
  0.31250000000000000       0.56250000000000000        0.0000000000000000     
  0.34375000000000000       0.56250000000000000        0.0000000000000000     
  0.37500000000000000       0.56250000000000000        0.0000000000000000     
  0.25000000000000000       0.59375000000000000        0.0000000000000000     
  0.28125000000000000       0.59375000000000000        0.0000000000000000     
  0.31250000000000000       0.59375000000000000        0.0000000000000000     
  0.34375000000000000       0.59375000000000000        0.0000000000000000     
  0.37500000000000000       0.59375000000000000        0.0000000000000000     
  0.25000000000000000       0.62500000000000000        0.0000000000000000     
  0.28125000000000000       0.62500000000000000        0.0000000000000000     
  0.31250000000000000       0.62500000000000000        0.0000000000000000     
  0.34375000000000000       0.62500000000000000        0.0000000000000000     
  0.37500000000000000       0.62500000000000000        0.0000000000000000     
  0.37500000000000000       0.50000000000000000        0.0000000000000000     
  0.40625000000000000       0.50000000000000000        0.0000000000000000     
  0.43750000000000000       0.50000000000000000        0.0000000000000000     
  0.46875000000000000       0.50000000000000000        0.0000000000000000     
  0.50000000000000000       0.50000000000000000        0.0000000000000000     
  0.37500000000000000       0.53125000000000000        0.0000000000000000     
  0.40625000000000000       0.53125000000000000        0.0000000000000000     
  0.43750000000000000       0.53125000000000000        0.0000000000000000     
  0.46875000000000000       0.53125000000000000        0.0000000000000000     
  0.50000000000000000       0.53125000000000000        0.0000000000000000     
  0.37500000000000000       0.56250000000000000        0.0000000000000000     
  0.40625000000000000       0.56250000000000000        0.0000000000000000     
  0.43750000000000000       0.56250000000000000        0.0000000000000000     
  0.46875000000000000       0.56250000000000000        0.0000000000000000     
  0.50000000000000000       0.56250000000000000        0.0000000000000000     
  0.37500000000000000       0.59375000000000000        0.0000000000000000     
  0.40625000000000000       0.59375000000000000        0.0000000000000000     
  0.43750000000000000       0.59375000000000000        0.0000000000000000     
  0.46875000000000000       0.59375000000000000        0.0000000000000000     
  0.50000000000000000       0.59375000000000000        0.0000000000000000     
  0.37500000000000000       0.62500000000000000        0.0000000000000000     
  0.40625000000000000       0.62500000000000000        0.0000000000000000     
  0.43750000000000000       0.62500000000000000        0.0000000000000000     
  0.46875000000000000       0.62500000000000000        0.0000000000000000     
  0.50000000000000000       0.62500000000000000        0.0000000000000000     
  0.50000000000000000       0.50000000000000000        0.0000000000000000     
  0.53125000000000000       0.50000000000000000        0.0000000000000000     
  0.56250000000000000       0.50000000000000000        0.0000000000000000     
  0.59375000000000000       0.50000000000000000        0.0000000000000000     
  0.62500000000000000       0.50000000000000000        0.0000000000000000     
  0.50000000000000000       0.53125000000000000        0.0000000000000000     
  0.53125000000000000       0.53125000000000000        0.0000000000000000     
  0.56250000000000000       0.53125000000000000        0.0000000000000000     
  0.59375000000000000       0.53125000000000000        0.0000000000000000     
  0.62500000000000000       0.53125000000000000        0.0000000000000000     
  0.50000000000000000       0.56250000000000000        0.0000000000000000     
  0.53125000000000000       0.56250000000000000        0.0000000000000000     
  0.56250000000000000       0.56250000000000000        0.0000000000000000     
  0.59375000000000000       0.56250000000000000        0.0000000000000000     
  0.62500000000000000       0.56250000000000000        0.0000000000000000     
  0.50000000000000000       0.59375000000000000        0.0000000000000000     
  0.53125000000000000       0.59375000000000000        0.0000000000000000     
  0.56250000000000000       0.59375000000000000        0.0000000000000000     
  0.59375000000000000       0.59375000000000000        0.0000000000000000     
  0.62500000000000000       0.59375000000000000        0.0000000000000000     
  0.50000000000000000       0.62500000000000000        0.0000000000000000     
  0.53125000000000000       0.62500000000000000        0.0000000000000000     
  0.56250000000000000       0.62500000000000000        0.0000000000000000     
  0.59375000000000000       0.62500000000000000        0.0000000000000000     
  0.62500000000000000       0.62500000000000000        0.0000000000000000     
  0.62500000000000000       0.50000000000000000        0.0000000000000000     
  0.65625000000000000       0.50000000000000000        0.0000000000000000     
  0.68750000000000000       0.50000000000000000        0.0000000000000000     
  0.71875000000000000       0.50000000000000000        0.0000000000000000     
  0.75000000000000000       0.50000000000000000        0.0000000000000000     
  0.62500000000000000       0.53125000000000000        0.0000000000000000     
  0.65625000000000000       0.53125000000000000        0.0000000000000000     
  0.68750000000000000       0.53125000000000000        0.0000000000000000     
  0.71875000000000000       0.53125000000000000        0.0000000000000000     
  0.75000000000000000       0.53125000000000000        0.0000000000000000     
  0.62500000000000000       0.56250000000000000        0.0000000000000000     
  0.65625000000000000       0.56250000000000000        0.0000000000000000     
  0.68750000000000000       0.56250000000000000        0.0000000000000000     
  0.71875000000000000       0.56250000000000000        0.0000000000000000     
  0.75000000000000000       0.56250000000000000        0.0000000000000000     
  0.62500000000000000       0.59375000000000000        0.0000000000000000     
  0.65625000000000000       0.59375000000000000        0.0000000000000000     
  0.68750000000000000       0.59375000000000000        0.0000000000000000     
  0.71875000000000000       0.59375000000000000        0.0000000000000000     
  0.75000000000000000       0.59375000000000000        0.0000000000000000     
  0.62500000000000000       0.62500000000000000        0.0000000000000000     
  0.65625000000000000       0.62500000000000000        0.0000000000000000     
  0.68750000000000000       0.62500000000000000        0.0000000000000000     
  0.71875000000000000       0.62500000000000000        0.0000000000000000     
  0.75000000000000000       0.62500000000000000        0.0000000000000000     
  0.75000000000000000       0.50000000000000000        0.0000000000000000     
  0.78125000000000000       0.50000000000000000        0.0000000000000000     
  0.81250000000000000       0.50000000000000000        0.0000000000000000     
  0.84375000000000000       0.50000000000000000        0.0000000000000000     
  0.87500000000000000       0.50000000000000000        0.0000000000000000     
  0.75000000000000000       0.53125000000000000        0.0000000000000000     
  0.78125000000000000       0.53125000000000000        0.0000000000000000     
  0.81250000000000000       0.53125000000000000        0.0000000000000000     
  0.84375000000000000       0.53125000000000000        0.0000000000000000     
  0.87500000000000000       0.53125000000000000        0.0000000000000000     
  0.75000000000000000       0.56250000000000000        0.0000000000000000     
  0.78125000000000000       0.56250000000000000        0.0000000000000000     
  0.81250000000000000       0.56250000000000000        0.0000000000000000     
  0.84375000000000000       0.56250000000000000        0.0000000000000000     
  0.87500000000000000       0.56250000000000000        0.0000000000000000     
  0.75000000000000000       0.59375000000000000        0.0000000000000000     
  0.78125000000000000       0.59375000000000000        0.0000000000000000     
  0.81250000000000000       0.59375000000000000        0.0000000000000000     
  0.84375000000000000       0.59375000000000000        0.0000000000000000     
  0.87500000000000000       0.59375000000000000        0.0000000000000000     
  0.75000000000000000       0.62500000000000000        0.0000000000000000     
  0.78125000000000000       0.62500000000000000        0.0000000000000000     
  0.81250000000000000       0.62500000000000000        0.0000000000000000     
  0.84375000000000000       0.62500000000000000        0.0000000000000000     
  0.87500000000000000       0.62500000000000000        0.0000000000000000     
  0.87500000000000000       0.50000000000000000        0.0000000000000000     
  0.90625000000000000       0.50000000000000000        0.0000000000000000     
  0.93750000000000000       0.50000000000000000        0.0000000000000000     
  0.96875000000000000       0.50000000000000000        0.0000000000000000     
   1.0000000000000000       0.50000000000000000        0.0000000000000000     
  0.87500000000000000       0.53125000000000000        0.0000000000000000     
  0.90625000000000000       0.53125000000000000        0.0000000000000000     
  0.93750000000000000       0.53125000000000000        0.0000000000000000     
  0.96875000000000000       0.53125000000000000        0.0000000000000000     
   1.0000000000000000       0.53125000000000000        0.0000000000000000     
  0.87500000000000000       0.56250000000000000        0.0000000000000000     
  0.90625000000000000       0.56250000000000000        0.0000000000000000     
  0.93750000000000000       0.56250000000000000        0.0000000000000000     
  0.96875000000000000       0.56250000000000000        0.0000000000000000     
   1.0000000000000000       0.56250000000000000        0.0000000000000000     
  0.87500000000000000       0.59375000000000000        0.0000000000000000     
  0.90625000000000000       0.59375000000000000        0.0000000000000000     
  0.93750000000000000       0.59375000000000000        0.0000000000000000     
  0.96875000000000000       0.59375000000000000        0.0000000000000000     
   1.0000000000000000       0.59375000000000000        0.0000000000000000     
  0.87500000000000000       0.62500000000000000        0.0000000000000000     
  0.90625000000000000       0.62500000000000000        0.0000000000000000     
  0.93750000000000000       0.62500000000000000        0.0000000000000000     
  0.96875000000000000       0.62500000000000000        0.0000000000000000     
   1.0000000000000000       0.62500000000000000        0.0000000000000000     
   0.0000000000000000       0.62500000000000000        0.0000000000000000     
   3.1250000000000000E-002  0.62500000000000000        0.0000000000000000     
   6.2500000000000000E-002  0.62500000000000000        0.0000000000000000     
   9.3750000000000000E-002  0.62500000000000000        0.0000000000000000     
  0.12500000000000000       0.62500000000000000        0.0000000000000000     
   0.0000000000000000       0.65625000000000000        0.0000000000000000     
   3.1250000000000000E-002  0.65625000000000000        0.0000000000000000     
   6.2500000000000000E-002  0.65625000000000000        0.0000000000000000     
   9.3750000000000000E-002  0.65625000000000000        0.0000000000000000     
  0.12500000000000000       0.65625000000000000        0.0000000000000000     
   0.0000000000000000       0.68750000000000000        0.0000000000000000     
   3.1250000000000000E-002  0.68750000000000000        0.0000000000000000     
   6.2500000000000000E-002  0.68750000000000000        0.0000000000000000     
   9.3750000000000000E-002  0.68750000000000000        0.0000000000000000     
  0.12500000000000000       0.68750000000000000        0.0000000000000000     
   0.0000000000000000       0.71875000000000000        0.0000000000000000     
   3.1250000000000000E-002  0.71875000000000000        0.0000000000000000     
   6.2500000000000000E-002  0.71875000000000000        0.0000000000000000     
   9.3750000000000000E-002  0.71875000000000000        0.0000000000000000     
  0.12500000000000000       0.71875000000000000        0.0000000000000000     
   0.0000000000000000       0.75000000000000000        0.0000000000000000     
   3.1250000000000000E-002  0.75000000000000000        0.0000000000000000     
   6.2500000000000000E-002  0.75000000000000000        0.0000000000000000     
   9.3750000000000000E-002  0.75000000000000000        0.0000000000000000     
  0.12500000000000000       0.75000000000000000        0.0000000000000000     
  0.12500000000000000       0.62500000000000000        0.0000000000000000     
  0.15625000000000000       0.62500000000000000        0.0000000000000000     
  0.18750000000000000       0.62500000000000000        0.0000000000000000     
  0.21875000000000000       0.62500000000000000        0.0000000000000000     
  0.25000000000000000       0.62500000000000000        0.0000000000000000     
  0.12500000000000000       0.65625000000000000        0.0000000000000000     
  0.15625000000000000       0.65625000000000000        0.0000000000000000     
  0.18750000000000000       0.65625000000000000        0.0000000000000000     
  0.21875000000000000       0.65625000000000000        0.0000000000000000     
  0.25000000000000000       0.65625000000000000        0.0000000000000000     
  0.12500000000000000       0.68750000000000000        0.0000000000000000     
  0.15625000000000000       0.68750000000000000        0.0000000000000000     
  0.18750000000000000       0.68750000000000000        0.0000000000000000     
  0.21875000000000000       0.68750000000000000        0.0000000000000000     
  0.25000000000000000       0.68750000000000000        0.0000000000000000     
  0.12500000000000000       0.71875000000000000        0.0000000000000000     
  0.15625000000000000       0.71875000000000000        0.0000000000000000     
  0.18750000000000000       0.71875000000000000        0.0000000000000000     
  0.21875000000000000       0.71875000000000000        0.0000000000000000     
  0.25000000000000000       0.71875000000000000        0.0000000000000000     
  0.12500000000000000       0.75000000000000000        0.0000000000000000     
  0.15625000000000000       0.75000000000000000        0.0000000000000000     
  0.18750000000000000       0.75000000000000000        0.0000000000000000     
  0.21875000000000000       0.75000000000000000        0.0000000000000000     
  0.25000000000000000       0.75000000000000000        0.0000000000000000     
  0.25000000000000000       0.62500000000000000        0.0000000000000000     
  0.28125000000000000       0.62500000000000000        0.0000000000000000     
  0.31250000000000000       0.62500000000000000        0.0000000000000000     
  0.34375000000000000       0.62500000000000000        0.0000000000000000     
  0.37500000000000000       0.62500000000000000        0.0000000000000000     
  0.25000000000000000       0.65625000000000000        0.0000000000000000     
  0.28125000000000000       0.65625000000000000        0.0000000000000000     
  0.31250000000000000       0.65625000000000000        0.0000000000000000     
  0.34375000000000000       0.65625000000000000        0.0000000000000000     
  0.37500000000000000       0.65625000000000000        0.0000000000000000     
  0.25000000000000000       0.68750000000000000        0.0000000000000000     
  0.28125000000000000       0.68750000000000000        0.0000000000000000     
  0.31250000000000000       0.68750000000000000        0.0000000000000000     
  0.34375000000000000       0.68750000000000000        0.0000000000000000     
  0.37500000000000000       0.68750000000000000        0.0000000000000000     
  0.25000000000000000       0.71875000000000000        0.0000000000000000     
  0.28125000000000000       0.71875000000000000        0.0000000000000000     
  0.31250000000000000       0.71875000000000000        0.0000000000000000     
  0.34375000000000000       0.71875000000000000        0.0000000000000000     
  0.37500000000000000       0.71875000000000000        0.0000000000000000     
  0.25000000000000000       0.75000000000000000        0.0000000000000000     
  0.28125000000000000       0.75000000000000000        0.0000000000000000     
  0.31250000000000000       0.75000000000000000        0.0000000000000000     
  0.34375000000000000       0.75000000000000000        0.0000000000000000     
  0.37500000000000000       0.75000000000000000        0.0000000000000000     
  0.37500000000000000       0.62500000000000000        0.0000000000000000     
  0.40625000000000000       0.62500000000000000        0.0000000000000000     
  0.43750000000000000       0.62500000000000000        0.0000000000000000     
  0.46875000000000000       0.62500000000000000        0.0000000000000000     
  0.50000000000000000       0.62500000000000000        0.0000000000000000     
  0.37500000000000000       0.65625000000000000        0.0000000000000000     
  0.40625000000000000       0.65625000000000000        0.0000000000000000     
  0.43750000000000000       0.65625000000000000        0.0000000000000000     
  0.46875000000000000       0.65625000000000000        0.0000000000000000     
  0.50000000000000000       0.65625000000000000        0.0000000000000000     
  0.37500000000000000       0.68750000000000000        0.0000000000000000     
  0.40625000000000000       0.68750000000000000        0.0000000000000000     
  0.43750000000000000       0.68750000000000000        0.0000000000000000     
  0.46875000000000000       0.68750000000000000        0.0000000000000000     
  0.50000000000000000       0.68750000000000000        0.0000000000000000     
  0.37500000000000000       0.71875000000000000        0.0000000000000000     
  0.40625000000000000       0.71875000000000000        0.0000000000000000     
  0.43750000000000000       0.71875000000000000        0.0000000000000000     
  0.46875000000000000       0.71875000000000000        0.0000000000000000     
  0.50000000000000000       0.71875000000000000        0.0000000000000000     
  0.37500000000000000       0.75000000000000000        0.0000000000000000     
  0.40625000000000000       0.75000000000000000        0.0000000000000000     
  0.43750000000000000       0.75000000000000000        0.0000000000000000     
  0.46875000000000000       0.75000000000000000        0.0000000000000000     
  0.50000000000000000       0.75000000000000000        0.0000000000000000     
  0.50000000000000000       0.62500000000000000        0.0000000000000000     
  0.53125000000000000       0.62500000000000000        0.0000000000000000     
  0.56250000000000000       0.62500000000000000        0.0000000000000000     
  0.59375000000000000       0.62500000000000000        0.0000000000000000     
  0.62500000000000000       0.62500000000000000        0.0000000000000000     
  0.50000000000000000       0.65625000000000000        0.0000000000000000     
  0.53125000000000000       0.65625000000000000        0.0000000000000000     
  0.56250000000000000       0.65625000000000000        0.0000000000000000     
  0.59375000000000000       0.65625000000000000        0.0000000000000000     
  0.62500000000000000       0.65625000000000000        0.0000000000000000     
  0.50000000000000000       0.68750000000000000        0.0000000000000000     
  0.53125000000000000       0.68750000000000000        0.0000000000000000     
  0.56250000000000000       0.68750000000000000        0.0000000000000000     
  0.59375000000000000       0.68750000000000000        0.0000000000000000     
  0.62500000000000000       0.68750000000000000        0.0000000000000000     
  0.50000000000000000       0.71875000000000000        0.0000000000000000     
  0.53125000000000000       0.71875000000000000        0.0000000000000000     
  0.56250000000000000       0.71875000000000000        0.0000000000000000     
  0.59375000000000000       0.71875000000000000        0.0000000000000000     
  0.62500000000000000       0.71875000000000000        0.0000000000000000     
  0.50000000000000000       0.75000000000000000        0.0000000000000000     
  0.53125000000000000       0.75000000000000000        0.0000000000000000     
  0.56250000000000000       0.75000000000000000        0.0000000000000000     
  0.59375000000000000       0.75000000000000000        0.0000000000000000     
  0.62500000000000000       0.75000000000000000        0.0000000000000000     
  0.62500000000000000       0.62500000000000000        0.0000000000000000     
  0.65625000000000000       0.62500000000000000        0.0000000000000000     
  0.68750000000000000       0.62500000000000000        0.0000000000000000     
  0.71875000000000000       0.62500000000000000        0.0000000000000000     
  0.75000000000000000       0.62500000000000000        0.0000000000000000     
  0.62500000000000000       0.65625000000000000        0.0000000000000000     
  0.65625000000000000       0.65625000000000000        0.0000000000000000     
  0.68750000000000000       0.65625000000000000        0.0000000000000000     
  0.71875000000000000       0.65625000000000000        0.0000000000000000     
  0.75000000000000000       0.65625000000000000        0.0000000000000000     
  0.62500000000000000       0.68750000000000000        0.0000000000000000     
  0.65625000000000000       0.68750000000000000        0.0000000000000000     
  0.68750000000000000       0.68750000000000000        0.0000000000000000     
  0.71875000000000000       0.68750000000000000        0.0000000000000000     
  0.75000000000000000       0.68750000000000000        0.0000000000000000     
  0.62500000000000000       0.71875000000000000        0.0000000000000000     
  0.65625000000000000       0.71875000000000000        0.0000000000000000     
  0.68750000000000000       0.71875000000000000        0.0000000000000000     
  0.71875000000000000       0.71875000000000000        0.0000000000000000     
  0.75000000000000000       0.71875000000000000        0.0000000000000000     
  0.62500000000000000       0.75000000000000000        0.0000000000000000     
  0.65625000000000000       0.75000000000000000        0.0000000000000000     
  0.68750000000000000       0.75000000000000000        0.0000000000000000     
  0.71875000000000000       0.75000000000000000        0.0000000000000000     
  0.75000000000000000       0.75000000000000000        0.0000000000000000     
  0.75000000000000000       0.62500000000000000        0.0000000000000000     
  0.78125000000000000       0.62500000000000000        0.0000000000000000     
  0.81250000000000000       0.62500000000000000        0.0000000000000000     
  0.84375000000000000       0.62500000000000000        0.0000000000000000     
  0.87500000000000000       0.62500000000000000        0.0000000000000000     
  0.75000000000000000       0.65625000000000000        0.0000000000000000     
  0.78125000000000000       0.65625000000000000        0.0000000000000000     
  0.81250000000000000       0.65625000000000000        0.0000000000000000     
  0.84375000000000000       0.65625000000000000        0.0000000000000000     
  0.87500000000000000       0.65625000000000000        0.0000000000000000     
  0.75000000000000000       0.68750000000000000        0.0000000000000000     
  0.78125000000000000       0.68750000000000000        0.0000000000000000     
  0.81250000000000000       0.68750000000000000        0.0000000000000000     
  0.84375000000000000       0.68750000000000000        0.0000000000000000     
  0.87500000000000000       0.68750000000000000        0.0000000000000000     
  0.75000000000000000       0.71875000000000000        0.0000000000000000     
  0.78125000000000000       0.71875000000000000        0.0000000000000000     
  0.81250000000000000       0.71875000000000000        0.0000000000000000     
  0.84375000000000000       0.71875000000000000        0.0000000000000000     
  0.87500000000000000       0.71875000000000000        0.0000000000000000     
  0.75000000000000000       0.75000000000000000        0.0000000000000000     
  0.78125000000000000       0.75000000000000000        0.0000000000000000     
  0.81250000000000000       0.75000000000000000        0.0000000000000000     
  0.84375000000000000       0.75000000000000000        0.0000000000000000     
  0.87500000000000000       0.75000000000000000        0.0000000000000000     
  0.87500000000000000       0.62500000000000000        0.0000000000000000     
  0.90625000000000000       0.62500000000000000        0.0000000000000000     
  0.93750000000000000       0.62500000000000000        0.0000000000000000     
  0.96875000000000000       0.62500000000000000        0.0000000000000000     
   1.0000000000000000       0.62500000000000000        0.0000000000000000     
  0.87500000000000000       0.65625000000000000        0.0000000000000000     
  0.90625000000000000       0.65625000000000000        0.0000000000000000     
  0.93750000000000000       0.65625000000000000        0.0000000000000000     
  0.96875000000000000       0.65625000000000000        0.0000000000000000     
   1.0000000000000000       0.65625000000000000        0.0000000000000000     
  0.87500000000000000       0.68750000000000000        0.0000000000000000     
  0.90625000000000000       0.68750000000000000        0.0000000000000000     
  0.93750000000000000       0.68750000000000000        0.0000000000000000     
  0.96875000000000000       0.68750000000000000        0.0000000000000000     
   1.0000000000000000       0.68750000000000000        0.0000000000000000     
  0.87500000000000000       0.71875000000000000        0.0000000000000000     
  0.90625000000000000       0.71875000000000000        0.0000000000000000     
  0.93750000000000000       0.71875000000000000        0.0000000000000000     
  0.96875000000000000       0.71875000000000000        0.0000000000000000     
   1.0000000000000000       0.71875000000000000        0.0000000000000000     
  0.87500000000000000       0.75000000000000000        0.0000000000000000     
  0.90625000000000000       0.75000000000000000        0.0000000000000000     
  0.93750000000000000       0.75000000000000000        0.0000000000000000     
  0.96875000000000000       0.75000000000000000        0.0000000000000000     
   1.0000000000000000       0.75000000000000000        0.0000000000000000     
   0.0000000000000000       0.75000000000000000        0.0000000000000000     
   3.1250000000000000E-002  0.75000000000000000        0.0000000000000000     
   6.2500000000000000E-002  0.75000000000000000        0.0000000000000000     
   9.3750000000000000E-002  0.75000000000000000        0.0000000000000000     
  0.12500000000000000       0.75000000000000000        0.0000000000000000     
   0.0000000000000000       0.78125000000000000        0.0000000000000000     
   3.1250000000000000E-002  0.78125000000000000        0.0000000000000000     
   6.2500000000000000E-002  0.78125000000000000        0.0000000000000000     
   9.3750000000000000E-002  0.78125000000000000        0.0000000000000000     
  0.12500000000000000       0.78125000000000000        0.0000000000000000     
   0.0000000000000000       0.81250000000000000        0.0000000000000000     
   3.1250000000000000E-002  0.81250000000000000        0.0000000000000000     
   6.2500000000000000E-002  0.81250000000000000        0.0000000000000000     
   9.3750000000000000E-002  0.81250000000000000        0.0000000000000000     
  0.12500000000000000       0.81250000000000000        0.0000000000000000     
   0.0000000000000000       0.84375000000000000        0.0000000000000000     
   3.1250000000000000E-002  0.84375000000000000        0.0000000000000000     
   6.2500000000000000E-002  0.84375000000000000        0.0000000000000000     
   9.3750000000000000E-002  0.84375000000000000        0.0000000000000000     
  0.12500000000000000       0.84375000000000000        0.0000000000000000     
   0.0000000000000000       0.87500000000000000        0.0000000000000000     
   3.1250000000000000E-002  0.87500000000000000        0.0000000000000000     
   6.2500000000000000E-002  0.87500000000000000        0.0000000000000000     
   9.3750000000000000E-002  0.87500000000000000        0.0000000000000000     
  0.12500000000000000       0.87500000000000000        0.0000000000000000     
  0.12500000000000000       0.75000000000000000        0.0000000000000000     
  0.15625000000000000       0.75000000000000000        0.0000000000000000     
  0.18750000000000000       0.75000000000000000        0.0000000000000000     
  0.21875000000000000       0.75000000000000000        0.0000000000000000     
  0.25000000000000000       0.75000000000000000        0.0000000000000000     
  0.12500000000000000       0.78125000000000000        0.0000000000000000     
  0.15625000000000000       0.78125000000000000        0.0000000000000000     
  0.18750000000000000       0.78125000000000000        0.0000000000000000     
  0.21875000000000000       0.78125000000000000        0.0000000000000000     
  0.25000000000000000       0.78125000000000000        0.0000000000000000     
  0.12500000000000000       0.81250000000000000        0.0000000000000000     
  0.15625000000000000       0.81250000000000000        0.0000000000000000     
  0.18750000000000000       0.81250000000000000        0.0000000000000000     
  0.21875000000000000       0.81250000000000000        0.0000000000000000     
  0.25000000000000000       0.81250000000000000        0.0000000000000000     
  0.12500000000000000       0.84375000000000000        0.0000000000000000     
  0.15625000000000000       0.84375000000000000        0.0000000000000000     
  0.18750000000000000       0.84375000000000000        0.0000000000000000     
  0.21875000000000000       0.84375000000000000        0.0000000000000000     
  0.25000000000000000       0.84375000000000000        0.0000000000000000     
  0.12500000000000000       0.87500000000000000        0.0000000000000000     
  0.15625000000000000       0.87500000000000000        0.0000000000000000     
  0.18750000000000000       0.87500000000000000        0.0000000000000000     
  0.21875000000000000       0.87500000000000000        0.0000000000000000     
  0.25000000000000000       0.87500000000000000        0.0000000000000000     
  0.25000000000000000       0.75000000000000000        0.0000000000000000     
  0.28125000000000000       0.75000000000000000        0.0000000000000000     
  0.31250000000000000       0.75000000000000000        0.0000000000000000     
  0.34375000000000000       0.75000000000000000        0.0000000000000000     
  0.37500000000000000       0.75000000000000000        0.0000000000000000     
  0.25000000000000000       0.78125000000000000        0.0000000000000000     
  0.28125000000000000       0.78125000000000000        0.0000000000000000     
  0.31250000000000000       0.78125000000000000        0.0000000000000000     
  0.34375000000000000       0.78125000000000000        0.0000000000000000     
  0.37500000000000000       0.78125000000000000        0.0000000000000000     
  0.25000000000000000       0.81250000000000000        0.0000000000000000     
  0.28125000000000000       0.81250000000000000        0.0000000000000000     
  0.31250000000000000       0.81250000000000000        0.0000000000000000     
  0.34375000000000000       0.81250000000000000        0.0000000000000000     
  0.37500000000000000       0.81250000000000000        0.0000000000000000     
  0.25000000000000000       0.84375000000000000        0.0000000000000000     
  0.28125000000000000       0.84375000000000000        0.0000000000000000     
  0.31250000000000000       0.84375000000000000        0.0000000000000000     
  0.34375000000000000       0.84375000000000000        0.0000000000000000     
  0.37500000000000000       0.84375000000000000        0.0000000000000000     
  0.25000000000000000       0.87500000000000000        0.0000000000000000     
  0.28125000000000000       0.87500000000000000        0.0000000000000000     
  0.31250000000000000       0.87500000000000000        0.0000000000000000     
  0.34375000000000000       0.87500000000000000        0.0000000000000000     
  0.37500000000000000       0.87500000000000000        0.0000000000000000     
  0.37500000000000000       0.75000000000000000        0.0000000000000000     
  0.40625000000000000       0.75000000000000000        0.0000000000000000     
  0.43750000000000000       0.75000000000000000        0.0000000000000000     
  0.46875000000000000       0.75000000000000000        0.0000000000000000     
  0.50000000000000000       0.75000000000000000        0.0000000000000000     
  0.37500000000000000       0.78125000000000000        0.0000000000000000     
  0.40625000000000000       0.78125000000000000        0.0000000000000000     
  0.43750000000000000       0.78125000000000000        0.0000000000000000     
  0.46875000000000000       0.78125000000000000        0.0000000000000000     
  0.50000000000000000       0.78125000000000000        0.0000000000000000     
  0.37500000000000000       0.81250000000000000        0.0000000000000000     
  0.40625000000000000       0.81250000000000000        0.0000000000000000     
  0.43750000000000000       0.81250000000000000        0.0000000000000000     
  0.46875000000000000       0.81250000000000000        0.0000000000000000     
  0.50000000000000000       0.81250000000000000        0.0000000000000000     
  0.37500000000000000       0.84375000000000000        0.0000000000000000     
  0.40625000000000000       0.84375000000000000        0.0000000000000000     
  0.43750000000000000       0.84375000000000000        0.0000000000000000     
  0.46875000000000000       0.84375000000000000        0.0000000000000000     
  0.50000000000000000       0.84375000000000000        0.0000000000000000     
  0.37500000000000000       0.87500000000000000        0.0000000000000000     
  0.40625000000000000       0.87500000000000000        0.0000000000000000     
  0.43750000000000000       0.87500000000000000        0.0000000000000000     
  0.46875000000000000       0.87500000000000000        0.0000000000000000     
  0.50000000000000000       0.87500000000000000        0.0000000000000000     
  0.50000000000000000       0.75000000000000000        0.0000000000000000     
  0.53125000000000000       0.75000000000000000        0.0000000000000000     
  0.56250000000000000       0.75000000000000000        0.0000000000000000     
  0.59375000000000000       0.75000000000000000        0.0000000000000000     
  0.62500000000000000       0.75000000000000000        0.0000000000000000     
  0.50000000000000000       0.78125000000000000        0.0000000000000000     
  0.53125000000000000       0.78125000000000000        0.0000000000000000     
  0.56250000000000000       0.78125000000000000        0.0000000000000000     
  0.59375000000000000       0.78125000000000000        0.0000000000000000     
  0.62500000000000000       0.78125000000000000        0.0000000000000000     
  0.50000000000000000       0.81250000000000000        0.0000000000000000     
  0.53125000000000000       0.81250000000000000        0.0000000000000000     
  0.56250000000000000       0.81250000000000000        0.0000000000000000     
  0.59375000000000000       0.81250000000000000        0.0000000000000000     
  0.62500000000000000       0.81250000000000000        0.0000000000000000     
  0.50000000000000000       0.84375000000000000        0.0000000000000000     
  0.53125000000000000       0.84375000000000000        0.0000000000000000     
  0.56250000000000000       0.84375000000000000        0.0000000000000000     
  0.59375000000000000       0.84375000000000000        0.0000000000000000     
  0.62500000000000000       0.84375000000000000        0.0000000000000000     
  0.50000000000000000       0.87500000000000000        0.0000000000000000     
  0.53125000000000000       0.87500000000000000        0.0000000000000000     
  0.56250000000000000       0.87500000000000000        0.0000000000000000     
  0.59375000000000000       0.87500000000000000        0.0000000000000000     
  0.62500000000000000       0.87500000000000000        0.0000000000000000     
  0.62500000000000000       0.75000000000000000        0.0000000000000000     
  0.65625000000000000       0.75000000000000000        0.0000000000000000     
  0.68750000000000000       0.75000000000000000        0.0000000000000000     
  0.71875000000000000       0.75000000000000000        0.0000000000000000     
  0.75000000000000000       0.75000000000000000        0.0000000000000000     
  0.62500000000000000       0.78125000000000000        0.0000000000000000     
  0.65625000000000000       0.78125000000000000        0.0000000000000000     
  0.68750000000000000       0.78125000000000000        0.0000000000000000     
  0.71875000000000000       0.78125000000000000        0.0000000000000000     
  0.75000000000000000       0.78125000000000000        0.0000000000000000     
  0.62500000000000000       0.81250000000000000        0.0000000000000000     
  0.65625000000000000       0.81250000000000000        0.0000000000000000     
  0.68750000000000000       0.81250000000000000        0.0000000000000000     
  0.71875000000000000       0.81250000000000000        0.0000000000000000     
  0.75000000000000000       0.81250000000000000        0.0000000000000000     
  0.62500000000000000       0.84375000000000000        0.0000000000000000     
  0.65625000000000000       0.84375000000000000        0.0000000000000000     
  0.68750000000000000       0.84375000000000000        0.0000000000000000     
  0.71875000000000000       0.84375000000000000        0.0000000000000000     
  0.75000000000000000       0.84375000000000000        0.0000000000000000     
  0.62500000000000000       0.87500000000000000        0.0000000000000000     
  0.65625000000000000       0.87500000000000000        0.0000000000000000     
  0.68750000000000000       0.87500000000000000        0.0000000000000000     
  0.71875000000000000       0.87500000000000000        0.0000000000000000     
  0.75000000000000000       0.87500000000000000        0.0000000000000000     
  0.75000000000000000       0.75000000000000000        0.0000000000000000     
  0.78125000000000000       0.75000000000000000        0.0000000000000000     
  0.81250000000000000       0.75000000000000000        0.0000000000000000     
  0.84375000000000000       0.75000000000000000        0.0000000000000000     
  0.87500000000000000       0.75000000000000000        0.0000000000000000     
  0.75000000000000000       0.78125000000000000        0.0000000000000000     
  0.78125000000000000       0.78125000000000000        0.0000000000000000     
  0.81250000000000000       0.78125000000000000        0.0000000000000000     
  0.84375000000000000       0.78125000000000000        0.0000000000000000     
  0.87500000000000000       0.78125000000000000        0.0000000000000000     
  0.75000000000000000       0.81250000000000000        0.0000000000000000     
  0.78125000000000000       0.81250000000000000        0.0000000000000000     
  0.81250000000000000       0.81250000000000000        0.0000000000000000     
  0.84375000000000000       0.81250000000000000        0.0000000000000000     
  0.87500000000000000       0.81250000000000000        0.0000000000000000     
  0.75000000000000000       0.84375000000000000        0.0000000000000000     
  0.78125000000000000       0.84375000000000000        0.0000000000000000     
  0.81250000000000000       0.84375000000000000        0.0000000000000000     
  0.84375000000000000       0.84375000000000000        0.0000000000000000     
  0.87500000000000000       0.84375000000000000        0.0000000000000000     
  0.75000000000000000       0.87500000000000000        0.0000000000000000     
  0.78125000000000000       0.87500000000000000        0.0000000000000000     
  0.81250000000000000       0.87500000000000000        0.0000000000000000     
  0.84375000000000000       0.87500000000000000        0.0000000000000000     
  0.87500000000000000       0.87500000000000000        0.0000000000000000     
  0.87500000000000000       0.75000000000000000        0.0000000000000000     
  0.90625000000000000       0.75000000000000000        0.0000000000000000     
  0.93750000000000000       0.75000000000000000        0.0000000000000000     
  0.96875000000000000       0.75000000000000000        0.0000000000000000     
   1.0000000000000000       0.75000000000000000        0.0000000000000000     
  0.87500000000000000       0.78125000000000000        0.0000000000000000     
  0.90625000000000000       0.78125000000000000        0.0000000000000000     
  0.93750000000000000       0.78125000000000000        0.0000000000000000     
  0.96875000000000000       0.78125000000000000        0.0000000000000000     
   1.0000000000000000       0.78125000000000000        0.0000000000000000     
  0.87500000000000000       0.81250000000000000        0.0000000000000000     
  0.90625000000000000       0.81250000000000000        0.0000000000000000     
  0.93750000000000000       0.81250000000000000        0.0000000000000000     
  0.96875000000000000       0.81250000000000000        0.0000000000000000     
   1.0000000000000000       0.81250000000000000        0.0000000000000000     
  0.87500000000000000       0.84375000000000000        0.0000000000000000     
  0.90625000000000000       0.84375000000000000        0.0000000000000000     
  0.93750000000000000       0.84375000000000000        0.0000000000000000     
  0.96875000000000000       0.84375000000000000        0.0000000000000000     
   1.0000000000000000       0.84375000000000000        0.0000000000000000     
  0.87500000000000000       0.87500000000000000        0.0000000000000000     
  0.90625000000000000       0.87500000000000000        0.0000000000000000     
  0.93750000000000000       0.87500000000000000        0.0000000000000000     
  0.96875000000000000       0.87500000000000000        0.0000000000000000     
   1.0000000000000000       0.87500000000000000        0.0000000000000000     
   0.0000000000000000       0.87500000000000000        0.0000000000000000     
   3.1250000000000000E-002  0.87500000000000000        0.0000000000000000     
   6.2500000000000000E-002  0.87500000000000000        0.0000000000000000     
   9.3750000000000000E-002  0.87500000000000000        0.0000000000000000     
  0.12500000000000000       0.87500000000000000        0.0000000000000000     
   0.0000000000000000       0.90625000000000000        0.0000000000000000     
   3.1250000000000000E-002  0.90625000000000000        0.0000000000000000     
   6.2500000000000000E-002  0.90625000000000000        0.0000000000000000     
   9.3750000000000000E-002  0.90625000000000000        0.0000000000000000     
  0.12500000000000000       0.90625000000000000        0.0000000000000000     
   0.0000000000000000       0.93750000000000000        0.0000000000000000     
   3.1250000000000000E-002  0.93750000000000000        0.0000000000000000     
   6.2500000000000000E-002  0.93750000000000000        0.0000000000000000     
   9.3750000000000000E-002  0.93750000000000000        0.0000000000000000     
  0.12500000000000000       0.93750000000000000        0.0000000000000000     
   0.0000000000000000       0.96875000000000000        0.0000000000000000     
   3.1250000000000000E-002  0.96875000000000000        0.0000000000000000     
   6.2500000000000000E-002  0.96875000000000000        0.0000000000000000     
   9.3750000000000000E-002  0.96875000000000000        0.0000000000000000     
  0.12500000000000000       0.96875000000000000        0.0000000000000000     
   0.0000000000000000        1.0000000000000000        0.0000000000000000     
   3.1250000000000000E-002   1.0000000000000000        0.0000000000000000     
   6.2500000000000000E-002   1.0000000000000000        0.0000000000000000     
   9.3750000000000000E-002   1.0000000000000000        0.0000000000000000     
  0.12500000000000000        1.0000000000000000        0.0000000000000000     
  0.12500000000000000       0.87500000000000000        0.0000000000000000     
  0.15625000000000000       0.87500000000000000        0.0000000000000000     
  0.18750000000000000       0.87500000000000000        0.0000000000000000     
  0.21875000000000000       0.87500000000000000        0.0000000000000000     
  0.25000000000000000       0.87500000000000000        0.0000000000000000     
  0.12500000000000000       0.90625000000000000        0.0000000000000000     
  0.15625000000000000       0.90625000000000000        0.0000000000000000     
  0.18750000000000000       0.90625000000000000        0.0000000000000000     
  0.21875000000000000       0.90625000000000000        0.0000000000000000     
  0.25000000000000000       0.90625000000000000        0.0000000000000000     
  0.12500000000000000       0.93750000000000000        0.0000000000000000     
  0.15625000000000000       0.93750000000000000        0.0000000000000000     
  0.18750000000000000       0.93750000000000000        0.0000000000000000     
  0.21875000000000000       0.93750000000000000        0.0000000000000000     
  0.25000000000000000       0.93750000000000000        0.0000000000000000     
  0.12500000000000000       0.96875000000000000        0.0000000000000000     
  0.15625000000000000       0.96875000000000000        0.0000000000000000     
  0.18750000000000000       0.96875000000000000        0.0000000000000000     
  0.21875000000000000       0.96875000000000000        0.0000000000000000     
  0.25000000000000000       0.96875000000000000        0.0000000000000000     
  0.12500000000000000        1.0000000000000000        0.0000000000000000     
  0.15625000000000000        1.0000000000000000        0.0000000000000000     
  0.18750000000000000        1.0000000000000000        0.0000000000000000     
  0.21875000000000000        1.0000000000000000        0.0000000000000000     
  0.25000000000000000        1.0000000000000000        0.0000000000000000     
  0.25000000000000000       0.87500000000000000        0.0000000000000000     
  0.28125000000000000       0.87500000000000000        0.0000000000000000     
  0.31250000000000000       0.87500000000000000        0.0000000000000000     
  0.34375000000000000       0.87500000000000000        0.0000000000000000     
  0.37500000000000000       0.87500000000000000        0.0000000000000000     
  0.25000000000000000       0.90625000000000000        0.0000000000000000     
  0.28125000000000000       0.90625000000000000        0.0000000000000000     
  0.31250000000000000       0.90625000000000000        0.0000000000000000     
  0.34375000000000000       0.90625000000000000        0.0000000000000000     
  0.37500000000000000       0.90625000000000000        0.0000000000000000     
  0.25000000000000000       0.93750000000000000        0.0000000000000000     
  0.28125000000000000       0.93750000000000000        0.0000000000000000     
  0.31250000000000000       0.93750000000000000        0.0000000000000000     
  0.34375000000000000       0.93750000000000000        0.0000000000000000     
  0.37500000000000000       0.93750000000000000        0.0000000000000000     
  0.25000000000000000       0.96875000000000000        0.0000000000000000     
  0.28125000000000000       0.96875000000000000        0.0000000000000000     
  0.31250000000000000       0.96875000000000000        0.0000000000000000     
  0.34375000000000000       0.96875000000000000        0.0000000000000000     
  0.37500000000000000       0.96875000000000000        0.0000000000000000     
  0.25000000000000000        1.0000000000000000        0.0000000000000000     
  0.28125000000000000        1.0000000000000000        0.0000000000000000     
  0.31250000000000000        1.0000000000000000        0.0000000000000000     
  0.34375000000000000        1.0000000000000000        0.0000000000000000     
  0.37500000000000000        1.0000000000000000        0.0000000000000000     
  0.37500000000000000       0.87500000000000000        0.0000000000000000     
  0.40625000000000000       0.87500000000000000        0.0000000000000000     
  0.43750000000000000       0.87500000000000000        0.0000000000000000     
  0.46875000000000000       0.87500000000000000        0.0000000000000000     
  0.50000000000000000       0.87500000000000000        0.0000000000000000     
  0.37500000000000000       0.90625000000000000        0.0000000000000000     
  0.40625000000000000       0.90625000000000000        0.0000000000000000     
  0.43750000000000000       0.90625000000000000        0.0000000000000000     
  0.46875000000000000       0.90625000000000000        0.0000000000000000     
  0.50000000000000000       0.90625000000000000        0.0000000000000000     
  0.37500000000000000       0.93750000000000000        0.0000000000000000     
  0.40625000000000000       0.93750000000000000        0.0000000000000000     
  0.43750000000000000       0.93750000000000000        0.0000000000000000     
  0.46875000000000000       0.93750000000000000        0.0000000000000000     
  0.50000000000000000       0.93750000000000000        0.0000000000000000     
  0.37500000000000000       0.96875000000000000        0.0000000000000000     
  0.40625000000000000       0.96875000000000000        0.0000000000000000     
  0.43750000000000000       0.96875000000000000        0.0000000000000000     
  0.46875000000000000       0.96875000000000000        0.0000000000000000     
  0.50000000000000000       0.96875000000000000        0.0000000000000000     
  0.37500000000000000        1.0000000000000000        0.0000000000000000     
  0.40625000000000000        1.0000000000000000        0.0000000000000000     
  0.43750000000000000        1.0000000000000000        0.0000000000000000     
  0.46875000000000000        1.0000000000000000        0.0000000000000000     
  0.50000000000000000        1.0000000000000000        0.0000000000000000     
  0.50000000000000000       0.87500000000000000        0.0000000000000000     
  0.53125000000000000       0.87500000000000000        0.0000000000000000     
  0.56250000000000000       0.87500000000000000        0.0000000000000000     
  0.59375000000000000       0.87500000000000000        0.0000000000000000     
  0.62500000000000000       0.87500000000000000        0.0000000000000000     
  0.50000000000000000       0.90625000000000000        0.0000000000000000     
  0.53125000000000000       0.90625000000000000        0.0000000000000000     
  0.56250000000000000       0.90625000000000000        0.0000000000000000     
  0.59375000000000000       0.90625000000000000        0.0000000000000000     
  0.62500000000000000       0.90625000000000000        0.0000000000000000     
  0.50000000000000000       0.93750000000000000        0.0000000000000000     
  0.53125000000000000       0.93750000000000000        0.0000000000000000     
  0.56250000000000000       0.93750000000000000        0.0000000000000000     
  0.59375000000000000       0.93750000000000000        0.0000000000000000     
  0.62500000000000000       0.93750000000000000        0.0000000000000000     
  0.50000000000000000       0.96875000000000000        0.0000000000000000     
  0.53125000000000000       0.96875000000000000        0.0000000000000000     
  0.56250000000000000       0.96875000000000000        0.0000000000000000     
  0.59375000000000000       0.96875000000000000        0.0000000000000000     
  0.62500000000000000       0.96875000000000000        0.0000000000000000     
  0.50000000000000000        1.0000000000000000        0.0000000000000000     
  0.53125000000000000        1.0000000000000000        0.0000000000000000     
  0.56250000000000000        1.0000000000000000        0.0000000000000000     
  0.59375000000000000        1.0000000000000000        0.0000000000000000     
  0.62500000000000000        1.0000000000000000        0.0000000000000000     
  0.62500000000000000       0.87500000000000000        0.0000000000000000     
  0.65625000000000000       0.87500000000000000        0.0000000000000000     
  0.68750000000000000       0.87500000000000000        0.0000000000000000     
  0.71875000000000000       0.87500000000000000        0.0000000000000000     
  0.75000000000000000       0.87500000000000000        0.0000000000000000     
  0.62500000000000000       0.90625000000000000        0.0000000000000000     
  0.65625000000000000       0.90625000000000000        0.0000000000000000     
  0.68750000000000000       0.90625000000000000        0.0000000000000000     
  0.71875000000000000       0.90625000000000000        0.0000000000000000     
  0.75000000000000000       0.90625000000000000        0.0000000000000000     
  0.62500000000000000       0.93750000000000000        0.0000000000000000     
  0.65625000000000000       0.93750000000000000        0.0000000000000000     
  0.68750000000000000       0.93750000000000000        0.0000000000000000     
  0.71875000000000000       0.93750000000000000        0.0000000000000000     
  0.75000000000000000       0.93750000000000000        0.0000000000000000     
  0.62500000000000000       0.96875000000000000        0.0000000000000000     
  0.65625000000000000       0.96875000000000000        0.0000000000000000     
  0.68750000000000000       0.96875000000000000        0.0000000000000000     
  0.71875000000000000       0.96875000000000000        0.0000000000000000     
  0.75000000000000000       0.96875000000000000        0.0000000000000000     
  0.62500000000000000        1.0000000000000000        0.0000000000000000     
  0.65625000000000000        1.0000000000000000        0.0000000000000000     
  0.68750000000000000        1.0000000000000000        0.0000000000000000     
  0.71875000000000000        1.0000000000000000        0.0000000000000000     
  0.75000000000000000        1.0000000000000000        0.0000000000000000     
  0.75000000000000000       0.87500000000000000        0.0000000000000000     
  0.78125000000000000       0.87500000000000000        0.0000000000000000     
  0.81250000000000000       0.87500000000000000        0.0000000000000000     
  0.84375000000000000       0.87500000000000000        0.0000000000000000     
  0.87500000000000000       0.87500000000000000        0.0000000000000000     
  0.75000000000000000       0.90625000000000000        0.0000000000000000     
  0.78125000000000000       0.90625000000000000        0.0000000000000000     
  0.81250000000000000       0.90625000000000000        0.0000000000000000     
  0.84375000000000000       0.90625000000000000        0.0000000000000000     
  0.87500000000000000       0.90625000000000000        0.0000000000000000     
  0.75000000000000000       0.93750000000000000        0.0000000000000000     
  0.78125000000000000       0.93750000000000000        0.0000000000000000     
  0.81250000000000000       0.93750000000000000        0.0000000000000000     
  0.84375000000000000       0.93750000000000000        0.0000000000000000     
  0.87500000000000000       0.93750000000000000        0.0000000000000000     
  0.75000000000000000       0.96875000000000000        0.0000000000000000     
  0.78125000000000000       0.96875000000000000        0.0000000000000000     
  0.81250000000000000       0.96875000000000000        0.0000000000000000     
  0.84375000000000000       0.96875000000000000        0.0000000000000000     
  0.87500000000000000       0.96875000000000000        0.0000000000000000     
  0.75000000000000000        1.0000000000000000        0.0000000000000000     
  0.78125000000000000        1.0000000000000000        0.0000000000000000     
  0.81250000000000000        1.0000000000000000        0.0000000000000000     
  0.84375000000000000        1.0000000000000000        0.0000000000000000     
  0.87500000000000000        1.0000000000000000        0.0000000000000000     
  0.87500000000000000       0.87500000000000000        0.0000000000000000     
  0.90625000000000000       0.87500000000000000        0.0000000000000000     
  0.93750000000000000       0.87500000000000000        0.0000000000000000     
  0.96875000000000000       0.87500000000000000        0.0000000000000000     
   1.0000000000000000       0.87500000000000000        0.0000000000000000     
  0.87500000000000000       0.90625000000000000        0.0000000000000000     
  0.90625000000000000       0.90625000000000000        0.0000000000000000     
  0.93750000000000000       0.90625000000000000        0.0000000000000000     
  0.96875000000000000       0.90625000000000000        0.0000000000000000     
   1.0000000000000000       0.90625000000000000        0.0000000000000000     
  0.87500000000000000       0.93750000000000000        0.0000000000000000     
  0.90625000000000000       0.93750000000000000        0.0000000000000000     
  0.93750000000000000       0.93750000000000000        0.0000000000000000     
  0.96875000000000000       0.93750000000000000        0.0000000000000000     
   1.0000000000000000       0.93750000000000000        0.0000000000000000     
  0.87500000000000000       0.96875000000000000        0.0000000000000000     
  0.90625000000000000       0.96875000000000000        0.0000000000000000     
  0.93750000000000000       0.96875000000000000        0.0000000000000000     
  0.96875000000000000       0.96875000000000000        0.0000000000000000     
   1.0000000000000000       0.96875000000000000        0.0000000000000000     
  0.87500000000000000        1.0000000000000000        0.0000000000000000     
  0.90625000000000000        1.0000000000000000        0.0000000000000000     
  0.93750000000000000        1.0000000000000000        0.0000000000000000     
  0.96875000000000000        1.0000000000000000        0.0000000000000000     
   1.0000000000000000        1.0000000000000000        0.0000000000000000     
 </DataArray>
 </Points>
 <Cells>
 <DataArray  type="Int32"  Name="connectivity"  format="ascii">
           0           1           6           5
           1           2           7           6
           2           3           8           7
           3           4           9           8
           5           6          11          10
           6           7          12          11
           7           8          13          12
           8           9          14          13
          10          11          16          15
          11          12          17          16
          12          13          18          17
          13          14          19          18
          15          16          21          20
          16          17          22          21
          17          18          23          22
          18          19          24          23
          25          26          31          30
          26          27          32          31
          27          28          33          32
          28          29          34          33
          30          31          36          35
          31          32          37          36
          32          33          38          37
          33          34          39          38
          35          36          41          40
          36          37          42          41
          37          38          43          42
          38          39          44          43
          40          41          46          45
          41          42          47          46
          42          43          48          47
          43          44          49          48
          50          51          56          55
          51          52          57          56
          52          53          58          57
          53          54          59          58
          55          56          61          60
          56          57          62          61
          57          58          63          62
          58          59          64          63
          60          61          66          65
          61          62          67          66
          62          63          68          67
          63          64          69          68
          65          66          71          70
          66          67          72          71
          67          68          73          72
          68          69          74          73
          75          76          81          80
          76          77          82          81
          77          78          83          82
          78          79          84          83
          80          81          86          85
          81          82          87          86
          82          83          88          87
          83          84          89          88
          85          86          91          90
          86          87          92          91
          87          88          93          92
          88          89          94          93
          90          91          96          95
          91          92          97          96
          92          93          98          97
          93          94          99          98
         100         101         106         105
         101         102         107         106
         102         103         108         107
         103         104         109         108
         105         106         111         110
         106         107         112         111
         107         108         113         112
         108         109         114         113
         110         111         116         115
         111         112         117         116
         112         113         118         117
         113         114         119         118
         115         116         121         120
         116         117         122         121
         117         118         123         122
         118         119         124         123
         125         126         131         130
         126         127         132         131
         127         128         133         132
         128         129         134         133
         130         131         136         135
         131         132         137         136
         132         133         138         137
         133         134         139         138
         135         136         141         140
         136         137         142         141
         137         138         143         142
         138         139         144         143
         140         141         146         145
         141         142         147         146
         142         143         148         147
         143         144         149         148
         150         151         156         155
         151         152         157         156
         152         153         158         157
         153         154         159         158
         155         156         161         160
         156         157         162         161
         157         158         163         162
         158         159         164         163
         160         161         166         165
         161         162         167         166
         162         163         168         167
         163         164         169         168
         165         166         171         170
         166         167         172         171
         167         168         173         172
         168         169         174         173
         175         176         181         180
         176         177         182         181
         177         178         183         182
         178         179         184         183
         180         181         186         185
         181         182         187         186
         182         183         188         187
         183         184         189         188
         185         186         191         190
         186         187         192         191
         187         188         193         192
         188         189         194         193
         190         191         196         195
         191         192         197         196
         192         193         198         197
         193         194         199         198
         200         201         206         205
         201         202         207         206
         202         203         208         207
         203         204         209         208
         205         206         211         210
         206         207         212         211
         207         208         213         212
         208         209         214         213
         210         211         216         215
         211         212         217         216
         212         213         218         217
         213         214         219         218
         215         216         221         220
         216         217         222         221
         217         218         223         222
         218         219         224         223
         225         226         231         230
         226         227         232         231
         227         228         233         232
         228         229         234         233
         230         231         236         235
         231         232         237         236
         232         233         238         237
         233         234         239         238
         235         236         241         240
         236         237         242         241
         237         238         243         242
         238         239         244         243
         240         241         246         245
         241         242         247         246
         242         243         248         247
         243         244         249         248
         250         251         256         255
         251         252         257         256
         252         253         258         257
         253         254         259         258
         255         256         261         260
         256         257         262         261
         257         258         263         262
         258         259         264         263
         260         261         266         265
         261         262         267         266
         262         263         268         267
         263         264         269         268
         265         266         271         270
         266         267         272         271
         267         268         273         272
         268         269         274         273
         275         276         281         280
         276         277         282         281
         277         278         283         282
         278         279         284         283
         280         281         286         285
         281         282         287         286
         282         283         288         287
         283         284         289         288
         285         286         291         290
         286         287         292         291
         287         288         293         292
         288         289         294         293
         290         291         296         295
         291         292         297         296
         292         293         298         297
         293         294         299         298
         300         301         306         305
         301         302         307         306
         302         303         308         307
         303         304         309         308
         305         306         311         310
         306         307         312         311
         307         308         313         312
         308         309         314         313
         310         311         316         315
         311         312         317         316
         312         313         318         317
         313         314         319         318
         315         316         321         320
         316         317         322         321
         317         318         323         322
         318         319         324         323
         325         326         331         330
         326         327         332         331
         327         328         333         332
         328         329         334         333
         330         331         336         335
         331         332         337         336
         332         333         338         337
         333         334         339         338
         335         336         341         340
         336         337         342         341
         337         338         343         342
         338         339         344         343
         340         341         346         345
         341         342         347         346
         342         343         348         347
         343         344         349         348
         350         351         356         355
         351         352         357         356
         352         353         358         357
         353         354         359         358
         355         356         361         360
         356         357         362         361
         357         358         363         362
         358         359         364         363
         360         361         366         365
         361         362         367         366
         362         363         368         367
         363         364         369         368
         365         366         371         370
         366         367         372         371
         367         368         373         372
         368         369         374         373
         375         376         381         380
         376         377         382         381
         377         378         383         382
         378         379         384         383
         380         381         386         385
         381         382         387         386
         382         383         388         387
         383         384         389         388
         385         386         391         390
         386         387         392         391
         387         388         393         392
         388         389         394         393
         390         391         396         395
         391         392         397         396
         392         393         398         397
         393         394         399         398
         400         401         406         405
         401         402         407         406
         402         403         408         407
         403         404         409         408
         405         406         411         410
         406         407         412         411
         407         408         413         412
         408         409         414         413
         410         411         416         415
         411         412         417         416
         412         413         418         417
         413         414         419         418
         415         416         421         420
         416         417         422         421
         417         418         423         422
         418         419         424         423
         425         426         431         430
         426         427         432         431
         427         428         433         432
         428         429         434         433
         430         431         436         435
         431         432         437         436
         432         433         438         437
         433         434         439         438
         435         436         441         440
         436         437         442         441
         437         438         443         442
         438         439         444         443
         440         441         446         445
         441         442         447         446
         442         443         448         447
         443         444         449         448
         450         451         456         455
         451         452         457         456
         452         453         458         457
         453         454         459         458
         455         456         461         460
         456         457         462         461
         457         458         463         462
         458         459         464         463
         460         461         466         465
         461         462         467         466
         462         463         468         467
         463         464         469         468
         465         466         471         470
         466         467         472         471
         467         468         473         472
         468         469         474         473
         475         476         481         480
         476         477         482         481
         477         478         483         482
         478         479         484         483
         480         481         486         485
         481         482         487         486
         482         483         488         487
         483         484         489         488
         485         486         491         490
         486         487         492         491
         487         488         493         492
         488         489         494         493
         490         491         496         495
         491         492         497         496
         492         493         498         497
         493         494         499         498
         500         501         506         505
         501         502         507         506
         502         503         508         507
         503         504         509         508
         505         506         511         510
         506         507         512         511
         507         508         513         512
         508         509         514         513
         510         511         516         515
         511         512         517         516
         512         513         518         517
         513         514         519         518
         515         516         521         520
         516         517         522         521
         517         518         523         522
         518         519         524         523
         525         526         531         530
         526         527         532         531
         527         528         533         532
         528         529         534         533
         530         531         536         535
         531         532         537         536
         532         533         538         537
         533         534         539         538
         535         536         541         540
         536         537         542         541
         537         538         543         542
         538         539         544         543
         540         541         546         545
         541         542         547         546
         542         543         548         547
         543         544         549         548
         550         551         556         555
         551         552         557         556
         552         553         558         557
         553         554         559         558
         555         556         561         560
         556         557         562         561
         557         558         563         562
         558         559         564         563
         560         561         566         565
         561         562         567         566
         562         563         568         567
         563         564         569         568
         565         566         571         570
         566         567         572         571
         567         568         573         572
         568         569         574         573
         575         576         581         580
         576         577         582         581
         577         578         583         582
         578         579         584         583
         580         581         586         585
         581         582         587         586
         582         583         588         587
         583         584         589         588
         585         586         591         590
         586         587         592         591
         587         588         593         592
         588         589         594         593
         590         591         596         595
         591         592         597         596
         592         593         598         597
         593         594         599         598
         600         601         606         605
         601         602         607         606
         602         603         608         607
         603         604         609         608
         605         606         611         610
         606         607         612         611
         607         608         613         612
         608         609         614         613
         610         611         616         615
         611         612         617         616
         612         613         618         617
         613         614         619         618
         615         616         621         620
         616         617         622         621
         617         618         623         622
         618         619         624         623
         625         626         631         630
         626         627         632         631
         627         628         633         632
         628         629         634         633
         630         631         636         635
         631         632         637         636
         632         633         638         637
         633         634         639         638
         635         636         641         640
         636         637         642         641
         637         638         643         642
         638         639         644         643
         640         641         646         645
         641         642         647         646
         642         643         648         647
         643         644         649         648
         650         651         656         655
         651         652         657         656
         652         653         658         657
         653         654         659         658
         655         656         661         660
         656         657         662         661
         657         658         663         662
         658         659         664         663
         660         661         666         665
         661         662         667         666
         662         663         668         667
         663         664         669         668
         665         666         671         670
         666         667         672         671
         667         668         673         672
         668         669         674         673
         675         676         681         680
         676         677         682         681
         677         678         683         682
         678         679         684         683
         680         681         686         685
         681         682         687         686
         682         683         688         687
         683         684         689         688
         685         686         691         690
         686         687         692         691
         687         688         693         692
         688         689         694         693
         690         691         696         695
         691         692         697         696
         692         693         698         697
         693         694         699         698
         700         701         706         705
         701         702         707         706
         702         703         708         707
         703         704         709         708
         705         706         711         710
         706         707         712         711
         707         708         713         712
         708         709         714         713
         710         711         716         715
         711         712         717         716
         712         713         718         717
         713         714         719         718
         715         716         721         720
         716         717         722         721
         717         718         723         722
         718         719         724         723
         725         726         731         730
         726         727         732         731
         727         728         733         732
         728         729         734         733
         730         731         736         735
         731         732         737         736
         732         733         738         737
         733         734         739         738
         735         736         741         740
         736         737         742         741
         737         738         743         742
         738         739         744         743
         740         741         746         745
         741         742         747         746
         742         743         748         747
         743         744         749         748
         750         751         756         755
         751         752         757         756
         752         753         758         757
         753         754         759         758
         755         756         761         760
         756         757         762         761
         757         758         763         762
         758         759         764         763
         760         761         766         765
         761         762         767         766
         762         763         768         767
         763         764         769         768
         765         766         771         770
         766         767         772         771
         767         768         773         772
         768         769         774         773
         775         776         781         780
         776         777         782         781
         777         778         783         782
         778         779         784         783
         780         781         786         785
         781         782         787         786
         782         783         788         787
         783         784         789         788
         785         786         791         790
         786         787         792         791
         787         788         793         792
         788         789         794         793
         790         791         796         795
         791         792         797         796
         792         793         798         797
         793         794         799         798
         800         801         806         805
         801         802         807         806
         802         803         808         807
         803         804         809         808
         805         806         811         810
         806         807         812         811
         807         808         813         812
         808         809         814         813
         810         811         816         815
         811         812         817         816
         812         813         818         817
         813         814         819         818
         815         816         821         820
         816         817         822         821
         817         818         823         822
         818         819         824         823
         825         826         831         830
         826         827         832         831
         827         828         833         832
         828         829         834         833
         830         831         836         835
         831         832         837         836
         832         833         838         837
         833         834         839         838
         835         836         841         840
         836         837         842         841
         837         838         843         842
         838         839         844         843
         840         841         846         845
         841         842         847         846
         842         843         848         847
         843         844         849         848
         850         851         856         855
         851         852         857         856
         852         853         858         857
         853         854         859         858
         855         856         861         860
         856         857         862         861
         857         858         863         862
         858         859         864         863
         860         861         866         865
         861         862         867         866
         862         863         868         867
         863         864         869         868
         865         866         871         870
         866         867         872         871
         867         868         873         872
         868         869         874         873
         875         876         881         880
         876         877         882         881
         877         878         883         882
         878         879         884         883
         880         881         886         885
         881         882         887         886
         882         883         888         887
         883         884         889         888
         885         886         891         890
         886         887         892         891
         887         888         893         892
         888         889         894         893
         890         891         896         895
         891         892         897         896
         892         893         898         897
         893         894         899         898
         900         901         906         905
         901         902         907         906
         902         903         908         907
         903         904         909         908
         905         906         911         910
         906         907         912         911
         907         908         913         912
         908         909         914         913
         910         911         916         915
         911         912         917         916
         912         913         918         917
         913         914         919         918
         915         916         921         920
         916         917         922         921
         917         918         923         922
         918         919         924         923
         925         926         931         930
         926         927         932         931
         927         928         933         932
         928         929         934         933
         930         931         936         935
         931         932         937         936
         932         933         938         937
         933         934         939         938
         935         936         941         940
         936         937         942         941
         937         938         943         942
         938         939         944         943
         940         941         946         945
         941         942         947         946
         942         943         948         947
         943         944         949         948
         950         951         956         955
         951         952         957         956
         952         953         958         957
         953         954         959         958
         955         956         961         960
         956         957         962         961
         957         958         963         962
         958         959         964         963
         960         961         966         965
         961         962         967         966
         962         963         968         967
         963         964         969         968
         965         966         971         970
         966         967         972         971
         967         968         973         972
         968         969         974         973
         975         976         981         980
         976         977         982         981
         977         978         983         982
         978         979         984         983
         980         981         986         985
         981         982         987         986
         982         983         988         987
         983         984         989         988
         985         986         991         990
         986         987         992         991
         987         988         993         992
         988         989         994         993
         990         991         996         995
         991         992         997         996
         992         993         998         997
         993         994         999         998
        1000        1001        1006        1005
        1001        1002        1007        1006
        1002        1003        1008        1007
        1003        1004        1009        1008
        1005        1006        1011        1010
        1006        1007        1012        1011
        1007        1008        1013        1012
        1008        1009        1014        1013
        1010        1011        1016        1015
        1011        1012        1017        1016
        1012        1013        1018        1017
        1013        1014        1019        1018
        1015        1016        1021        1020
        1016        1017        1022        1021
        1017        1018        1023        1022
        1018        1019        1024        1023
        1025        1026        1031        1030
        1026        1027        1032        1031
        1027        1028        1033        1032
        1028        1029        1034        1033
        1030        1031        1036        1035
        1031        1032        1037        1036
        1032        1033        1038        1037
        1033        1034        1039        1038
        1035        1036        1041        1040
        1036        1037        1042        1041
        1037        1038        1043        1042
        1038        1039        1044        1043
        1040        1041        1046        1045
        1041        1042        1047        1046
        1042        1043        1048        1047
        1043        1044        1049        1048
        1050        1051        1056        1055
        1051        1052        1057        1056
        1052        1053        1058        1057
        1053        1054        1059        1058
        1055        1056        1061        1060
        1056        1057        1062        1061
        1057        1058        1063        1062
        1058        1059        1064        1063
        1060        1061        1066        1065
        1061        1062        1067        1066
        1062        1063        1068        1067
        1063        1064        1069        1068
        1065        1066        1071        1070
        1066        1067        1072        1071
        1067        1068        1073        1072
        1068        1069        1074        1073
        1075        1076        1081        1080
        1076        1077        1082        1081
        1077        1078        1083        1082
        1078        1079        1084        1083
        1080        1081        1086        1085
        1081        1082        1087        1086
        1082        1083        1088        1087
        1083        1084        1089        1088
        1085        1086        1091        1090
        1086        1087        1092        1091
        1087        1088        1093        1092
        1088        1089        1094        1093
        1090        1091        1096        1095
        1091        1092        1097        1096
        1092        1093        1098        1097
        1093        1094        1099        1098
        1100        1101        1106        1105
        1101        1102        1107        1106
        1102        1103        1108        1107
        1103        1104        1109        1108
        1105        1106        1111        1110
        1106        1107        1112        1111
        1107        1108        1113        1112
        1108        1109        1114        1113
        1110        1111        1116        1115
        1111        1112        1117        1116
        1112        1113        1118        1117
        1113        1114        1119        1118
        1115        1116        1121        1120
        1116        1117        1122        1121
        1117        1118        1123        1122
        1118        1119        1124        1123
        1125        1126        1131        1130
        1126        1127        1132        1131
        1127        1128        1133        1132
        1128        1129        1134        1133
        1130        1131        1136        1135
        1131        1132        1137        1136
        1132        1133        1138        1137
        1133        1134        1139        1138
        1135        1136        1141        1140
        1136        1137        1142        1141
        1137        1138        1143        1142
        1138        1139        1144        1143
        1140        1141        1146        1145
        1141        1142        1147        1146
        1142        1143        1148        1147
        1143        1144        1149        1148
        1150        1151        1156        1155
        1151        1152        1157        1156
        1152        1153        1158        1157
        1153        1154        1159        1158
        1155        1156        1161        1160
        1156        1157        1162        1161
        1157        1158        1163        1162
        1158        1159        1164        1163
        1160        1161        1166        1165
        1161        1162        1167        1166
        1162        1163        1168        1167
        1163        1164        1169        1168
        1165        1166        1171        1170
        1166        1167        1172        1171
        1167        1168        1173        1172
        1168        1169        1174        1173
        1175        1176        1181        1180
        1176        1177        1182        1181
        1177        1178        1183        1182
        1178        1179        1184        1183
        1180        1181        1186        1185
        1181        1182        1187        1186
        1182        1183        1188        1187
        1183        1184        1189        1188
        1185        1186        1191        1190
        1186        1187        1192        1191
        1187        1188        1193        1192
        1188        1189        1194        1193
        1190        1191        1196        1195
        1191        1192        1197        1196
        1192        1193        1198        1197
        1193        1194        1199        1198
        1200        1201        1206        1205
        1201        1202        1207        1206
        1202        1203        1208        1207
        1203        1204        1209        1208
        1205        1206        1211        1210
        1206        1207        1212        1211
        1207        1208        1213        1212
        1208        1209        1214        1213
        1210        1211        1216        1215
        1211        1212        1217        1216
        1212        1213        1218        1217
        1213        1214        1219        1218
        1215        1216        1221        1220
        1216        1217        1222        1221
        1217        1218        1223        1222
        1218        1219        1224        1223
        1225        1226        1231        1230
        1226        1227        1232        1231
        1227        1228        1233        1232
        1228        1229        1234        1233
        1230        1231        1236        1235
        1231        1232        1237        1236
        1232        1233        1238        1237
        1233        1234        1239        1238
        1235        1236        1241        1240
        1236        1237        1242        1241
        1237        1238        1243        1242
        1238        1239        1244        1243
        1240        1241        1246        1245
        1241        1242        1247        1246
        1242        1243        1248        1247
        1243        1244        1249        1248
        1250        1251        1256        1255
        1251        1252        1257        1256
        1252        1253        1258        1257
        1253        1254        1259        1258
        1255        1256        1261        1260
        1256        1257        1262        1261
        1257        1258        1263        1262
        1258        1259        1264        1263
        1260        1261        1266        1265
        1261        1262        1267        1266
        1262        1263        1268        1267
        1263        1264        1269        1268
        1265        1266        1271        1270
        1266        1267        1272        1271
        1267        1268        1273        1272
        1268        1269        1274        1273
        1275        1276        1281        1280
        1276        1277        1282        1281
        1277        1278        1283        1282
        1278        1279        1284        1283
        1280        1281        1286        1285
        1281        1282        1287        1286
        1282        1283        1288        1287
        1283        1284        1289        1288
        1285        1286        1291        1290
        1286        1287        1292        1291
        1287        1288        1293        1292
        1288        1289        1294        1293
        1290        1291        1296        1295
        1291        1292        1297        1296
        1292        1293        1298        1297
        1293        1294        1299        1298
        1300        1301        1306        1305
        1301        1302        1307        1306
        1302        1303        1308        1307
        1303        1304        1309        1308
        1305        1306        1311        1310
        1306        1307        1312        1311
        1307        1308        1313        1312
        1308        1309        1314        1313
        1310        1311        1316        1315
        1311        1312        1317        1316
        1312        1313        1318        1317
        1313        1314        1319        1318
        1315        1316        1321        1320
        1316        1317        1322        1321
        1317        1318        1323        1322
        1318        1319        1324        1323
        1325        1326        1331        1330
        1326        1327        1332        1331
        1327        1328        1333        1332
        1328        1329        1334        1333
        1330        1331        1336        1335
        1331        1332        1337        1336
        1332        1333        1338        1337
        1333        1334        1339        1338
        1335        1336        1341        1340
        1336        1337        1342        1341
        1337        1338        1343        1342
        1338        1339        1344        1343
        1340        1341        1346        1345
        1341        1342        1347        1346
        1342        1343        1348        1347
        1343        1344        1349        1348
        1350        1351        1356        1355
        1351        1352        1357        1356
        1352        1353        1358        1357
        1353        1354        1359        1358
        1355        1356        1361        1360
        1356        1357        1362        1361
        1357        1358        1363        1362
        1358        1359        1364        1363
        1360        1361        1366        1365
        1361        1362        1367        1366
        1362        1363        1368        1367
        1363        1364        1369        1368
        1365        1366        1371        1370
        1366        1367        1372        1371
        1367        1368        1373        1372
        1368        1369        1374        1373
        1375        1376        1381        1380
        1376        1377        1382        1381
        1377        1378        1383        1382
        1378        1379        1384        1383
        1380        1381        1386        1385
        1381        1382        1387        1386
        1382        1383        1388        1387
        1383        1384        1389        1388
        1385        1386        1391        1390
        1386        1387        1392        1391
        1387        1388        1393        1392
        1388        1389        1394        1393
        1390        1391        1396        1395
        1391        1392        1397        1396
        1392        1393        1398        1397
        1393        1394        1399        1398
        1400        1401        1406        1405
        1401        1402        1407        1406
        1402        1403        1408        1407
        1403        1404        1409        1408
        1405        1406        1411        1410
        1406        1407        1412        1411
        1407        1408        1413        1412
        1408        1409        1414        1413
        1410        1411        1416        1415
        1411        1412        1417        1416
        1412        1413        1418        1417
        1413        1414        1419        1418
        1415        1416        1421        1420
        1416        1417        1422        1421
        1417        1418        1423        1422
        1418        1419        1424        1423
        1425        1426        1431        1430
        1426        1427        1432        1431
        1427        1428        1433        1432
        1428        1429        1434        1433
        1430        1431        1436        1435
        1431        1432        1437        1436
        1432        1433        1438        1437
        1433        1434        1439        1438
        1435        1436        1441        1440
        1436        1437        1442        1441
        1437        1438        1443        1442
        1438        1439        1444        1443
        1440        1441        1446        1445
        1441        1442        1447        1446
        1442        1443        1448        1447
        1443        1444        1449        1448
        1450        1451        1456        1455
        1451        1452        1457        1456
        1452        1453        1458        1457
        1453        1454        1459        1458
        1455        1456        1461        1460
        1456        1457        1462        1461
        1457        1458        1463        1462
        1458        1459        1464        1463
        1460        1461        1466        1465
        1461        1462        1467        1466
        1462        1463        1468        1467
        1463        1464        1469        1468
        1465        1466        1471        1470
        1466        1467        1472        1471
        1467        1468        1473        1472
        1468        1469        1474        1473
        1475        1476        1481        1480
        1476        1477        1482        1481
        1477        1478        1483        1482
        1478        1479        1484        1483
        1480        1481        1486        1485
        1481        1482        1487        1486
        1482        1483        1488        1487
        1483        1484        1489        1488
        1485        1486        1491        1490
        1486        1487        1492        1491
        1487        1488        1493        1492
        1488        1489        1494        1493
        1490        1491        1496        1495
        1491        1492        1497        1496
        1492        1493        1498        1497
        1493        1494        1499        1498
        1500        1501        1506        1505
        1501        1502        1507        1506
        1502        1503        1508        1507
        1503        1504        1509        1508
        1505        1506        1511        1510
        1506        1507        1512        1511
        1507        1508        1513        1512
        1508        1509        1514        1513
        1510        1511        1516        1515
        1511        1512        1517        1516
        1512        1513        1518        1517
        1513        1514        1519        1518
        1515        1516        1521        1520
        1516        1517        1522        1521
        1517        1518        1523        1522
        1518        1519        1524        1523
        1525        1526        1531        1530
        1526        1527        1532        1531
        1527        1528        1533        1532
        1528        1529        1534        1533
        1530        1531        1536        1535
        1531        1532        1537        1536
        1532        1533        1538        1537
        1533        1534        1539        1538
        1535        1536        1541        1540
        1536        1537        1542        1541
        1537        1538        1543        1542
        1538        1539        1544        1543
        1540        1541        1546        1545
        1541        1542        1547        1546
        1542        1543        1548        1547
        1543        1544        1549        1548
        1550        1551        1556        1555
        1551        1552        1557        1556
        1552        1553        1558        1557
        1553        1554        1559        1558
        1555        1556        1561        1560
        1556        1557        1562        1561
        1557        1558        1563        1562
        1558        1559        1564        1563
        1560        1561        1566        1565
        1561        1562        1567        1566
        1562        1563        1568        1567
        1563        1564        1569        1568
        1565        1566        1571        1570
        1566        1567        1572        1571
        1567        1568        1573        1572
        1568        1569        1574        1573
        1575        1576        1581        1580
        1576        1577        1582        1581
        1577        1578        1583        1582
        1578        1579        1584        1583
        1580        1581        1586        1585
        1581        1582        1587        1586
        1582        1583        1588        1587
        1583        1584        1589        1588
        1585        1586        1591        1590
        1586        1587        1592        1591
        1587        1588        1593        1592
        1588        1589        1594        1593
        1590        1591        1596        1595
        1591        1592        1597        1596
        1592        1593        1598        1597
        1593        1594        1599        1598
 </DataArray>
 <DataArray  type="Int32"  Name="offsets"  format="ascii"> 
           4
           8
          12
          16
          20
          24
          28
          32
          36
          40
          44
          48
          52
          56
          60
          64
          68
          72
          76
          80
          84
          88
          92
          96
         100
         104
         108
         112
         116
         120
         124
         128
         132
         136
         140
         144
         148
         152
         156
         160
         164
         168
         172
         176
         180
         184
         188
         192
         196
         200
         204
         208
         212
         216
         220
         224
         228
         232
         236
         240
         244
         248
         252
         256
         260
         264
         268
         272
         276
         280
         284
         288
         292
         296
         300
         304
         308
         312
         316
         320
         324
         328
         332
         336
         340
         344
         348
         352
         356
         360
         364
         368
         372
         376
         380
         384
         388
         392
         396
         400
         404
         408
         412
         416
         420
         424
         428
         432
         436
         440
         444
         448
         452
         456
         460
         464
         468
         472
         476
         480
         484
         488
         492
         496
         500
         504
         508
         512
         516
         520
         524
         528
         532
         536
         540
         544
         548
         552
         556
         560
         564
         568
         572
         576
         580
         584
         588
         592
         596
         600
         604
         608
         612
         616
         620
         624
         628
         632
         636
         640
         644
         648
         652
         656
         660
         664
         668
         672
         676
         680
         684
         688
         692
         696
         700
         704
         708
         712
         716
         720
         724
         728
         732
         736
         740
         744
         748
         752
         756
         760
         764
         768
         772
         776
         780
         784
         788
         792
         796
         800
         804
         808
         812
         816
         820
         824
         828
         832
         836
         840
         844
         848
         852
         856
         860
         864
         868
         872
         876
         880
         884
         888
         892
         896
         900
         904
         908
         912
         916
         920
         924
         928
         932
         936
         940
         944
         948
         952
         956
         960
         964
         968
         972
         976
         980
         984
         988
         992
         996
        1000
        1004
        1008
        1012
        1016
        1020
        1024
        1028
        1032
        1036
        1040
        1044
        1048
        1052
        1056
        1060
        1064
        1068
        1072
        1076
        1080
        1084
        1088
        1092
        1096
        1100
        1104
        1108
        1112
        1116
        1120
        1124
        1128
        1132
        1136
        1140
        1144
        1148
        1152
        1156
        1160
        1164
        1168
        1172
        1176
        1180
        1184
        1188
        1192
        1196
        1200
        1204
        1208
        1212
        1216
        1220
        1224
        1228
        1232
        1236
        1240
        1244
        1248
        1252
        1256
        1260
        1264
        1268
        1272
        1276
        1280
        1284
        1288
        1292
        1296
        1300
        1304
        1308
        1312
        1316
        1320
        1324
        1328
        1332
        1336
        1340
        1344
        1348
        1352
        1356
        1360
        1364
        1368
        1372
        1376
        1380
        1384
        1388
        1392
        1396
        1400
        1404
        1408
        1412
        1416
        1420
        1424
        1428
        1432
        1436
        1440
        1444
        1448
        1452
        1456
        1460
        1464
        1468
        1472
        1476
        1480
        1484
        1488
        1492
        1496
        1500
        1504
        1508
        1512
        1516
        1520
        1524
        1528
        1532
        1536
        1540
        1544
        1548
        1552
        1556
        1560
        1564
        1568
        1572
        1576
        1580
        1584
        1588
        1592
        1596
        1600
        1604
        1608
        1612
        1616
        1620
        1624
        1628
        1632
        1636
        1640
        1644
        1648
        1652
        1656
        1660
        1664
        1668
        1672
        1676
        1680
        1684
        1688
        1692
        1696
        1700
        1704
        1708
        1712
        1716
        1720
        1724
        1728
        1732
        1736
        1740
        1744
        1748
        1752
        1756
        1760
        1764
        1768
        1772
        1776
        1780
        1784
        1788
        1792
        1796
        1800
        1804
        1808
        1812
        1816
        1820
        1824
        1828
        1832
        1836
        1840
        1844
        1848
        1852
        1856
        1860
        1864
        1868
        1872
        1876
        1880
        1884
        1888
        1892
        1896
        1900
        1904
        1908
        1912
        1916
        1920
        1924
        1928
        1932
        1936
        1940
        1944
        1948
        1952
        1956
        1960
        1964
        1968
        1972
        1976
        1980
        1984
        1988
        1992
        1996
        2000
        2004
        2008
        2012
        2016
        2020
        2024
        2028
        2032
        2036
        2040
        2044
        2048
        2052
        2056
        2060
        2064
        2068
        2072
        2076
        2080
        2084
        2088
        2092
        2096
        2100
        2104
        2108
        2112
        2116
        2120
        2124
        2128
        2132
        2136
        2140
        2144
        2148
        2152
        2156
        2160
        2164
        2168
        2172
        2176
        2180
        2184
        2188
        2192
        2196
        2200
        2204
        2208
        2212
        2216
        2220
        2224
        2228
        2232
        2236
        2240
        2244
        2248
        2252
        2256
        2260
        2264
        2268
        2272
        2276
        2280
        2284
        2288
        2292
        2296
        2300
        2304
        2308
        2312
        2316
        2320
        2324
        2328
        2332
        2336
        2340
        2344
        2348
        2352
        2356
        2360
        2364
        2368
        2372
        2376
        2380
        2384
        2388
        2392
        2396
        2400
        2404
        2408
        2412
        2416
        2420
        2424
        2428
        2432
        2436
        2440
        2444
        2448
        2452
        2456
        2460
        2464
        2468
        2472
        2476
        2480
        2484
        2488
        2492
        2496
        2500
        2504
        2508
        2512
        2516
        2520
        2524
        2528
        2532
        2536
        2540
        2544
        2548
        2552
        2556
        2560
        2564
        2568
        2572
        2576
        2580
        2584
        2588
        2592
        2596
        2600
        2604
        2608
        2612
        2616
        2620
        2624
        2628
        2632
        2636
        2640
        2644
        2648
        2652
        2656
        2660
        2664
        2668
        2672
        2676
        2680
        2684
        2688
        2692
        2696
        2700
        2704
        2708
        2712
        2716
        2720
        2724
        2728
        2732
        2736
        2740
        2744
        2748
        2752
        2756
        2760
        2764
        2768
        2772
        2776
        2780
        2784
        2788
        2792
        2796
        2800
        2804
        2808
        2812
        2816
        2820
        2824
        2828
        2832
        2836
        2840
        2844
        2848
        2852
        2856
        2860
        2864
        2868
        2872
        2876
        2880
        2884
        2888
        2892
        2896
        2900
        2904
        2908
        2912
        2916
        2920
        2924
        2928
        2932
        2936
        2940
        2944
        2948
        2952
        2956
        2960
        2964
        2968
        2972
        2976
        2980
        2984
        2988
        2992
        2996
        3000
        3004
        3008
        3012
        3016
        3020
        3024
        3028
        3032
        3036
        3040
        3044
        3048
        3052
        3056
        3060
        3064
        3068
        3072
        3076
        3080
        3084
        3088
        3092
        3096
        3100
        3104
        3108
        3112
        3116
        3120
        3124
        3128
        3132
        3136
        3140
        3144
        3148
        3152
        3156
        3160
        3164
        3168
        3172
        3176
        3180
        3184
        3188
        3192
        3196
        3200
        3204
        3208
        3212
        3216
        3220
        3224
        3228
        3232
        3236
        3240
        3244
        3248
        3252
        3256
        3260
        3264
        3268
        3272
        3276
        3280
        3284
        3288
        3292
        3296
        3300
        3304
        3308
        3312
        3316
        3320
        3324
        3328
        3332
        3336
        3340
        3344
        3348
        3352
        3356
        3360
        3364
        3368
        3372
        3376
        3380
        3384
        3388
        3392
        3396
        3400
        3404
        3408
        3412
        3416
        3420
        3424
        3428
        3432
        3436
        3440
        3444
        3448
        3452
        3456
        3460
        3464
        3468
        3472
        3476
        3480
        3484
        3488
        3492
        3496
        3500
        3504
        3508
        3512
        3516
        3520
        3524
        3528
        3532
        3536
        3540
        3544
        3548
        3552
        3556
        3560
        3564
        3568
        3572
        3576
        3580
        3584
        3588
        3592
        3596
        3600
        3604
        3608
        3612
        3616
        3620
        3624
        3628
        3632
        3636
        3640
        3644
        3648
        3652
        3656
        3660
        3664
        3668
        3672
        3676
        3680
        3684
        3688
        3692
        3696
        3700
        3704
        3708
        3712
        3716
        3720
        3724
        3728
        3732
        3736
        3740
        3744
        3748
        3752
        3756
        3760
        3764
        3768
        3772
        3776
        3780
        3784
        3788
        3792
        3796
        3800
        3804
        3808
        3812
        3816
        3820
        3824
        3828
        3832
        3836
        3840
        3844
        3848
        3852
        3856
        3860
        3864
        3868
        3872
        3876
        3880
        3884
        3888
        3892
        3896
        3900
        3904
        3908
        3912
        3916
        3920
        3924
        3928
        3932
        3936
        3940
        3944
        3948
        3952
        3956
        3960
        3964
        3968
        3972
        3976
        3980
        3984
        3988
        3992
        3996
        4000
        4004
        4008
        4012
        4016
        4020
        4024
        4028
        4032
        4036
        4040
        4044
        4048
        4052
        4056
        4060
        4064
        4068
        4072
        4076
        4080
        4084
        4088
        4092
        4096
 </DataArray>
 <DataArray  type="UInt8"  Name="types"  format="ascii">
 9
 9
 9
 9
 9
 9
 9
 9
 9
 9
 9
 9
 9
 9
 9
 9
 9
 9
 9
 9
 9
 9
 9
 9
 9
 9
 9
 9
 9
 9
 9
 9
 9
 9
 9
 9
 9
 9
 9
 9
 9
 9
 9
 9
 9
 9
 9
 9
 9
 9
 9
 9
 9
 9
 9
 9
 9
 9
 9
 9
 9
 9
 9
 9
 9
 9
 9
 9
 9
 9
 9
 9
 9
 9
 9
 9
 9
 9
 9
 9
 9
 9
 9
 9
 9
 9
 9
 9
 9
 9
 9
 9
 9
 9
 9
 9
 9
 9
 9
 9
 9
 9
 9
 9
 9
 9
 9
 9
 9
 9
 9
 9
 9
 9
 9
 9
 9
 9
 9
 9
 9
 9
 9
 9
 9
 9
 9
 9
 9
 9
 9
 9
 9
 9
 9
 9
 9
 9
 9
 9
 9
 9
 9
 9
 9
 9
 9
 9
 9
 9
 9
 9
 9
 9
 9
 9
 9
 9
 9
 9
 9
 9
 9
 9
 9
 9
 9
 9
 9
 9
 9
 9
 9
 9
 9
 9
 9
 9
 9
 9
 9
 9
 9
 9
 9
 9
 9
 9
 9
 9
 9
 9
 9
 9
 9
 9
 9
 9
 9
 9
 9
 9
 9
 9
 9
 9
 9
 9
 9
 9
 9
 9
 9
 9
 9
 9
 9
 9
 9
 9
 9
 9
 9
 9
 9
 9
 9
 9
 9
 9
 9
 9
 9
 9
 9
 9
 9
 9
 9
 9
 9
 9
 9
 9
 9
 9
 9
 9
 9
 9
 9
 9
 9
 9
 9
 9
 9
 9
 9
 9
 9
 9
 9
 9
 9
 9
 9
 9
 9
 9
 9
 9
 9
 9
 9
 9
 9
 9
 9
 9
 9
 9
 9
 9
 9
 9
 9
 9
 9
 9
 9
 9
 9
 9
 9
 9
 9
 9
 9
 9
 9
 9
 9
 9
 9
 9
 9
 9
 9
 9
 9
 9
 9
 9
 9
 9
 9
 9
 9
 9
 9
 9
 9
 9
 9
 9
 9
 9
 9
 9
 9
 9
 9
 9
 9
 9
 9
 9
 9
 9
 9
 9
 9
 9
 9
 9
 9
 9
 9
 9
 9
 9
 9
 9
 9
 9
 9
 9
 9
 9
 9
 9
 9
 9
 9
 9
 9
 9
 9
 9
 9
 9
 9
 9
 9
 9
 9
 9
 9
 9
 9
 9
 9
 9
 9
 9
 9
 9
 9
 9
 9
 9
 9
 9
 9
 9
 9
 9
 9
 9
 9
 9
 9
 9
 9
 9
 9
 9
 9
 9
 9
 9
 9
 9
 9
 9
 9
 9
 9
 9
 9
 9
 9
 9
 9
 9
 9
 9
 9
 9
 9
 9
 9
 9
 9
 9
 9
 9
 9
 9
 9
 9
 9
 9
 9
 9
 9
 9
 9
 9
 9
 9
 9
 9
 9
 9
 9
 9
 9
 9
 9
 9
 9
 9
 9
 9
 9
 9
 9
 9
 9
 9
 9
 9
 9
 9
 9
 9
 9
 9
 9
 9
 9
 9
 9
 9
 9
 9
 9
 9
 9
 9
 9
 9
 9
 9
 9
 9
 9
 9
 9
 9
 9
 9
 9
 9
 9
 9
 9
 9
 9
 9
 9
 9
 9
 9
 9
 9
 9
 9
 9
 9
 9
 9
 9
 9
 9
 9
 9
 9
 9
 9
 9
 9
 9
 9
 9
 9
 9
 9
 9
 9
 9
 9
 9
 9
 9
 9
 9
 9
 9
 9
 9
 9
 9
 9
 9
 9
 9
 9
 9
 9
 9
 9
 9
 9
 9
 9
 9
 9
 9
 9
 9
 9
 9
 9
 9
 9
 9
 9
 9
 9
 9
 9
 9
 9
 9
 9
 9
 9
 9
 9
 9
 9
 9
 9
 9
 9
 9
 9
 9
 9
 9
 9
 9
 9
 9
 9
 9
 9
 9
 9
 9
 9
 9
 9
 9
 9
 9
 9
 9
 9
 9
 9
 9
 9
 9
 9
 9
 9
 9
 9
 9
 9
 9
 9
 9
 9
 9
 9
 9
 9
 9
 9
 9
 9
 9
 9
 9
 9
 9
 9
 9
 9
 9
 9
 9
 9
 9
 9
 9
 9
 9
 9
 9
 9
 9
 9
 9
 9
 9
 9
 9
 9
 9
 9
 9
 9
 9
 9
 9
 9
 9
 9
 9
 9
 9
 9
 9
 9
 9
 9
 9
 9
 9
 9
 9
 9
 9
 9
 9
 9
 9
 9
 9
 9
 9
 9
 9
 9
 9
 9
 9
 9
 9
 9
 9
 9
 9
 9
 9
 9
 9
 9
 9
 9
 9
 9
 9
 9
 9
 9
 9
 9
 9
 9
 9
 9
 9
 9
 9
 9
 9
 9
 9
 9
 9
 9
 9
 9
 9
 9
 9
 9
 9
 9
 9
 9
 9
 9
 9
 9
 9
 9
 9
 9
 9
 9
 9
 9
 9
 9
 9
 9
 9
 9
 9
 9
 9
 9
 9
 9
 9
 9
 9
 9
 9
 9
 9
 9
 9
 9
 9
 9
 9
 9
 9
 9
 9
 9
 9
 9
 9
 9
 9
 9
 9
 9
 9
 9
 9
 9
 9
 9
 9
 9
 9
 9
 9
 9
 9
 9
 9
 9
 9
 9
 9
 9
 9
 9
 9
 9
 9
 9
 9
 9
 9
 9
 9
 9
 9
 9
 9
 9
 9
 9
 9
 9
 9
 9
 9
 9
 9
 9
 9
 9
 9
 9
 9
 9
 9
 9
 9
 9
 9
 9
 9
 9
 9
 9
 9
 9
 9
 9
 9
 9
 9
 9
 9
 9
 9
 9
 9
 9
 9
 9
 9
 9
 9
 9
 9
 9
 9
 9
 9
 9
 9
 9
 9
 9
 9
 9
 9
 9
 9
 9
 9
 9
 9
 9
 9
 9
 9
 9
 9
 9
 9
 9
 9
 9
 9
 9
 9
 9
 9
 9
 9
 9
 9
 9
 9
 9
 9
 9
 9
 9
 9
 9
 9
 9
 9
 9
 9
 9
 9
 9
 9
 9
 9
 9
 9
 9
 9
 9
 9
 9
 9
 9
 9
 9
 9
 9
 9
 9
 9
 9
 9
 9
 9
 9
 9
 9
 9
 9
 9
 9
 9
 9
 9
 9
 9
 9
 9
 9
 9
 9
 9
 9
 9
 9
 9
 9
 9
 9
 9
 9
 9
 9
 9
 9
 9
 9
 9
 9
 9
 9
 9
 9
 9
 9
 9
 9
 9
 9
 9
 9
 9
 9
 9
 9
 9
 9
 9
 9
 </DataArray>
 </Cells> 
 <PointData>
 <DataArray  type="Float64" Name="disp" NumberOfComponents="3" format="ascii">
   0.0000000000000000        0.0000000000000000        0.0000000000000000     
   6.0958887511244333E-003   3.7904854360992805E-003   0.0000000000000000     
   1.1665924587368481E-002   7.3238988888210538E-003   0.0000000000000000     
   1.6710107508732149E-002   1.0600240358165317E-002   0.0000000000000000     
   2.1228437515215429E-002   1.3619509844132075E-002   0.0000000000000000     
   0.0000000000000000        0.0000000000000000        0.0000000000000000     
   4.8911249640934875E-003   3.0221679273487899E-003   0.0000000000000000     
   9.5736135112249911E-003   6.0605535176607942E-003   0.0000000000000000     
   1.4047465641394512E-002   9.1151567709360122E-003   0.0000000000000000     
   1.8312681354602050E-002   1.2185977687174445E-002   0.0000000000000000     
   0.0000000000000000        0.0000000000000000        0.0000000000000000     
   3.9535683598212962E-003   2.4251192037255680E-003   0.0000000000000000     
   7.9106335740038464E-003   5.0628915249056935E-003   0.0000000000000000     
   1.1871195642547652E-002   7.9133169635403726E-003   0.0000000000000000     
   1.5835254565452709E-002   1.0976395519629612E-002   0.0000000000000000     
   0.0000000000000000        0.0000000000000000        0.0000000000000000     
   3.2832189383078586E-003   1.9993392652296158E-003   0.0000000000000000     
   6.6769847757050457E-003   4.3309129105557516E-003   0.0000000000000000     
   1.0181297512191562E-002   6.9947209359784062E-003   0.0000000000000000     
   1.3796157147767406E-002   9.9907633414975799E-003   0.0000000000000000     
   0.0000000000000000        0.0000000000000000        0.0000000000000000     
   2.8800766995531746E-003   1.7448281118609323E-003   0.0000000000000000     
   5.8726671163285898E-003   3.8646176746109677E-003   0.0000000000000000     
   8.9777712503262448E-003   6.3593686882501069E-003   0.0000000000000000     
   1.2195389101546140E-002   9.2290811527783456E-003   0.0000000000000000     
   2.1228437515215429E-002   1.3619509844132075E-002   0.0000000000000000     
   2.5433658504879865E-002   1.6612395533795499E-002   0.0000000000000000     
   2.9538514375786994E-002   1.9809585614229762E-002   0.0000000000000000     
   3.3543005127936808E-002   2.3211080085434870E-002   0.0000000000000000     
   3.7447130761329314E-002   2.6816878947410812E-002   0.0000000000000000     
   1.8312681354602050E-002   1.2185977687174445E-002   0.0000000000000000     
   2.2407402067230867E-002   1.5341412129736493E-002   0.0000000000000000     
   2.6369769195664226E-002   1.8649855961982559E-002   0.0000000000000000     
   3.0199782739902131E-002   2.2111309183912641E-002   0.0000000000000000     
   3.3897442699944581E-002   2.5725771795526750E-002   0.0000000000000000     
   1.5835254565452709E-002   1.0976395519629612E-002   0.0000000000000000     
   1.9730999793573487E-002   1.4210963626193803E-002   0.0000000000000000     
   2.3486620777764453E-002   1.7575857716253345E-002   0.0000000000000000     
   2.7102117518025604E-002   2.1071077789808233E-002   0.0000000000000000     
   3.0577490014356945E-002   2.4696623846858477E-002   0.0000000000000000     
   1.3796157147767406E-002   9.9907633414975799E-003   0.0000000000000000     
   1.7404451683907723E-002   1.3221050023167430E-002   0.0000000000000000     
   2.0889069122087666E-002   1.6587590877042115E-002   0.0000000000000000     
   2.4250009462307230E-002   2.0090385903121646E-002   0.0000000000000000     
   2.7487272704566412E-002   2.3729435101405998E-002   0.0000000000000000     
   1.2195389101546140E-002   9.2290811527783456E-003   0.0000000000000000     
   1.5427757738233580E-002   1.2371671320657376E-002   0.0000000000000000     
   1.8577114228633871E-002   1.5685055444348880E-002   0.0000000000000000     
   2.1643458572747007E-002   1.9169233523852861E-002   0.0000000000000000     
   2.4626790770572990E-002   2.2824205559169315E-002   0.0000000000000000     
   3.7447130761329314E-002   2.6816878947410812E-002   0.0000000000000000     
   4.1255579395479414E-002   3.0622132172300323E-002   0.0000000000000000     
   4.4973039149902000E-002   3.4621989732246124E-002   0.0000000000000000     
   4.8599510024597080E-002   3.8816451627248207E-002   0.0000000000000000     
   5.2134992019564647E-002   4.3205517857306579E-002   0.0000000000000000     
   3.3897442699944581E-002   2.5725771795526750E-002   0.0000000000000000     
   3.7486132197876977E-002   2.9521957169495142E-002   0.0000000000000000     
   4.0989234355784755E-002   3.3528578678488095E-002   0.0000000000000000     
   4.4406749173667881E-002   3.7745636322505605E-002   0.0000000000000000     
   4.7738676651526382E-002   4.2173130101547683E-002   0.0000000000000000     
   3.0577490014356945E-002   2.4696623846858477E-002   0.0000000000000000     
   3.3942293457788604E-002   2.8496994109226091E-002   0.0000000000000000     
   3.7226083039350683E-002   3.2516686798733083E-002   0.0000000000000000     
   4.0428858759043201E-002   3.6755701915379461E-002   0.0000000000000000     
   4.3550620616866154E-002   4.1214039459165235E-002   0.0000000000000000     
   2.7487272704566412E-002   2.3729435101405998E-002   0.0000000000000000     
   3.0624063175214260E-002   2.7547242991493158E-002   0.0000000000000000     
   3.3683585200599796E-002   3.1586314092981085E-002   0.0000000000000000     
   3.6665838780723034E-002   3.5846648405869777E-002   0.0000000000000000     
   3.9570823915583954E-002   4.0328245930159226E-002   0.0000000000000000     
   2.4626790770572990E-002   2.2824205559169315E-002   0.0000000000000000     
   2.7531441350153969E-002   2.6672703816296359E-002   0.0000000000000000     
   3.0361740839532091E-002   3.0737460561232100E-002   0.0000000000000000     
   3.3117689238707358E-002   3.5018475793976538E-002   0.0000000000000000     
   3.5799286547679776E-002   3.9515749514529679E-002   0.0000000000000000     
   5.2134992019564647E-002   4.3205517857306579E-002   0.0000000000000000     
   5.5575817316264459E-002   4.7794229673759653E-002   0.0000000000000000     
   5.8918318096156233E-002   5.2587628327945821E-002   0.0000000000000000     
   6.2162494359239998E-002   5.7585713819865096E-002   0.0000000000000000     
   6.5308346105515738E-002   6.2788486149517472E-002   0.0000000000000000     
   4.7738676651526382E-002   4.2173130101547683E-002   0.0000000000000000     
   5.0980178939434233E-002   4.6804942687305597E-002   0.0000000000000000     
   5.4126418187465414E-002   5.1634956751470659E-002   0.0000000000000000     
   5.7177394395619911E-002   5.6663172294042850E-002   0.0000000000000000     
   6.0133107563897746E-002   6.1889589315022184E-002   0.0000000000000000     
   4.3550620616866154E-002   4.1214039459165235E-002   0.0000000000000000     
   4.6586606042916881E-002   4.5879481729726758E-002   0.0000000000000000     
   4.9532052467292711E-002   5.0739811026700429E-002   0.0000000000000000     
   5.2386959889993645E-002   5.5795027350086242E-002   0.0000000000000000     
   5.5151328311019689E-002   6.1045130699884209E-002   0.0000000000000000     
   3.9570823915583954E-002   4.0328245930159226E-002   0.0000000000000000     
   4.2395098626712376E-002   4.5017846801023130E-002   0.0000000000000000     
   4.5135220935638126E-002   4.9902191153635145E-002   0.0000000000000000     
   4.7791190842361192E-002   5.4981278987995291E-002   0.0000000000000000     
   5.0363008346881587E-002   6.0255110304103555E-002   0.0000000000000000     
   3.5799286547679776E-002   3.9515749514529679E-002   0.0000000000000000     
   3.8405656690820737E-002   4.4220037901194706E-002   0.0000000000000000     
   4.0935923592501672E-002   4.9122097132274806E-002   0.0000000000000000     
   4.3390087252722552E-002   5.4221927207769978E-002   0.0000000000000000     
   4.5768147671483392E-002   5.9519528127680216E-002   0.0000000000000000     
   6.5308346105515738E-002   6.2788486149517472E-002   0.0000000000000000     
   6.8361800016978086E-002   6.8181353782002657E-002   0.0000000000000000     
   7.1328782775621727E-002   7.3749725182420331E-002   0.0000000000000000     
   7.4209294381446619E-002   7.9493600350770507E-002   0.0000000000000000     
   7.7003334834452764E-002   8.5412979287053187E-002   0.0000000000000000     
   6.0133107563897746E-002   6.1889589315022184E-002   0.0000000000000000     
   6.3000445341498360E-002   6.7304251127517284E-002   0.0000000000000000     
   6.5786295377621234E-002   7.2897201044636831E-002   0.0000000000000000     
   6.8490657672266364E-002   7.8668439066380783E-002   0.0000000000000000     
   7.1113532225433734E-002   8.4617965192749167E-002   0.0000000000000000     
   5.5151328311019689E-002   6.1045130699884209E-002   0.0000000000000000     
   5.7832072638561813E-002   6.6482628507869332E-002   0.0000000000000000     
   6.0436107780811002E-002   7.2100028205816652E-002   0.0000000000000000     
   6.2963433737767222E-002   7.7897329793726169E-002   0.0000000000000000     
   6.5414050509430499E-002   8.3874533271597884E-002   0.0000000000000000     
   5.0363008346881587E-002   6.0255110304103555E-002   0.0000000000000000     
   5.2856681908168453E-002   6.5716485923058787E-002   0.0000000000000000     
   5.5278219985190988E-002   7.1358206665959822E-002   0.0000000000000000     
   5.7627622577949192E-002   7.7180272532806668E-002   0.0000000000000000     
   5.9904889686443058E-002   8.3182683523599310E-002   0.0000000000000000     
   4.5768147671483392E-002   5.9519528127680216E-002   0.0000000000000000     
   4.8074273150318265E-002   6.5005823373085636E-002   0.0000000000000000     
   5.0312631990761227E-002   7.0671736425066314E-002   0.0000000000000000     
   5.2483224192812275E-002   7.6517267283622278E-002   0.0000000000000000     
   5.4586049756471404E-002   8.2542415948753486E-002   0.0000000000000000     
   7.7003334834452764E-002   8.5412979287053187E-002   0.0000000000000000     
   7.9699787446107367E-002   9.1501301893605058E-002   0.0000000000000000     
   8.2287535527877612E-002   9.7752008072762811E-002   0.0000000000000000     
   8.4766579079763524E-002  0.10416509782452645        0.0000000000000000     
   8.7136918101765076E-002  0.11074057114889599        0.0000000000000000     
   7.1113532225433734E-002   8.4617965192749167E-002   0.0000000000000000     
   7.3644084314791386E-002   9.0737072577756664E-002   0.0000000000000000     
   7.6071479218007332E-002   9.7017054375418008E-002   0.0000000000000000     
   7.8395716935081572E-002  0.10345791058573320        0.0000000000000000     
   8.0616797466014106E-002  0.11005964120870222        0.0000000000000000     
   6.5414050509430499E-002   8.3874533271597884E-002   0.0000000000000000     
   6.7777766823065480E-002   9.0021663856140480E-002   0.0000000000000000     
   7.0044391405936837E-002   9.6328746764062695E-002   0.0000000000000000     
   7.2213924258044543E-002  0.10279578199536454        0.0000000000000000     
   7.4286365379388639E-002  0.10942276955004596        0.0000000000000000     
   5.9904889686443058E-002   8.3182683523599310E-002   0.0000000000000000     
   6.2100834970929691E-002   8.9355075728756492E-002   0.0000000000000000     
   6.4206272091666142E-002   9.5687085238696859E-002   0.0000000000000000     
   6.6221201048652478E-002  0.10217871205342047        0.0000000000000000     
   6.8145621841888646E-002  0.10882995617292729        0.0000000000000000     
   5.4586049756471404E-002   8.2542415948753486E-002   0.0000000000000000     
   5.6613288758383964E-002   8.8737308195604672E-002   0.0000000000000000     
   5.8557121275195273E-002   9.5092069799320514E-002   0.0000000000000000     
   6.0417547306905323E-002  0.10160670075990100        0.0000000000000000     
   6.2194566853514141E-002  0.10828120107734614        0.0000000000000000     
   8.7136918101765076E-002  0.11074057114889599        0.0000000000000000     
   8.9410526698304960E-002  0.11746184378381576        0.0000000000000000     
   9.1599378973805934E-002  0.12431233146723004        0.0000000000000000     
   9.3703474928267971E-002  0.13129203419913893        0.0000000000000000     
   9.5722814561691072E-002  0.13840095197954230        0.0000000000000000     
   8.0616797466014106E-002  0.11005964120870222        0.0000000000000000     
   8.2747807207507990E-002  0.11680692695183255        0.0000000000000000     
   8.4801832556266221E-002  0.12368444852263169        0.0000000000000000     
   8.6778873512288857E-002  0.13069220592109967        0.0000000000000000     
   8.8678930075575868E-002  0.13783019914723649        0.0000000000000000     
   7.4286365379388639E-002  0.10942276955004596        0.0000000000000000     
   7.6274934204163314E-002  0.11619517415902911        0.0000000000000000     
   7.8192850166562855E-002  0.12309846055323609        0.0000000000000000     
   8.0040113266587262E-002  0.13013262873266693        0.0000000000000000     
   8.1816723504236522E-002  0.13729767869732157        0.0000000000000000     
   6.8145621841888646E-002  0.10882995617292729        0.0000000000000000     
   6.9991907688271002E-002  0.11562658540540550        0.0000000000000000     
   7.1772431804695835E-002  0.12255436755904328        0.0000000000000000     
   7.3487194191163216E-002  0.12961330263384063        0.0000000000000000     
   7.5136194847673088E-002  0.13680339062979760        0.0000000000000000     
   6.2194566853514141E-002  0.10828120107734614        0.0000000000000000     
   6.3898727659830998E-002  0.11510116069096163        0.0000000000000000     
   6.5540577470665162E-002  0.12205216954005321        0.0000000000000000     
   6.7120116286016676E-002  0.12913422762462082        0.0000000000000000     
   6.8637344105885512E-002  0.13634733494466453        0.0000000000000000     
   9.5722814561691072E-002  0.13840095197954230        0.0000000000000000     
   9.7649657077631916E-002  0.14563133321751073        0.0000000000000000     
   9.9476261679647210E-002  0.15297542632211472        0.0000000000000000     
  0.10120262836773693       0.16043323129335429        0.0000000000000000     
  0.10282875714190109       0.16800474813122940        0.0000000000000000     
   8.8678930075575868E-002  0.13783019914723649        0.0000000000000000     
   9.0489703736785720E-002  0.14508945953741775        0.0000000000000000     
   9.2198895986576920E-002  0.15246101842801912        0.0000000000000000     
   9.3806506824949440E-002  0.15994487581904065        0.0000000000000000     
   9.5312536251903279E-002  0.16754103171048229        0.0000000000000000     
   8.1816723504236522E-002  0.13729767869732157        0.0000000000000000     
   8.3508156812741263E-002  0.14458394244535078        0.0000000000000000     
   8.5099889125332048E-002  0.15198175197490524        0.0000000000000000     
   8.6591920442008891E-002  0.15949110728598498        0.0000000000000000     
   8.7984250762771790E-002  0.16711200837858992        0.0000000000000000     
   7.5136194847673088E-002  0.13680339062979760        0.0000000000000000     
   7.6705016305498516E-002  0.14411478194130981        0.0000000000000000     
   7.8179241095912594E-002  0.15153762696277304        0.0000000000000000     
   7.9558869218915293E-002  0.15907192569418718        0.0000000000000000     
   8.0843900674506586E-002  0.16671767813555236        0.0000000000000000     
   6.8637344105885512E-002  0.13634733494466453        0.0000000000000000     
   7.0080282215057521E-002  0.14368197802529489        0.0000000000000000     
   7.1436951898318543E-002  0.15112864339162249        0.0000000000000000     
   7.2707353155668619E-002  0.15868733104364738        0.0000000000000000     
   7.3891485987107694E-002  0.16635804098136953        0.0000000000000000     
   0.0000000000000000        0.0000000000000000        0.0000000000000000     
   2.8800766995531746E-003   1.7448281118609323E-003   0.0000000000000000     
   5.8726671163285898E-003   3.8646176746109677E-003   0.0000000000000000     
   8.9777712503262448E-003   6.3593686882501069E-003   0.0000000000000000     
   1.2195389101546140E-002   9.2290811527783456E-003   0.0000000000000000     
   0.0000000000000000        0.0000000000000000        0.0000000000000000     
   2.6103125305548210E-003   1.5889211943825436E-003   0.0000000000000000     
   5.2897195798791707E-003   3.5566865392042623E-003   0.0000000000000000     
   8.0382211479730469E-003   5.9032960344651553E-003   0.0000000000000000     
   1.0855817234836451E-002   8.6287496801652225E-003   0.0000000000000000     
   0.0000000000000000        0.0000000000000000        0.0000000000000000     
   2.3400973183103752E-003   1.4589539635574741E-003   0.0000000000000000     
   4.7201811503614789E-003   3.2998002264685521E-003   0.0000000000000000     
   7.1402514961533140E-003   5.5225387887332328E-003   0.0000000000000000     
   9.6003083556858784E-003   8.1271696503515175E-003   0.0000000000000000     
   0.0000000000000000        0.0000000000000000        0.0000000000000000     
   2.0694310628198362E-003   1.3549264193857236E-003   0.0000000000000000     
   4.1640518277755185E-003   3.0939587364038363E-003   0.0000000000000000     
   6.2838622948670451E-003   5.2170969510543386E-003   0.0000000000000000     
   8.4288624640944179E-003   7.7243410633372296E-003   0.0000000000000000     
   0.0000000000000000        0.0000000000000000        0.0000000000000000     
   1.7983137640832044E-003   1.2768385618672929E-003   0.0000000000000000     
   3.6213316121212844E-003   2.9391620690101174E-003   0.0000000000000000     
   5.4690535441142404E-003   4.9869705214284727E-003   0.0000000000000000     
   7.3414795600620711E-003   7.4202639191223597E-003   0.0000000000000000     
   1.2195389101546140E-002   9.2290811527783456E-003   0.0000000000000000     
   1.5427757738233580E-002   1.2371671320657376E-002   0.0000000000000000     
   1.8577114228633871E-002   1.5685055444348880E-002   0.0000000000000000     
   2.1643458572747007E-002   1.9169233523852861E-002   0.0000000000000000     
   2.4626790770572990E-002   2.2824205559169315E-002   0.0000000000000000     
   1.0855817234836451E-002   8.6287496801652225E-003   0.0000000000000000     
   1.3689129182831786E-002   1.1650772699221103E-002   0.0000000000000000     
   1.6484778334321448E-002   1.4887090314549432E-002   0.0000000000000000     
   1.9242764689305435E-002   1.8337702526150208E-002   0.0000000000000000     
   2.1963088247783757E-002   2.2002609334023433E-002   0.0000000000000000     
   9.6003083556858784E-003   8.1271696503515175E-003   0.0000000000000000     
   1.2076777243983070E-002   1.1046299339416074E-002   0.0000000000000000     
   1.4546083676068791E-002   1.4212534384019567E-002   0.0000000000000000     
   1.7008227651943039E-002   1.7625874784161995E-002   0.0000000000000000     
   1.9463209171605815E-002   2.1286320539843365E-002   0.0000000000000000     
   8.4288624640944179E-003   7.7243410633372296E-003   0.0000000000000000     
   1.0590701921687436E-002   1.0558251241242286E-002   0.0000000000000000     
   1.2761030253875903E-002   1.3661387652759286E-002   0.0000000000000000     
   1.4939847460659812E-002   1.7033750297888228E-002   0.0000000000000000     
   1.7127153542039173E-002   2.0675339176629112E-002   0.0000000000000000     
   7.3414795600620711E-003   7.4202639191223597E-003   0.0000000000000000     
   9.2309032159448821E-003   1.0186628404699746E-002   0.0000000000000000     
   1.1129618067742778E-002   1.3233650120768593E-002   0.0000000000000000     
   1.3037624115455755E-002   1.6561329067328903E-002   0.0000000000000000     
   1.4954921359083818E-002   2.0169665244380675E-002   0.0000000000000000     
   2.4626790770572990E-002   2.2824205559169315E-002   0.0000000000000000     
   2.7531441350153969E-002   2.6672703816296359E-002   0.0000000000000000     
   3.0361740839532091E-002   3.0737460561232100E-002   0.0000000000000000     
   3.3117689238707358E-002   3.5018475793976538E-002   0.0000000000000000     
   3.5799286547679776E-002   3.9515749514529679E-002   0.0000000000000000     
   2.1963088247783757E-002   2.2002609334023433E-002   0.0000000000000000     
   2.4629382454891526E-002   2.5879839189121435E-002   0.0000000000000000     
   2.7225280755763880E-002   2.9967420542396532E-002   0.0000000000000000     
   2.9750783150400813E-002   3.4265353393848730E-002   0.0000000000000000     
   3.2205889638802325E-002   3.8773637743478029E-002   0.0000000000000000     
   1.9463209171605815E-002   2.1286320539843365E-002   0.0000000000000000     
   2.1882840961710753E-002   2.5175111715454144E-002   0.0000000000000000     
   2.4238935748911481E-002   2.9273488375384796E-002   0.0000000000000000     
   2.6531493533207995E-002   3.3581450519635334E-002   0.0000000000000000     
   2.8760514314600309E-002   3.8098998148205734E-002   0.0000000000000000     
   1.7127153542039173E-002   2.0675339176629112E-002   0.0000000000000000     
   1.9291816870611642E-002   2.4558521395294488E-002   0.0000000000000000     
   2.1402705818974885E-002   2.8655664060196890E-002   0.0000000000000000     
   2.3459820387128912E-002   3.2966767171336321E-002   0.0000000000000000     
   2.5463160575073716E-002   3.7491830728712795E-002   0.0000000000000000     
   1.4954921359083818E-002   2.0169665244380675E-002   0.0000000000000000     
   1.6856310181594190E-002   2.4030068228642461E-002   0.0000000000000000     
   1.8716590965954103E-002   2.8113947596832813E-002   0.0000000000000000     
   2.0535763712163556E-002   3.2421303348951727E-002   0.0000000000000000     
   2.2313828420222549E-002   3.6952135484999205E-002   0.0000000000000000     
   3.5799286547679776E-002   3.9515749514529679E-002   0.0000000000000000     
   3.8405656690820737E-002   4.4220037901194706E-002   0.0000000000000000     
   4.0935923592501672E-002   4.9122097132274806E-002   0.0000000000000000     
   4.3390087252722552E-002   5.4221927207769978E-002   0.0000000000000000     
   4.5768147671483392E-002   5.9519528127680216E-002   0.0000000000000000     
   3.2205889638802325E-002   3.8773637743478029E-002   0.0000000000000000     
   3.4591966278206258E-002   4.3487985200623983E-002   0.0000000000000000     
   3.6910379125850455E-002   4.8404107374626158E-002   0.0000000000000000     
   3.9161128181734915E-002   5.3522004265484535E-002   0.0000000000000000     
   4.1344213445859618E-002   5.8841675873199148E-002   0.0000000000000000     
   2.8760514314600309E-002   3.8098998148205734E-002   0.0000000000000000     
   3.0927713431833238E-002   4.2823618869693457E-002   0.0000000000000000     
   3.3034806223651611E-002   4.7752800292695963E-002   0.0000000000000000     
   3.5081792690055437E-002   5.2886542417213210E-002   0.0000000000000000     
   3.7068672831044702E-002   5.8224845243245241E-002   0.0000000000000000     
   2.5463160575073716E-002   3.7491830728712795E-002   0.0000000000000000     
   2.7412898151701663E-002   4.2226938908403136E-002   0.0000000000000000     
   2.9309204885905139E-002   4.7168175886484198E-002   0.0000000000000000     
   3.1152080777684138E-002   5.2315541662956003E-002   0.0000000000000000     
   3.2941525827038652E-002   5.7669036237818543E-002   0.0000000000000000     
   2.2313828420222549E-002   3.6952135484999205E-002   0.0000000000000000     
   2.4047520437811550E-002   4.1697945316753006E-002   0.0000000000000000     
   2.5733575112611040E-002   4.6650234155990906E-002   0.0000000000000000     
   2.7371992444621011E-002   5.1809002002712906E-002   0.0000000000000000     
   2.8962772433841460E-002   5.7174248856919012E-002   0.0000000000000000     
   4.5768147671483392E-002   5.9519528127680216E-002   0.0000000000000000     
   4.8074273150318265E-002   6.5005823373085636E-002   0.0000000000000000     
   5.0312631990761227E-002   7.0671736425066314E-002   0.0000000000000000     
   5.2483224192812275E-002   7.6517267283622278E-002   0.0000000000000000     
   5.4586049756471404E-002   8.2542415948753486E-002   0.0000000000000000     
   4.1344213445859618E-002   5.8841675873199148E-002   0.0000000000000000     
   4.3461871657117436E-002   6.4351562091999354E-002   0.0000000000000000     
   4.5516339554401201E-002   7.0040102816114558E-002   0.0000000000000000     
   4.7507617137710914E-002   7.5907298045544760E-002   0.0000000000000000     
   4.9435704407046574E-002   8.1953147780289948E-002   0.0000000000000000     
   3.7068672831044702E-002   5.8224845243245241E-002   0.0000000000000000     
   3.8996502720672128E-002   6.3754623313849373E-002   0.0000000000000000     
   4.0866338432990423E-002   6.9462791172082927E-002   0.0000000000000000     
   4.2678179967999573E-002   7.5349348817945888E-002   0.0000000000000000     
   4.4432027325699591E-002   8.1414296251438270E-002   0.0000000000000000     
   3.2941525827038652E-002   5.7669036237818543E-002   0.0000000000000000     
   3.4678166340982350E-002   6.3215007038635695E-002   0.0000000000000000     
   3.6362628626528885E-002   6.8939801492971381E-002   0.0000000000000000     
   3.7994912683678259E-002   7.4843419600825634E-002   0.0000000000000000     
   3.9575018512430470E-002   8.0925861362198426E-002   0.0000000000000000     
   2.8962772433841460E-002   5.7174248856919012E-002   0.0000000000000000     
   3.0506862518048097E-002   6.2732713266358320E-002   0.0000000000000000     
   3.2005210135016594E-002   6.8471133778780002E-002   0.0000000000000000     
   3.3457815284746957E-002   7.4389510394184052E-002   0.0000000000000000     
   3.4864677967239188E-002   8.0487843112570442E-002   0.0000000000000000     
   5.4586049756471404E-002   8.2542415948753486E-002   0.0000000000000000     
   5.6613288758383964E-002   8.8737308195604672E-002   0.0000000000000000     
   5.8557121275195273E-002   9.5092069799320514E-002   0.0000000000000000     
   6.0417547306905323E-002  0.10160670075990100        0.0000000000000000     
   6.2194566853514141E-002  0.10828120107734614        0.0000000000000000     
   4.9435704407046574E-002   8.1953147780289948E-002   0.0000000000000000     
   5.1294076591681836E-002   8.8168503958808639E-002   0.0000000000000000     
   5.3076208920890378E-002   9.4544218519559325E-002   0.0000000000000000     
   5.4782101394672170E-002  0.10108029146254201        0.0000000000000000     
   5.6411754013027227E-002  0.10777672278775666        0.0000000000000000     
   4.4432027325699591E-002   8.1414296251438270E-002   0.0000000000000000     
   4.6122146877076831E-002   8.7648805720492010E-002   0.0000000000000000     
   4.7742804993117650E-002   9.4044049473039029E-002   0.0000000000000000     
   4.9294001673822044E-002  0.10060002750907934        0.0000000000000000     
   5.0775736919190004E-002  0.10731673982861292        0.0000000000000000     
   3.9575018512430470E-002   8.0925861362198426E-002   0.0000000000000000     
   4.1097499614568940E-002   8.7178213480654757E-002   0.0000000000000000     
   4.2556909491877098E-002   9.3591562659759625E-002   0.0000000000000000     
   4.3953248144354952E-002  0.10016590889951303        0.0000000000000000     
   4.5286515572002486E-002  0.10690125219991498        0.0000000000000000     
   3.4864677967239188E-002   8.0487843112570442E-002   0.0000000000000000     
   3.6220134804158158E-002   8.6756727239296880E-002   0.0000000000000000     
   3.7518522417168722E-002   9.3186758079721099E-002   0.0000000000000000     
   3.8759840806270887E-002   9.9777935633843073E-002   0.0000000000000000     
   3.9944089971464640E-002  0.10653025990166279        0.0000000000000000     
   6.2194566853514141E-002  0.10828120107734614        0.0000000000000000     
   6.3898727659830998E-002  0.11510116069096163        0.0000000000000000     
   6.5540577470665162E-002  0.12205216954005321        0.0000000000000000     
   6.7120116286016676E-002  0.12913422762462082        0.0000000000000000     
   6.8637344105885512E-002  0.13634733494466453        0.0000000000000000     
   5.6411754013027227E-002  0.10777672278775666        0.0000000000000000     
   5.7973732438468095E-002  0.11461874731540433        0.0000000000000000     
   5.9476602333507302E-002  0.12159159986568613        0.0000000000000000     
   6.0920363698144839E-002  0.12869528043860198        0.0000000000000000     
   6.2305016532380741E-002  0.13592978903415193        0.0000000000000000     
   5.0775736919190004E-002  0.10731673982861292        0.0000000000000000     
   5.2195260343807059E-002  0.11417919257844038        0.0000000000000000     
   5.3559821562258692E-002  0.12117239190536228        0.0000000000000000     
   5.4869420574544893E-002  0.12829633780937860        0.0000000000000000     
   5.6124057380665685E-002  0.13555103029048934        0.0000000000000000     
   4.5286515572002486E-002  0.10690125219991498        0.0000000000000000     
   4.6563311375847877E-002  0.11378249648006976        0.0000000000000000     
   4.7790235156919325E-002  0.12079454565908165        0.0000000000000000     
   4.8967286915216811E-002  0.12793739973695067        0.0000000000000000     
   5.0094466650740348E-002  0.13521105871367678        0.0000000000000000     
   3.9944089971464640E-002  0.10653025990166279        0.0000000000000000     
   4.1077885534590561E-002  0.11342865902029245        0.0000000000000000     
   4.2167843117489223E-002  0.12045806112684426        0.0000000000000000     
   4.3213962720160613E-002  0.12761846622131820        0.0000000000000000     
   4.4216244342604738E-002  0.13490987430371426        0.0000000000000000     
   6.8637344105885512E-002  0.13634733494466453        0.0000000000000000     
   7.0080282215057521E-002  0.14368197802529489        0.0000000000000000     
   7.1436951898318543E-002  0.15112864339162249        0.0000000000000000     
   7.2707353155668619E-002  0.15868733104364738        0.0000000000000000     
   7.3891485987107694E-002  0.16635804098136953        0.0000000000000000     
   6.2305016532380741E-002  0.13592978903415193        0.0000000000000000     
   6.3621512169349706E-002  0.14328614617892652        0.0000000000000000     
   6.4860801942186505E-002  0.15075537239951634        0.0000000000000000     
   6.6022885850891125E-002  0.15833746769592141        0.0000000000000000     
   6.7107763895463579E-002  0.16603243206814169        0.0000000000000000     
   5.6124057380665685E-002  0.13555103029048934        0.0000000000000000     
   5.7316263796306555E-002  0.14292790188382534        0.0000000000000000     
   5.8438571637153020E-002  0.15041838512451727        0.0000000000000000     
   5.9490980903205065E-002  0.15802248001256522        0.0000000000000000     
   6.0473491594462719E-002  0.16574018654796913        0.0000000000000000     
   5.0094466650740348E-002  0.13521105871367678        0.0000000000000000     
   5.1164537095928060E-002  0.14260724513999126        0.0000000000000000     
   5.2170260983218079E-002  0.15011768156662525        0.0000000000000000     
   5.3111638312610426E-002  0.15774236799357880        0.0000000000000000     
   5.3988669084105094E-002  0.16548130442085182        0.0000000000000000     
   4.4216244342604738E-002  0.13490987430371426        0.0000000000000000     
   4.5166332068214222E-002  0.14232417594742436        0.0000000000000000     
   4.6055869980381713E-002  0.14985326172584029        0.0000000000000000     
   4.6884858079107208E-002  0.15749713163896206        0.0000000000000000     
   4.7653296364390710E-002  0.16525578568678978        0.0000000000000000     
   0.0000000000000000        0.0000000000000000        0.0000000000000000     
   1.7983137640832044E-003   1.2768385618672929E-003   0.0000000000000000     
   3.6213316121212844E-003   2.9391620690101174E-003   0.0000000000000000     
   5.4690535441142404E-003   4.9869705214284727E-003   0.0000000000000000     
   7.3414795600620711E-003   7.4202639191223597E-003   0.0000000000000000     
   0.0000000000000000        0.0000000000000000        0.0000000000000000     
   1.5350159467360505E-003   1.2175727613347937E-003   0.0000000000000000     
   3.0993687356525900E-003   2.8208939747002238E-003   0.0000000000000000     
   4.6930583667496193E-003   4.8099636400962906E-003   0.0000000000000000     
   6.3160848400271386E-003   7.1847817575229934E-003   0.0000000000000000     
   0.0000000000000000        0.0000000000000000        0.0000000000000000     
   1.2878081354139447E-003   1.1700113881208383E-003   0.0000000000000000     
   2.6055114306232459E-003   2.7246382038869856E-003   0.0000000000000000     
   3.9531098856279041E-003   4.6638804472984427E-003   0.0000000000000000     
   5.3306035004279193E-003   6.9877381183552087E-003   0.0000000000000000     
   0.0000000000000000        0.0000000000000000        0.0000000000000000     
   1.0566903301168873E-003   1.1341544422254267E-003   0.0000000000000000     
   2.1397596970332516E-003   2.6503947565704039E-003   0.0000000000000000     
   3.2492081007490935E-003   4.5487209430349314E-003   0.0000000000000000     
   4.3850355412644124E-003   6.8291330016190107E-003   0.0000000000000000     
   0.0000000000000000        0.0000000000000000        0.0000000000000000     
   8.4166253084487800E-004   1.1100019236485589E-003   0.0000000000000000     
   1.7021135348826073E-003   2.5981636327504780E-003   0.0000000000000000     
   2.5813530121131878E-003   4.4644851273057569E-003   0.0000000000000000     
   3.4793809625366197E-003   6.7089664073143960E-003   0.0000000000000000     
   7.3414795600620711E-003   7.4202639191223597E-003   0.0000000000000000     
   9.2309032159448821E-003   1.0186628404699746E-002   0.0000000000000000     
   1.1129618067742778E-002   1.3233650120768593E-002   0.0000000000000000     
   1.3037624115455755E-002   1.6561329067328903E-002   0.0000000000000000     
   1.4954921359083818E-002   2.0169665244380675E-002   0.0000000000000000     
   6.3160848400271386E-003   7.1847817575229934E-003   0.0000000000000000     
   7.9557215706757365E-003   9.8957990223345581E-003   0.0000000000000000     
   9.5992419738860028E-003   1.2893466129885209E-002   0.0000000000000000     
   1.1246646049657938E-002   1.6177783080174948E-002   0.0000000000000000     
   1.2897933797991545E-002   1.9748749873203780E-002   0.0000000000000000     
   5.3306035004279193E-003   6.9877381183552087E-003   0.0000000000000000     
   6.7234974298003283E-003   9.6501312866928320E-003   0.0000000000000000     
   8.1172968285221688E-003   1.2604980021946868E-002   0.0000000000000000     
   9.5120016965934400E-003   1.5852284324117307E-002   0.0000000000000000     
   1.0907612034014146E-002   1.9392044193204162E-002   0.0000000000000000     
   4.3850355412644124E-003   6.8291330016190107E-003   0.0000000000000000     
   5.5342307933186575E-003   9.4496251977745742E-003   0.0000000000000000     
   6.6837826316512722E-003   1.2368191796953563E-002   0.0000000000000000     
   7.8336910562622573E-003   1.5584832799155976E-002   0.0000000000000000     
   8.9839560671516154E-003   1.9099548204381811E-002   0.0000000000000000     
   3.4793809625366197E-003   6.7089664073143960E-003   0.0000000000000000     
   4.3879216612307216E-003   9.2942807555797813E-003   0.0000000000000000     
   5.2986993832733120E-003   1.2183101454905301E-002   0.0000000000000000     
   6.2117141286643918E-003   1.5375428505290953E-002   0.0000000000000000     
   7.1269658974039600E-003   1.8871261906736742E-002   0.0000000000000000     
   1.4954921359083818E-002   2.0169665244380675E-002   0.0000000000000000     
   1.6856310181594190E-002   2.4030068228642461E-002   0.0000000000000000     
   1.8716590965954103E-002   2.8113947596832813E-002   0.0000000000000000     
   2.0535763712163556E-002   3.2421303348951727E-002   0.0000000000000000     
   2.2313828420222549E-002   3.6952135484999205E-002   0.0000000000000000     
   1.2897933797991545E-002   1.9748749873203780E-002   0.0000000000000000     
   1.4536852882755190E-002   2.3580192762694414E-002   0.0000000000000000     
   1.6147150967817239E-002   2.7645938002369575E-002   0.0000000000000000     
   1.7728828053177693E-002   3.1945985592229262E-002   0.0000000000000000     
   1.9281884138836563E-002   3.6480335532273464E-002   0.0000000000000000     
   1.0907612034014146E-002   1.9392044193204162E-002   0.0000000000000000     
   1.2293976962191420E-002   2.3199335544646697E-002   0.0000000000000000     
   1.3660945602532405E-002   2.7249234293884195E-002   0.0000000000000000     
   1.5008517955037102E-002   3.1541740440916663E-002   0.0000000000000000     
   1.6336694019705503E-002   3.6076853985744090E-002   0.0000000000000000     
   8.9839560671516154E-003   1.9099548204381811E-002   0.0000000000000000     
   1.0127682419902887E-002   2.2887496574499303E-002   0.0000000000000000     
   1.1257974870099602E-002   2.6923836471376680E-002   0.0000000000000000     
   1.2374833417741770E-002   3.1208567895013938E-002   0.0000000000000000     
   1.3478258062829384E-002   3.5741690845411088E-002   0.0000000000000000     
   7.1269658974039600E-003   1.8871261906736742E-002   0.0000000000000000     
   8.0379692558895845E-003   2.2644675852252241E-002   0.0000000000000000     
   8.9382387705188304E-003   2.6669744534847020E-002   0.0000000000000000     
   9.8277744412917020E-003   3.0946467954521089E-002   0.0000000000000000     
   1.0706576268208192E-002   3.5474846111274438E-002   0.0000000000000000     
   2.2313828420222549E-002   3.6952135484999205E-002   0.0000000000000000     
   2.4047520437811550E-002   4.1697945316753006E-002   0.0000000000000000     
   2.5733575112611040E-002   4.6650234155990906E-002   0.0000000000000000     
   2.7371992444621011E-002   5.1809002002712906E-002   0.0000000000000000     
   2.8962772433841460E-002   5.7174248856919012E-002   0.0000000000000000     
   1.9281884138836563E-002   3.6480335532273464E-002   0.0000000000000000     
   2.0799591672824046E-002   4.1235141881985703E-002   0.0000000000000000     
   2.2275223103170341E-002   4.6196558700849447E-002   0.0000000000000000     
   2.3708778429875465E-002   5.1364585988864744E-002   0.0000000000000000     
   2.5100257652939408E-002   5.6739223746031540E-002   0.0000000000000000     
   1.6336694019705503E-002   3.6076853985744090E-002   0.0000000000000000     
   1.7637123239400278E-002   4.0837032391343835E-002   0.0000000000000000     
   1.8901455056984078E-002   4.5804733120693240E-002   0.0000000000000000     
   2.0129689472456899E-002   5.0979956173792293E-002   0.0000000000000000     
   2.1321826485818745E-002   5.6362701550641020E-002   0.0000000000000000     
   1.3478258062829384E-002   3.5741690845411088E-002   0.0000000000000000     
   1.4560115137540271E-002   4.0503616844827429E-002   0.0000000000000000     
   1.5612270974052248E-002   4.5474757415522253E-002   0.0000000000000000     
   1.6634725572365321E-002   5.0655112557495614E-002   0.0000000000000000     
   1.7627478932479484E-002   5.6044682270747444E-002   0.0000000000000000     
   1.0706576268208192E-002   3.5474846111274438E-002   0.0000000000000000     
   1.1568567367244011E-002   4.0234895242436459E-002   0.0000000000000000     
   1.2407670854374851E-002   4.5206631585336526E-002   0.0000000000000000     
   1.3223886729600721E-002   5.0390055139974646E-002   0.0000000000000000     
   1.4017214992921617E-002   5.5785165906350812E-002   0.0000000000000000     
   2.8962772433841460E-002   5.7174248856919012E-002   0.0000000000000000     
   3.0506862518048097E-002   6.2732713266358320E-002   0.0000000000000000     
   3.2005210135016594E-002   6.8471133778780002E-002   0.0000000000000000     
   3.3457815284746957E-002   7.4389510394184052E-002   0.0000000000000000     
   3.4864677967239188E-002   8.0487843112570442E-002   0.0000000000000000     
   2.5100257652939408E-002   5.6739223746031540E-002   0.0000000000000000     
   2.6451093116959271E-002   6.2307797017062433E-002   0.0000000000000000     
   2.7762717166532145E-002   6.8057630846669936E-002   0.0000000000000000     
   2.9035129801658045E-002   7.3988725234854086E-002   0.0000000000000000     
   3.0268331022336958E-002   8.0101080181614839E-002   0.0000000000000000     
   2.1321826485818745E-002   5.6362701550641020E-002   0.0000000000000000     
   2.2479360002805777E-002   6.1940313310793131E-002   0.0000000000000000     
   2.3603783929154160E-002   6.7700135513802370E-002   0.0000000000000000     
   2.4695098264863886E-002   7.3642168159668703E-002   0.0000000000000000     
   2.5753303009934964E-002   7.9766411248392177E-002   0.0000000000000000     
   1.7627478932479484E-002   5.6044682270747444E-002   0.0000000000000000     
   1.8591663175587622E-002   6.1630262147550456E-002   0.0000000000000000     
   1.9528410422882624E-002   6.7398647780177276E-002   0.0000000000000000     
   2.0437720674364484E-002   7.3349839168627973E-002   0.0000000000000000     
   2.1319593930033204E-002   7.9483836312902456E-002   0.0000000000000000     
   1.4017214992921617E-002   5.5785165906350812E-002   0.0000000000000000     
   1.4788002635304800E-002   6.1377643527334387E-002   0.0000000000000000     
   1.5536596647717539E-002   6.7153167645794709E-002   0.0000000000000000     
   1.6262997030159831E-002   7.3111738261731812E-002   0.0000000000000000     
   1.6967203782631682E-002   7.9253355375145662E-002   0.0000000000000000     
   3.4864677967239188E-002   8.0487843112570442E-002   0.0000000000000000     
   3.6220134804158158E-002   8.6756727239296880E-002   0.0000000000000000     
   3.7518522417168722E-002   9.3186758079721099E-002   0.0000000000000000     
   3.8759840806270887E-002   9.9777935633843073E-002   0.0000000000000000     
   3.9944089971464640E-002  0.10653025990166279        0.0000000000000000     
   3.0268331022336958E-002   8.0101080181614839E-002   0.0000000000000000     
   3.1456437142318001E-002   8.6384720601434650E-002   0.0000000000000000     
   3.2593564475350265E-002   9.2829671408795861E-002   0.0000000000000000     
   3.3679713021433744E-002   9.9435932603698485E-002   0.0000000000000000     
   3.4714882780568453E-002  0.10620350418614252        0.0000000000000000     
   2.5753303009934964E-002   7.9766411248392177E-002   0.0000000000000000     
   2.6772791325521957E-002   8.6062567172084228E-002   0.0000000000000000     
   2.7747956372779447E-002   9.2520338322856263E-002   0.0000000000000000     
   2.8678798151707416E-002   9.9139724700708323E-002   0.0000000000000000     
   2.9565316662305878E-002  0.10592072630564037        0.0000000000000000     
   2.1319593930033204E-002   7.9483836312902456E-002   0.0000000000000000     
   2.2169197353770050E-002   8.5790266951245642E-002   0.0000000000000000     
   2.2981698109456283E-002   9.2258758821902348E-002   0.0000000000000000     
   2.3757096197091907E-002   9.8889311924872575E-002   0.0000000000000000     
   2.4495391616676920E-002  0.10568192626015632        0.0000000000000000     
   1.6967203782631682E-002   7.9253355375145662E-002   0.0000000000000000     
   1.7645655227062264E-002   8.5567819938918890E-002   0.0000000000000000     
   1.8294789685380779E-002   9.2044932905934074E-002   0.0000000000000000     
   1.8914607157587211E-002   9.8684694276191226E-002   0.0000000000000000     
   1.9505107643681567E-002  0.10548710404969036        0.0000000000000000     
   3.9944089971464640E-002  0.10653025990166279        0.0000000000000000     
   4.1077885534590561E-002  0.11342865902029245        0.0000000000000000     
   4.2167843117489223E-002  0.12045806112684426        0.0000000000000000     
   4.3213962720160613E-002  0.12761846622131820        0.0000000000000000     
   4.4216244342604738E-002  0.13490987430371426        0.0000000000000000     
   3.4714882780568453E-002  0.10620350418614252        0.0000000000000000     
   3.5705752634919340E-002  0.11311734492250673        0.0000000000000000     
   3.6659001466651332E-002  0.12016241357916983        0.0000000000000000     
   3.7574629275764444E-002  0.12733871015613188        0.0000000000000000     
   3.8452636062258662E-002  0.13464623465339282        0.0000000000000000     
   2.9565316662305878E-002  0.10592072630564037        0.0000000000000000     
   3.0413682491718413E-002  0.11284821891011085        0.0000000000000000     
   3.1230066227088609E-002  0.11990707828657819        0.0000000000000000     
   3.2014467868416455E-002  0.12709730443504239        0.0000000000000000     
   3.2766887415701954E-002  0.13441889735550339        0.0000000000000000     
   2.4495391616676920E-002  0.10568192626015632        0.0000000000000000     
   2.5201675104987803E-002  0.11262128098310480        0.0000000000000000     
   2.5881037398801047E-002  0.11969205524906927        0.0000000000000000     
   2.6533478498116651E-002  0.12689424905804966        0.0000000000000000     
   2.7158998402934620E-002  0.13422786241004606        0.0000000000000000     
   1.9505107643681567E-002  0.10548710404969036        0.0000000000000000     
   2.0069730474727494E-002  0.11243653114148862        0.0000000000000000     
   2.0611914981788652E-002  0.11951734446664311        0.0000000000000000     
   2.1131661164865038E-002  0.12672954402515385        0.0000000000000000     
   2.1628969023956647E-002  0.13407312981702080        0.0000000000000000     
   4.4216244342604738E-002  0.13490987430371426        0.0000000000000000     
   4.5166332068214222E-002  0.14232417594742436        0.0000000000000000     
   4.6055869980381713E-002  0.14985326172584029        0.0000000000000000     
   4.6884858079107208E-002  0.15749713163896206        0.0000000000000000     
   4.7653296364390710E-002  0.16525578568678978        0.0000000000000000     
   3.8452636062258662E-002  0.13464623465339282        0.0000000000000000     
   3.9283526772769806E-002  0.14207701261016828        0.0000000000000000     
   4.0057806353933668E-002  0.14962306956567384        0.0000000000000000     
   4.0775474805750271E-002  0.15728440551990955        0.0000000000000000     
   4.1436532128219593E-002  0.16506102047287541        0.0000000000000000     
   3.2766887415701954E-002  0.13441889735550339        0.0000000000000000     
   3.3477999269199560E-002  0.14186407343226659        0.0000000000000000     
   3.4138477829163731E-002  0.14942504904963733        0.0000000000000000     
   3.4748323095594454E-002  0.15710182420761551        0.0000000000000000     
   3.5307535068491727E-002  0.16489439890620117        0.0000000000000000     
   2.7158998402934620E-002  0.13422786241004606        0.0000000000000000     
   2.7749749557503509E-002  0.14168535841371940        0.0000000000000000     
   2.8297884406071890E-002  0.14925920017773073        0.0000000000000000     
   2.8803402948639763E-002  0.15694938770207992        0.0000000000000000     
   2.9266305185207120E-002  0.16475592098676711        0.0000000000000000     
   2.1628969023956647E-002  0.13407312981702080        0.0000000000000000     
   2.2098777637681637E-002  0.14154086755452663        0.0000000000000000     
   2.2536026084658149E-002  0.14912552294995396        0.0000000000000000     
   2.2940714364886195E-002  0.15682709600330283        0.0000000000000000     
   2.3312842478365771E-002  0.16464558671457313        0.0000000000000000     
   0.0000000000000000        0.0000000000000000        0.0000000000000000     
   8.4166253084487800E-004   1.1100019236485589E-003   0.0000000000000000     
   1.7021135348826073E-003   2.5981636327504780E-003   0.0000000000000000     
   2.5813530121131878E-003   4.4644851273057569E-003   0.0000000000000000     
   3.4793809625366197E-003   6.7089664073143960E-003   0.0000000000000000     
   0.0000000000000000        0.0000000000000000        0.0000000000000000     
   6.3382152547198007E-004   1.0939891568459601E-003   0.0000000000000000     
   1.2780364066283785E-003   2.5620917909381954E-003   0.0000000000000000     
   1.9326446434691955E-003   4.4043079022767070E-003   0.0000000000000000     
   2.5976462359944305E-003   6.6206374908614933E-003   0.0000000000000000     
   0.0000000000000000        0.0000000000000000        0.0000000000000000     
   4.2426410187225612E-004   1.0825514662733554E-003   0.0000000000000000     
   8.5299177472763056E-004   2.5363261896445451E-003   0.0000000000000000     
   1.2861830185661237E-003   4.3613241701135697E-003   0.0000000000000000     
   1.7238378333877351E-003   6.5575454076804290E-003   0.0000000000000000     
   0.0000000000000000        0.0000000000000000        0.0000000000000000     
   2.1299026004570622E-004   1.0756888519307449E-003   0.0000000000000000     
   4.2697963918036388E-004   2.5208668288695260E-003   0.0000000000000000     
   6.4196813740397310E-004   4.3355339308163449E-003   0.0000000000000000     
   8.5795575471653361E-004   6.5196901577711996E-003   0.0000000000000000     
   0.0000000000000000        0.0000000000000000        0.0000000000000000     
  -7.6697274833253948E-015   1.0734013138181283E-003   0.0000000000000000     
  -1.3421935004392926E-014   2.5157137086131397E-003   0.0000000000000000     
  -1.7256703878365531E-014   4.3269371843850327E-003   0.0000000000000000     
  -1.9173871474917337E-014   6.5070717411338094E-003   0.0000000000000000     
   3.4793809625366197E-003   6.7089664073143960E-003   0.0000000000000000     
   4.3879216612307216E-003   9.2942807555797813E-003   0.0000000000000000     
   5.2986993832733120E-003   1.2183101454905301E-002   0.0000000000000000     
   6.2117141286643918E-003   1.5375428505290953E-002   0.0000000000000000     
   7.1269658974039600E-003   1.8871261906736742E-002   0.0000000000000000     
   2.5976462359944305E-003   6.6206374908614933E-003   0.0000000000000000     
   3.2700537724840830E-003   9.1781125891004373E-003   0.0000000000000000     
   3.9468798412181511E-003   1.2043765229401423E-002   0.0000000000000000     
   4.6281244421966360E-003   1.5217595411764448E-002   0.0000000000000000     
   5.3137875754195370E-003   1.8699603136189517E-002   0.0000000000000000     
   1.7238378333877351E-003   6.5575454076804290E-003   0.0000000000000000     
   2.1661108660262990E-003   9.0951353273285261E-003   0.0000000000000000     
   2.6131567633156487E-003   1.1944239354041273E-002   0.0000000000000000     
   3.0649755252557861E-003   1.5104857487818667E-002   0.0000000000000000     
   3.5215671518467094E-003   1.8576989728660707E-002   0.0000000000000000     
   8.5795575471653361E-004   6.5196901577711996E-003   0.0000000000000000     
   1.0760929418573699E-003   9.0453489702640496E-003   0.0000000000000000     
   1.2975301495658060E-003   1.1884523828824852E-002   0.0000000000000000     
   1.5222673778418421E-003   1.5037214733453607E-002   0.0000000000000000     
   1.7503046266854779E-003   1.8503421684150315E-002   0.0000000000000000     
  -1.9173871474917337E-014   6.5070717411338094E-003   0.0000000000000000     
  -2.2704372561709041E-014   9.0287535179070077E-003   0.0000000000000000     
  -3.1378538818942897E-014   1.1864618653752160E-002   0.0000000000000000     
  -4.5196483749033838E-014   1.5014667148669274E-002   0.0000000000000000     
  -6.4158639338784962E-014   1.8478899002658342E-002   0.0000000000000000     
   7.1269658974039600E-003   1.8871261906736742E-002   0.0000000000000000     
   8.0379692558895845E-003   2.2644675852252241E-002   0.0000000000000000     
   8.9382387705188304E-003   2.6669744534847020E-002   0.0000000000000000     
   9.8277744412917020E-003   3.0946467954521089E-002   0.0000000000000000     
   1.0706576268208192E-002   3.5474846111274438E-002   0.0000000000000000     
   5.3137875754195370E-003   1.8699603136189517E-002   0.0000000000000000     
   5.9970293212347715E-003   2.2462403203744864E-002   0.0000000000000000     
   6.6710097599902611E-003   2.6478610415498746E-002   0.0000000000000000     
   7.3357288916860042E-003   3.0748224771451164E-002   0.0000000000000000     
   7.9911867163219991E-003   3.5271246271602115E-002   0.0000000000000000     
   3.5215671518467094E-003   1.8576989728660707E-002   0.0000000000000000     
   3.9770544670217067E-003   2.2332208454816562E-002   0.0000000000000000     
   4.4255602947140668E-003   2.6342086044535404E-002   0.0000000000000000     
   4.8670846349237878E-003   3.0606622497817228E-002   0.0000000000000000     
   5.3016274876508708E-003   3.5125817814662057E-002   0.0000000000000000     
   1.7503046266854779E-003   1.8503421684150315E-002   0.0000000000000000     
   1.9780446932503872E-003   2.2254091605467326E-002   0.0000000000000000     
   2.2018903746902456E-003   2.6260171421956982E-002   0.0000000000000000     
   2.4218416710050524E-003   3.0521661133619302E-002   0.0000000000000000     
   2.6378985821948076E-003   3.5038560740454264E-002   0.0000000000000000     
  -6.4158639338784962E-014   1.8478899002658342E-002   0.0000000000000000     
  -7.9186060920194423E-014   2.2228052655697158E-002   0.0000000000000000     
  -8.1201023552704421E-014   2.6232866547763498E-002   0.0000000000000000     
  -7.0202504020514672E-014   3.0493340678857360E-002   0.0000000000000000     
  -4.6192216718310419E-014   3.5009475048978750E-002   0.0000000000000000     
   1.0706576268208192E-002   3.5474846111274438E-002   0.0000000000000000     
   1.1568567367244011E-002   4.0234895242436459E-002   0.0000000000000000     
   1.2407670854374851E-002   4.5206631585336526E-002   0.0000000000000000     
   1.3223886729600721E-002   5.0390055139974646E-002   0.0000000000000000     
   1.4017214992921617E-002   5.5785165906350812E-002   0.0000000000000000     
   7.9911867163219991E-003   3.5271246271602115E-002   0.0000000000000000     
   8.6339187034057685E-003   4.0028067440877294E-002   0.0000000000000000     
   9.2604603224448277E-003   4.4999080804202438E-002   0.0000000000000000     
   9.8708115734391765E-003   5.0184286361577519E-002   0.0000000000000000     
   1.0464972456388817E-002   5.5583684113002567E-002   0.0000000000000000     
   5.3016274876508708E-003   3.5125817814662057E-002   0.0000000000000000     
   5.7276079209198126E-003   3.9880333296856287E-002   0.0000000000000000     
   6.1434450027551078E-003   4.4850830246186385E-002   0.0000000000000000     
   6.5491387331567553E-003   5.0037308662652338E-002   0.0000000000000000     
   6.9446891121247561E-003   5.5439768546254146E-002   0.0000000000000000     
   2.6378985821948076E-003   3.5038560740454264E-002   0.0000000000000000     
   2.8496350197861437E-003   3.9791692810373425E-002   0.0000000000000000     
   3.0566248953056937E-003   4.4761879911288376E-002   0.0000000000000000     
   3.2588682087534566E-003   4.9949122043199068E-002   0.0000000000000000     
   3.4563649601294338E-003   5.5353419206105543E-002   0.0000000000000000     
  -4.6192216718310419E-014   3.5009475048978750E-002   0.0000000000000000     
   4.7608401596010985E-015   3.9762145981428736E-002   0.0000000000000000     
   9.6585445804459047E-014   4.4732229799508409E-002   0.0000000000000000     
   2.2928272507601738E-013   4.9919726503217750E-002   0.0000000000000000     
   4.0285027917696947E-013   5.5324636092556764E-002   0.0000000000000000     
   1.4017214992921617E-002   5.5785165906350812E-002   0.0000000000000000     
   1.4788002635304800E-002   6.1377643527334387E-002   0.0000000000000000     
   1.5536596647717539E-002   6.7153167645794709E-002   0.0000000000000000     
   1.6262997030159831E-002   7.3111738261731812E-002   0.0000000000000000     
   1.6967203782631682E-002   7.9253355375145662E-002   0.0000000000000000     
   1.0464972456388817E-002   5.5583684113002567E-002   0.0000000000000000     
   1.1042520673022362E-002   6.1181728972192373E-002   0.0000000000000000     
   1.1603033925068422E-002   6.6962875852861717E-002   0.0000000000000000     
   1.2146512212527005E-002   7.2927124755010661E-002   0.0000000000000000     
   1.2672955535398106E-002   7.9074475678639136E-002   0.0000000000000000     
   6.9446891121247561E-003   5.5439768546254146E-002   0.0000000000000000     
   7.3293595798053536E-003   6.1041790004171828E-002   0.0000000000000000     
   7.7024135763447939E-003   6.6826953143585402E-002   0.0000000000000000     
   8.0638511017430744E-003   7.2795257964494875E-002   0.0000000000000000     
   8.4136721560001994E-003   7.8946704466900247E-002   0.0000000000000000     
   3.4563649601294338E-003   5.5353419206105543E-002   0.0000000000000000     
   3.6485193556537788E-003   6.0957826623272773E-002   0.0000000000000000     
   3.8347356015466490E-003   6.6745399517965764E-002   0.0000000000000000     
   4.0150136978080418E-003   7.2716137890184496E-002   0.0000000000000000     
   4.1893536444379594E-003   7.8870041739928981E-002   0.0000000000000000     
   4.0285027917696947E-013   5.5324636092556764E-002   0.0000000000000000     
   5.6763708317086881E-013   6.0929838829495188E-002   0.0000000000000000     
   6.7398815478333929E-013   6.6718214976002763E-002   0.0000000000000000     
   7.2190570307630736E-013   7.2689764532079468E-002   0.0000000000000000     
   7.1138537768855592E-013   7.8844487497725324E-002   0.0000000000000000     
   1.6967203782631682E-002   7.9253355375145662E-002   0.0000000000000000     
   1.7645655227062264E-002   8.5567819938918890E-002   0.0000000000000000     
   1.8294789685380779E-002   9.2044932905934074E-002   0.0000000000000000     
   1.8914607157587211E-002   9.8684694276191226E-002   0.0000000000000000     
   1.9505107643681567E-002  0.10548710404969036        0.0000000000000000     
   1.2672955535398106E-002   7.9074475678639136E-002   0.0000000000000000     
   1.3180164622273749E-002   8.5394989581896508E-002   0.0000000000000000     
   1.3665940201745955E-002   9.1878727422932030E-002   0.0000000000000000     
   1.4130282273814727E-002   9.8525689201745745E-002   0.0000000000000000     
   1.4573190838480061E-002  0.10533587491833764        0.0000000000000000     
   8.4136721560001994E-003   7.8946704466900247E-002   0.0000000000000000     
   8.7507252162796340E-003   8.5271539326971041E-002   0.0000000000000000     
   9.0738587597448545E-003   9.1760009220876793E-002   0.0000000000000000     
   9.3830727863958557E-003   9.8412114148617530E-002   0.0000000000000000     
   9.6783672962326428E-003  0.10522785411019323        0.0000000000000000     
   4.1893536444379594E-003   7.8870041739928981E-002   0.0000000000000000     
   4.3573370090799280E-003   8.5197469174142518E-002   0.0000000000000000     
   4.5185453593774754E-003   9.1688778299768375E-002   0.0000000000000000     
   4.6729786953305999E-003   9.8343969116806595E-002   0.0000000000000000     
   4.8206370169393041E-003  0.10516304162525714        0.0000000000000000     
   7.1138537768855592E-013   7.8844487497725324E-002   0.0000000000000000     
   6.7462506934956590E-013   8.5172779123410911E-002   0.0000000000000000     
   6.4381518779382807E-013   9.1665034659606764E-002   0.0000000000000000     
   6.1895711537911235E-013   9.8321254106312914E-002   0.0000000000000000     
   6.0004995763862645E-013  0.10514143746352936        0.0000000000000000     
   1.9505107643681567E-002  0.10548710404969036        0.0000000000000000     
   2.0069730474727494E-002  0.11243653114148862        0.0000000000000000     
   2.0611914981788652E-002  0.11951734446664311        0.0000000000000000     
   2.1131661164865038E-002  0.12672954402515385        0.0000000000000000     
   2.1628969023956647E-002  0.13407312981702080        0.0000000000000000     
   1.4573190838480061E-002  0.10533587491833764        0.0000000000000000     
   1.4996437381088430E-002  0.11229333231737425        0.0000000000000000     
   1.5401793386986299E-002  0.11938210914352218        0.0000000000000000     
   1.5789258856173671E-002  0.12660220539678138        0.0000000000000000     
   1.6158833788650538E-002  0.13395362107715186        0.0000000000000000     
   9.6783672962326428E-003  0.10522785411019323        0.0000000000000000     
   9.9603846042215331E-003  0.11219104744287377        0.0000000000000000     
   1.0229767025328854E-002  0.11928551248392895        0.0000000000000000     
   1.0486514559554606E-002  0.12651124923335888        0.0000000000000000     
   1.0730627206898784E-002  0.13386825769116351        0.0000000000000000     
   4.8206370169393041E-003  0.10516304162525714        0.0000000000000000     
   4.9615721441268060E-003  0.11212967651798707        0.0000000000000000     
   5.0958358968163199E-003  0.11922755448786351        0.0000000000000000     
   5.2234282750078477E-003  0.12645667553488635        0.0000000000000000     
   5.3443492787013883E-003  0.13381703965905573        0.0000000000000000     
   6.0004995763862645E-013  0.10514143746352936        0.0000000000000000     
   8.0424599271933239E-013  0.11210921954271424        0.0000000000000000     
   1.4486948966829782E-012  0.11920823515532575        0.0000000000000000     
   2.5333956937476088E-012  0.12643848430136384        0.0000000000000000     
   4.0583504438973517E-012  0.13379996698082855        0.0000000000000000     
   2.1628969023956647E-002  0.13407312981702080        0.0000000000000000     
   2.2098777637681637E-002  0.14154086755452663        0.0000000000000000     
   2.2536026084658149E-002  0.14912552294995396        0.0000000000000000     
   2.2940714364886195E-002  0.15682709600330283        0.0000000000000000     
   2.3312842478365771E-002  0.16464558671457313        0.0000000000000000     
   1.6158833788650538E-002  0.13395362107715186        0.0000000000000000     
   1.6508354267761816E-002  0.14142941112240759        0.0000000000000000     
   1.6835656376852418E-002  0.14902263047032269        0.0000000000000000     
   1.7140740115922343E-002  0.15673327912089702        0.0000000000000000     
   1.7423605484971582E-002  0.16456135707413064        0.0000000000000000     
   1.0730627206898784E-002  0.13386825769116351        0.0000000000000000     
   1.0961750205771935E-002  0.14134979938508169        0.0000000000000000     
   1.1179528794584597E-002  0.14894913584285235        0.0000000000000000     
   1.1383962973336770E-002  0.15666626706447540        0.0000000000000000     
   1.1575052742028451E-002  0.16450119304995092        0.0000000000000000     
   5.3443492787013883E-003  0.13381703965905573        0.0000000000000000     
   5.4589654517119869E-003  0.14130203234254882        0.0000000000000000     
   5.5676433378546858E-003  0.14890503906754290        0.0000000000000000     
   5.6703829371294841E-003  0.15662605983403799        0.0000000000000000     
   5.7671842495363801E-003  0.16446509464203404        0.0000000000000000     
   4.0583504438973517E-012  0.13379996698082855        0.0000000000000000     
   5.5819749864016721E-012  0.14128610999480901        0.0000000000000000     
   6.6626857026311215E-012  0.14889034014439440        0.0000000000000000     
   7.3004832702120576E-012  0.15661265742958466        0.0000000000000000     
   7.4953689088719244E-012  0.16445306185037989        0.0000000000000000     
   0.0000000000000000        0.0000000000000000        0.0000000000000000     
  -7.6697274833253948E-015   1.0734013138181283E-003   0.0000000000000000     
  -1.3421935004392926E-014   2.5157137086131397E-003   0.0000000000000000     
  -1.7256703878365531E-014   4.3269371843850327E-003   0.0000000000000000     
  -1.9173871474917337E-014   6.5070717411338094E-003   0.0000000000000000     
   0.0000000000000000        0.0000000000000000        0.0000000000000000     
  -2.1299026006042348E-004   1.0756888519352166E-003   0.0000000000000000     
  -4.2697963920637210E-004   2.5208668288752342E-003   0.0000000000000000     
  -6.4196813743784553E-004   4.3355339308200529E-003   0.0000000000000000     
  -8.5795575475484411E-004   6.5196901577696705E-003   0.0000000000000000     
   0.0000000000000000        0.0000000000000000        0.0000000000000000     
  -4.2426410188510695E-004   1.0825514662817202E-003   0.0000000000000000     
  -8.5299177475113162E-004   2.5363261896556607E-003   0.0000000000000000     
  -1.2861830185980738E-003   4.3613241701218200E-003   0.0000000000000000     
  -1.7238378334259342E-003   6.5575454076802009E-003   0.0000000000000000     
   0.0000000000000000        0.0000000000000000        0.0000000000000000     
  -6.3382152548172000E-004   1.0939891568576394E-003   0.0000000000000000     
  -1.2780364066477005E-003   2.5620917909544186E-003   0.0000000000000000     
  -1.9326446434979416E-003   4.4043079022903367E-003   0.0000000000000000     
  -2.5976462360324435E-003   6.6206374908653965E-003   0.0000000000000000     
   0.0000000000000000        0.0000000000000000        0.0000000000000000     
  -8.4166253085026280E-004   1.1100019236629740E-003   0.0000000000000000     
  -1.7021135348960791E-003   2.5981636327715085E-003   0.0000000000000000     
  -2.5813530121374492E-003   4.4644851273256030E-003   0.0000000000000000     
  -3.4793809625743729E-003   6.7089664073252580E-003   0.0000000000000000     
  -1.9173871474917337E-014   6.5070717411338094E-003   0.0000000000000000     
  -2.2704372561709041E-014   9.0287535179070077E-003   0.0000000000000000     
  -3.1378538818942897E-014   1.1864618653752160E-002   0.0000000000000000     
  -4.5196483749033838E-014   1.5014667148669274E-002   0.0000000000000000     
  -6.4158639338784962E-014   1.8478899002658342E-002   0.0000000000000000     
  -8.5795575475484411E-004   6.5196901577696705E-003   0.0000000000000000     
  -1.0760929419031757E-003   9.0453489702593814E-003   0.0000000000000000     
  -1.2975301496286485E-003   1.1884523828824472E-002   0.0000000000000000     
  -1.5222673779312617E-003   1.5037214733464945E-002   0.0000000000000000     
  -1.7503046268110161E-003   1.8503421684180798E-002   0.0000000000000000     
  -1.7238378334259342E-003   6.5575454076802009E-003   0.0000000000000000     
  -2.1661108660732970E-003   9.0951353273231606E-003   0.0000000000000000     
  -2.6131567633787480E-003   1.1944239354043061E-002   0.0000000000000000     
  -3.0649755253422863E-003   1.5104857487839901E-002   0.0000000000000000     
  -3.5215671519639126E-003   1.8576989728713685E-002   0.0000000000000000     
  -2.5976462360324435E-003   6.6206374908653965E-003   0.0000000000000000     
  -3.2700537725330677E-003   9.1781125890983452E-003   0.0000000000000000     
  -3.9468798412816775E-003   1.2043765229407928E-002   0.0000000000000000     
  -4.6281244422782686E-003   1.5217595411794150E-002   0.0000000000000000     
  -5.3137875755228468E-003   1.8699603136257008E-002   0.0000000000000000     
  -3.4793809625743729E-003   6.7089664073252580E-003   0.0000000000000000     
  -4.3879216612824875E-003   9.2942807555849282E-003   0.0000000000000000     
  -5.2986993833374352E-003   1.2183101454919071E-002   0.0000000000000000     
  -6.2117141287392113E-003   1.5375428505327679E-002   0.0000000000000000     
  -7.1269658974878209E-003   1.8871261906810762E-002   0.0000000000000000     
  -6.4158639338784962E-014   1.8478899002658342E-002   0.0000000000000000     
  -7.9186060920194423E-014   2.2228052655697158E-002   0.0000000000000000     
  -8.1201023552704421E-014   2.6232866547763498E-002   0.0000000000000000     
  -7.0202504020514672E-014   3.0493340678857360E-002   0.0000000000000000     
  -4.6192216718310419E-014   3.5009475048978750E-002   0.0000000000000000     
  -1.7503046268110161E-003   1.8503421684180798E-002   0.0000000000000000     
  -1.9780446934048535E-003   2.2254091605501434E-002   0.0000000000000000     
  -2.2018903748497161E-003   2.6260171421956236E-002   0.0000000000000000     
  -2.4218416711456045E-003   3.0521661133545236E-002   0.0000000000000000     
  -2.6378985822925172E-003   3.5038560740268399E-002   0.0000000000000000     
  -3.5215671519639126E-003   1.8576989728713685E-002   0.0000000000000000     
  -3.9770544671644545E-003   2.2332208454875525E-002   0.0000000000000000     
  -4.4255602948647440E-003   2.6342086044536545E-002   0.0000000000000000     
  -4.8670846350647766E-003   3.0606622497696748E-002   0.0000000000000000     
  -5.3016274877645585E-003   3.5125817814356114E-002   0.0000000000000000     
  -5.3137875755228468E-003   1.8699603136257008E-002   0.0000000000000000     
  -5.9970293213579915E-003   2.2462403203819446E-002   0.0000000000000000     
  -6.6710097601262843E-003   2.6478610415504405E-002   0.0000000000000000     
  -7.3357288918277242E-003   3.0748224771311894E-002   0.0000000000000000     
  -7.9911867164623122E-003   3.5271246271241903E-002   0.0000000000000000     
  -7.1269658974878209E-003   1.8871261906810762E-002   0.0000000000000000     
  -8.0379692559854592E-003   2.2644675852333186E-002   0.0000000000000000     
  -8.9382387706343353E-003   2.6669744534859822E-002   0.0000000000000000     
  -9.8277744414344420E-003   3.0946467954390672E-002   0.0000000000000000     
  -1.0706576268385785E-002   3.5474846110925738E-002   0.0000000000000000     
  -4.6192216718310419E-014   3.5009475048978750E-002   0.0000000000000000     
   4.7608401596010985E-015   3.9762145981428736E-002   0.0000000000000000     
   9.6585445804459047E-014   4.4732229799508409E-002   0.0000000000000000     
   2.2928272507601738E-013   4.9919726503217750E-002   0.0000000000000000     
   4.0285027917696947E-013   5.5324636092556764E-002   0.0000000000000000     
  -2.6378985822925172E-003   3.5038560740268399E-002   0.0000000000000000     
  -2.8496350197910400E-003   3.9791692810074240E-002   0.0000000000000000     
  -3.0566248951417567E-003   4.4761879910911226E-002   0.0000000000000000     
  -3.2588682083446669E-003   4.9949122042779390E-002   0.0000000000000000     
  -3.4563649593997697E-003   5.5353419205678704E-002   0.0000000000000000     
  -5.3016274877645585E-003   3.5125817814356114E-002   0.0000000000000000     
  -5.7276079209679642E-003   3.9880333296361967E-002   0.0000000000000000     
  -6.1434450026788710E-003   4.4850830245561621E-002   0.0000000000000000     
  -6.5491387328972866E-003   5.0037308661955035E-002   0.0000000000000000     
  -6.9446891116232042E-003   5.5439768545542251E-002   0.0000000000000000     
  -7.9911867164623122E-003   3.5271246271241903E-002   0.0000000000000000     
  -8.6339187035260074E-003   4.0028067440291935E-002   0.0000000000000000     
  -9.2604603225147596E-003   4.4999080803459532E-002   0.0000000000000000     
  -9.8708115734285739E-003   5.0184286360744693E-002   0.0000000000000000     
  -1.0464972456267449E-002   5.5583684112147411E-002   0.0000000000000000     
  -1.0706576268385785E-002   3.5474846110925738E-002   0.0000000000000000     
  -1.1568567367465175E-002   4.0234895241864146E-002   0.0000000000000000     
  -1.2407670854649422E-002   4.5206631584605021E-002   0.0000000000000000     
  -1.3223886729938536E-002   5.0390055139148363E-002   0.0000000000000000     
  -1.4017214993332508E-002   5.5785165905494177E-002   0.0000000000000000     
   4.0285027917696947E-013   5.5324636092556764E-002   0.0000000000000000     
   5.6763708317086881E-013   6.0929838829495188E-002   0.0000000000000000     
   6.7398815478333929E-013   6.6718214976002763E-002   0.0000000000000000     
   7.2190570307630736E-013   7.2689764532079468E-002   0.0000000000000000     
   7.1138537768855592E-013   7.8844487497725324E-002   0.0000000000000000     
  -3.4563649593997697E-003   5.5353419205678704E-002   0.0000000000000000     
  -3.6485193546190353E-003   6.0957826622899385E-002   0.0000000000000000     
  -3.8347356003144320E-003   6.6745399517731646E-002   0.0000000000000000     
  -4.0150136964859553E-003   7.2716137890175475E-002   0.0000000000000000     
  -4.1893536431336113E-003   7.8870041740230892E-002   0.0000000000000000     
  -6.9446891116232042E-003   5.5439768545542251E-002   0.0000000000000000     
  -7.3293595790721987E-003   6.1041790003545635E-002   0.0000000000000000     
  -7.7024135754598542E-003   6.6826953143187609E-002   0.0000000000000000     
  -8.0638511007861593E-003   7.2795257964468160E-002   0.0000000000000000     
  -8.4136721550511218E-003   7.8946704467387274E-002   0.0000000000000000     
  -1.0464972456267449E-002   5.5583684112147411E-002   0.0000000000000000     
  -1.1042520672791857E-002   6.1181728971433959E-002   0.0000000000000000     
  -1.1603033924762278E-002   6.6962875852370651E-002   0.0000000000000000     
  -1.2146512212178705E-002   7.2927124754957467E-002   0.0000000000000000     
  -1.2672955535041146E-002   7.9074475679194414E-002   0.0000000000000000     
  -1.4017214993332508E-002   5.5785165905494177E-002   0.0000000000000000     
  -1.4788002635778010E-002   6.1377643526564357E-002   0.0000000000000000     
  -1.5536596648221710E-002   6.7153167645280787E-002   0.0000000000000000     
  -1.6262997030663601E-002   7.3111738261643466E-002   0.0000000000000000     
  -1.6967203783103686E-002   7.9253355375652396E-002   0.0000000000000000     
   7.1138537768855592E-013   7.8844487497725324E-002   0.0000000000000000     
   6.7462506934956590E-013   8.5172779123410911E-002   0.0000000000000000     
   6.4381518779382807E-013   9.1665034659606764E-002   0.0000000000000000     
   6.1895711537911235E-013   9.8321254106312914E-002   0.0000000000000000     
   6.0004995763862645E-013  0.10514143746352936        0.0000000000000000     
  -4.1893536431336113E-003   7.8870041740230892E-002   0.0000000000000000     
  -4.3573370078423207E-003   8.5197469174678409E-002   0.0000000000000000     
  -4.5185453581970143E-003   9.1688778300298521E-002   0.0000000000000000     
  -4.6729786941976850E-003   9.8343969117091243E-002   0.0000000000000000     
  -4.8206370158443397E-003  0.10516304162505657        0.0000000000000000     
  -8.4136721550511218E-003   7.8946704467387274E-002   0.0000000000000000     
  -8.7507252153769619E-003   8.5271539327847201E-002   0.0000000000000000     
  -9.0738587588859027E-003   9.1760009221750205E-002   0.0000000000000000     
  -9.3830727855779440E-003   9.8412114149096286E-002   0.0000000000000000     
  -9.6783672954530876E-003  0.10522785410988543        0.0000000000000000     
  -1.2672955535041146E-002   7.9074475679194414E-002   0.0000000000000000     
  -1.3180164621929296E-002   8.5394989582917288E-002   0.0000000000000000     
  -1.3665940201422852E-002   9.1878727423961817E-002   0.0000000000000000     
  -1.4130282273521817E-002   9.8525689202328029E-002   0.0000000000000000     
  -1.4573190838226188E-002  0.10533587491801594        0.0000000000000000     
  -1.6967203783103686E-002   7.9253355375652396E-002   0.0000000000000000     
  -1.7645655227499325E-002   8.5567819939888684E-002   0.0000000000000000     
  -1.8294789685807861E-002   9.2044932906933372E-002   0.0000000000000000     
  -1.8914607158029305E-002   9.8684694276786514E-002   0.0000000000000000     
  -1.9505107644163647E-002  0.10548710404944807        0.0000000000000000     
   6.0004995763862645E-013  0.10514143746352936        0.0000000000000000     
   8.0424599271933239E-013  0.11210921954271424        0.0000000000000000     
   1.4486948966829782E-012  0.11920823515532575        0.0000000000000000     
   2.5333956937476088E-012  0.12643848430136384        0.0000000000000000     
   4.0583504438973517E-012  0.13379996698082855        0.0000000000000000     
  -4.8206370158443397E-003  0.10516304162505657        0.0000000000000000     
  -4.9615721426587000E-003  0.11212967651720995        0.0000000000000000     
  -5.0958358941624914E-003  0.11922755448656684        0.0000000000000000     
  -5.2234282703557131E-003  0.12645667553312723        0.0000000000000000     
  -5.3443492712383625E-003  0.13381703965689110        0.0000000000000000     
  -9.6783672954530876E-003  0.10522785410988543        0.0000000000000000     
  -9.9603846031745859E-003  0.11219104744162887        0.0000000000000000     
  -1.0229767023405703E-002  0.11928551248183789        0.0000000000000000     
  -1.0486514556146435E-002  0.12651124923051241        0.0000000000000000     
  -1.0730627201396786E-002  0.13386825768765254        0.0000000000000000     
  -1.4573190838226188E-002  0.10533587491801594        0.0000000000000000     
  -1.4996437380743416E-002  0.11229333231597104        0.0000000000000000     
  -1.5401793386280945E-002  0.11938210914113886        0.0000000000000000     
  -1.5789258854838773E-002  0.12660220539351943        0.0000000000000000     
  -1.6158833786416908E-002  0.13395362107311276        0.0000000000000000     
  -1.9505107644163647E-002  0.10548710404944807        0.0000000000000000     
  -2.0069730475365186E-002  0.11243653114023640        0.0000000000000000     
  -2.0611914982788217E-002  0.11951734446446981        0.0000000000000000     
  -2.1131661166432735E-002  0.12672954402214831        0.0000000000000000     
  -2.1628969026298739E-002  0.13407312981327191        0.0000000000000000     
   4.0583504438973517E-012  0.13379996698082855        0.0000000000000000     
   5.5819749864016721E-012  0.14128610999480901        0.0000000000000000     
   6.6626857026311215E-012  0.14889034014439440        0.0000000000000000     
   7.3004832702120576E-012  0.15661265742958466        0.0000000000000000     
   7.4953689088719244E-012  0.16445306185037989        0.0000000000000000     
  -5.3443492712383625E-003  0.13381703965689110        0.0000000000000000     
  -5.4589654414437172E-003  0.14130203234198940        0.0000000000000000     
  -5.5676433256050392E-003  0.14890503907255312        0.0000000000000000     
  -5.6703829237223320E-003  0.15662605984858219        0.0000000000000000     
  -5.7671842357955964E-003  0.16446509467007661        0.0000000000000000     
  -1.0730627201396786E-002  0.13386825768765254        0.0000000000000000     
  -1.0961750198190698E-002  0.14134979938421716        0.0000000000000000     
  -1.1179528785562127E-002  0.14894913585116532        0.0000000000000000     
  -1.1383962963511072E-002  0.15666626708849704        0.0000000000000000     
  -1.1575052732037532E-002  0.16450119309621225        0.0000000000000000     
  -1.6158833786416908E-002  0.13395362107311276        0.0000000000000000     
  -1.6508354264658971E-002  0.14142941112149218        0.0000000000000000     
  -1.6835656373208576E-002  0.14902263048023101        0.0000000000000000     
  -1.7140740112065730E-002  0.15673327914932922        0.0000000000000000     
  -1.7423605481230436E-002  0.16456135712878683        0.0000000000000000     
  -2.1628969026298739E-002  0.13407312981327191        0.0000000000000000     
  -2.2098777640848530E-002  0.14154086755381454        0.0000000000000000     
  -2.2536026088544388E-002  0.14912552295975015        0.0000000000000000     
  -2.2940714369386307E-002  0.15682709603107872        0.0000000000000000     
  -2.3312842483374306E-002  0.16464558676780033        0.0000000000000000     
   0.0000000000000000        0.0000000000000000        0.0000000000000000     
  -8.4166253085026280E-004   1.1100019236629740E-003   0.0000000000000000     
  -1.7021135348960791E-003   2.5981636327715085E-003   0.0000000000000000     
  -2.5813530121374492E-003   4.4644851273256030E-003   0.0000000000000000     
  -3.4793809625743729E-003   6.7089664073252580E-003   0.0000000000000000     
   0.0000000000000000        0.0000000000000000        0.0000000000000000     
  -1.0566903301178837E-003   1.1341544422415577E-003   0.0000000000000000     
  -2.1397596970405249E-003   2.6503947565952252E-003   0.0000000000000000     
  -3.2492081007679243E-003   4.5487209430610026E-003   0.0000000000000000     
  -4.3850355413000801E-003   6.8291330016388907E-003   0.0000000000000000     
   0.0000000000000000        0.0000000000000000        0.0000000000000000     
  -1.2878081354117312E-003   1.1700113881372232E-003   0.0000000000000000     
  -2.6055114306252963E-003   2.7246382039138634E-003   0.0000000000000000     
  -3.9531098856406951E-003   4.6638804473299227E-003   0.0000000000000000     
  -5.3306035004579283E-003   6.9877381183853981E-003   0.0000000000000000     
   0.0000000000000000        0.0000000000000000        0.0000000000000000     
  -1.5350159467318052E-003   1.2175727613499706E-003   0.0000000000000000     
  -3.0993687356503925E-003   2.8208939747274243E-003   0.0000000000000000     
  -4.6930583667557620E-003   4.8099636401323599E-003   0.0000000000000000     
  -6.3160848400479128E-003   7.1847817575647786E-003   0.0000000000000000     
   0.0000000000000000        0.0000000000000000        0.0000000000000000     
  -1.7983137640781061E-003   1.2768385618798007E-003   0.0000000000000000     
  -3.6213316121158140E-003   2.9391620690359067E-003   0.0000000000000000     
  -5.4690535441131250E-003   4.9869705214683167E-003   0.0000000000000000     
  -7.3414795600700387E-003   7.4202639191770330E-003   0.0000000000000000     
  -3.4793809625743729E-003   6.7089664073252580E-003   0.0000000000000000     
  -4.3879216612824875E-003   9.2942807555849282E-003   0.0000000000000000     
  -5.2986993833374352E-003   1.2183101454919071E-002   0.0000000000000000     
  -6.2117141287392113E-003   1.5375428505327679E-002   0.0000000000000000     
  -7.1269658974878209E-003   1.8871261906810762E-002   0.0000000000000000     
  -4.3850355413000801E-003   6.8291330016388907E-003   0.0000000000000000     
  -5.5342307933705735E-003   9.4496251977903706E-003   0.0000000000000000     
  -6.6837826317129832E-003   1.2368191796976928E-002   0.0000000000000000     
  -7.8336910563273094E-003   1.5584832799198560E-002   0.0000000000000000     
  -8.9839560672135485E-003   1.9099548204455270E-002   0.0000000000000000     
  -5.3306035004579283E-003   6.9877381183853981E-003   0.0000000000000000     
  -6.7234974298463418E-003   9.6501312867221262E-003   0.0000000000000000     
  -8.1172968285752826E-003   1.2604980021981942E-002   0.0000000000000000     
  -9.5120016966447531E-003   1.5852284324164849E-002   0.0000000000000000     
  -1.0907612034054746E-002   1.9392044193270841E-002   0.0000000000000000     
  -6.3160848400479128E-003   7.1847817575647786E-003   0.0000000000000000     
  -7.9557215707097891E-003   9.8957990223801917E-003   0.0000000000000000     
  -9.5992419739243297E-003   1.2893466129934111E-002   0.0000000000000000     
  -1.1246646049691540E-002   1.6177783080226542E-002   0.0000000000000000     
  -1.2897933798011418E-002   1.9748749873257480E-002   0.0000000000000000     
  -7.3414795600700387E-003   7.4202639191770330E-003   0.0000000000000000     
  -9.2309032159609214E-003   1.0186628404764569E-002   0.0000000000000000     
  -1.1129618067760132E-002   1.3233650120833442E-002   0.0000000000000000     
  -1.3037624115467682E-002   1.6561329067383647E-002   0.0000000000000000     
  -1.4954921359083558E-002   2.0169665244415189E-002   0.0000000000000000     
  -7.1269658974878209E-003   1.8871261906810762E-002   0.0000000000000000     
  -8.0379692559854592E-003   2.2644675852333186E-002   0.0000000000000000     
  -8.9382387706343353E-003   2.6669744534859822E-002   0.0000000000000000     
  -9.8277744414344420E-003   3.0946467954390672E-002   0.0000000000000000     
  -1.0706576268385785E-002   3.5474846110925738E-002   0.0000000000000000     
  -8.9839560672135485E-003   1.9099548204455270E-002   0.0000000000000000     
  -1.0127682419968958E-002   2.2887496574577712E-002   0.0000000000000000     
  -1.1257974870190793E-002   2.6923836471396550E-002   0.0000000000000000     
  -1.2374833417879047E-002   3.1208567894911787E-002   0.0000000000000000     
  -1.3478258063033727E-002   3.5741690845123422E-002   0.0000000000000000     
  -1.0907612034054746E-002   1.9392044193270841E-002   0.0000000000000000     
  -1.2293976962230578E-002   2.3199335544713987E-002   0.0000000000000000     
  -1.3660945602597542E-002   2.7249234293908346E-002   0.0000000000000000     
  -1.5008517955155651E-002   3.1541740440853921E-002   0.0000000000000000     
  -1.6336694019904896E-002   3.6076853985550716E-002   0.0000000000000000     
  -1.2897933798011418E-002   1.9748749873257480E-002   0.0000000000000000     
  -1.4536852882770318E-002   2.3580192762742008E-002   0.0000000000000000     
  -1.6147150967854598E-002   2.7645938002395207E-002   0.0000000000000000     
  -1.7728828053264249E-002   3.1945985592217084E-002   0.0000000000000000     
  -1.9281884138999294E-002   3.6480335532207621E-002   0.0000000000000000     
  -1.4954921359083558E-002   2.0169665244415189E-002   0.0000000000000000     
  -1.6856310181588178E-002   2.4030068228661782E-002   0.0000000000000000     
  -1.8716590965961941E-002   2.8113947596857140E-002   0.0000000000000000     
  -2.0535763712204856E-002   3.2421303349001257E-002   0.0000000000000000     
  -2.2313828420316914E-002   3.6952135485094149E-002   0.0000000000000000     
  -1.0706576268385785E-002   3.5474846110925738E-002   0.0000000000000000     
  -1.1568567367465175E-002   4.0234895241864146E-002   0.0000000000000000     
  -1.2407670854649422E-002   4.5206631584605021E-002   0.0000000000000000     
  -1.3223886729938536E-002   5.0390055139148363E-002   0.0000000000000000     
  -1.4017214993332508E-002   5.5785165905494177E-002   0.0000000000000000     
  -1.3478258063033727E-002   3.5741690845123422E-002   0.0000000000000000     
  -1.4560115137845862E-002   4.0503616844347910E-002   0.0000000000000000     
  -1.5612270974506483E-002   4.5474757414901729E-002   0.0000000000000000     
  -1.6634725573015596E-002   5.0655112556784891E-002   0.0000000000000000     
  -1.7627478933373193E-002   5.6044682269997384E-002   0.0000000000000000     
  -1.6336694019904896E-002   3.6076853985550716E-002   0.0000000000000000     
  -1.7637123239728467E-002   4.0837032391012579E-002   0.0000000000000000     
  -1.8901455057509564E-002   4.5804733120253384E-002   0.0000000000000000     
  -2.0129689473248173E-002   5.0979956173273132E-002   0.0000000000000000     
  -2.1321826486944306E-002   5.6362701550071809E-002   0.0000000000000000     
  -1.9281884138999294E-002   3.6480335532207621E-002   0.0000000000000000     
  -2.0799591673113002E-002   4.1235141881858145E-002   0.0000000000000000     
  -2.2275223103658662E-002   4.6196558700659966E-002   0.0000000000000000     
  -2.3708778430636290E-002   5.1364585988613098E-002   0.0000000000000000     
  -2.5100257654045870E-002   5.6739223745717500E-002   0.0000000000000000     
  -2.2313828420316914E-002   3.6952135485094149E-002   0.0000000000000000     
  -2.4047520437999445E-002   4.1697945316884623E-002   0.0000000000000000     
  -2.5733575112953787E-002   4.6650234156121489E-002   0.0000000000000000     
  -2.7371992445179922E-002   5.1809002002804756E-002   0.0000000000000000     
  -2.8962772434677857E-002   5.7174248856934416E-002   0.0000000000000000     
  -1.4017214993332508E-002   5.5785165905494177E-002   0.0000000000000000     
  -1.4788002635778010E-002   6.1377643526564357E-002   0.0000000000000000     
  -1.5536596648221710E-002   6.7153167645280787E-002   0.0000000000000000     
  -1.6262997030663601E-002   7.3111738261643466E-002   0.0000000000000000     
  -1.6967203783103686E-002   7.9253355375652396E-002   0.0000000000000000     
  -1.7627478933373193E-002   5.6044682269997384E-002   0.0000000000000000     
  -1.8591663176702196E-002   6.1630262146859467E-002   0.0000000000000000     
  -1.9528410424125505E-002   6.7398647779691415E-002   0.0000000000000000     
  -2.0437720675643138E-002   7.3349839168493233E-002   0.0000000000000000     
  -2.1319593931255078E-002   7.9483836313264944E-002   0.0000000000000000     
  -2.1321826486944306E-002   5.6362701550071809E-002   0.0000000000000000     
  -2.2479360004235938E-002   6.1940313310241926E-002   0.0000000000000000     
  -2.3603783930761048E-002   6.7700135513375975E-002   0.0000000000000000     
  -2.4695098266519621E-002   7.3642168159473956E-002   0.0000000000000000     
  -2.5753303011511668E-002   7.9766411248535854E-002   0.0000000000000000     
  -2.5100257654045870E-002   5.6739223745717500E-002   0.0000000000000000     
  -2.6451093118379260E-002   6.2307797016711762E-002   0.0000000000000000     
  -2.7762717168128323E-002   6.8057630846334455E-002   0.0000000000000000     
  -2.9035129803293057E-002   7.3988725234585564E-002   0.0000000000000000     
  -3.0268331023873454E-002   8.0101080181465112E-002   0.0000000000000000     
  -2.8962772434677857E-002   5.7174248856934416E-002   0.0000000000000000     
  -3.0506862519132150E-002   6.2732713266268975E-002   0.0000000000000000     
  -3.2005210136227341E-002   6.8471133778566867E-002   0.0000000000000000     
  -3.3457815285963442E-002   7.4389510393828115E-002   0.0000000000000000     
  -3.4864677968340439E-002   8.0487843112052718E-002   0.0000000000000000     
  -1.6967203783103686E-002   7.9253355375652396E-002   0.0000000000000000     
  -1.7645655227499325E-002   8.5567819939888684E-002   0.0000000000000000     
  -1.8294789685807861E-002   9.2044932906933372E-002   0.0000000000000000     
  -1.8914607158029305E-002   9.8684694276786514E-002   0.0000000000000000     
  -1.9505107644163647E-002  0.10548710404944807        0.0000000000000000     
  -2.1319593931255078E-002   7.9483836313264944E-002   0.0000000000000000     
  -2.2169197354909308E-002   8.5790266952007102E-002   0.0000000000000000     
  -2.2981698110553794E-002   9.2258758822720208E-002   0.0000000000000000     
  -2.3757096198188533E-002   9.8889311925404316E-002   0.0000000000000000     
  -2.4495391617813531E-002  0.10568192626005939        0.0000000000000000     
  -2.5753303011511668E-002   7.9766411248535854E-002   0.0000000000000000     
  -2.6772791326981519E-002   8.6062567172518242E-002   0.0000000000000000     
  -2.7747956374173512E-002   9.2520338323377624E-002   0.0000000000000000     
  -2.8678798153087649E-002   9.9139724701114026E-002   0.0000000000000000     
  -2.9565316663723921E-002  0.10592072630572744        0.0000000000000000     
  -3.0268331023873454E-002   8.0101080181465112E-002   0.0000000000000000     
  -3.1456437143715966E-002   8.6384720601422119E-002   0.0000000000000000     
  -3.2593564476667031E-002   9.2829671408905634E-002   0.0000000000000000     
  -3.3679713022726640E-002   9.9435932603915644E-002   0.0000000000000000     
  -3.4714882781894801E-002  0.10620350418645215        0.0000000000000000     
  -3.4864677968340439E-002   8.0487843112052718E-002   0.0000000000000000     
  -3.6220134805112637E-002   8.6756727238718731E-002   0.0000000000000000     
  -3.7518522418034321E-002   9.3186758079304224E-002   0.0000000000000000     
  -3.8759840807105504E-002   9.9777935633809184E-002   0.0000000000000000     
  -3.9944089972326187E-002  0.10653025990223361        0.0000000000000000     
  -1.9505107644163647E-002  0.10548710404944807        0.0000000000000000     
  -2.0069730475365186E-002  0.11243653114023640        0.0000000000000000     
  -2.0611914982788217E-002  0.11951734446446981        0.0000000000000000     
  -2.1131661166432735E-002  0.12672954402214831        0.0000000000000000     
  -2.1628969026298739E-002  0.13407312981327191        0.0000000000000000     
  -2.4495391617813531E-002  0.10568192626005939        0.0000000000000000     
  -2.5201675106509683E-002  0.11262128098223961        0.0000000000000000     
  -2.5881037401357873E-002  0.11969205524749905        0.0000000000000000     
  -2.6533478502358113E-002  0.12689424905583774        0.0000000000000000     
  -2.7158998409510398E-002  0.13422786240725568        0.0000000000000000     
  -2.9565316663723921E-002  0.10592072630572744        0.0000000000000000     
  -3.0413682493646677E-002  0.11284821890979528        0.0000000000000000     
  -3.1230066230420277E-002  0.11990707828589496        0.0000000000000000     
  -3.2014467874044716E-002  0.12709730443402650        0.0000000000000000     
  -3.2766887424519997E-002  0.13441889735418991        0.0000000000000000     
  -3.4714882781894801E-002  0.10620350418645215        0.0000000000000000     
  -3.5705752636776181E-002  0.11311734492290342        0.0000000000000000     
  -3.6659001469975423E-002  0.12016241357965755        0.0000000000000000     
  -3.7574629281492543E-002  0.12733871015671461        0.0000000000000000     
  -3.8452636071327533E-002  0.13464623465407458        0.0000000000000000     
  -3.9944089972326187E-002  0.10653025990223361        0.0000000000000000     
  -4.1077885535898181E-002  0.11342865902156400        0.0000000000000000     
  -4.2167843120023321E-002  0.12045806112878679        0.0000000000000000     
  -4.3213962724701592E-002  0.12761846622390202        0.0000000000000000     
  -4.4216244349933015E-002  0.13490987430690971        0.0000000000000000     
  -2.1628969026298739E-002  0.13407312981327191        0.0000000000000000     
  -2.2098777640848530E-002  0.14154086755381454        0.0000000000000000     
  -2.2536026088544388E-002  0.14912552295975015        0.0000000000000000     
  -2.2940714369386307E-002  0.15682709603107872        0.0000000000000000     
  -2.3312842483374306E-002  0.16464558676780033        0.0000000000000000     
  -2.7158998409510398E-002  0.13422786240725568        0.0000000000000000     
  -2.7749749566486306E-002  0.14168535841345137        0.0000000000000000     
  -2.8297884416957415E-002  0.14925920018612332        0.0000000000000000     
  -2.8803402960923721E-002  0.15694938772527153        0.0000000000000000     
  -2.9266305198385231E-002  0.16475592103089604        0.0000000000000000     
  -3.2766887424519997E-002  0.13441889735418991        0.0000000000000000     
  -3.3477999281299228E-002  0.14186407343266985        0.0000000000000000     
  -3.4138477843835516E-002  0.14942504905575107        0.0000000000000000     
  -3.4748323112128866E-002  0.15710182422343349        0.0000000000000000     
  -3.5307535086179294E-002  0.16489439893571717        0.0000000000000000     
  -3.8452636071327533E-002  0.13464623465407458        0.0000000000000000     
  -3.9283526785287286E-002  0.14207701261146996        0.0000000000000000     
  -4.0057806369178696E-002  0.14962306956863333        0.0000000000000000     
  -4.0775474823001763E-002  0.15728440552556455        0.0000000000000000     
  -4.1436532146756473E-002  0.16506102048226379        0.0000000000000000     
  -4.4216244349933015E-002  0.13490987430690971        0.0000000000000000     
  -4.5166332078450486E-002  0.14232417594985175        0.0000000000000000     
  -4.6055869992986949E-002  0.14985326172477015        0.0000000000000000     
  -4.6884858093542384E-002  0.15749713163166487        0.0000000000000000     
  -4.7653296380116804E-002  0.16525578567053587        0.0000000000000000     
   0.0000000000000000        0.0000000000000000        0.0000000000000000     
  -1.7983137640781061E-003   1.2768385618798007E-003   0.0000000000000000     
  -3.6213316121158140E-003   2.9391620690359067E-003   0.0000000000000000     
  -5.4690535441131250E-003   4.9869705214683167E-003   0.0000000000000000     
  -7.3414795600700387E-003   7.4202639191770330E-003   0.0000000000000000     
   0.0000000000000000        0.0000000000000000        0.0000000000000000     
  -2.0694310628145574E-003   1.3549264193954836E-003   0.0000000000000000     
  -4.1640518277675058E-003   3.0939587364276953E-003   0.0000000000000000     
  -6.2838622948588468E-003   5.2170969510966347E-003   0.0000000000000000     
  -8.4288624640885823E-003   7.7243410634022999E-003   0.0000000000000000     
   0.0000000000000000        0.0000000000000000        0.0000000000000000     
  -2.3400973183050826E-003   1.4589539635657903E-003   0.0000000000000000     
  -4.7201811503514131E-003   3.2998002264911742E-003   0.0000000000000000     
  -7.1402514961389904E-003   5.5225387887761490E-003   0.0000000000000000     
  -9.6003083556678165E-003   8.1271696504207191E-003   0.0000000000000000     
   0.0000000000000000        0.0000000000000000        0.0000000000000000     
  -2.6103125305496815E-003   1.5889211943907215E-003   0.0000000000000000     
  -5.2897195798675333E-003   3.5566865392263440E-003   0.0000000000000000     
  -8.0382211479535538E-003   5.9032960345068650E-003   0.0000000000000000     
  -1.0855817234807748E-002   8.6287496802322887E-003   0.0000000000000000     
   0.0000000000000000        0.0000000000000000        0.0000000000000000     
  -2.8800766995483547E-003   1.7448281118702764E-003   0.0000000000000000     
  -5.8726671163158682E-003   3.8646176746332033E-003   0.0000000000000000     
  -8.9777712503025416E-003   6.3593686882887808E-003   0.0000000000000000     
  -1.2195389101508372E-002   9.2290811528370070E-003   0.0000000000000000     
  -7.3414795600700387E-003   7.4202639191770330E-003   0.0000000000000000     
  -9.2309032159609214E-003   1.0186628404764569E-002   0.0000000000000000     
  -1.1129618067760132E-002   1.3233650120833442E-002   0.0000000000000000     
  -1.3037624115467682E-002   1.6561329067383647E-002   0.0000000000000000     
  -1.4954921359083558E-002   2.0169665244415189E-002   0.0000000000000000     
  -8.4288624640885823E-003   7.7243410634022999E-003   0.0000000000000000     
  -1.0590701921683425E-002   1.0558251241323140E-002   0.0000000000000000     
  -1.2761030253870102E-002   1.3661387652837594E-002   0.0000000000000000     
  -1.4939847460648614E-002   1.7033750297945661E-002   0.0000000000000000     
  -1.7127153542018960E-002   2.0675339176647350E-002   0.0000000000000000     
  -9.6003083556678165E-003   8.1271696504207191E-003   0.0000000000000000     
  -1.2076777243961001E-002   1.1046299339503782E-002   0.0000000000000000     
  -1.4546083676041661E-002   1.4212534384104242E-002   0.0000000000000000     
  -1.7008227651909791E-002   1.7625874784222097E-002   0.0000000000000000     
  -1.9463209171565403E-002   2.1286320539857347E-002   0.0000000000000000     
  -1.0855817234807748E-002   8.6287496802322887E-003   0.0000000000000000     
  -1.3689129182793651E-002   1.1650772699306498E-002   0.0000000000000000     
  -1.6484778334274808E-002   1.4887090314633384E-002   0.0000000000000000     
  -1.9242764689251221E-002   1.8337702526212946E-002   0.0000000000000000     
  -2.1963088247722889E-002   2.2002609334045183E-002   0.0000000000000000     
  -1.2195389101508372E-002   9.2290811528370070E-003   0.0000000000000000     
  -1.5427757738181372E-002   1.2371671320731290E-002   0.0000000000000000     
  -1.8577114228569541E-002   1.5685055444425021E-002   0.0000000000000000     
  -2.1643458572672896E-002   1.9169233523918215E-002   0.0000000000000000     
  -2.4626790770491420E-002   2.2824205559210858E-002   0.0000000000000000     
  -1.4954921359083558E-002   2.0169665244415189E-002   0.0000000000000000     
  -1.6856310181588178E-002   2.4030068228661782E-002   0.0000000000000000     
  -1.8716590965961941E-002   2.8113947596857140E-002   0.0000000000000000     
  -2.0535763712204856E-002   3.2421303349001257E-002   0.0000000000000000     
  -2.2313828420316914E-002   3.6952135485094149E-002   0.0000000000000000     
  -1.7127153542018960E-002   2.0675339176647350E-002   0.0000000000000000     
  -1.9291816870585753E-002   2.4558521395290262E-002   0.0000000000000000     
  -2.1402705818953614E-002   2.8655664060221991E-002   0.0000000000000000     
  -2.3459820387122542E-002   3.2966767171442549E-002   0.0000000000000000     
  -2.5463160575092535E-002   3.7491830728951930E-002   0.0000000000000000     
  -1.9463209171565403E-002   2.1286320539857347E-002   0.0000000000000000     
  -2.1882840961664627E-002   2.5175111715444391E-002   0.0000000000000000     
  -2.4238935748863624E-002   2.9273488375417614E-002   0.0000000000000000     
  -2.6531493533162389E-002   3.3581450519777012E-002   0.0000000000000000     
  -2.8760514314560930E-002   3.8098998148522592E-002   0.0000000000000000     
  -2.1963088247722889E-002   2.2002609334045183E-002   0.0000000000000000     
  -2.4629382454824808E-002   2.5879839189124180E-002   0.0000000000000000     
  -2.7225280755691979E-002   2.9967420542444004E-002   0.0000000000000000     
  -2.9750783150324412E-002   3.4265353394004654E-002   0.0000000000000000     
  -3.2205889638722091E-002   3.8773637743806148E-002   0.0000000000000000     
  -2.4626790770491420E-002   2.2824205559210858E-002   0.0000000000000000     
  -2.7531441350066292E-002   2.6672703816329617E-002   0.0000000000000000     
  -3.0361740839438683E-002   3.0737460561301160E-002   0.0000000000000000     
  -3.3117689238608597E-002   3.5018475794125488E-002   0.0000000000000000     
  -3.5799286547576033E-002   3.9515749514802592E-002   0.0000000000000000     
  -2.2313828420316914E-002   3.6952135485094149E-002   0.0000000000000000     
  -2.4047520437999445E-002   4.1697945316884623E-002   0.0000000000000000     
  -2.5733575112953787E-002   4.6650234156121489E-002   0.0000000000000000     
  -2.7371992445179922E-002   5.1809002002804756E-002   0.0000000000000000     
  -2.8962772434677857E-002   5.7174248856934416E-002   0.0000000000000000     
  -2.5463160575092535E-002   3.7491830728951930E-002   0.0000000000000000     
  -2.7412898151769564E-002   4.2226938908764979E-002   0.0000000000000000     
  -2.9309204886059606E-002   4.7168175886896528E-002   0.0000000000000000     
  -3.1152080777962655E-002   5.2315541663346621E-002   0.0000000000000000     
  -3.2941525827478710E-002   5.7669036238115215E-002   0.0000000000000000     
  -2.8760514314560930E-002   3.8098998148522592E-002   0.0000000000000000     
  -3.0927713431805118E-002   4.2823618870172220E-002   0.0000000000000000     
  -3.3034806223640821E-002   4.7752800293243733E-002   0.0000000000000000     
  -3.5081792690068073E-002   5.2886542417737159E-002   0.0000000000000000     
  -3.7068672831086828E-002   5.8224845243652470E-002   0.0000000000000000     
  -3.2205889638722091E-002   3.8773637743806148E-002   0.0000000000000000     
  -3.4591966278106095E-002   4.3487985201106333E-002   0.0000000000000000     
  -3.6910379125697439E-002   4.8404107375163076E-002   0.0000000000000000     
  -3.9161128181496155E-002   5.3522004265976371E-002   0.0000000000000000     
  -4.1344213445502223E-002   5.8841675873546218E-002   0.0000000000000000     
  -3.5799286547576033E-002   3.9515749514802592E-002   0.0000000000000000     
  -3.8405656690672488E-002   4.4220037901567331E-002   0.0000000000000000     
  -4.0935923592229445E-002   4.9122097132654544E-002   0.0000000000000000     
  -4.3390087252246919E-002   5.4221927208064256E-002   0.0000000000000000     
  -4.5768147670724901E-002   5.9519528127796435E-002   0.0000000000000000     
  -2.8962772434677857E-002   5.7174248856934416E-002   0.0000000000000000     
  -3.0506862519132150E-002   6.2732713266268975E-002   0.0000000000000000     
  -3.2005210136227341E-002   6.8471133778566867E-002   0.0000000000000000     
  -3.3457815285963442E-002   7.4389510393828115E-002   0.0000000000000000     
  -3.4864677968340439E-002   8.0487843112052718E-002   0.0000000000000000     
  -3.2941525827478710E-002   5.7669036238115215E-002   0.0000000000000000     
  -3.4678166341559152E-002   6.3215007038761872E-002   0.0000000000000000     
  -3.6362628627155405E-002   6.8939801492846176E-002   0.0000000000000000     
  -3.7994912684267447E-002   7.4843419600368097E-002   0.0000000000000000     
  -3.9575018512895278E-002   8.0925861361327650E-002   0.0000000000000000     
  -3.7068672831086828E-002   5.8224845243652470E-002   0.0000000000000000     
  -3.8996502720724843E-002   6.3754623314038819E-002   0.0000000000000000     
  -4.0866338433009804E-002   6.9462791171945357E-002   0.0000000000000000     
  -4.2678179967941744E-002   7.5349348817372028E-002   0.0000000000000000     
  -4.4432027325520644E-002   8.1414296250318860E-002   0.0000000000000000     
  -4.1344213445502223E-002   5.8841675873546218E-002   0.0000000000000000     
  -4.3461871656629188E-002   6.4351562092099829E-002   0.0000000000000000     
  -4.5516339553790558E-002   7.0040102815864397E-002   0.0000000000000000     
  -4.7507617136986348E-002   7.5907298044839908E-002   0.0000000000000000     
  -4.9435704406216537E-002   8.1953147779026389E-002   0.0000000000000000     
  -4.5768147670724901E-002   5.9519528127796435E-002   0.0000000000000000     
  -4.8074273149272206E-002   6.5005823372944860E-002   0.0000000000000000     
  -5.0312631989497654E-002   7.0671736424603310E-002   0.0000000000000000     
  -5.2483224191401223E-002   7.6517267282771750E-002   0.0000000000000000     
  -5.4586049754982956E-002   8.2542415947450168E-002   0.0000000000000000     
  -3.4864677968340439E-002   8.0487843112052718E-002   0.0000000000000000     
  -3.6220134805112637E-002   8.6756727238718731E-002   0.0000000000000000     
  -3.7518522418034321E-002   9.3186758079304224E-002   0.0000000000000000     
  -3.8759840807105504E-002   9.9777935633809184E-002   0.0000000000000000     
  -3.9944089972326187E-002  0.10653025990223361        0.0000000000000000     
  -3.9575018512895278E-002   8.0925861361327650E-002   0.0000000000000000     
  -4.1097499614894256E-002   8.7178213479549044E-002   0.0000000000000000     
  -4.2556909492119724E-002   9.3591562658856528E-002   0.0000000000000000     
  -4.3953248144571667E-002  0.10016590889925009        0.0000000000000000     
  -4.5286515572250094E-002  0.10690125220072975        0.0000000000000000     
  -4.4432027325520644E-002   8.1414296250318860E-002   0.0000000000000000     
  -4.6122146876783558E-002   8.7648805719054035E-002   0.0000000000000000     
  -4.7742804992767507E-002   9.4044049471845720E-002   0.0000000000000000     
  -4.9294001673472497E-002  0.10060002750869389        0.0000000000000000     
  -5.0775736918898549E-002  0.10731673982959854        0.0000000000000000     
  -4.9435704406216537E-002   8.1953147779026389E-002   0.0000000000000000     
  -5.1294076590780530E-002   8.8168503957233690E-002   0.0000000000000000     
  -5.3076208919977705E-002   9.4544218518271744E-002   0.0000000000000000     
  -5.4782101393808028E-002  0.10108029146214054        0.0000000000000000     
  -5.6411754012271539E-002  0.10777672278884005        0.0000000000000000     
  -5.4586049754982956E-002   8.2542415947450168E-002   0.0000000000000000     
  -5.6613288756885177E-002   8.8737308194088024E-002   0.0000000000000000     
  -5.8557121273750290E-002   9.5092069798134615E-002   0.0000000000000000     
  -6.0417547305578259E-002  0.10160670075959002        0.0000000000000000     
  -6.2194566852369092E-002  0.10828120107845421        0.0000000000000000     
  -3.9944089972326187E-002  0.10653025990223361        0.0000000000000000     
  -4.1077885535898181E-002  0.11342865902156400        0.0000000000000000     
  -4.2167843120023321E-002  0.12045806112878679        0.0000000000000000     
  -4.3213962724701592E-002  0.12761846622390202        0.0000000000000000     
  -4.4216244349933015E-002  0.13490987430690971        0.0000000000000000     
  -4.5286515572250094E-002  0.10690125220072975        0.0000000000000000     
  -4.6563311376405118E-002  0.11378249648214413        0.0000000000000000     
  -4.7790235158286828E-002  0.12079454566234189        0.0000000000000000     
  -4.8967286917895252E-002  0.12793739974132309        0.0000000000000000     
  -5.0094466655230346E-002  0.13521105871908762        0.0000000000000000     
  -5.0775736918898549E-002  0.10731673982959854        0.0000000000000000     
  -5.2195260343689404E-002  0.11417919258101088        0.0000000000000000     
  -5.3559821562488834E-002  0.12117239190938203        0.0000000000000000     
  -5.4869420575296861E-002  0.12829633781471195        0.0000000000000000     
  -5.6124057382113471E-002  0.13555103029700072        0.0000000000000000     
  -5.6411754012271539E-002  0.10777672278884005        0.0000000000000000     
  -5.7973732437751051E-002  0.11461874731816427        0.0000000000000000     
  -5.9476602332629344E-002  0.12159159986990717        0.0000000000000000     
  -6.0920363696906461E-002  0.12869528044406875        0.0000000000000000     
  -6.2305016530582354E-002  0.13592978904064901        0.0000000000000000     
  -6.2194566852369092E-002  0.10828120107845421        0.0000000000000000     
  -6.3898727658590046E-002  0.11510116069360428        0.0000000000000000     
  -6.5540577468708366E-002  0.12205216954391732        0.0000000000000000     
  -6.7120116282724032E-002  0.12913422762939336        0.0000000000000000     
  -6.8637344100637029E-002  0.13634733495003243        0.0000000000000000     
  -4.4216244349933015E-002  0.13490987430690971        0.0000000000000000     
  -4.5166332078450486E-002  0.14232417594985175        0.0000000000000000     
  -4.6055869992986949E-002  0.14985326172477015        0.0000000000000000     
  -4.6884858093542384E-002  0.15749713163166487        0.0000000000000000     
  -4.7653296380116804E-002  0.16525578567053587        0.0000000000000000     
  -5.0094466655230346E-002  0.13521105871908762        0.0000000000000000     
  -5.1164537102319378E-002  0.14260724514338646        0.0000000000000000     
  -5.2170260991189557E-002  0.15011768156197045        0.0000000000000000     
  -5.3111638321840883E-002  0.15774236797483954        0.0000000000000000     
  -5.3988669094273356E-002  0.16548130438199377        0.0000000000000000     
  -5.6124057382113471E-002  0.13555103029700072        0.0000000000000000     
  -5.7316263798424499E-002  0.14292790188764545        0.0000000000000000     
  -5.8438571639715789E-002  0.15041838511804320        0.0000000000000000     
  -5.9490980905987374E-002  0.15802247998819394        0.0000000000000000     
  -6.0473491597239221E-002  0.16574018649809780        0.0000000000000000     
  -6.2305016530582354E-002  0.13592978904064901        0.0000000000000000     
  -6.3621512166765842E-002  0.14328614618262864        0.0000000000000000     
  -6.4860801938565679E-002  0.15075537239298833        0.0000000000000000     
  -6.6022885845981857E-002  0.15833746767172818        0.0000000000000000     
  -6.7107763889014391E-002  0.16603243201884807        0.0000000000000000     
  -6.8637344100637029E-002  0.13634733495003243        0.0000000000000000     
  -7.0080282207343414E-002  0.14368197802833607        0.0000000000000000     
  -7.1436951887739200E-002  0.15112864338680593        0.0000000000000000     
  -7.2707353141824360E-002  0.15868733102544208        0.0000000000000000     
  -7.3891485969598894E-002  0.16635804094424447        0.0000000000000000     
   0.0000000000000000        0.0000000000000000        0.0000000000000000     
  -2.8800766995483547E-003   1.7448281118702764E-003   0.0000000000000000     
  -5.8726671163158682E-003   3.8646176746332033E-003   0.0000000000000000     
  -8.9777712503025416E-003   6.3593686882887808E-003   0.0000000000000000     
  -1.2195389101508372E-002   9.2290811528370070E-003   0.0000000000000000     
   0.0000000000000000        0.0000000000000000        0.0000000000000000     
  -3.2832189383032607E-003   1.9993392652403754E-003   0.0000000000000000     
  -6.6769847756915782E-003   4.3309129105780454E-003   0.0000000000000000     
  -1.0181297512164952E-002   6.9947209360130104E-003   0.0000000000000000     
  -1.3796157147723380E-002   9.9907633415452710E-003   0.0000000000000000     
   0.0000000000000000        0.0000000000000000        0.0000000000000000     
  -3.9535683598165587E-003   2.4251192037369387E-003   0.0000000000000000     
  -7.9106335739898195E-003   5.0628915249271633E-003   0.0000000000000000     
  -1.1871195642519787E-002   7.9133169635706730E-003   0.0000000000000000     
  -1.5835254565406454E-002   1.0976395519667469E-002   0.0000000000000000     
   0.0000000000000000        0.0000000000000000        0.0000000000000000     
  -4.8911249640882478E-003   3.0221679273599667E-003   0.0000000000000000     
  -9.5736135112105981E-003   6.0605535176805553E-003   0.0000000000000000     
  -1.4047465641367048E-002   9.1151567709617694E-003   0.0000000000000000     
  -1.8312681354557603E-002   1.2185977687203604E-002   0.0000000000000000     
   0.0000000000000000        0.0000000000000000        0.0000000000000000     
  -6.0958887511183288E-003   3.7904854361094586E-003   0.0000000000000000     
  -1.1665924587353906E-002   7.3238988888382232E-003   0.0000000000000000     
  -1.6710107508706738E-002   1.0600240358186295E-002   0.0000000000000000     
  -2.1228437515176814E-002   1.3619509844153672E-002   0.0000000000000000     
  -1.2195389101508372E-002   9.2290811528370070E-003   0.0000000000000000     
  -1.5427757738181372E-002   1.2371671320731290E-002   0.0000000000000000     
  -1.8577114228569541E-002   1.5685055444425021E-002   0.0000000000000000     
  -2.1643458572672896E-002   1.9169233523918215E-002   0.0000000000000000     
  -2.4626790770491420E-002   2.2824205559210858E-002   0.0000000000000000     
  -1.3796157147723380E-002   9.9907633415452710E-003   0.0000000000000000     
  -1.7404451683845665E-002   1.3221050023226242E-002   0.0000000000000000     
  -2.0889069122010617E-002   1.6587590877107341E-002   0.0000000000000000     
  -2.4250009462218225E-002   2.0090385903188571E-002   0.0000000000000000     
  -2.7487272704468498E-002   2.3729435101469926E-002   0.0000000000000000     
  -1.5835254565406454E-002   1.0976395519667469E-002   0.0000000000000000     
  -1.9730999793508043E-002   1.4210963626239454E-002   0.0000000000000000     
  -2.3486620777682776E-002   1.7575857716308534E-002   0.0000000000000000     
  -2.7102117517930638E-002   2.1071077789874694E-002   0.0000000000000000     
  -3.0577490014251640E-002   2.4696623846937951E-002   0.0000000000000000     
  -1.8312681354557603E-002   1.2185977687203604E-002   0.0000000000000000     
  -2.2407402067168507E-002   1.5341412129770922E-002   0.0000000000000000     
  -2.6369769195586010E-002   1.8649855962028582E-002   0.0000000000000000     
  -3.0199782739810121E-002   2.2111309183976583E-002   0.0000000000000000     
  -3.3897442699840838E-002   2.5725771795614930E-002   0.0000000000000000     
  -2.1228437515176814E-002   1.3619509844153672E-002   0.0000000000000000     
  -2.5433658504827046E-002   1.6612395533820646E-002   0.0000000000000000     
  -2.9538514375720335E-002   1.9809585614267503E-002   0.0000000000000000     
  -3.3543005127856684E-002   2.3211080085494242E-002   0.0000000000000000     
  -3.7447130761236090E-002   2.6816878947500868E-002   0.0000000000000000     
  -2.4626790770491420E-002   2.2824205559210858E-002   0.0000000000000000     
  -2.7531441350066292E-002   2.6672703816329617E-002   0.0000000000000000     
  -3.0361740839438683E-002   3.0737460561301160E-002   0.0000000000000000     
  -3.3117689238608597E-002   3.5018475794125488E-002   0.0000000000000000     
  -3.5799286547576033E-002   3.9515749514802592E-002   0.0000000000000000     
  -2.7487272704468498E-002   2.3729435101469926E-002   0.0000000000000000     
  -3.0624063175108691E-002   2.7547242991561027E-002   0.0000000000000000     
  -3.3683585200486067E-002   3.1586314093071485E-002   0.0000000000000000     
  -3.6665838780600618E-002   3.5846648406001304E-002   0.0000000000000000     
  -3.9570823915452344E-002   4.0328245930350490E-002   0.0000000000000000     
  -3.0577490014251640E-002   2.4696623846937951E-002   0.0000000000000000     
  -3.3942293457671635E-002   2.8496994109318705E-002   0.0000000000000000     
  -3.7226083039216463E-002   3.2516686798837374E-002   0.0000000000000000     
  -4.0428858758886146E-002   3.6755701915493939E-002   0.0000000000000000     
  -4.3550620616680649E-002   4.1214039459288428E-002   0.0000000000000000     
  -3.3897442699840838E-002   2.5725771795614930E-002   0.0000000000000000     
  -3.7486132197755109E-002   2.9521957169602653E-002   0.0000000000000000     
  -4.0989234355629886E-002   3.3528578678598805E-002   0.0000000000000000     
  -4.4406749173465147E-002   3.7745636322603388E-002   0.0000000000000000     
  -4.7738676651260928E-002   4.2173130101616385E-002   0.0000000000000000     
  -3.7447130761236090E-002   2.6816878947500868E-002   0.0000000000000000     
  -4.1255579395359107E-002   3.0622132172412886E-002   0.0000000000000000     
  -4.4973039149726307E-002   3.4621989732355814E-002   0.0000000000000000     
  -4.8599510024337662E-002   3.8816451627329634E-002   0.0000000000000000     
  -5.2134992019193194E-002   4.3205517857334369E-002   0.0000000000000000     
  -3.5799286547576033E-002   3.9515749514802592E-002   0.0000000000000000     
  -3.8405656690672488E-002   4.4220037901567331E-002   0.0000000000000000     
  -4.0935923592229445E-002   4.9122097132654544E-002   0.0000000000000000     
  -4.3390087252246919E-002   5.4221927208064256E-002   0.0000000000000000     
  -4.5768147670724901E-002   5.9519528127796435E-002   0.0000000000000000     
  -3.9570823915452344E-002   4.0328245930350490E-002   0.0000000000000000     
  -4.2395098626519127E-002   4.5017846801242184E-002   0.0000000000000000     
  -4.5135220935278816E-002   4.9902191153799548E-002   0.0000000000000000     
  -4.7791190841731425E-002   5.4981278988022561E-002   0.0000000000000000     
  -5.0363008345876939E-002   6.0255110303911244E-002   0.0000000000000000     
  -4.3550620616680649E-002   4.1214039459288428E-002   0.0000000000000000     
  -4.6586606042660836E-002   4.5879481729817886E-002   0.0000000000000000     
  -4.9532052466887536E-002   5.0739811026679446E-002   0.0000000000000000     
  -5.2386959889360735E-002   5.5795027349873065E-002   0.0000000000000000     
  -5.5151328310080440E-002   6.1045130699398750E-002   0.0000000000000000     
  -4.7738676651260928E-002   4.2173130101616385E-002   0.0000000000000000     
  -5.0980178939097613E-002   4.6804942687294453E-002   0.0000000000000000     
  -5.4126418187055568E-002   5.1634956751294231E-002   0.0000000000000000     
  -5.7177394395134841E-002   5.6663172293615741E-002   0.0000000000000000     
  -6.0133107563335404E-002   6.1889589314258954E-002   0.0000000000000000     
  -5.2134992019193194E-002   4.3205517857334369E-002   0.0000000000000000     
  -5.5575817315829446E-002   4.7794229673671848E-002   0.0000000000000000     
  -5.8918318095782955E-002   5.2587628327643923E-002   0.0000000000000000     
  -6.2162494359053765E-002   5.7585713819250588E-002   0.0000000000000000     
  -6.5308346105641818E-002   6.2788486148491848E-002   0.0000000000000000     
  -4.5768147670724901E-002   5.9519528127796435E-002   0.0000000000000000     
  -4.8074273149272206E-002   6.5005823372944860E-002   0.0000000000000000     
  -5.0312631989497654E-002   7.0671736424603310E-002   0.0000000000000000     
  -5.2483224191401223E-002   7.6517267282771750E-002   0.0000000000000000     
  -5.4586049754982956E-002   8.2542415947450168E-002   0.0000000000000000     
  -5.0363008345876939E-002   6.0255110303911244E-002   0.0000000000000000     
  -5.2856681906792997E-002   6.5716485922602527E-002   0.0000000000000000     
  -5.5278219983557253E-002   7.1358206665233334E-002   0.0000000000000000     
  -5.7627622576169699E-002   7.7180272531803665E-002   0.0000000000000000     
  -5.9904889684630314E-002   8.3182683522313533E-002   0.0000000000000000     
  -5.5151328310080440E-002   6.1045130699398750E-002   0.0000000000000000     
  -5.7832072637330700E-002   6.6482628507101363E-002   0.0000000000000000     
  -6.0436107779395544E-002   7.2100028204825722E-002   0.0000000000000000     
  -6.2963433736274999E-002   7.7897329792571801E-002   0.0000000000000000     
  -6.5414050507969015E-002   8.3874533270339668E-002   0.0000000000000000     
  -6.0133107563335404E-002   6.1889589314258954E-002   0.0000000000000000     
  -6.3000445340885280E-002   6.7304251126441367E-002   0.0000000000000000     
  -6.5786295377012513E-002   7.2897201043380433E-002   0.0000000000000000     
  -6.8490657671717123E-002   7.8668439065076215E-002   0.0000000000000000     
  -7.1113532224999082E-002   8.4617965191528630E-002   0.0000000000000000     
  -6.5308346105641818E-002   6.2788486148491848E-002   0.0000000000000000     
  -6.8361800017456759E-002   6.8181353780622553E-002   0.0000000000000000     
  -7.1328782776408195E-002   7.3749725180897535E-002   0.0000000000000000     
  -7.4209294382496099E-002   7.9493600349316837E-002   0.0000000000000000     
  -7.7003334835720499E-002   8.5412979285880403E-002   0.0000000000000000     
  -5.4586049754982956E-002   8.2542415947450168E-002   0.0000000000000000     
  -5.6613288756885177E-002   8.8737308194088024E-002   0.0000000000000000     
  -5.8557121273750290E-002   9.5092069798134615E-002   0.0000000000000000     
  -6.0417547305578259E-002  0.10160670075959002        0.0000000000000000     
  -6.2194566852369092E-002  0.10828120107845421        0.0000000000000000     
  -5.9904889684630314E-002   8.3182683522313533E-002   0.0000000000000000     
  -6.2100834969169093E-002   8.9355075727405392E-002   0.0000000000000000     
  -6.4206272090015989E-002   9.5687085237721764E-002   0.0000000000000000     
  -6.6221201047171011E-002  0.10217871205326264        0.0000000000000000     
  -6.8145621840634149E-002  0.10882995617402799        0.0000000000000000     
  -6.5414050507969015E-002   8.3874533270339668E-002   0.0000000000000000     
  -6.7777766821703805E-002   9.0021663854974301E-002   0.0000000000000000     
  -7.0044391404705517E-002   9.6328746763320580E-002   0.0000000000000000     
  -7.2213924256974135E-002  0.10279578199537860        0.0000000000000000     
  -7.4286365378509689E-002  0.10942276955114831        0.0000000000000000     
  -7.1113532224999082E-002   8.4617965191528630E-002   0.0000000000000000     
  -7.3644084314489322E-002   9.0737072576794642E-002   0.0000000000000000     
  -7.6071479217818858E-002   9.7017054374931064E-002   0.0000000000000000     
  -7.8395716934987647E-002  0.10345791058593791        0.0000000000000000     
  -8.0616797465995718E-002  0.11005964120981518        0.0000000000000000     
  -7.7003334835720499E-002   8.5412979285880403E-002   0.0000000000000000     
  -7.9699787447525705E-002   9.1501301892866468E-002   0.0000000000000000     
  -8.2287535529356054E-002   9.7752008072553187E-002   0.0000000000000000     
  -8.4766579081211546E-002  0.10416509782494059        0.0000000000000000     
  -8.7136918103092181E-002  0.11074057115002862        0.0000000000000000     
  -6.2194566852369092E-002  0.10828120107845421        0.0000000000000000     
  -6.3898727658590046E-002  0.11510116069360428        0.0000000000000000     
  -6.5540577468708366E-002  0.12205216954391732        0.0000000000000000     
  -6.7120116282724032E-002  0.12913422762939336        0.0000000000000000     
  -6.8637344100637029E-002  0.13634733495003243        0.0000000000000000     
  -6.8145621840634149E-002  0.10882995617402799        0.0000000000000000     
  -6.9991907686831570E-002  0.11562658540778260        0.0000000000000000     
  -7.1772431802189368E-002  0.12255436756229135        0.0000000000000000     
  -7.3487194186707586E-002  0.12961330263755413        0.0000000000000000     
  -7.5136194840386195E-002  0.13680339063357103        0.0000000000000000     
  -7.4286365378509689E-002  0.10942276955114831        0.0000000000000000     
  -7.6274934203100747E-002  0.11619517416115102        0.0000000000000000     
  -7.8192850164535907E-002  0.12309846055590802        0.0000000000000000     
  -8.0040113262815182E-002  0.13013262873541934        0.0000000000000000     
  -8.1816723497938587E-002  0.13729767869968490        0.0000000000000000     
  -8.0616797465995718E-002  0.11005964120981518        0.0000000000000000     
  -8.2747807207397620E-002  0.11680692695370949        0.0000000000000000     
  -8.4801832555747997E-002  0.12368444852476741        0.0000000000000000     
  -8.6778873511046836E-002  0.13069220592298891        0.0000000000000000     
  -8.8678930073294165E-002  0.13783019914837399        0.0000000000000000     
  -8.7136918103092181E-002  0.11074057115002862        0.0000000000000000     
  -8.9410526699722145E-002  0.11746184378545803        0.0000000000000000     
  -9.1599378975825596E-002  0.12431233146886946        0.0000000000000000     
  -9.3703474931402519E-002  0.13129203420026292        0.0000000000000000     
  -9.5722814566452957E-002  0.13840095197963839        0.0000000000000000     
  -6.8637344100637029E-002  0.13634733495003243        0.0000000000000000     
  -7.0080282207343414E-002  0.14368197802833607        0.0000000000000000     
  -7.1436951887739200E-002  0.15112864338680593        0.0000000000000000     
  -7.2707353141824360E-002  0.15868733102544208        0.0000000000000000     
  -7.3891485969598894E-002  0.16635804094424447        0.0000000000000000     
  -7.5136194840386195E-002  0.13680339063357103        0.0000000000000000     
  -7.6705016294831327E-002  0.14411478194364302        0.0000000000000000     
  -7.8179241081649087E-002  0.15153762696107129        0.0000000000000000     
  -7.9558869200839488E-002  0.15907192568585568        0.0000000000000000     
  -8.0843900652402503E-002  0.16671767811799629        0.0000000000000000     
  -8.1816723497938587E-002  0.13729767869968490        0.0000000000000000     
  -8.3508156803903680E-002  0.14458394244742492        0.0000000000000000     
  -8.5099889114708144E-002  0.15198175197735958        0.0000000000000000     
  -8.6591920430351924E-002  0.15949110728948887        0.0000000000000000     
  -8.7984250750835075E-002  0.16711200838381277        0.0000000000000000     
  -8.8678930073294165E-002  0.13783019914837399        0.0000000000000000     
  -9.0489703734560487E-002  0.14508945953968166        0.0000000000000000     
  -9.2198895986916315E-002  0.15246101843567089        0.0000000000000000     
  -9.3806506830361680E-002  0.15994487583634168        0.0000000000000000     
  -9.5312536264896566E-002  0.16754103174169391        0.0000000000000000     
  -9.5722814566452957E-002  0.13840095197963839        0.0000000000000000     
  -9.7649657086801719E-002  0.14563133322041336        0.0000000000000000     
  -9.9476261698273644E-002  0.15297542633600522        0.0000000000000000     
 -0.10120262840086876       0.16043323132641402        0.0000000000000000     
 -0.10282875719458702       0.16800474819163974        0.0000000000000000     
 </DataArray>
 <DataArray  type="Float64" Name="stress" NumberOfComponents="3" format="ascii">
   13416401319.169319        4024920395.7507954        2894046592.8280869     
   11766386053.534952        1890328165.5373652        1715875987.2001505     
   10313677209.378471        413424006.91689062        810757525.23940146     
   9058274786.6998825       -405792080.11062479        178691206.94583803     
   8000178785.4991760       -567320095.54518795       -180322967.68053824     
   10539836144.332968        3161950843.2998900        2225766716.9480734     
   9667520325.1124859        1589504514.4549820        1446732231.2705195     
   8943864757.5839119        512592357.91642809        863149968.08218551     
   8368869441.7472429       -68785626.315773487        475019927.38307160     
   7942534377.6024837       -154629438.24162054        282342109.17317772     
   8337905791.9451485        2501371737.5835443        1712339183.9987369     
   8021575358.6300774        1424557091.9546161        1275686953.5212538     
   7805259007.2209320        681122719.34543824        956887024.35502541     
   7688956737.7177114        271068619.75601244        755939396.50004888     
   7672668550.1204147        194394793.18633413        672844069.95632768     
   6810610262.0058594        2043183078.6017578        1353763993.9800785     
   6828551154.0877237        1395485898.0362670        1202740153.9523556     
   6897859958.2895317        919015091.20392346        1091968694.0579205     
   7018536674.6112843        613770658.10472798        1021449614.2967719     
   7190581303.0529814        479752598.73868060        991182914.66891074     
   5957949554.5151033        1787384866.3545310        1150041146.8920970     
   6088447711.4854269        1502290932.6999345        1227891832.5638230     
   6221667610.7897120        1226269473.4918826        1268394977.1908698     
   6357609252.4279613        959320488.73037577        1271550580.7732382     
   6496272636.4001760        701443978.41541386        1237358643.3109272     
   8000178785.4991760       -567320095.54518795       -180322967.68053824     
   7917706916.5516596       -199889565.32346106       -78384468.624710336     
   7793711904.7946110        29130488.866487026       -9010179.9984539356     
   7628193750.2280197        119740067.02463388        27799898.198234018     
   7421152452.8518991        71939169.151005745        32045765.965352245     
   7942534377.6024837       -154629438.24162054        282342109.17317772     
   7739771360.4729719        16556776.844265461        281065684.98525739     
   7513595396.8650608        109699837.00215578        265108968.42595062     
   7264006486.7787523        124799742.23205996        234471959.49525765     
   6991004630.2140512        61856492.533973217        189154658.19317850     
   7672668550.1204147        194394793.18633413        672844069.95632768     
   7400711293.5465794        184665765.75767469        589481284.91098821     
   7123451286.8254795        157260904.50482082        509322125.55244523     
   6840888529.9571257        112180209.42777419        432366591.88070214     
   6553023022.9415121        49423680.526534319        358614683.89575624     
   7190581303.0529814        479752598.73868060        991182914.66891074     
   6900526715.7724838        304437401.41677618        846862331.15247953     
   6623279574.6758680        171813691.37447596        723629291.38103163     
   6358839879.7631321        81881468.611779213        621483795.35456395     
   6107207631.0342798        34640733.128686190        540425843.07308102     
   6496272636.4001760        701443978.41541386        1237358643.3109272     
   6239217627.1506891        375871683.82156801        1053208823.7097347     
   6013080260.4162235        153358197.61112213        908030465.91170824     
   5817860536.1967773        33903519.784075737        801823569.91684723     
   5653558454.4923506        17507650.340430498        734588135.72515464     
   7421152452.8518991        71939169.151005745        32045765.965352245     
   7219241991.1687803       -18766872.869993687        14993698.012206478     
   7029550675.6873283       -68742427.552102089        2236205.1803819910     
   6852078506.4075470       -77987494.895316601       -6226712.5301297046     
   6686825483.3294277       -46502074.899647236       -10395055.119329408     
   6991004630.2140512        61856492.533973217        189154658.19317850     
   6808879370.8144903        2531270.6930828094        180746195.17681190     
   6634576980.1181459       -30717722.137072086        176020815.67722556     
   6468097458.1250229       -37890485.956486464        174978519.69441697     
   6309440804.8351288       -18987020.765154839        177619307.22838292     
   6553023022.9415121        49423680.526534319        358614683.89575624     
   6388935846.9553995        20955143.204717159        353720835.40131021     
   6228275262.1740656        3908576.5654895306        351898578.81911153     
   6071041268.5975084       -1716019.3911473751        353147914.14914966     
   5917233866.2257271        4081355.3348059654        357468841.39143813     
   6107207631.0342798        34640733.128686190        540425843.07308102     
   5959411419.5915184        36504744.664913893        533917618.68570489     
   5810645521.8550901        35136468.555581808        529869494.60604042     
   5660909937.8249950        30535904.800690413        528281470.83408070     
   5510204667.5012302        22703053.400238752        529153547.36983454     
   5653558454.4923506        17507650.340430498        734588135.72515464     
   5520306088.7228413        49180075.073670864        721336545.02999699     
   5381687759.1612186        62965953.833204746        709933563.03801358     
   5237703465.8074856        58865286.619027376        700379189.74920249     
   5088353208.6616364        36878073.431142330        692673425.16356707     
   6686825483.3294277       -46502074.899647236       -10395055.119329408     
   6509650365.9498138       -7808891.9270312786       -4147112.6156527721     
   6327366690.0173664        13855762.536148548        3747744.0759430523     
   6139974455.5320921        18491888.489894867        13289514.955451980     
   5947473662.4939833        6099485.9342029095        24478200.022873051     
   6309440804.8351288       -18987020.765154839        177619307.22838292     
   6132730183.0988932        1661028.6580939293        174504139.04322663     
   5952918082.6149254        11970815.588906765        174263622.59952933     
   5770004503.3832226        11942340.027271032        176897757.89729413     
   5583989445.4037895        1575601.9731974602        182406544.93652466     
   5917233866.2257271        4081355.3348059654        357468841.39143813     
   5744495561.7144365        7736617.6831574440        347332155.62338871     
   5570662858.2605162        7743883.5560657978        341297859.15035772     
   5395735755.8639660        4103152.9535317421        339365951.97232658     
   5219714254.5247774       -3185574.1244513988        341536434.08931309     
   5510204667.5012302        22703053.400238752        529153547.36983454     
   5344946501.7964582        10417875.148161411        514336937.12484270     
   5180601016.9541531        1174966.4376394749        504850453.72841489     
   5017168212.9743137       -5025672.7313296795        500694097.18054730     
   4854648089.8569403       -8184042.3587422371        501867867.48123759     
   5088353208.6616364        36878073.431142330        692673425.16356707     
   4934083003.3449507        9704801.0531113148        675518483.54758549     
   4782732558.6958275       -7735935.7663698196        664921406.33371449     
   4634301874.7142725       -15444137.027297497        660882193.52195072     
   4488790951.4002781       -13419802.729685783        663400845.11229777     
   5947473662.4939833        6099485.9342029095        24478200.022873051     
   5778494312.4011021       -3749636.3354787827        16817615.778541144     
   5611647815.8516827       -6489246.7936384678        12912727.966761410     
   5446934172.8457165       -2119345.4402711391        12763536.587540571     
   5284353383.3832111        9360067.7246181965        16370041.640862292     
   5583989445.4037895        1575601.9731974602        182406544.93652466     
   5426183980.4661055       -2921069.0281589031        176449606.59631750     
   5269770448.6543036       -2777962.9432415962        174097087.03486839     
   5114748849.9683800        2004920.2279460430        175348986.25217044     
   4961119184.4083443        11427580.485409737        180205304.24822059     
   5219714254.5247774       -3185574.1244513988        341536434.08931309     
   5072650452.8742847       -2459460.4178819656        336418734.49939698     
   4926237663.9320984        436695.64969778061        334754176.03443336     
   4780475887.6982241        5502894.0783138275        336542758.69442081     
   4635365124.1726503        12739134.867938995        341784482.47936124     
   4854648089.8569403       -8184042.3587422371        501867867.48123759     
   4717893729.6256418       -2364810.5046539307        496724999.48777074     
   4581049461.6850739        3154728.9852030277        494883994.96545684     
   4444115286.0352325        8374576.1108262539        496344853.91429389     
   4307091202.6761312        13294730.872230768        501107576.33428532     
   4488790951.4002781       -13419802.729685783        663400845.11229777     
   4361913810.7201700       -2637119.2884755135        657368401.56144524     
   4234205841.9132195        5376137.0632519722        654486543.82794118     
   4105667044.9794250        10619966.325500011        654755271.91179276     
   3976297419.9187841        13094368.498264313        658174585.81299365     
   5284353383.3832111        9360067.7246181965        16370041.640862292     
   5075358514.9673901        8419497.5984318256        14118233.903102158     
   4865222599.8619118        3675438.5066831112        15771623.402223326     
   4653945638.0667534       -4872109.5506498814        21330210.138219394     
   4441527629.5819263       -17223146.573542356        30793994.111094199     
   4961119184.4083443        11427580.485409737        180205304.24822059     
   4762080613.2756662        8171668.0167145729        176148391.24688393     
   4562272591.8383980        2350921.1994104385        176379280.99781200     
   4361695120.0965576       -6034659.9664793015        180897973.50099835     
   4160348198.0501280       -16985075.480999231        189704468.75645709     
   4635365124.1726503        12739134.867938995        341784482.47936124     
   4447376008.9384918        7495827.6413621902        336355993.33038616     
   4258989039.7848449        926340.68315243721        335597912.44905883     
   4070204216.7117004       -6969326.0067076683        339510239.83537763     
   3881021539.7190661       -16191172.428212166        348092975.48935324     
   4307091202.6761312        13294730.872230768        501107576.33428532     
   4131244701.9558830        6391976.4723863602        494741040.15360934     
   3955371943.7012320       -598303.04214668274        493427517.75596470     
   3779472927.9121799       -7676107.6713483334        497167009.14136326     
   3603547654.5887256       -14841437.415217161        505959514.30979002     
   3976297419.9187841        13094368.498264313        658174585.81299365     
   3813686692.3278379        4860114.5097677708        651303531.71654987     
   3651421303.5875769       -2223009.9764461517        649868096.91853130     
   3489501253.6980042       -8155004.9603688717        653868281.41893244     
   3327926542.6591139       -12935870.442006588        663304085.21775806     
   4441527629.5819263       -17223146.573542356        30793994.111094199     
   4279449558.9594803       -15042927.332520247        20852252.044705883     
   4118136232.7664065       -10313559.993570328        17181619.350416552     
   3957587651.0027108       -3035044.5566995144        19782096.028242864     
   3797803813.6683888        6792618.9780712128        28653682.078170717     
   4160348198.0501280       -16985075.480999231        189704468.75645709     
   4014102016.1576738       -11772234.947875977        180633164.22936016     
   3868383328.9663529       -4801078.7442984581        176769290.59350196     
   3723192136.4761786        3928393.1297531128        178112847.84889305     
   3578528438.6871386        14416180.674262762        184663835.99552864     
   3881021539.7190661       -16191172.428212166        348092975.48935324     
   3747568165.1827111       -8857435.0151672363        339615317.15193415     
   3614405035.6192632       -556214.35910534859        335281411.22490221     
   3481532151.0287042        8712489.5399293900        335091257.70824552     
   3348949511.4110575        18948676.681988716        339044856.60198945     
   3603547654.5887256       -14841437.415217161        505959514.30979002     
   3479848006.0345922       -6298527.5344073772        497798710.81243616     
   3356201352.7251191        2421033.1619489193        492717981.24460000     
   3232607694.6603074        11317244.673839569        490717325.60630322     
   3109067031.8401580        20390107.001263857        491796743.89752698     
   3327926542.6591139       -12935870.442006588        663304085.21775806     
   3210941538.7133064       -4095512.5056029558        655183345.21086049     
   3093772280.2839241        4130663.8188877106        649079000.65262604     
   2976418767.3709650        11742658.531454206        644991051.54305792     
   2858880999.9744296        18740471.632100344        642919497.88215554     
   3797803813.6683888        6792618.9780712128        28653682.078170717     
   3605186039.7284050        6256021.6350421906        28121074.736622628     
   3411464567.5813465        2040430.2684416771        25405978.293248259     
   3216639397.2272453       -5854155.1216360331        20508392.748088602     
   3020710528.6661067       -17427734.535181761        13428318.101112915     
   3578528438.6871386        14416180.674262762        184663835.99552864     
   3381888716.6801620        9071473.7304940224        180671636.63705182     
   3184563464.4404750        1441666.0110368729        176877683.92902333     
   2986552681.9680829       -8473242.4841389656        173281977.87142393     
   2787856369.2629766       -20673251.754983068        169884518.46427286     
   3348949511.4110575        18948676.681988716        339044856.60198945     
   3155089943.4863873        10836490.782316089        332080927.86331499     
   2960963013.3033414        1833097.3547195196        327695981.52733374     
   2766568720.8619237       -8061503.6007442474        325890017.59404385     
   2571907066.1621580       -18847312.084090948        326663036.06344676     
   3109067031.8401580        20390107.001263857        491796743.89752698     
   2924789720.1470642        11551072.790445447        482348948.41539347     
   2740663214.1699443        3214724.2995401621        477860871.08820331     
   2556687513.9088111       -4618938.4714339972        478332511.91596216     
   2372862619.3636293       -11949915.522511959        483763870.89865518     
   2858880999.9744296        18740471.632100344        642919497.88215554     
   2690988046.6622062        11215219.754931211        631475698.29330111     
   2523664067.0402970        5586546.8454866409        627372352.61163235     
   2356909061.1087060        1854452.9037706852        630609460.83715546     
   2190723028.8674321        18937.929766535759        641187022.96987247     
   5957949554.5151033        1787384866.3545310        1150041146.8920970     
   6088447711.4854269        1502290932.6999345        1227891832.5638230     
   6221667610.7897120        1226269473.4918826        1268394977.1908698     
   6357609252.4279613        959320488.73037577        1271550580.7732382     
   6496272636.4001760        701443978.41541386        1237358643.3109272     
   5434581671.0401201        1630374501.3120360        1033476272.6126446     
   5489889057.1127558        1372527534.7625065        1113861104.4780784     
   5547389942.4796486        1121992232.5271749        1167466661.2118773     
   5607084327.1408033        878768594.60604274        1194292942.8140419     
   5668972211.0962162        642856620.99910879        1194339949.2845714     
   4895164613.1481543        1468549383.9444463        936375001.01957333     
   4905476273.7889395        1247007898.1397350        1018677695.5323939     
   4917453190.6842852        1031017266.5168772        1084769380.8266239     
   4931095363.8341827        820577489.07587087        1134650056.9022634     
   4946402793.2386370        615688565.81671774        1168319723.7593129     
   4339698380.8392019        1301909514.2517607        858737332.11288309     
   4335209361.5139837        1125732022.8316214        942341605.72676861     
   4331857355.4036169        953344575.46098804        1020303136.0351086     
   4329642362.5081015        784747172.13986111        1092621923.0379024     
   4328564382.8274384        619939812.86824036        1159297966.7351501     
   3768182974.1132660        1130454892.2339797        800563265.89257383     
   3779088320.2878823        1008699908.8381641        884852835.06120408     
   3790602436.6376467        888974159.35950851        974067926.83733189     
   3802725323.1625595        771277643.79801297        1068208541.2209587     
   3815456979.8626199        655610362.15367782        1167274678.2120838     
   6496272636.4001760        701443978.41541386        1237358643.3109272     
   6239217627.1506891        375871683.82156801        1053208823.7097347     
   6013080260.4162235        153358197.61112213        908030465.91170824     
   5817860536.1967773        33903519.784075737        801823569.91684723     
   5653558454.4923506        17507650.340430498        734588135.72515464     
   5668972211.0962162        642856620.99910879        1194339949.2845714     
   5518786291.1078024        383278785.34068942        1073486820.9724416     
   5392751671.2525959        204205283.45963645        980639732.07287145     
   5290868351.5306015        105636115.35595202        915798682.58586001     
   5213136331.9418163        87571281.029633999        878963672.51140869     
   4946402793.2386370        615688565.81671774        1168319723.7593129     
   4871756184.2524157        412706255.61606193        1102869220.6241350     
   4814494533.0175934        267673804.58673954        1054459334.5109086     
   4774617839.5341702        180591212.72875142        1023090065.4196342     
   4752126103.8021460        151458480.04209614        1008761413.3503106     
   4328564382.8274384        619939812.86824036        1159297966.7351501     
   4298127306.5845308        464154094.64768457        1141356022.6648126     
   4278308845.7112098        343763760.99242723        1129489273.2258193     
   4269109000.2074809        258768811.90247321        1123697718.4181688     
   4270527770.0733423        209169247.37781811        1123981358.2418633     
   3815456979.8626199        655610362.15367782        1167274678.2120838     
   3797899658.1041446        537622302.43555760        1188947227.0944755     
   3784194609.3334479        432475152.67670250        1205729548.2176025     
   3774341833.5505342        340168912.87711835        1217621641.5814657     
   3768341330.7553988        260703583.03679812        1224623507.1860659     
   5653558454.4923506        17507650.340430498        734588135.72515464     
   5520306088.7228413        49180075.073670864        721336545.02999699     
   5381687759.1612186        62965953.833204746        709933563.03801358     
   5237703465.8074856        58865286.619027376        700379189.74920249     
   5088353208.6616364        36878073.431142330        692673425.16356707     
   5213136331.9418163        87571281.029633999        878963672.51140869     
   5077360750.1300688        85519808.230493546        855216302.74334252     
   4939473272.7086716        76428683.399191380        835461826.74708545     
   4799473899.6776247        60297906.535722017        819700244.52263618     
   4657362631.0369291        37127477.640089035        807931556.06999290     
   4752126103.8021460        151458480.04209614        1008761413.3503106     
   4619953834.7156868        117521068.34083605        978314677.38887644     
   4488923738.2020426        87390898.548954248        954005120.26788521     
   4359035814.2612104        61067970.666453123        935832741.98733532     
   4230290062.8931913        38552284.693326712        923797542.54722881     
   4270527770.0733423        209169247.37781811        1123981358.2418633     
   4148085342.4796972        145183855.40469551        1090631668.9666011     
   4030039155.6413279        95852599.282491207        1065563443.6004169     
   3916389209.5582366        61175479.011210442        1048776682.1433067     
   3807135504.2304220        41152494.590853930        1040271384.5952760     
   3768341330.7553988        260703583.03679812        1224623507.1860659     
   3661755273.4220967        168508169.42206967        1192167277.4765174     
   3562819525.0265322        101813785.59980321        1170136796.7446780     
   3471534085.5687094        60620431.570009470        1158532064.9905493     
   3387898955.0486255        44928107.332672954        1157353082.2141340     
   5088353208.6616364        36878073.431142330        692673425.16356707     
   4934083003.3449507        9704801.0531113148        675518483.54758549     
   4782732558.6958275       -7735935.7663698196        664921406.33371449     
   4634301874.7142725       -15444137.027297497        660882193.52195072     
   4488790951.4002781       -13419802.729685783        663400845.11229777     
   4657362631.0369291        37127477.640089035        807931556.06999290     
   4521034314.8283987        15748024.207324028        794778968.18238342     
   4386854876.4711990        1531496.9456636906        787532933.91157007     
   4254824315.9653311       -5522104.1448924541        786193453.25755131     
   4124942633.3107948       -5412779.0643391609        790760526.22032833     
   4230290062.8931913        38552284.693326712        923797542.54722881     
   4110042747.8347783        22408383.818416595        913747945.10238564     
   3991173427.8114614        10857799.727167606        908953590.48902464     
   3873682102.8232431        3900532.4195795059        909414478.70714629     
   3757568772.8701229        1536581.8956532478        915130609.75674546     
   3807135504.2304220        41152494.590853930        1040271384.5952760     
   3701108302.3640847        29685879.886387110        1032425414.3075958     
   3595688212.7166119        20242972.578139067        1029183376.0660806     
   3490875235.2880030        12823772.666101456        1030545269.8707327     
   3386669370.0782595        7428280.1502861977        1036511095.7215543     
   3387898955.0486255        44928107.332672954        1157353082.2141340     
   3294230978.4163208        37580512.411235452        1150811375.7980058     
   3200399231.1866517        29687015.498573303        1148222290.6427348     
   3106403713.3596153        21247616.594683170        1149585826.7483146     
   3012244424.9352045        12262315.699561596        1154901984.1147492     
   4488790951.4002781       -13419802.729685783        663400845.11229777     
   4361913810.7201700       -2637119.2884755135        657368401.56144524     
   4234205841.9132195        5376137.0632519722        654486543.82794118     
   4105667044.9794250        10619966.325500011        654755271.91179276     
   3976297419.9187841        13094368.498264313        658174585.81299365     
   4124942633.3107948       -5412779.0643391609        790760526.22032833     
   4005379612.2416148        461826.80566382408        783011635.66865456     
   3885427943.4181490        5040940.1613726616        778871038.43985248     
   3765087626.8403950        8324561.0027797222        778338734.53392124     
   3644358662.5083437        10312689.329885244        781414723.95085943     
   3757568772.8701229        1536581.8956532478        915130609.75674546     
   3646627607.1419277        2895430.9134695530        906181149.30556798     
   3535739974.0319967        4432721.9921691418        901297689.68278039     
   3424905873.5403304        6148455.1317508221        900480230.88837993     
   3314125305.6669321        8042630.3322169781        903728772.92237175     
   3386669370.0782595        7428280.1502861977        1036511095.7215543     
   3285657795.4211001        4663693.0349302292        1026876942.4721829     
   3185141933.7547626        3551482.5556424856        1021766497.5567207     
   3085121785.0792432        4091648.7124106884        1021179760.9751692     
   2985597349.3945432        6284191.5052525997        1025116732.7275225     
   3012244424.9352045        12262315.699561596        1154901984.1147492     
   2922470177.0791368        5766613.1700499058        1145099015.1684997     
   2833633822.5864453        2397221.8517897129        1140277462.0616786     
   2745735361.4571257        2154141.7447670698        1140437324.7942867     
   2658774793.6911798        5037372.8489959240        1145578603.3663199     
   3976297419.9187841        13094368.498264313        658174585.81299365     
   3813686692.3278379        4860114.5097677708        651303531.71654987     
   3651421303.5875769       -2223009.9764461517        649868096.91853130     
   3489501253.6980042       -8155004.9603688717        653868281.41893244     
   3327926542.6591139       -12935870.442006588        663304085.21775806     
   3644358662.5083437        10312689.329885244        781414723.95085943     
   3496039143.3599977        3849366.8998339176        775358347.55529165     
   3347993359.2325830       -1701505.4604380131        774450912.61134434     
   3200221310.1260967       -6339927.7509571314        778692419.11902952     
   3052722996.0405378       -10065899.971707821        788082867.07834327     
   3314125305.6669321        8042630.3322169781        903728772.92237175     
   3179277915.3989143        3104515.5919381380        898403536.42628682     
   3044632656.3220716       -1159828.5110913515        897940563.53503871     
   2910189528.4364014       -4750401.9768817425        902339854.24862254     
   2775948531.7418995       -7667204.8054357767        911601408.56703520     
   2985597349.3945432        6284191.5052525997        1025116732.7275225     
   2863403008.4445834        2625560.5860592127        1020439098.3295441     
   2741339194.8560476       -597979.12839865685        1020337049.6896046     
   2619405908.6289253       -3386427.6381443739        1024810586.8077055     
   2497603149.7632155       -5739784.9431734085        1033859709.6838422     
   2658774793.6911798        5037372.8489959240        1145578603.3663199     
   2548414422.4970121        2412501.8822163343        1141465033.2650626     
   2438112974.8345089       -15957.312356114388        1141640371.0750470     
   2327870450.7036605       -2248004.7347427607        1146104616.7962797     
   2217686850.1044712       -4283640.3849325180        1154857770.4287548     
   3327926542.6591139       -12935870.442006588        663304085.21775806     
   3210941538.7133064       -4095512.5056029558        655183345.21086049     
   3093772280.2839241        4130663.8188877106        649079000.65262604     
   2976418767.3709650        11742658.531454206        644991051.54305792     
   2858880999.9744296        18740471.632100344        642919497.88215554     
   3052722996.0405378       -10065899.971707821        788082867.07834327     
   2941458869.5107112       -2651727.1671829224        779597450.54973733     
   2830098956.5919738        4443157.6743042469        773825433.15365446     
   2718643257.2843270        11218754.552752733        770766814.89009821     
   2607091771.5877647        17675063.468162775        770421595.75906241     
   2775948531.7418995       -7667204.8054357767        911601408.56703520     
   2672396721.7247968       -1081785.4037663937        902854528.29383039     
   2568837593.4134450        5479239.6837441921        897518050.83700824     
   2465271146.8078446        12015870.457091093        895591976.19656610     
   2361697381.9079981        18528106.916283131        897076304.37251222     
   2497603149.7632155       -5739784.9431734085        1033859709.6838422     
   2403755095.3555694        614312.78466176987        1024954578.4431455     
   2309988190.7483397        7238909.8472127914        1020156853.7026905     
   2216302435.9415259        14134006.244485021        1019466535.4624741     
   2122697830.9351263        21299601.976474404        1022883623.7225008     
   2217686850.1044712       -4283640.3849325180        1154857770.4287548     
   2135533990.4030228        2436567.3980873823        1145897600.9976735     
   2053550748.5966544        9722168.1647056341        1141741841.7506943     
   1971737124.6853647        17573161.914919496        1142390492.6878085     
   1890093118.6691566        25989548.648739457        1147843553.8090286     
   2858880999.9744296        18740471.632100344        642919497.88215554     
   2690988046.6622062        11215219.754931211        631475698.29330111     
   2523664067.0402970        5586546.8454866409        627372352.61163235     
   2356909061.1087060        1854452.9037706852        630609460.83715546     
   2190723028.8674321        18937.929766535759        641187022.96987247     
   2607091771.5877647        17675063.468162775        770421595.75906241     
   2457560510.6267071        13355057.377218366        761193211.05727673     
   2308532256.4323692        10711740.508673787        758009079.07545543     
   2160007009.0047560        9745112.8625408411        760869199.81358981     
   2011984768.3438499        10455174.438777804        769773573.27168918     
   2361697381.9079981        18528106.916283131        897076304.37251222     
   2226824381.3346009        16302317.022532105        889986373.14692807     
   2092388420.6043279        15533326.605843186        887644493.45408165     
   1958389499.7171707        16221135.666215420        890050665.29396915     
   1824827618.6731336        18365744.203655362        897204888.66659093     
   2122697830.9351263        21299601.976474404        1022883623.7225008     
   1998779658.7858887        20056998.690859556        1017855184.5622529     
   1875232559.5561631        20051305.136960626        1016278595.7475169     
   1752056533.2459667        21282521.314816952        1018153857.2782987     
   1629251579.8552897        23750647.224391401        1023480969.1545732     
   1890093118.6691566        25989548.648739457        1147843553.8090286     
   1773426342.9805610        24619102.382195711        1144799645.3032622     
   1657064673.2878859        24265676.102048635        1143911385.9557731     
   1541008109.5911376        24929269.808320343        1145178775.7665665     
   1425256651.8903036        26609883.500984848        1148601814.7356391     
   3768182974.1132660        1130454892.2339797        800563265.89257383     
   3779088320.2878823        1008699908.8381641        884852835.06120408     
   3790602436.6376467        888974159.35950851        974067926.83733189     
   3802725323.1625595        771277643.79801297        1068208541.2209587     
   3815456979.8626199        655610362.15367782        1167274678.2120838     
   3207766207.9559851        962329862.38679564        756700456.85130501     
   3235854681.5247335        868202317.66082346        853066466.22681725     
   3263667967.0962253        773157479.61066127        951349180.52804589     
   3291206064.6704583        677195348.23630810        1051548599.7549907     
   3318468974.2474360        580315923.53776526        1153664723.9076512     
   2685595897.3530011        805678769.20590043        721996559.48173559     
   2722270876.3679323        736599676.56538737        829407724.52965748     
   2757786709.2132015        663656763.35933340        935726776.82151353     
   2792143395.8888078        586850029.58773851        1040953716.3573033     
   2825340936.3947520        506179475.25060272        1145088543.1370273     
   2201672042.3043132        660501612.69129395        696451573.78386557     
   2238336904.8174782        613891985.55185533        813876609.96972477     
   2272958662.9885755        560472010.60552502        927200715.71773529     
   2305537316.8176055        500241687.85230315        1036423891.0278978     
   2336072866.3045683        433201017.29219061        1141546135.9002120     
   1755994642.8099215        526798392.84297645        680065499.75769508     
   1784052766.8733711        500079244.62022728        806473122.54701829     
   1809183828.4223483        463603221.34923601        925770997.21671104     
   1831387827.4568529        417370323.03000307        1037959123.7667736     
   1850664763.9768848        361380549.66252780        1143037502.1972055     
   3815456979.8626199        655610362.15367782        1167274678.2120838     
   3797899658.1041446        537622302.43555760        1188947227.0944755     
   3784194609.3334479        432475152.67670250        1205729548.2176025     
   3774341833.5505342        340168912.87711835        1217621641.5814657     
   3768341330.7553988        260703583.03679812        1224623507.1860659     
   3318468974.2474360        580315923.53776526        1153664723.9076512     
   3293757888.4818907        473090133.25793290        1182010554.9111376     
   3272780781.7167673        378310939.64617443        1207260117.6442287     
   3255537653.9520669        295978342.70249176        1229413412.1069260     
   3242028505.1877885        226092342.42688096        1248470438.2992282     
   2825340936.3947520        506179475.25060272        1145088543.1370273     
   2798601685.1617646        411253633.97094709        1179969646.6096907     
   2775478118.9418402        328380076.06817257        1213548441.3008277     
   2755970237.7349815        257558801.54227948        1245824927.2104409     
   2740078041.5411868        198789810.39326680        1276799104.3385284     
   2336072866.3045683        433201017.29219061        1141546135.9002120     
   2312431048.1437631        352112804.57459909        1182824502.1901343     
   2292286621.0086670        282682561.94269627        1224594519.1874013     
   2275639584.8992763        224910289.39648223        1266856186.8920119     
   2262489939.8155909        178795986.93595469        1309609505.3039675     
   1850664763.9768848        361380549.66252780        1143037502.1972055     
   1835245977.4278915        295667645.06888920        1190575121.6524696     
   1823206287.9172478        241218397.26974761        1240398351.3039472     
   1814545695.4449511        198032806.26509792        1292507191.1516387     
   1809264200.0110035        166110872.05494344        1346901641.1955438     
   3768341330.7553988        260703583.03679812        1224623507.1860659     
   3661755273.4220967        168508169.42206967        1192167277.4765174     
   3562819525.0265322        101813785.59980321        1170136796.7446780     
   3471534085.5687094        60620431.570009470        1158532064.9905493     
   3387898955.0486255        44928107.332672954        1157353082.2141340     
   3242028505.1877885        226092342.42688096        1248470438.2992282     
   3164832384.6614141        151946338.76249099        1231331043.6048095     
   3093690914.6773710        97982503.572543025        1222208295.1802380     
   3028604095.2356620        64200836.857043386        1221102193.0255148     
   2969571926.3362885        50601338.615988612        1228012737.1406393     
   2740078041.5411868        198789810.39326680        1276799104.3385284     
   2685388707.2278433        140628271.50104511        1273114943.1979327     
   2635158365.0614271        97330039.765248179        1275038325.6193223     
   2589387015.0419402        68895115.185875893        1282569251.6026964     
   2548074657.1693788        55323497.762928367        1295707721.1480553     
   2262489939.8155909        178795986.93595469        1309609505.3039675     
   2223424241.1213865        134553967.63773406        1317518976.2558880     
   2187221876.1787038        99856394.177917600        1328626888.0619304     
   2153882844.9875412        74703266.556504846        1342933240.7220945     
   2123407147.5479021        59094584.773501873        1360438034.2363801     
   1809264200.0110035        166110872.05494344        1346901641.1955438     
   1778938986.3420432        133723427.17255622        1364543142.7786736     
   1749881448.0291984        105561566.81055605        1382973982.5080626     
   1722091585.0724664        81625290.968931794        1402194160.3837106     
   1695569397.4718530        61914599.647700250        1422203676.4056158     
   3387898955.0486255        44928107.332672954        1157353082.2141340     
   3294230978.4163208        37580512.411235452        1150811375.7980058     
   3200399231.1866517        29687015.498573303        1148222290.6427348     
   3106403713.3596153        21247616.594683170        1149585826.7483146     
   3012244424.9352045        12262315.699561596        1154901984.1147492     
   2969571926.3362885        50601338.615988612        1228012737.1406393     
   2885343388.1786690        39126608.060802460        1220612665.9069719     
   2801445042.4215794        28752518.840712547        1217473495.8469191     
   2717876889.0650201        19479070.955724001        1218595226.9604826     
   2634638928.1089883        11306264.405831099        1223977859.2476602     
   2548074657.1693788        55323497.762928367        1295707721.1480553     
   2474166357.2371917        39985871.499214768        1288025575.2610605     
   2401082212.7034340        27395429.896928191        1284912610.4604442     
   2328822223.5681009        17552172.956065178        1286368826.7462041     
   2257386389.8311987        10456100.676627636        1292394224.1183410     
   2123407147.5479021        59094584.773501873        1360438034.2363801     
   2060699885.5918944        40158302.726484656        1353050103.8602738     
   1999310742.0322134        25615748.667220473        1350539634.4833052     
   1939239716.8688591        15466922.595713139        1352906626.1054769     
   1880486810.1018288        9711824.5119521618        1360151078.7267880     
   1695569397.4718530        61914599.647700250        1422203676.4056158     
   1644943973.2427757        39643901.742608905        1415686251.7046111     
   1596130630.4079211        23413475.151594996        1414354567.9155068     
   1549129368.9672911        13223319.874660194        1418208625.0383039     
   1503940188.9208832        9073435.9118024111        1427248423.0730014     
   3012244424.9352045        12262315.699561596        1154901984.1147492     
   2922470177.0791368        5766613.1700499058        1145099015.1684997     
   2833633822.5864453        2397221.8517897129        1140277462.0616786     
   2745735361.4571257        2154141.7447670698        1140437324.7942867     
   2658774793.6911798        5037372.8489959240        1145578603.3663199     
   2634638928.1089883        11306264.405831099        1223977859.2476602     
   2557966973.4574246        6686134.6946381330        1215103231.5308588     
   2482008480.2167716        4444209.6864881516        1210893050.5584798     
   2406763448.3870349        4580489.3813898563        1211347316.3305247     
   2332231877.9682117        7094973.7793354988        1216466028.8469956     
   2257386389.8311987        10456100.676627636        1292394224.1183410     
   2192911102.3984051        7439855.9880287647        1284186100.3531175     
   2128924844.4240696        6053709.4942811728        1280325454.2373130     
   2065427615.9081888        6297661.1953841448        1280812285.7709277     
   2002419416.8507590        8171711.0913313627        1285646594.9539618     
   1880486810.1018288        9711824.5119521618        1360151078.7267880     
   1827302563.9020858        8027777.0502364635        1352347621.6352737     
   1774382915.2083356        7225721.2751648426        1348574673.0981729     
   1721727864.0205841        7305657.1867517233        1348832233.1154878     
   1669337410.3388262        8267584.7849842310        1353120301.6872132     
   1503940188.9208832        9073435.9118024111        1427248423.0730014     
   1461141357.9684594        8449897.8812426925        1419587795.3773243     
   1418382692.5695722        7960245.0291374922        1415640707.1410613     
   1375664192.7242224        7604477.3554927111        1415407158.3642075     
   1332985858.4324064        7382594.8602908850        1418887149.0467637     
   2658774793.6911798        5037372.8489959240        1145578603.3663199     
   2548414422.4970121        2412501.8822163343        1141465033.2650626     
   2438112974.8345089       -15957.312356114388        1141640371.0750470     
   2327870450.7036605       -2248004.7347427607        1146104616.7962797     
   2217686850.1044712       -4283640.3849325180        1154857770.4287548     
   2332231877.9682117        7094973.7793354988        1216466028.8469956     
   2233303313.7752886        3597329.6084172726        1211537630.2319298     
   2134523026.3451030        593941.31328666210        1211315430.5998390     
   2035891015.6776531       -1915191.1060614586        1215799429.9507217     
   1937407281.7729316       -3930067.6496449709        1224989628.2845848     
   2002419416.8507590        8171711.0913313627        1285646594.9539618     
   1916114919.8640289        4158971.7777646780        1280007613.2613425     
   1830048052.8711042        938332.44355452061        1279492121.6234291     
   1744218815.8719954       -1490206.9112784863        1284100120.0402231     
   1658627208.8666921       -3126646.2867523432        1293831608.5117211     
   1669337410.3388262        8267584.7849842310        1353120301.6872132     
   1596849240.7632275        4097428.3902375102        1346874982.3532999     
   1524688054.4125142        1017216.0784401298        1346170444.1458211     
   1452853851.2866883       -973052.15039527416        1351006687.0647786     
   1381346631.3857508       -1873376.2962745428        1361383711.1101787     
   1332985858.4324064        7382594.8602908850        1418887149.0467637     
   1275506276.4728911        3412699.4458633065        1412139737.5078020     
   1218443030.9693322        830592.21795737743        1411350398.1670136     
   1161796121.9217415       -363726.82338511944        1416519131.0243888     
   1105565549.3301072       -170257.67821061611        1427645936.0799363     
   2217686850.1044712       -4283640.3849325180        1154857770.4287548     
   2135533990.4030228        2436567.3980873823        1145897600.9976735     
   2053550748.5966544        9722168.1647056341        1141741841.7506943     
   1971737124.6853647        17573161.914919496        1142390492.6878085     
   1890093118.6691566        25989548.648739457        1147843553.8090286     
   1937407281.7729316       -3930067.6496449709        1224989628.2845848     
   1867238666.9310579        2949094.3049867153        1216506960.0572948     
   1797185183.7523878        10212028.470293641        1212401849.8059781     
   1727246832.2369242        17858734.846291661        1212674297.5306323     
   1657423612.3846626        25889213.432958782        1217324303.2312589     
   1658627208.8666921       -3126646.2867523432        1293831608.5117211     
   1599223261.1468835        3545596.5182246566        1285762874.2177038     
   1539879958.8584070        10419990.760965168        1281644845.6915319     
   1480597302.0012639        17496536.441484809        1281477522.9332011     
   1421375290.5754442        24775233.559755743        1285260905.9427214     
   1381346631.3857508       -1873376.2962745428        1361383711.1101787     
   1331487773.0505059        4226074.0378025174        1353665343.4789062     
   1281635073.9147151        10346055.036725998        1349470829.4073567     
   1231788533.9783823        16486566.700508118        1348800168.8955219     
   1181948153.2415056        22647609.029145718        1351653361.9434133     
   1105565549.3301072       -170257.67821061611        1427645936.0799363     
   1064032202.6419184        4990526.8637108803        1420214367.8408961     
   1022450528.9213096        9990221.2975678444        1415879800.9534492     
   980820528.16828823        14828825.623380601        1414642235.4175942     
   939142200.38283908        19506339.841100693        1416501671.2333274     
   1890093118.6691566        25989548.648739457        1147843553.8090286     
   1773426342.9805610        24619102.382195711        1144799645.3032622     
   1657064673.2878859        24265676.102048635        1143911385.9557731     
   1541008109.5911376        24929269.808320343        1145178775.7665665     
   1425256651.8903036        26609883.500984848        1148601814.7356391     
   1657423612.3846626        25889213.432958782        1217324303.2312589     
   1547751599.6072292        22627065.330728531        1214216164.8983600     
   1438400946.0602019        20436114.663185060        1214769510.8393726     
   1329371651.7435832        19316361.430328488        1218984341.0543275     
   1220663716.6573687        19267805.632168889        1226860655.5431998     
   1421375290.5754442        24775233.559755743        1285260905.9427214     
   1323000426.7538791        20912099.435252488        1282107499.8895788     
   1224963175.3972051        18174340.193717182        1284121413.2260032     
   1127263536.5054231        16561955.835166454        1291302645.9520118     
   1029901510.0785329        16074946.359576166        1303651198.0675907     
   1181948153.2415056        22647609.029145718        1351653361.9434133     
   1099172824.4205148        19474204.695777297        1348473650.2769313     
   1016751361.2989010        17480352.693665624        1351967093.1156690     
   934683763.87666464        16666053.022812486        1362133690.4596205     
   852970032.15380645        17031305.683219373        1378973442.3088064     
   939142200.38283908        19506339.841100693        1416501671.2333274     
   876268792.60713255        18313381.112293303        1413314616.0604053     
   813765503.76528358        18354152.163012564        1418306550.5083587     
   751632333.85730243        19628652.993290573        1431477474.5771723     
   689869282.88317847        22136883.603092223        1452827388.2668555     
   1755994642.8099215        526798392.84297645        680065499.75769508     
   1784052766.8733711        500079244.62022728        806473122.54701829     
   1809183828.4223483        463603221.34923601        925770997.21671104     
   1831387827.4568529        417370323.03000307        1037959123.7667736     
   1850664763.9768848        361380549.66252780        1143037502.1972055     
   1326329348.8452311        397898804.65356934        669734708.84146881     
   1339570569.9331701        375518731.89975566        791886779.80267322     
   1350616494.1349647        345821002.85879421        908749656.10182285     
   1359467121.4506152        308805617.53068453        1020323337.7389169     
   1366122451.8801212        264472575.91542679        1126607824.7139559     
   890441810.38564634        267132543.11569390        662355572.47343135     
   894067709.80543220        250652020.22302300        781105818.17290032     
   896230077.96740222        229293059.80429816        896387422.66788912     
   896928914.87155592        203055661.85951954        1008200385.9583976     
   896164220.51789331        171939826.38868651        1116544708.0444264     
   448332027.43116766        134499608.22935030        657928090.65358257     
   447544186.49015814        125479109.59002948        774130237.65769863     
   446024579.91966075        114019392.18574873        888684296.91490972     
   443773207.71967536        100120456.01650804        1001590268.4252158     
   440790069.89020193        83782301.082307443        1112848152.1886172     
  -1.8205160364562975E-002  -5.4615481093688925E-003   656452263.38192260     
  -1.2652590742522719E-002   7.7488953898163532E-004   770960038.25706875     
  -8.2598505645071867E-003   3.1453591448437810E-003   885640278.84288526     
  -5.0266867705807362E-003   1.6505090849453104E-003   1000492985.1393719     
  -2.9536355046748137E-003  -3.7113827350215905E-003   1115518157.1465285     
   1850664763.9768848        361380549.66252780        1143037502.1972055     
   1835245977.4278915        295667645.06888920        1190575121.6524696     
   1823206287.9172478        241218397.26974761        1240398351.3039472     
   1814545695.4449511        198032806.26509792        1292507191.1516387     
   1809264200.0110035        166110872.05494344        1346901641.1955438     
   1366122451.8801212        264472575.91542679        1126607824.7139559     
   1360341074.3718803        216922711.19035915        1182024717.5392642     
   1357094019.6430891        177820589.06345955        1238377920.9992659     
   1356381287.6937482        147166209.53472835        1295667435.0939641     
   1358202878.5238590        124959572.60416520        1353893259.8233554     
   896164220.51789331        171939826.38868651        1116544708.0444264     
   896165110.44606352        141396459.05088669        1178855304.2710640     
   897855548.89478624        116484920.11492896        1240752911.5708778     
   901235535.86406136        97205209.580811769        1302237529.9438665     
   906305071.35388863        83557327.448536217        1363309159.3900299     
   440790069.89020193        83782301.082307443        1112848152.1886172     
   442718085.65044385        69088888.650474310        1181066881.8478703     
   445490875.67233944        57211390.424154431        1247523323.0187805     
   449108439.95588994        48149806.403350472        1312217475.7013464     
   453570778.50109506        41904136.588062182        1375149339.8955696     
  -2.9536355046748137E-003  -3.7113827350215905E-003   1115518157.1465285     
  -1.4980673524023090E-002  -1.0880968173180258E-002   1188659450.2696829     
  -2.4251590033325172E-002  -8.8631783345766331E-003   1258689155.3429747     
  -3.0765548290618703E-002   2.3446675004465262E-003   1325607272.3664043     
  -3.4523345720644402E-002   2.2739022203638749E-002   1389413801.3399713     
   1809264200.0110035        166110872.05494344        1346901641.1955438     
   1778938986.3420432        133723427.17255622        1364543142.7786736     
   1749881448.0291984        105561566.81055605        1382973982.5080626     
   1722091585.0724664        81625290.968931794        1402194160.3837106     
   1695569397.4718530        61914599.647700250        1422203676.4056158     
   1358202878.5238590        124959572.60416520        1353893259.8233554     
   1332904051.3477159        99902513.866067052        1372834150.3168087     
   1308555980.6850972        78014643.506381571        1393160526.2405660     
   1285158666.5359995        59295961.525102794        1414872387.5946276     
   1262712108.9004264        43746467.922234774        1437969734.3789916     
   906305071.35388863        83557327.448536217        1363309159.3900299     
   887735908.62497950        66341638.241055638        1383179700.1441166     
   869800583.56700099        51238741.270010233        1405031873.6125503     
   852499096.17995226        38248636.535396993        1428865679.7953324     
   835831446.46383405        27371324.037219673        1454681118.6924655     
   453570778.50109506        41904136.588062182        1375149339.8955696     
   443434558.17383343        33040800.297519818        1395579792.2605951     
   433615256.67491013        25233860.101438776        1418588024.6240146     
   424112874.00432408        18483315.999815792        1444174036.9858284     
   414927410.16207635        12789167.992653325        1472337829.3460364     
  -3.4523345720644402E-002   2.2739022203638749E-002   1389413801.3399713     
  -5.7212590891970276E-003   3.5464505645364110E-002   1410034426.6662457     
   8.8252665248960208E-003   6.7145236257506666E-004   1433828979.2749603     
   9.1173520198807693E-003  -8.1636314581067862E-002   1460797459.1661141     
  -4.8449339778195571E-003 -0.21145882663934196        1490939866.3397057     
   1695569397.4718530        61914599.647700250        1422203676.4056158     
   1644943973.2427757        39643901.742608905        1415686251.7046111     
   1596130630.4079211        23413475.151594996        1414354567.9155068     
   1549129368.9672911        13223319.874660194        1418208625.0383039     
   1503940188.9208832        9073435.9118024111        1427248423.0730014     
   1262712108.9004264        43746467.922234774        1437969734.3789916     
   1226800902.8031030        27660803.083965659        1435153878.0096476     
   1192248757.7547579        16105341.742287099        1437043594.7374094     
   1159055673.7553890        9080083.8971980810        1443638884.5622771     
   1127221650.8049967        6585029.5486972332        1454939747.4842498     
   835831446.46383405        27371324.037219673        1454681118.6924655     
   813262550.45599377        17059119.853092760        1455038306.9186614     
   791599695.15188408        9767051.3480658531        1459620900.4271679     
   770842880.55150437        5495118.5221394897        1468428899.2179840     
   750992106.65485430        4243321.3753127754        1481462303.2911108     
   414927410.16207635        12789167.992653325        1472337829.3460364     
   404328916.20144707        7838852.0499879569        1475339538.4316525     
   394183442.59929985        4398603.9689307958        1482086484.9847820     
   384490989.35563654        2468423.7494868189        1492578669.0054276     
   375251556.47045642        2048311.3916521370        1506816090.4935865     
  -4.8449339778195571E-003 -0.21145882663934196        1490939866.3397057     
   3.9462778283245417E-002 -0.32534644621242037        1496057572.5486193     
   9.7005439395455723E-002 -0.39511652878092868        1504440348.4102509     
  0.16778585160442641      -0.42076094783258333        1516088193.9246032     
  0.25180301982702075      -0.40228354072821637        1531001109.0916736     
   1503940188.9208832        9073435.9118024111        1427248423.0730014     
   1461141357.9684594        8449897.8812426925        1419587795.3773243     
   1418382692.5695722        7960245.0291374922        1415640707.1410613     
   1375664192.7242224        7604477.3554927111        1415407158.3642075     
   1332985858.4324064        7382594.8602908850        1418887149.0467637     
   1127221650.8049967        6585029.5486972332        1454939747.4842498     
   1094300214.5731952        5870682.1359061599        1447587206.5328186     
   1061408902.5144798        5256748.6334032416        1444140078.0722008     
   1028547714.6288579        4743229.0412093401        1444598362.1023967     
   995716650.91632032        4330123.3592977524        1448962058.6234059     
   750992106.65485430        4243321.3753127754        1481462303.2911108     
   728496273.80482709        3602627.1786354482        1474406134.1400671     
   706020523.74744046        3028875.6240917742        1471447250.5112398     
   683564856.48269546        2522066.7116867304        1472585652.4046309     
   661129272.01059067        2082200.4414166212        1477821339.8202395     
   375251556.47045642        2048311.3916521370        1506816090.4935865     
   363729535.66335571        1645733.0094301999        1500044578.1990747     
   352217556.26845169        1276626.0011987388        1497562224.4581831     
   340715618.28573579        940990.36692658067        1499369029.2709129     
   329223721.71521616        638826.10664287210        1505464992.6372616     
  0.25180301982702075      -0.40228354072821637        1531001109.0916736     
  0.14878409859453676      -0.37169507398699880        1524502538.7098370     
   7.7508626806154848E-002 -0.23529476215407924        1522484999.9130256     
   3.7980275975517501E-002   6.9291127323080669E-003   1524948492.7012398     
   3.0196724241972298E-002  0.35496898460900250        1531893017.0744772     
   1332985858.4324064        7382594.8602908850        1418887149.0467637     
   1275506276.4728911        3412699.4458633065        1412139737.5078020     
   1218443030.9693322        830592.21795737743        1411350398.1670136     
   1161796121.9217415       -363726.82338511944        1416519131.0243888     
   1105565549.3301072       -170257.67821061611        1427645936.0799363     
   995716650.91632032        4330123.3592977524        1448962058.6234059     
   953776333.46478999        1703512.5695182085        1443441870.8345575     
   912148268.33279824        117742.84486621618        1443606902.4787662     
   870832455.52034724       -427185.81465154886        1449457153.5560312     
   829828895.02743614        68726.590963721275        1460992624.0663524     
   661129272.01059067        2082200.4414166212        1477821339.8202395     
   633948639.73815489        565000.47762113810        1473406944.2890112     
   606976175.64883447       -258305.54246017337        1474404915.4257257     
   580211879.74263513       -387717.61880326271        1480815253.2303827     
   553655752.01955342        176764.24857953191        1492637957.7029848     
   329223721.71521616        638826.10664287210        1505464992.6372616     
   316023195.29298145       -2836.8298448920250        1502034957.8711607     
   302926752.91744310       -297552.94400842488        1503744437.0078900     
   289934394.58860183       -245322.23584969342        1510593430.0474532     
   277046120.30645651        153855.29462864995        1522581936.9898446     
   3.0196724241972298E-002  0.35496898460900250        1531893017.0744772     
  0.12927388097723252       0.64713719730920893        1529325911.5810103     
  0.13862125733002781       0.64020752984664653        1531625467.2252619     
   5.8248209369391235E-002  0.33420943439461598        1538791684.0072327     
 -0.11185393270947801      -0.27088633534091383        1550824561.9269230     
   1105565549.3301072       -170257.67821061611        1427645936.0799363     
   1064032202.6419184        4990526.8637108803        1420214367.8408961     
   1022450528.9213096        9990221.2975678444        1415879800.9534492     
   980820528.16828823        14828825.623380601        1414642235.4175942     
   939142200.38283908        19506339.841100693        1416501671.2333274     
   829828895.02743614        68726.590963721275        1460992624.0663524     
   796438616.88451016        3267234.3950759172        1453620315.5736256     
   763012093.47269845        6344924.6362324953        1449867737.7036219     
   729549324.79200494        9301797.3144524992        1449734890.4563375     
   696050310.84242463        12137852.429714113        1453221773.8317766     
   553655752.01955342        176764.24857953191        1492637957.7029848     
   529902054.62511486        1861048.9758365750        1485339004.3473668     
   506124193.72532898        3464788.6852671504        1482182510.8855972     
   482322169.32019240        4987983.3768625259        1483168477.3176777     
   458495981.40971011        6430633.0506390929        1488296903.6436102     
   277046120.30645651        153855.29462864995        1522581936.9898446     
   264422515.86373436        771970.60600079596        1515370434.1621194     
   251786829.67920142        1349813.4446689337        1512824120.4993746     
   239139061.75285500        1887383.8106266707        1514942996.0016117     
   226479212.08469519        2384681.7038731277        1521727060.6688280     
 -0.11185393270947801      -0.27088633534091383        1550824561.9269230     
  0.60037181270411955      -0.71441957203579454        1543714605.0178852     
   1.3343191020951406       -1.0855490499180434        1541792566.5449562     
   2.0899870204446094       -1.3842750434933540        1545058446.5081391     
   2.8673786788170452       -1.6105899581042213        1553512244.9074323     
   939142200.38283908        19506339.841100693        1416501671.2333274     
   876268792.60713255        18313381.112293303        1413314616.0604053     
   813765503.76528358        18354152.163012564        1418306550.5083587     
   751632333.85730243        19628652.993290573        1431477474.5771723     
   689869282.88317847        22136883.603092223        1452827388.2668555     
   696050310.84242463        12137852.429714113        1453221773.8317766     
   653540716.34467995        12636772.236250103        1451808724.1579554     
   611308711.41629493        14060990.607313126        1457490723.1073871     
   569354296.05726051        16410507.542877764        1470267770.6800790     
   527677470.26758122        19685323.042965084        1490139866.8760169     
   458495981.40971011        6430633.0506390929        1488296903.6436102     
   433253225.91103667        7692339.1088580191        1488549908.5436287     
   408195530.61721170        9570912.5165724158        1494814021.0692892     
   383322895.52823257        12066353.273775876        1507089241.2205920     
   358635320.64410472        15178661.380474195        1525375568.9975309     
   226479212.08469519        2384681.7038731277        1521727060.6688280     
   215406321.30619714        3480081.7301095873        1523538169.2174273     
   204425961.36803785        4883917.8908076137        1530276444.3940568     
   193538132.27022183        6596190.1859824732        1541941886.1987143     
   182742834.01274323        8616898.6156177968        1558534494.6313970     
   2.8673786788170452       -1.6105899581042213        1553512244.9074323     
   2.5301596898205627        9.9991763953060309E-002   1556773506.1793559     
   3.6687757685318476        6.7300230178135090        1563877993.0816898     
   6.2832215392144128        18.279485537410810        1574825705.6144419     
   10.373501691340515        34.748397382932012        1589616643.7776070     
  -1.8205160364562975E-002  -5.4615481093688925E-003   656452263.38192260     
  -1.2652590742522719E-002   7.7488953898163532E-004   770960038.25706875     
  -8.2598505645071867E-003   3.1453591448437810E-003   885640278.84288526     
  -5.0266867705807362E-003   1.6505090849453104E-003   1000492985.1393719     
  -2.9536355046748137E-003  -3.7113827350215905E-003   1115518157.1465285     
  -448332027.46583414       -134499608.23975024        657928090.65807962     
  -447544186.51494807       -125479109.58943611        774130237.66072500     
  -446024579.93635058       -114019392.18008485        888684296.91586185     
  -443773207.73004234       -100120456.01169656        1001590268.4234906     
  -440790069.89602280       -83782301.084271640        1112848152.1836107     
  -890441810.41508162       -267132543.12452450        662355572.48168147     
  -894067709.82794356       -250652020.22285712        781105818.17884219     
  -896230077.98422337       -229293059.79924977        896387422.67031562     
  -896928914.88392127       -203055661.85370275        1008200385.9561024     
  -896164220.52703691       -171939826.38621581        1116544708.0362020     
  -1326329348.8659475       -397898804.65978426        669734708.85272837     
  -1339570569.9516389       -375518731.89948803        791886779.81141996     
  -1350616494.1518776       -345821002.85434902        908749656.10624647     
  -1359467121.4666638       -308805617.52436781        1020323337.7372071     
  -1366122451.8959968       -264472575.90954354        1126607824.7043021     
  -1755994642.8184321       -526798392.84552962        680065499.77122021     
  -1784052766.8860347       -500079244.61932927        806473122.55845916     
  -1809183828.4393141       -463603221.34538317        925770997.22365391     
  -1831387827.4782693       -417370323.02369183        1037959123.7668047     
  -1850664764.0029006       -361380549.65425462        1143037502.1879110     
  -2.9536355046748137E-003  -3.7113827350215905E-003   1115518157.1465285     
  -1.4980673524023090E-002  -1.0880968173180258E-002   1188659450.2696829     
  -2.4251590033325172E-002  -8.8631783345766331E-003   1258689155.3429747     
  -3.0765548290618703E-002   2.3446675004465262E-003   1325607272.3664043     
  -3.4523345720644402E-002   2.2739022203638749E-002   1389413801.3399713     
  -440790069.89602280       -83782301.084271640        1112848152.1836107     
  -442718085.67802143       -69088888.663898692        1181066881.8477077     
  -445490875.71778351       -57211390.436070099        1247523323.0245640     
  -449108440.01530969       -48149806.400788814        1312217475.7141798     
  -453570778.57059914       -41904136.558051378        1375149339.9165542     
  -896164220.52703691       -171939826.38621581        1116544708.0362020     
  -896165110.47151685       -141396459.05605286        1178855304.2706349     
  -897855548.93427992       -116484920.12016797        1240752911.5804489     
  -901235535.91532683       -97205209.578562528        1302237529.9656429     
  -906305071.41465771       -83557327.431236178        1363309159.4262190     
  -1366122451.8959968       -264472575.90954354        1126607824.7043021     
  -1360341074.3954663       -216922711.18734306        1182024717.5384638     
  -1357094019.6737404       -177820589.06115529        1238377921.0106285     
  -1356381287.7308183       -147166209.53097981        1295667435.1207950     
  -1358202878.5666990       -124959572.59681690        1353893259.8689649     
  -1850664764.0029006       -361380549.65425462        1143037502.1879110     
  -1835245977.4498706       -295667645.05777067        1190575121.6511955     
  -1823206287.9361641       -241218397.25903052        1240398351.3151035     
  -1814545695.4617810       -198032806.25803715        1292507191.1796365     
  -1809264200.0267227       -166110872.05479103        1346901641.2447929     
  -3.4523345720644402E-002   2.2739022203638749E-002   1389413801.3399713     
  -5.7212590891970276E-003   3.5464505645364110E-002   1410034426.6662457     
   8.8252665248960208E-003   6.7145236257506666E-004   1433828979.2749603     
   9.1173520198807693E-003  -8.1636314581067862E-002   1460797459.1661141     
  -4.8449339778195571E-003 -0.21145882663934196        1490939866.3397057     
  -453570778.57059914       -41904136.558051378        1375149339.9165542     
  -443434558.19096792       -33040800.246053040        1395579792.2548335     
  -433615256.65986997       -25233860.095831305        1418588024.5884030     
  -424112873.97730416       -18483316.107383013        1444174036.9172621     
  -414927410.14326990       -12789168.280707270        1472337829.2414086     
  -906305071.41465771       -83557327.431236178        1363309159.4262190     
  -887735908.64748371       -66341638.208951205        1383179700.1365132     
  -869800583.56311965       -51238741.262699485        1405031873.5549464     
  -852499096.16156518       -38248636.592479050        1428865679.6815202     
  -835831446.44282079       -27371324.198291808        1454681118.5162311     
  -1358202878.5666990       -124959572.59681690        1353893259.8689649     
  -1332904051.3752670       -99902513.853228509        1372834150.3112845     
  -1308555980.7009237       -78014643.499931872        1393160526.1745920     
  -1285158666.5436683       -59295961.536929846        1414872387.4588883     
  -1262712108.9034984       -43746467.964214444        1437969734.1641753     
  -1809264200.0267227       -166110872.05479103        1346901641.2447929     
  -1778938986.3743205       -133723427.17888838        1364543142.7791457     
  -1749881448.0732830       -105561566.80753469        1382973982.4473376     
  -1722091585.1236103       -81625290.940730214        1402194160.2493682     
  -1695569397.5253024       -61914599.578474879        1422203676.1852376     
  -4.8449339778195571E-003 -0.21145882663934196        1490939866.3397057     
   3.9462778283245417E-002 -0.32534644621242037        1496057572.5486193     
   9.7005439395455723E-002 -0.39511652878092868        1504440348.4102509     
  0.16778585160442641      -0.42076094783258333        1516088193.9246032     
  0.25180301982702075      -0.40228354072821637        1531001109.0916736     
  -414927410.14326990       -12789168.280707270        1472337829.2414086     
  -404328916.08186650       -7838852.4886564910        1475339538.3397331     
  -394183442.36061269       -4398604.4971045554        1482086484.8971176     
  -384490988.97950900       -2468424.3060528040        1492578668.9135625     
  -375251555.93855482       -2048311.9154995531        1506816090.3890693     
  -835831446.44282079       -27371324.198291808        1454681118.5162311     
  -813262550.34620214       -17059120.094867617        1455038306.7583489     
  -791599694.94311881       -9767051.6365622878        1459620900.2658696     
  -770842880.23357034       -5495118.8233737648        1468428899.0387933     
  -750992106.21755910       -4243321.6553078294        1481462303.0771191     
  -1262712108.9034984       -43746467.964214444        1437969734.1641753     
  -1226800902.7535439       -27660803.143980980        1435153877.8044684     
  -1192248757.6505096       -16105341.813481271        1437043594.5165064     
  -1159055673.5943992       -9080083.9727270603        1443638884.3002901     
  -1127221650.5852106       -6585029.6217127442        1454939747.1558185     
  -1695569397.5253024       -61914599.578474879        1422203676.1852376     
  -1644943973.3038921       -39643901.635993421        1415686251.4780903     
  -1596130630.4827886       -23413475.027870536        1414354567.6490300     
  -1549129369.0619948       -13223319.754110038        1418208624.6980562     
  -1503940189.0415080       -9073435.8147081137        1427248422.6251712     
  0.25180301982702075      -0.40228354072821637        1531001109.0916736     
  0.14878409859453676      -0.37169507398699880        1524502538.7098370     
   7.7508626806154848E-002 -0.23529476215407924        1522484999.9130256     
   3.7980275975517501E-002   6.9291127323080669E-003   1524948492.7012398     
   3.0196724241972298E-002  0.35496898460900250        1531893017.0744772     
  -375251555.93855482       -2048311.9154995531        1506816090.3890693     
  -363729535.33136827       -1645733.5109799951        1500044578.1217613     
  -352217556.09121734       -1276626.3299117982        1497562224.4217548     
  -340715618.21810544       -940990.37230747938        1499369029.2890537     
  -329223721.71202916       -638825.63815657794        1505464992.7236545     
  -750992106.21755910       -4243321.6553078294        1481462303.0771191     
  -728496273.52222419       -3602627.4634676278        1474406133.9590886     
  -706020523.59270930       -3028875.8243615925        1471447250.3906429     
  -683564856.42901349       -2522066.7379856706        1472585652.3717787     
  -661129272.03113890       -2082200.2043473423        1477821339.9024973     
  -1127221650.5852106       -6585029.6217127442        1454939747.1558185     
  -1094300214.4237874       -5870682.2291733027        1447587206.2218223     
  -1061408902.4269679       -5256748.7186448574        1444140077.8196890     
  -1028547714.5947478       -4743229.0901142359        1444598361.9494174     
  -995716650.92713392       -4330123.3436036110        1448962058.6110075     
  -1503940189.0415080       -9073435.8147081137        1427248422.6251712     
  -1461141358.0360563       -8449897.8080857992        1419587794.9099617     
  -1418382692.5939898       -7960245.0127496719        1415640706.7088931     
  -1375664192.7153068       -7604477.4286900759        1415407158.0219657     
  -1332985858.4000130       -7382595.0559284687        1418887148.8491807     
   3.0196724241972298E-002  0.35496898460900250        1531893017.0744772     
  0.12927388097723252       0.64713719730920893        1529325911.5810103     
  0.13862125733002781       0.64020752984664653        1531625467.2252619     
   5.8248209369391235E-002  0.33420943439461598        1538791684.0072327     
 -0.11185393270947801      -0.27088633534091383        1550824561.9269230     
  -329223721.71202916       -638825.63815657794        1505464992.7236545     
  -316023195.14638770        2837.7149276882410        1502034957.7905369     
  -302926752.75147092        297553.83226333559        1503744436.7568460     
  -289934394.52727944        245322.71384809911        1510593429.6225798     
  -277046120.47381175       -153855.64031468332        1522581936.3877439     
  -661129272.03113890       -2082200.2043473423        1477821339.9024973     
  -633948639.67976880       -564999.99459847808        1473406944.1018958     
  -606976175.58012140        258306.04273834825        1474404914.9624283     
  -580211879.73219585        387717.90767014027        1480815252.4840965     
  -553655752.13599515       -176764.39981403947        1492637956.6668999     
  -995716650.92713392       -4330123.3436036110        1448962058.6110075     
  -953776333.47086489       -1703512.4814288020        1443441870.5150893     
  -912148268.34732199       -117742.72834002972        1443606901.8420153     
  -870832455.55649853        427185.91568297148        1449457152.5917847     
  -829828895.09840131       -68726.549381911755        1460992622.7643969     
  -1332985858.4000130       -7382595.0559284687        1418887148.8491807     
  -1275506276.5196855       -3412699.7455930710        1412139737.0301175     
  -1218443031.0530806       -830592.48099917173        1411350397.3956029     
  -1161796122.0001943        363726.73786866665        1416519129.9456384     
  -1105565549.3610308        170257.91098994017        1427645934.6802263     
 -0.11185393270947801      -0.27088633534091383        1550824561.9269230     
  0.60037181270411955      -0.71441957203579454        1543714605.0178852     
   1.3343191020951406       -1.0855490499180434        1541792566.5449562     
   2.0899870204446094       -1.3842750434933540        1545058446.5081391     
   2.8673786788170452       -1.6105899581042213        1553512244.9074323     
  -277046120.47381175       -153855.64031468332        1522581936.3877439     
  -264422514.61319578       -771971.42590576410        1515370433.5500705     
  -251786826.98201746       -1349814.6429533511        1512824119.7770593     
  -239139057.58027345       -1887385.2914498001        1514942995.0687127     
  -226479206.40796140       -2384683.3713876903        1521727059.4250300     
  -553655752.13599515       -176764.39981403947        1492637956.6668999     
  -529902053.61684012       -1861049.2744250000        1485339003.2742419     
  -506124191.57827401       -3464789.0843303502        1482182509.5748005     
  -482322166.02030241       -4987983.8295517564        1483168475.5685759     
  -458495976.94291914       -6430633.5100673735        1488296901.2555709     
  -829828895.09840131       -68726.549381911755        1460992622.7643969     
  -796438616.41055298       -3267234.2599530816        1453620314.1904049     
  -763012092.45445037       -6344924.4096799493        1449867735.9381831     
  -729549323.23009944       -9301796.9985791743        1449734888.0077312     
  -696050308.73749602       -12137852.026634485        1453221770.3990493     
  -1105565549.3610308        170257.91098994017        1427645934.6802263     
  -1064032202.9943422       -4990526.3825191259        1420214366.2985542     
  -1022450529.6105502       -9990220.6190140843        1415879798.8672040     
  -980820529.20967281       -14828824.798558772        1414642232.3861759     
  -939142201.79168904       -19506338.921083093        1416501666.8554728     
   2.8673786788170452       -1.6105899581042213        1553512244.9074323     
   2.5301596898205627        9.9991763953060309E-002   1556773506.1793559     
   3.6687757685318476        6.7300230178135090        1563877993.0816898     
   6.2832215392144128        18.279485537410810        1574825705.6144419     
   10.373501691340515        34.748397382932012        1589616643.7776070     
  -226479206.40796140       -2384683.3713876903        1521727059.4250300     
  -215406316.53018340       -3480081.1272507459        1523538170.5437543     
  -204425955.42576662       -4883908.1276501715        1530276448.3820090     
  -193538123.09470949       -6596164.3725796863        1541941892.9397931     
  -182742819.53700575       -8616849.8620215803        1558534504.2171144     
  -458495976.94291914       -6430633.5100673735        1488296901.2555709     
  -433253222.30981743       -7692338.3702954948        1488549910.2637088     
  -408195526.69926214       -9570906.6390092969        1494814027.0804944     
  -383322890.11125988       -12066338.316232383        1507089251.7059276     
  -358635312.54579669       -15178633.401925579        1525375584.1400130     
  -696050308.73749602       -12137852.026634485        1453221770.3990493     
  -653540714.80873597       -12636771.629124820        1451808725.3392181     
  -611308710.15171134       -14060988.804064512        1457490729.1771429     
  -569354294.76642478       -16410503.551461905        1470267781.9128363     
  -527677468.65287244       -19685315.871315032        1490139883.5462990     
  -939142201.79168904       -19506338.921083093        1416501666.8554728     
  -876268794.02693558       -18313380.903728426        1413314615.7702773     
  -813765505.78310502       -18354154.622778922        1418306554.6719642     
  -751632337.06021452       -19628660.078294545        1431477483.5605319     
  -689869287.85823572       -22136897.270190746        1452827402.4359777     
  -1755994642.8184321       -526798392.84552962        680065499.77122021     
  -1784052766.8860347       -500079244.61932927        806473122.55845916     
  -1809183828.4393141       -463603221.34538317        925770997.22365391     
  -1831387827.4782693       -417370323.02369183        1037959123.7668047     
  -1850664764.0029006       -361380549.65425462        1143037502.1879110     
  -2201672042.3008456       -660501612.69025362        696451573.79852474     
  -2238336904.8245277       -613891985.55207920        813876609.98169470     
  -2272958663.0055385       -560472010.60500073        927200715.72562265     
  -2305537316.8438792       -500241687.84901792        1036423891.0303086     
  -2336072866.3395467       -433201017.28413039        1141546135.8957529     
  -2685595897.3414979       -805678769.20244944        721996559.49601054     
  -2722270876.3703971       -736599676.56704223        829407724.54151702     
  -2757786709.2282772       -663656763.36157203        935726776.83058369     
  -2792143395.9151378       -586850029.58603859        1040953716.3632106     
  -2825340936.4309797       -506179475.24044216        1145088543.1393981     
  -3207766207.9403906       -962329862.38211715        756700456.86367714     
  -3235854681.5236421       -868202317.66421807        853066466.23792589     
  -3263667967.1075273       -773157479.61509705        951349180.53853691     
  -3291206064.6920466       -677195348.23475409        1051548599.7655101     
  -3318468974.2771983       -580315923.52318931        1153664723.9188457     
  -3768182974.0975223       -1130454892.2292566        800563265.90152490     
  -3779088320.2842631       -1008699908.8436065        884852835.07092130     
  -3790602436.6432910       -888974159.36557603        974067926.84948230     
  -3802725323.1746049       -771277643.79516494        1068208541.2372080     
  -3815456979.8782039       -655610362.13237298        1167274678.2340980     
  -1850664764.0029006       -361380549.65425462        1143037502.1879110     
  -1835245977.4498706       -295667645.05777067        1190575121.6511955     
  -1823206287.9361641       -241218397.25903052        1240398351.3151035     
  -1814545695.4617810       -198032806.25803715        1292507191.1796365     
  -1809264200.0267227       -166110872.05479103        1346901641.2447929     
  -2336072866.3395467       -433201017.28413039        1141546135.8957529     
  -2312431048.1635971       -352112804.55736923        1182824502.1935446     
  -2292286621.0157771       -282682561.92437464        1224594519.2013564     
  -2275639584.8960862       -224910289.38514495        1266856186.9191880     
  -2262489939.8045254       -178795986.93968368        1309609505.3470390     
  -2825340936.4309797       -506179475.24044216        1145088543.1393981     
  -2798601685.1766949       -411253633.94678104        1179969646.6180909     
  -2775478118.9393449       -328380076.04290521        1213548441.3161991     
  -2755970237.7189312       -257558801.52881432        1245824927.2337220     
  -2740078041.5154529       -198789810.40451014        1276799104.3706601     
  -3318468974.2771983       -580315923.52318931        1153664723.9188457     
  -3293757888.4891624       -473090133.22600305        1182010554.9248333     
  -3272780781.7068691       -378310939.61462176        1207260117.6596313     
  -3255537653.9303160       -295978342.68904531        1229413412.1232398     
  -3242028505.1595049       -226092342.44927585        1248470438.3156579     
  -3815456979.8782039       -655610362.13237298        1167274678.2340980     
  -3797899658.1010017       -537622302.39503610        1188947227.1137724     
  -3784194609.3183479       -432475152.63952589        1205729548.2316530     
  -3774341833.5302415       -340168912.86583889        1217621641.5877388     
  -3768341330.7366815       -260703583.07397807        1224623507.1820314     
  -1809264200.0267227       -166110872.05479103        1346901641.2447929     
  -1778938986.3743205       -133723427.17888838        1364543142.7791457     
  -1749881448.0732830       -105561566.80753469        1382973982.4473376     
  -1722091585.1236103       -81625290.940730214        1402194160.2493682     
  -1695569397.5253024       -61914599.578474879        1422203676.1852376     
  -2262489939.8045254       -178795986.93968368        1309609505.3470390     
  -2223424241.1565752       -134553967.66140544        1317518976.2570462     
  -2187221876.2502317       -99856394.188487768        1328626888.0138578     
  -2153882845.0854969       -74703266.520931959        1342933240.6174736     
  -2123407147.6623702       -59094584.658731818        1360438034.0678949     
  -2740078041.5154529       -198789810.40451014        1276799104.3706601     
  -2685388707.2634802       -140628271.54131663        1273114943.2010386     
  -2635158365.1433592       -97330039.784295797        1275038325.5911872     
  -2589387015.1550899       -68895115.133444548        1282569251.5411060     
  -2548074657.2986698       -55323497.588762760        1295707721.0507941     
  -3242028505.1595049       -226092342.44927585        1248470438.3156579     
  -3164832384.6950393       -151946338.81862593        1231331043.6111236     
  -3093690914.7526655       -97982503.594955444        1222208295.1793251     
  -3028604095.3323889       -64200836.778270364        1221102193.0202618     
  -2969571926.4342051       -50601338.368562937        1228012737.1339350     
  -3768341330.7366815       -260703583.07397807        1224623507.1820314     
  -3661755273.4512472       -168508169.49332678        1192167277.4873004     
  -3562819525.0781522       -101813785.62047076        1170136796.7782714     
  -3471534085.6173930       -60620431.455406904        1158532065.0549440     
  -3387898955.0689726       -44928106.998131037        1157353082.3173163     
  -1695569397.5253024       -61914599.578474879        1422203676.1852376     
  -1644943973.3038921       -39643901.635993421        1415686251.4780903     
  -1596130630.4827886       -23413475.027870536        1414354567.6490300     
  -1549129369.0619948       -13223319.754110038        1418208624.6980562     
  -1503940189.0415080       -9073435.8147081137        1427248422.6251712     
  -2123407147.6623702       -59094584.658731818        1360438034.0678949     
  -2060699885.7792263       -40158302.551265359        1353050103.6978548     
  -1999310742.3035312       -25615748.468625307        1350539634.3052950     
  -1939239717.2352836       -15466922.410809278        1352906625.8902140     
  -1880486810.5744810       -9711824.3778148890        1360151078.4526136     
  -2548074657.2986698       -55323497.588762760        1295707721.0507941     
  -2474166357.4698157       -39985871.231114626        1288025575.1761985     
  -2401082213.0555482       -27395429.588759065        1284912610.3784754     
  -2328822224.0558658       -17552172.661690593        1286368826.6576247     
  -2257386390.4707742       -10456100.449916005        1292394224.0136459     
  -2969571926.4342051       -50601338.368562937        1228012737.1339350     
  -2885343388.3756571       -39126607.675539136        1220612665.9131210     
  -2801445042.7388377       -28752518.388274670        1217473495.8685722     
  -2717876889.5237470       -19479070.506768584        1218595227.0002887     
  -2634638928.7303782       -11306264.031008482        1223977859.3082719     
  -3387898955.0689726       -44928106.998131037        1157353082.3173163     
  -3294230978.4967551       -37580511.884540796        1150811375.9086227     
  -3200399231.3534069       -29687014.867178679        1148222290.7755852     
  -3106403713.6389189       -21247615.946023703        1149585826.9182076     
  -3012244425.3533020       -12262315.121100545        1154901984.3364866     
  -1503940189.0415080       -9073435.8147081137        1427248422.6251712     
  -1461141358.0360563       -8449897.8080857992        1419587794.9099617     
  -1418382692.5939898       -7960245.0127496719        1415640706.7088931     
  -1375664192.7153068       -7604477.4286900759        1415407158.0219657     
  -1332985858.4000130       -7382595.0559284687        1418887148.8491807     
  -1880486810.5744810       -9711824.3778148890        1360151078.4526136     
  -1827302564.2011862       -8027776.9298813343        1352347621.3794878     
  -1774382915.3537269       -7225721.2347364426        1348574672.8964119     
  -1721727864.0320995       -7305657.2923630476        1348832233.0033889     
  -1669337410.2363083       -8267585.1027758121        1353120301.7004170     
  -2257386390.4707742       -10456100.449916005        1292394224.0136459     
  -2192911102.7984629       -7439855.7813251019        1284186100.2930796     
  -2128924844.6144352       -6053709.4070098400        1280325454.2384748     
  -2065427615.9186919       -6297661.3269760609        1280812285.8498311     
  -2002419416.7112308       -8171711.5412163734        1285646595.1271484     
  -2634638928.7303782       -11306264.031008482        1223977859.3082719     
  -2557966973.8278818       -6686134.3624093533        1215103231.6507411     
  -2482008480.3761177       -4444209.5295811892        1210893050.7350814     
  -2406763448.3750844       -4580489.5325274467        1211347316.5612929     
  -2332231877.8247848       -7094974.3712489605        1216466029.1293774     
  -3012244425.3533020       -12262315.121100545        1154901984.3364866     
  -2922470177.2894459       -5766612.6731356382        1145099015.4524660     
  -2833633822.6387696       -2397221.6024389267        1140277462.3862293     
  -2745735361.4012766       -2154141.9090192318        1140437325.1377723     
  -2658774793.5769615       -5037373.5928614140        1145578603.7071011     
  -1332985858.4000130       -7382595.0559284687        1418887148.8491807     
  -1275506276.5196855       -3412699.7455930710        1412139737.0301175     
  -1218443031.0530806       -830592.48099917173        1411350397.3956029     
  -1161796122.0001943        363726.73786866665        1416519129.9456384     
  -1105565549.3610308        170257.91098994017        1427645934.6802263     
  -1669337410.2363083       -8267585.1027758121        1353120301.7004170     
  -1596849240.8015981       -4097428.9161085486        1346874982.1438949     
  -1524688054.5188093       -1017216.5691748261        1346170443.7039616     
  -1452853851.3879423        973051.93802267313        1351006686.3806205     
  -1381346631.4089980        1873376.6054732203        1361383710.1738663     
  -2002419416.7112308       -8171711.5412163734        1285646595.1271484     
  -1916114919.9163139       -4158972.5364699364        1280007613.3052702     
  -1830048053.0115139       -938333.16544985771        1279492121.5320203     
  -1744218815.9968359        1490206.5718262196        1284100119.8074007     
  -1658627208.8722804        3126646.6753720045        1293831608.1314096     
  -2332231877.8247848       -7094974.3712489605        1216466029.1293774     
  -2233303313.8638287       -3597330.6066651344        1211537630.5142417     
  -2134523026.5311935       -593942.26982402802        1211315430.8797724     
  -2035891015.8268778        1915190.6392887831        1215799430.2259731     
  -1937407281.7508793        3930068.1206725836        1224989628.5528424     
  -2658774793.5769615       -5037373.5928614140        1145578603.7071011     
  -2548414422.6441431       -2412503.1267069578        1141465033.7708080     
  -2438112975.0778394        15956.117729187012        1141640371.7472229     
  -2327870450.8780632        2248004.1404125690        1146104617.6363468     
  -2217686850.0448008        4283640.9413727522        1154857771.4381766     
  -1105565549.3610308        170257.91098994017        1427645934.6802263     
  -1064032202.9943422       -4990526.3825191259        1420214366.2985542     
  -1022450529.6105502       -9990220.6190140843        1415879798.8672040     
  -980820529.20967281       -14828824.798558772        1414642232.3861759     
  -939142201.79168904       -19506338.921083093        1416501666.8554728     
  -1381346631.4089980        1873376.6054732203        1361383710.1738663     
  -1331487774.2523224       -4226073.4991792440        1353665342.4583988     
  -1281635076.3121419       -10346054.325486958        1349470828.0490146     
  -1231788537.5884647       -16486565.873475373        1348800166.9457183     
  -1181948158.0812802       -22647608.143099189        1351653359.1485054     
  -1658627208.8722804        3126646.6753720045        1293831608.1314096     
  -1599223262.7662971       -3545595.7926436067        1285762873.8096154     
  -1539879962.1104047       -10419989.760960996        1281644845.1496718     
  -1480597306.9046104       -17496535.229598045        1281477522.1515734     
  -1421375297.1489005       -24775232.198525667        1285260904.8153291     
  -1937407281.7508793        3930068.1206725836        1224989628.5528424     
  -1867238668.5362701       -2949093.2629144192        1216506960.3522012     
  -1797185187.0053401       -10212026.925433397        1212401850.1691725     
  -1727246837.1581016       -17858732.866924405        1212674298.0037537     
  -1657423618.9945464       -25889211.087358952        1217324303.8559480     
  -2217686850.0448008        4283640.9413727522        1154857771.4381766     
  -2135533991.5622332       -2436565.9099640846        1145897602.0861604     
  -2053550750.9969504       -9722165.8189134598        1141741843.1075168     
  -1971737128.3489463       -17573158.785461426        1142390494.5022473     
  -1890093123.6182187       -25989544.809600115        1147843556.2703533     
  -939142201.79168904       -19506338.921083093        1416501666.8554728     
  -876268794.02693558       -18313380.903728426        1413314615.7702773     
  -813765505.78310502       -18354154.622778922        1418306554.6719642     
  -751632337.06021452       -19628660.078294545        1431477483.5605319     
  -689869287.85823572       -22136897.270190746        1452827402.4359777     
  -1181948158.0812802       -22647608.143099189        1351653359.1485054     
  -1099172828.6140678       -19474204.883109748        1348473651.1077969     
  -1016751365.9468769       -17480357.623192847        1351967097.7953393     
  -934683770.07971632       -16666066.363370419        1362133699.2111261     
  -852970041.01256824       -17031331.103602946        1378973455.3551669     
  -1421375297.1489005       -24775232.198525667        1285260904.8153291     
  -1323000432.4324646       -20912099.631871939        1282107501.3268290     
  -1224963181.7951441       -18174347.328942418        1284121417.3079453     
  -1127263545.2369490       -16561975.289760649        1291302652.7586765     
  -1029901522.7578717       -16074983.514306426        1303651207.6790280     
  -1657423618.9945464       -25889211.087358952        1217324303.8559480     
  -1547751605.4821177       -22627065.150010288        1214216166.4273746     
  -1438400953.3279095       -20436123.740051270        1214769513.2097874     
  -1329371662.5319171       -19316386.857483923        1218984344.2031863     
  -1220663733.0941391       -19267854.502299130        1226860659.4075630     
  -1890093123.6182187       -25989544.809600115        1147843556.2703533     
  -1773426347.7630355       -24619101.437521458        1144799646.4094312     
  -1657064680.5451663       -24265686.856487453        1143911385.5008595     
  -1541008121.9646165       -24929301.066511691        1145178773.5446398     
  -1425256672.0213776       -26609944.067583144        1148601810.5407741     
  -3768182974.0975223       -1130454892.2292566        800563265.90152490     
  -3779088320.2842631       -1008699908.8436065        884852835.07092130     
  -3790602436.6432910       -888974159.36557603        974067926.84948230     
  -3802725323.1746049       -771277643.79516494        1068208541.2372080     
  -3815456979.8782039       -655610362.13237298        1167274678.2340980     
  -4339698380.8253784       -1301909514.2476134        858737332.11848843     
  -4335209361.5068579       -1125732022.8335071        942341605.73565018     
  -4331857355.4015408       -953344575.46340561        1020303136.0488191     
  -4329642362.5094233       -784747172.13730776        1092621923.0579967     
  -4328564382.8305082       -619939812.85521412        1159297966.7631814     
  -4895164613.1364403       -1468549383.9409320        936375001.02350342     
  -4905476273.7788219       -1247007898.1382184        1018677695.5406953     
  -4917453190.6753197       -1031017266.5158937        1084769380.8407378     
  -4931095363.8259344       -820577489.07395816        1134650056.9236319     
  -4946402793.2306662       -615688565.81241179        1168319723.7893770     
  -5434581671.0307093       -1630374501.3092129        1033476272.6165695     
  -5489889057.1001539       -1372527534.7577398        1113861104.4860570     
  -5547389942.4646311       -1121992232.5230412        1167466661.2252386     
  -5607084327.1241407       -878768594.60511684        1194292942.8341148     
  -5668972211.0786819       -642856621.00396729        1194339949.3126850     
  -5957949554.5081863       -1787384866.3524559        1150041146.8976870     
  -6088447711.4708548       -1502290932.6920722        1227891832.5717349     
  -6221667610.7694731       -1226269473.4848485        1268394977.2023208     
  -6357609252.4040384       -959320488.73078394        1271550580.7894440     
  -6496272636.3745518       -701443978.42987776        1237358643.3331051     
  -3815456979.8782039       -655610362.13237298        1167274678.2340980     
  -3797899658.1010017       -537622302.39503610        1188947227.1137724     
  -3784194609.3183479       -432475152.63952589        1205729548.2316530     
  -3774341833.5302415       -340168912.86583889        1217621641.5877388     
  -3768341330.7366815       -260703583.07397807        1224623507.1820314     
  -4328564382.8305082       -619939812.85521412        1159297966.7631814     
  -4298127306.5773277       -464154094.62355363        1141356022.6837699     
  -4278308845.6973515       -343763760.96923673        1129489273.2335989     
  -4269109000.1905785       -258768811.89226151        1123697718.4126682     
  -4270527770.0570078       -209169247.39262819        1123981358.2209783     
  -4946402793.2306662       -615688565.81241179        1168319723.7893770     
  -4871756184.2414122       -412706255.60839796        1102869220.6424479     
  -4814494533.0040140       -267673804.57724500        1054459334.5157943     
  -4774617839.5184736       -180591212.71895146        1023090065.4094157     
  -4752126103.7847958       -151458480.03351855        1008761413.3233124     
  -5668972211.0786819       -642856621.00396729        1194339949.3126850     
  -5518786291.0932503       -383278785.34956980        1073486820.9898074     
  -5392751671.2383318       -204205283.46354985        980639732.07823956     
  -5290868351.5139275       -105636115.34590864        915798682.57798207     
  -5213136331.9200373       -87571280.996644974        878963672.48903418     
  -6496272636.3745518       -701443978.42987776        1237358643.3331051     
  -6239217627.1328449       -375871683.84706664        1053208823.7258476     
  -6013080260.4003057       -153358197.62815094        908030465.92093468     
  -5817860536.1769381       -33903519.773133755        801823569.91836619     
  -5653558454.4627371       -17507650.282008410        734588135.71814239     
  -3768341330.7366815       -260703583.07397807        1224623507.1820314     
  -3661755273.4512472       -168508169.49332678        1192167277.4873004     
  -3562819525.0781522       -101813785.62047076        1170136796.7782714     
  -3471534085.6173930       -60620431.455406904        1158532065.0549440     
  -3387898955.0689726       -44928106.998131037        1157353082.3173163     
  -4270527770.0570078       -209169247.39262819        1123981358.2209783     
  -4148085342.4877777       -145183855.43502951        1090631668.9839475     
  -4030039155.6592331       -95852599.279717207        1065563443.6617626     
  -3916389209.5713749       -61175478.926693201        1048776682.2544243     
  -3807135504.2242031       -41152494.375954628        1040271384.7619333     
  -4752126103.7847958       -151458480.03351855        1008761413.3233124     
  -4619953834.7056341       -117521068.33112907        978314677.41090620     
  -4488923738.1955118       -87390898.525523663        954005120.34249330     
  -4359035814.2544203       -61067970.616699219        935832742.11807215     
  -4230290062.8823671       -38552284.604657650        923797542.73764253     
  -5213136331.9200373       -87571280.996644974        878963672.48903418     
  -5077360750.1048193       -85519808.181627989        855216302.76817989     
  -4939473272.6869869       -76428683.357888222        835461826.82046425     
  -4799473899.6665392       -60297906.525429010        819700244.64588547     
  -4657362631.0434713       -37127477.684246302        807931556.24444771     
  -5653558454.4627371       -17507650.282008410        734588135.71814239     
  -5520306088.6853323       -49180074.986524343        721336545.05576718     
  -5381687759.1336594       -62965953.776813984        709933563.09567523     
  -5237703465.8077173       -58865286.652873516        700379189.83786666     
  -5088353208.7075090       -36878073.614709139        692673425.28234220     
  -3387898955.0689726       -44928106.998131037        1157353082.3173163     
  -3294230978.4967551       -37580511.884540796        1150811375.9086227     
  -3200399231.3534069       -29687014.867178679        1148222290.7755852     
  -3106403713.6389189       -21247615.946023703        1149585826.9182076     
  -3012244425.3533020       -12262315.121100545        1154901984.3364866     
  -3807135504.2242031       -41152494.375954628        1040271384.7619333     
  -3701108302.3973188       -29685879.563100100        1032425414.4513025     
  -3595688212.8067632       -20242972.204673529        1029183376.2072355     
  -3490875235.4525280       -12823772.300652027        1030545270.0297312     
  -3386669370.3346229       -7428279.8510580063        1036511095.9187905     
  -4230290062.8823671       -38552284.604657650        923797542.73764253     
  -4110042747.8268046       -22408383.700341702        913747945.24970579     
  -3991173427.8150206       -10857799.608637333        908953590.61924005     
  -3873682102.8470225       -3900532.3295490742        909414478.84624171     
  -3757568772.9228086       -1536581.8630762100        915130609.93071496     
  -4657362631.0434713       -37127477.684246302        807931556.24444771     
  -4521034314.7852068       -15748024.296255827        794778968.30383658     
  -4386854876.3781853       -1531497.0790758133        787532934.01159883     
  -4254824315.8224053        5522103.9672901630        786193453.36773813     
  -4124942633.1178732        5412778.8428430557        790760526.37225211     
  -5088353208.7075090       -36878073.614709139        692673425.28234220     
  -4934083003.2725286       -9704801.3508424759        675518483.61368835     
  -4782732558.4962492        7735935.3840186596        664921406.38431394     
  -4634301874.3786764        15444136.589860439        660882193.59422016     
  -4488790950.9198017        13419802.266700983        663400845.24340951     
  -3012244425.3533020       -12262315.121100545        1154901984.3364866     
  -2922470177.2894459       -5766612.6731356382        1145099015.4524660     
  -2833633822.6387696       -2397221.6024389267        1140277462.3862293     
  -2745735361.4012766       -2154141.9090192318        1140437325.1377723     
  -2658774793.5769615       -5037373.5928614140        1145578603.7071011     
  -3386669370.3346229       -7428279.8510580063        1036511095.9187905     
  -3285657795.5295734       -4663692.7998094559        1026876942.6972082     
  -3185141933.7439046       -3551482.4798296690        1021766497.7810785     
  -3085121784.9776211       -4091648.8911321163        1021179761.1704030     
  -2985597349.2307215       -6284192.0337131023        1025116732.8651829     
  -3757568772.9228086       -1536581.8630762100        915130609.93071496     
  -3646627607.1260810       -2895430.9333937168        906181149.49766445     
  -3535739973.9549313       -4432722.0889880657        901297689.85773790     
  -3424905873.4093685       -6148455.3298707008        900480231.01093936     
  -3314125305.4893904       -8042630.6560361385        903728772.95726395     
  -4124942633.1178732        5412778.8428430557        790760526.37225211     
  -4005379612.0789638       -461827.07388877869        783011635.85383415     
  -3885427943.2718453       -5040940.4299156666        778871038.61621130     
  -3765087626.6965098       -8324561.2252268791        778338734.65938568     
  -3644358662.3529615       -10312689.459825516        781414723.98335779     
  -4488790950.9198017        13419802.266700983        663400845.24340951     
  -4361913810.3882332        2637118.7786967754        657368401.76571715     
  -4234205841.6946478       -5376137.5026016235        654486544.05649519     
  -4105667044.8390560       -10619966.577202320        654755272.11574149     
  -3976297419.8214521       -13094368.445097208        658174585.94345593     
  -2658774793.5769615       -5037373.5928614140        1145578603.7071011     
  -2548414422.6441431       -2412503.1267069578        1141465033.7708080     
  -2438112975.0778394        15956.117729187012        1141640371.7472229     
  -2327870450.8780632        2248004.1404125690        1146104617.6363468     
  -2217686850.0448008        4283640.9413727522        1154857771.4381766     
  -2985597349.2307215       -6284192.0337131023        1025116732.8651829     
  -2863403008.4822941       -2625561.4227874279        1020439098.7783300     
  -2741339194.9872079        597978.34366989136        1020337050.4496750     
  -2619405908.7454548        3386427.2656854391        1024810587.8792138     
  -2497603149.7570424        5739785.3432377577        1033859711.0669519     
  -3314125305.4893904       -8042630.6560361385        903728772.95726395     
  -3179277915.3668232       -3104516.0327929258        898403536.85190344     
  -3044632656.3844118        1159828.1232727766        897940564.35022664     
  -2910189528.5421481        4750401.8121609688        902339855.45223641     
  -2775948531.8400421        7667205.0338717699        911601410.15792608     
  -3644358662.3529615       -10312689.459825516        781414723.98335779     
  -3496039143.2977223       -3849366.9567053318        775358347.99153256     
  -3347993359.2694483        1701505.4565162659        774450913.44888425     
  -3200221310.2681427        6339927.7798495293        778692420.35540223     
  -3052722996.2938046        10065900.013282061        788082868.71109390     
  -3976297419.8214521       -13094368.445097208        658174585.94345593     
  -3813686692.2749910       -4860114.1945283413        651303532.19721794     
  -3651421303.6423192        2223010.3434247971        649868097.74563897     
  -3489501253.9234357        8155005.1687409878        653868282.58871984     
  -3327926543.1183338        12935870.281455517        663304086.72646153     
  -2217686850.0448008        4283640.9413727522        1154857771.4381766     
  -2135533991.5622332       -2436565.9099640846        1145897602.0861604     
  -2053550750.9969504       -9722165.8189134598        1141741843.1075168     
  -1971737128.3489463       -17573158.785461426        1142390494.5022473     
  -1890093123.6182187       -25989544.809600115        1147843556.2703533     
  -2497603149.7570424        5739785.3432377577        1033859711.0669519     
  -2403755096.1258912       -614311.76874363422        1024954579.8723428     
  -2309988192.3286810       -7238908.3271934986        1020156855.4018775     
  -2216302438.3654089       -14134004.332096100        1019466537.6555593     
  -2122697834.2360671       -21299599.783440471        1022883626.6333846     
  -2775948531.8400421        7667205.0338717699        911601410.15792608     
  -2672396722.0581126        1081785.9619052410        902854529.88462520     
  -2568837594.0267758       -5479238.9453803301        897518052.68624115     
  -2465271147.7460289       -12015869.687968135        895591978.56276941     
  -2361697383.2158775       -18528106.265869498        897076307.51421225     
  -3052722996.2938046        10065900.013282061        788082868.71109390     
  -2941458869.3588948        2651727.2819855213        779597452.12300432     
  -2830098956.0912333       -4443157.6734771729        773825434.96060073     
  -2718643256.4908204       -11218754.853096485        770766817.22387850     
  -2607091770.5576615       -17675064.256903648        770421598.91284251     
  -3327926543.1183338        12935870.281455517        663304086.72646153     
  -3210941538.0282393        4095512.1915036440        655183346.58748245     
  -3093772278.5220547       -4130664.5114816427        649079002.22495878     
  -2976418764.5997772       -11742659.827480793        644991053.63888407     
  -2858880996.2614007       -18740473.756504655        642919500.82926595     
  -1890093123.6182187       -25989544.809600115        1147843556.2703533     
  -1773426347.7630355       -24619101.437521458        1144799646.4094312     
  -1657064680.5451663       -24265686.856487453        1143911385.5008595     
  -1541008121.9646165       -24929301.066511691        1145178773.5446398     
  -1425256672.0213776       -26609944.067583144        1148601810.5407741     
  -2122697834.2360671       -21299599.783440471        1022883626.6333846     
  -1998779662.0178697       -20056998.323435783        1017855183.8432472     
  -1875232564.2615461       -20051311.736340523        1016278591.2827857     
  -1752056540.9670928       -21282540.022155881        1018153848.9519958     
  -1629251592.1345148       -23750683.180873454        1023480956.8508940     
  -2361697383.2158775       -18528106.265869498        897076307.51421225     
  -2226824382.4137392       -16302317.051657438        889986371.66620517     
  -2092388421.8980231       -15533328.792212844        887644487.32520390     
  -1958389501.6687441       -16221141.487539172        890050654.49120116     
  -1824827621.7258904       -18365755.137635350        897204873.16420174     
  -2607091770.5576615       -17675064.256903648        770421598.91284251     
  -2457560508.9506421       -13355057.622190833        761193209.87831426     
  -2308532253.4546142       -10711738.024124384        758009073.62811804     
  -2160007004.0695777       -9745105.4626804590        760869190.16224003     
  -2011984760.7955232       -10455159.937874436        769773559.48070061     
  -2858880996.2614007       -18740473.756504655        642919500.82926595     
  -2690988041.6285825       -11215220.035038590        631475698.47957003     
  -2523664058.9313107       -5586539.4320573807        627372350.19152153     
  -2356909048.1695809       -1854431.9475753307        630609455.96512544     
  -2190723009.3434038       -18897.581587791443        641187015.80038691     
  -5957949554.5081863       -1787384866.3524559        1150041146.8976870     
  -6088447711.4708548       -1502290932.6920722        1227891832.5717349     
  -6221667610.7694731       -1226269473.4848485        1268394977.2023208     
  -6357609252.4040384       -959320488.73078394        1271550580.7894440     
  -6496272636.3745518       -701443978.42987776        1237358643.3331051     
  -6810610262.0006685       -2043183078.6002007        1353763993.9877374     
  -6828551154.0728750       -1395485898.0298665        1202740153.9605570     
  -6897859958.2665510       -919015091.19776344        1091968694.0672064     
  -7018536674.5816984       -613770658.10389185        1021449614.3076845     
  -7190581303.0183096       -479752598.74824953        991182914.68199337     
  -8337905791.9399548       -2501371737.5819864        1712339184.0076029     
  -8021575358.6151476       -1424557091.9497366        1275686953.5294189     
  -7805259007.1973352       -681122719.34079123        956887024.36235642     
  -7688956737.6865139       -271068619.75514698        755939396.50641584     
  -7672668550.0826788       -194394793.19280577        672844069.96159685     
  -10539836144.326042       -3161950843.2978129        2225766716.9572830     
  -9667520325.0976791       -1589504514.4516850        1446732231.2783210     
  -8943864757.5618286       -512592357.91393089        863149968.08777153     
  -8368869441.7184868        68785626.315450668        475019927.38563687     
  -7942534377.5676594        154629438.23645830        282342109.17191499     
  -13416401319.158937       -4024920395.7476811        2894046592.8367791     
  -11766386053.520462       -1890328165.5357082        1715875987.2072628     
  -10313677209.360025       -413424006.91718149        810757525.24345267     
  -9058274786.6776218        405792080.10790014        178691206.94534692     
  -8000178785.4732466        567320095.53953648       -180322967.68705159     
  -6496272636.3745518       -701443978.42987776        1237358643.3331051     
  -6239217627.1328449       -375871683.84706664        1053208823.7258476     
  -6013080260.4003057       -153358197.62815094        908030465.92093468     
  -5817860536.1769381       -33903519.773133755        801823569.91836619     
  -5653558454.4627371       -17507650.282008410        734588135.71814239     
  -7190581303.0183096       -479752598.74824953        991182914.68199337     
  -6900526715.7465897       -304437401.43613791        846862331.16383874     
  -6623279574.6540737       -171813691.38805652        723629291.39043641     
  -6358839879.7407722       -81881468.604009628        621483795.36178684     
  -6107207631.0066757       -34640733.083993912        540425843.07788873     
  -7672668550.0826788       -194394793.19280577        672844069.96159685     
  -7400711293.5169201       -184665765.77218342        589481284.91749680     
  -7123451286.8004074       -157260904.51573181        509322125.56055802     
  -6840888529.9331493       -112180209.42344999        432366591.89077771     
  -6553023022.9151373       -49423680.495335817        358614683.90815991     
  -7942534377.5676594        154629438.23645830        282342109.17191499     
  -7739771360.4438391       -16556776.855208397        281065684.98682272     
  -7513595396.8393078       -109699837.01117611        265108968.43129876     
  -7264006486.7540646       -124799742.23144960        234471959.50534222     
  -6991004630.1881189       -61856492.516032219        189154658.20895228     
  -8000178785.4732466        567320095.53953648       -180322967.68705159     
  -7917706916.5273428        199889565.31479406       -78384468.628184482     
  -7793711904.7707701       -29130488.874392033       -9010179.9973420054     
  -7628193750.2035303       -119740067.02801943        27799898.205477163     
  -7421152452.8256235       -71939169.146087646        32045765.980270442     
  -5653558454.4627371       -17507650.282008410        734588135.71814239     
  -5520306088.6853323       -49180074.986524343        721336545.05576718     
  -5381687759.1336594       -62965953.776813984        709933563.09567523     
  -5237703465.8077173       -58865286.652873516        700379189.83786666     
  -5088353208.7075090       -36878073.614709139        692673425.28234220     
  -6107207631.0066757       -34640733.083993912        540425843.07788873     
  -5959411419.5560513       -36504744.597294807        533917618.70629722     
  -5810645521.8261766       -35136468.513094425        529869494.64461732     
  -5660909937.8170547       -30535904.831400633        528281470.89285111     
  -5510204667.5286789       -22703053.552206516        529153547.45099825     
  -6553023022.9151373       -49423680.495335817        358614683.90815991     
  -6388935846.9123497       -20955143.153736115        353720835.41649526     
  -6228275262.1253347       -3908576.5313665867        351898578.84237218     
  -6071041268.5540886        1716019.3717632294        353147914.18579280     
  -5917233866.1986094       -4081355.4443287849        357468841.44675505     
  -6991004630.1881189       -61856492.516032219        189154658.20895228     
  -6808879370.7542343       -2531270.6558566093        180746195.18636239     
  -6634576980.0311337        30717722.168363094        176020815.68894285     
  -6468097458.0188255        37890485.956617594        174978519.71669310     
  -6309440804.7173023        18987020.708917856        177619307.26961714     
  -7421152452.8256235       -71939169.146087646        32045765.980270442     
  -7219241991.0816956        18766872.896353245        14993698.015898397     
  -7029550675.5435743        68742427.586109161        2236205.1843230692     
  -6852078506.2112637        77987494.923161507       -6226712.5144496188     
  -6686825483.0847578        46502074.907536983       -10395055.080419507     
  -5088353208.7075090       -36878073.614709139        692673425.28234220     
  -4934083003.2725286       -9704801.3508424759        675518483.61368835     
  -4782732558.4962492        7735935.3840186596        664921406.38431394     
  -4634301874.3786764        15444136.589860439        660882193.59422016     
  -4488790950.9198017        13419802.266700983        663400845.24340951     
  -5510204667.5286789       -22703053.552206516        529153547.45099825     
  -5344946501.6453276       -10417875.373055696        514336937.15472233     
  -5180601016.6204767       -1174966.7222471237        504850453.70669460     
  -5017168212.4541302        5025672.4002144337        500694097.10691190     
  -4854648089.1462889        8184041.9943356514        501867867.35537839     
  -5917233866.1986094       -4081355.4443287849        357468841.44675505     
  -5744495561.5555553       -7736617.8564977646        347332155.62309152     
  -5570662857.9708014       -7743883.7963402271        341297859.05664420     
  -5395735755.4443541       -4103153.2638671398        339365951.74740589     
  -5219714253.9762068        3185573.7409353256        341536433.69538283     
  -6309440804.7173023        18987020.708917856        177619307.26961714     
  -6132730183.0032139       -1661028.8011682034        174504139.01879981     
  -5952918082.5472260       -11970815.838265181        174263622.43415746     
  -5770004503.3493404       -11942340.402368546        176897757.51570186     
  -5583989445.4095669       -1575602.4934978485        182406544.26342362     
  -6686825483.0847578        46502074.907536983       -10395055.080419507     
  -6509650365.9883022        7808891.7929310799       -4147112.6581597957     
  -6327366690.3497458       -13855762.848014832        3747743.8392484142     
  -6139974456.1690989       -18491889.015314579        13289514.411799997     
  -5947473663.4463501       -6099486.7089548111        24478199.059502643     
  -4488790950.9198017        13419802.266700983        663400845.24340951     
  -4361913810.3882332        2637118.7786967754        657368401.76571715     
  -4234205841.6946478       -5376137.5026016235        654486544.05649519     
  -4105667044.8390560       -10619966.577202320        654755272.11574149     
  -3976297419.8214521       -13094368.445097208        658174585.94345593     
  -4854648089.1462889        8184041.9943356514        501867867.35537839     
  -4717893729.1604767        2364810.0420875549        496724999.35886240     
  -4581049461.4258966       -3154729.4142560959        494883994.81965584     
  -4444115285.9425392       -8374576.3746788502        496344853.73776299     
  -4307091202.7104111       -13294730.839202642        501107576.11317915     
  -5219714253.9762068        3185573.7409353256        341536433.69538283     
  -5072650452.5680418        2459459.9148736000        336418734.03126806     
  -4926237663.8243380       -436696.12607216835        334754175.51330256     
  -4780475887.7450953       -5502894.3818812370        336542758.14149112     
  -4635365124.3303261       -12739134.852590084        341784481.91582841     
  -5583989445.4095669       -1575602.4934978485        182406544.26342362     
  -5426183980.6109161        2921068.3970723152        176449605.78293368     
  -5269770448.8899784        2777962.3619651794        174097086.13742620     
  -5114748850.2467337       -2004920.5988039970        175348985.32692036     
  -4961119184.6811991       -11427580.485257387        180205303.35140598     
  -5947473663.4463501       -6099486.7089548111        24478199.059502643     
  -5778494313.2891130        3749635.4886729717        16817614.613856129     
  -5611647816.6228142        6489246.0498304367        12912726.692037493     
  -5446934173.4474516        2119344.9745426178        12763535.294060024     
  -5284353383.7630348       -9360067.7372331619        16370040.419913309     
  -3976297419.8214521       -13094368.445097208        658174585.94345593     
  -3813686692.2749910       -4860114.1945283413        651303532.19721794     
  -3651421303.6423192        2223010.3434247971        649868097.74563897     
  -3489501253.9234357        8155005.1687409878        653868282.58871984     
  -3327926543.1183338        12935870.281455517        663304086.72646153     
  -4307091202.7104111       -13294730.839202642        501107576.11317915     
  -4131244702.0164871       -6391976.1541266441        494741040.21770525     
  -3955371943.8552656        598303.42193007469        493427518.11766195     
  -3779472928.2267427        7676107.8890008926        497167009.81304163     
  -3603547655.1309190        14841437.247065067        505959515.30385607     
  -4635365124.3303261       -12739134.852590084        341784481.91582841     
  -4447376009.0581722       -7495827.3037934303        336355992.98238826     
  -4258989039.9376383       -926340.26038575172        335597912.34514368     
  -4070204216.9687109        6969326.2776596546        339510240.00409520     
  -3881021540.1514077        16191172.310297012        348092975.95924020     
  -4961119184.6811991       -11427580.485257387        180205303.35140598     
  -4762080613.4000568       -8171667.6435194016        176148390.49126905     
  -4562272591.8894367       -2350920.7035293579        176379280.42808723     
  -4361695120.1493435        6034660.3347067833        180897973.16187188     
  -4160348198.1797838        16985075.471170902        189704468.69262049     
  -5284353383.7630348       -9360067.7372331619        16370040.419913309     
  -5075358515.0421238       -8419497.1732831001        14118232.744339328     
  -4865222599.7106638       -3675437.9074983597        15771622.366490928     
  -4653945637.7686367        4872110.0601685047        21330209.286379799     
  -4441527629.2160654        17223146.729663610        30793993.503992647     
  -3327926543.1183338        12935870.281455517        663304086.72646153     
  -3210941538.0282393        4095512.1915036440        655183346.58748245     
  -3093772278.5220547       -4130664.5114816427        649079002.22495878     
  -2976418764.5997772       -11742659.827480793        644991053.63888407     
  -2858880996.2614007       -18740473.756504655        642919500.82926595     
  -3603547655.1309190        14841437.247065067        505959515.30385607     
  -3479848004.8786201        6298527.3813030720        497798711.53944373     
  -3356201349.9205036       -2421033.4650728703        492717981.76392144     
  -3232607690.2565718       -11317245.292054653        490717325.97729707     
  -3109067025.8868213       -20390108.099657297        491796744.17955762     
  -3881021540.1514077        16191172.310297012        348092975.95924020     
  -3747568164.1299367        8857434.8508203030        339615317.24074197     
  -3614405033.1129217        556214.04314446449        335281410.72357434     
  -3481532147.1003675       -8712490.1127254963        335091256.40773213     
  -3348949506.0922766       -18948677.616810322        339044854.29322153     
  -4160348198.1797838        16985075.471170902        189704468.69262049     
  -4014102015.7821789        11772234.600063801        180633163.69137862     
  -3868383328.0993085        4801078.0131781101        176769289.10390401     
  -3723192135.1311803       -3928394.2895164490        178112844.93019459     
  -3578528436.8777862       -14416182.307991266        184663831.17025384     
  -4441527629.2160654        17223146.729663610        30793993.503992647     
  -4279449559.8353605        15042926.629025459        20852250.891359232     
  -4118136234.8796635        10313558.445018291        17181616.904924668     
  -3957587654.3489914        3035042.1776053905        19782091.544691030     
  -3797803818.2433224       -6792622.1731600761        28653674.810658485     
  -2858880996.2614007       -18740473.756504655        642919500.82926595     
  -2690988041.6285825       -11215220.035038590        631475698.47957003     
  -2523664058.9313107       -5586539.4320573807        627372350.19152153     
  -2356909048.1695809       -1854431.9475753307        630609455.96512544     
  -2190723009.3434038       -18897.581587791443        641187015.80038691     
  -3109067025.8868213       -20390108.099657297        491796744.17955762     
  -2924789713.0931649       -11551071.602628231        482348946.80860776     
  -2740663204.0531631       -3214714.2844562531        477860867.16689986     
  -2556687498.7668233        4618963.8548632860        478332505.25443614     
  -2372862597.2341290        11949962.815342307        483763861.07122403     
  -3348949506.0922766       -18948677.616810322        339044854.29322153     
  -3155089938.9446650       -10836489.486291289        332080924.77989012     
  -2960963007.3688202       -1833086.5950000286        327695976.66340297     
  -2766568711.3647289        8061531.0571129322        325890009.94375670     
  -2571907050.9323997        18847363.470008850        326663024.62093961     
  -3578528436.8777862       -14416182.307991266        184663831.17025384     
  -3381888719.1830826       -9071473.6860270500        180671632.39342400     
  -3184563468.8782606       -1441656.3636637926        176877678.68102351     
  -2986552685.9633012        8473269.6591508389        173281970.03305951     
  -2787856370.4382100        20673304.382400274        169884506.44952852     
  -3797803818.2433224       -6792622.1731600761        28653674.810658485     
  -3605186053.8084259       -6256024.2018673420        28121069.649198558     
  -3411464588.5814953       -2040423.5904841423        25405973.219773926     
  -3216639422.5625458        5854179.6609890461        20508385.522357531     
  -3020710555.7515588        17427785.552556515        13428306.556993410     
 </DataArray>
 <DataArray  type="Float64" Name="VM" NumberOfComponents="1" format="ascii">
   12935469774.477312     
   11340702869.796598     
   10210333908.594585     
   9273002595.3771381     
   8304271431.1219254     
   10130239273.326057     
   9322017436.4015827     
   8826437254.3269749     
   8443654239.4710264     
   8035861088.3606434     
   7982333500.2680025     
   7734983754.7849817     
   7669195226.3947010     
   7669656585.1670799     
   7666437414.2794065     
   6491665151.9878082     
   6586888229.6460886     
   6757441100.7246637     
   6961241092.1865559     
   7171628314.1435089     
   5657786016.1913662     
   5890892024.8306341     
   6116365020.9852839     
   6331747707.3754158     
   6536817248.0862570     
   8304271431.1219254     
   8020669424.8926620     
   7779203220.9268332     
   7569187251.4001923     
   7385654217.7572660     
   8035861088.3606434     
   7746817600.1403837     
   7473470274.7193365     
   7213858217.2005310     
   6967989049.4874954     
   7666437414.2794065     
   7381086345.0495844     
   7101146098.9076147     
   6826693971.4657764     
   6557933546.2892866     
   7171628314.1435089     
   6910911668.4044943     
   6658100345.4563437     
   6409337279.8605947     
   6161477676.2421732     
   6536817248.0862570     
   6328642616.3451929     
   6142642410.6588545     
   5964911384.8675280     
   5786441771.8513699     
   7385654217.7572660     
   7228690348.3396034     
   7064173808.9666243     
   6891411659.5019846     
   6710221525.2891064     
   6967989049.4874954     
   6814808664.8154001     
   6656974114.2950392     
   6494201430.4835844     
   6326440319.4177752     
   6557933546.2892866     
   6407840088.2926798     
   6256083611.7312059     
   6102630859.0706730     
   5947509972.1446476     
   6161477676.2421732     
   6012784242.1580811     
   5865403262.5517788     
   5719372054.3413630     
   5574745094.2312822     
   5786441771.8513699     
   5636105761.8438215     
   5489961906.7206020     
   5347922664.9477177     
   5210032545.6668720     
   6710221525.2891064     
   6513562283.2305269     
   6320453532.6602755     
   6130792638.4104109     
   5944577460.5659657     
   6326440319.4177752     
   6139344484.6132841     
   5954596472.0248928     
   5772180323.1583967     
   5592133663.1934185     
   5947509972.1446476     
   5772067656.1225805     
   5598094208.7118483     
   5425619725.1506805     
   5254711813.3032980     
   5574745094.2312822     
   5413548384.2422962     
   5253300218.6225920     
   5094045594.3186302     
   4935890980.3333015     
   5210032545.6668720     
   5066197848.2859602     
   4923205349.6046181     
   4781094121.8167667     
   4640039334.9009485     
   5944577460.5659657     
   5780443436.8882198     
   5614939795.1094351     
   5448039008.0873032     
   5279755706.5248861     
   5592133663.1934185     
   5436242707.1904793     
   5279778112.0759354     
   5122757749.0514631     
   4965235383.9229326     
   5254711813.3032980     
   5107229909.0368309     
   4960024951.6314459     
   4813154540.1682644     
   4666708848.4139862     
   4935890980.3333015     
   4796862613.8727083     
   4659002324.3844337     
   4522398464.2455454     
   4387171773.3451262     
   4640039334.9009485     
   4509346025.7235489     
   4380733072.4134674     
   4254306761.4409633     
   4130209060.8944182     
   5279755706.5248861     
   5071212966.1600180     
   4863462641.0493193     
   4656530168.0668926     
   4450483817.8238783     
   4965235383.9229326     
   4767771929.2002831     
   4571317111.9506264     
   4375947247.7593431     
   4181795404.6530862     
   4666708848.4139862     
   4481660278.4060030     
   4298013622.6887808     
   4115917774.4704843     
   3935598403.4871039     
   4387171773.3451262     
   4216055373.9605966     
   4046942824.8850474     
   3880078772.5922980     
   3715809855.8062119     
   4130209060.8944182     
   3974705489.1151061     
   3822039410.3449769     
   3672570433.9108610     
   3526787343.3303556     
   4450483817.8238783     
   4287142954.8506827     
   4123410077.8811793     
   3959254308.0348177     
   3794736619.7164373     
   4181795404.6530862     
   4032157431.6653676     
   3882876149.1255679     
   3733995382.2531004     
   3585636219.3077383     
   3935598403.4871039     
   3797835586.1288414     
   3661034734.7442122     
   3525289728.0435338     
   3390754778.0954490     
   3715809855.8062119     
   3588134669.2248273     
   3461832019.8686171     
   3337020655.6657147     
   3213862390.8640203     
   3526787343.3303556     
   3407507657.6596127     
   3289768274.3134604     
   3173688054.8137512     
   3059413578.0053248     
   3794736619.7164373     
   3602391397.6037383     
   3410728689.7163730     
   3219766415.6655383     
   3029551274.4146771     
   3585636219.3077383     
   3391828649.8357711     
   3198548515.4612899     
   3005820093.5252285     
   2813678521.8639126     
   3390754778.0954490     
   3201773431.3787918     
   3013972720.8215895     
   2827522429.5306940     
   2642661713.2477322     
   3213862390.8640203     
   3036235399.2269268     
   2861378644.5831900     
   2689774625.6061587     
   2522113749.8262630     
   3059413578.0053248     
   2899594298.9902663     
   2745104947.3030353     
   2596855379.2561460     
   2456132793.0477996     
   5657786016.1913662     
   5890892024.8306341     
   6116365020.9852839     
   6331747707.3754158     
   6536817248.0862570     
   5151370224.5259075     
   5311285106.2258339     
   5467833989.1256542     
   5618123012.2080002     
   5760687284.3916435     
   4643369179.1154594     
   4755488540.1294756     
   4868730549.9770584     
   4980461354.6981001     
   5088756458.3197174     
   4134047075.8874030     
   4224340409.7092428     
   4320550518.6133070     
   4421020754.4367170     
   4524296732.2460155     
   3624924128.8533831     
   3719665524.4266520     
   3825652787.7416797     
   3942821391.1610017     
   4071077781.4949102     
   6536817248.0862570     
   6328642616.3451929     
   6142642410.6588545     
   5964911384.8675280     
   5786441771.8513699     
   5760687284.3916435     
   5652060943.7978954     
   5559424867.2227592     
   5473719192.9855318     
   5389403448.4984417     
   5088756458.3197174     
   5053977846.4640446     
   5029706380.0698071     
   5010735925.9529963     
   4993865351.4244585     
   4524296732.2460155     
   4538989390.8156796     
   4558356131.1255789     
   4579915979.2440176     
   4601945068.1716700     
   4071077781.4949102     
   4112423922.8150406     
   4151137758.2412629     
   4186318763.9708858     
   4217232606.7353821     
   5786441771.8513699     
   5636105761.8438215     
   5489961906.7206020     
   5347922664.9477177     
   5210032545.6668720     
   5389403448.4984417     
   5248511758.6156721     
   5110842348.2226057     
   4976435752.1430283     
   4845384318.8657980     
   4993865351.4244585     
   4866841023.7083483     
   4743011672.5595150     
   4622345056.2177305     
   4504881646.2673960     
   4601945068.1716700     
   4493760969.3724022     
   4389805228.6548862     
   4289761937.5799804     
   4193542036.6274748     
   4217232606.7353821     
   4133231116.2162051     
   4055732392.6615634     
   3983888488.1916232     
   3917405320.7825017     
   5210032545.6668720     
   5066197848.2859602     
   4923205349.6046181     
   4781094121.8167667     
   4640039334.9009485     
   4845384318.8657980     
   4718455546.3716545     
   4593299899.1840000     
   4470051059.4611912     
   4348955628.5267076     
   4504881646.2673960     
   4393820664.3907900     
   4285421537.0155020     
   4179883121.2735629     
   4077492333.5949750     
   4193542036.6274748     
   4097184395.3021116     
   4004279129.6100659     
   3915057959.5745745     
   3829816343.8181500     
   3917405320.7825017     
   3834406292.2308178     
   3755485260.5859089     
   3680874153.7408495     
   3610848311.2107172     
   4640039334.9009485     
   4509346025.7235489     
   4380733072.4134674     
   4254306761.4409633     
   4130209060.8944182     
   4348955628.5267076     
   4228538509.2902369     
   4110585090.7588959     
   3995252806.9572368     
   3882743899.1374755     
   4077492333.5949750     
   3968732235.4193268     
   3863006139.9036260     
   3760525775.0319963     
   3661558961.1366081     
   3829816343.8181500     
   3734122971.2225003     
   3642231472.8424907     
   3554404907.7807784     
   3470974201.2045093     
   3610848311.2107172     
   3529556303.3264956     
   3453026442.0818543     
   3381559475.6964421     
   3315534127.1366286     
   4130209060.8944182     
   3974705489.1151061     
   3822039410.3449769     
   3672570433.9108610     
   3526787343.3303556     
   3882743899.1374755     
   3743312526.8327360     
   3607503528.1621251     
   3475749048.9307032     
   3348607357.3000016     
   3661558961.1366081     
   3538267136.0837979     
   3419387719.4361038     
   3305404947.2833261     
   3196917919.9873052     
   3470974201.2045093     
   3363845047.6286426     
   3261877264.3009253     
   3165577266.0158267     
   3075546754.9224544     
   3315534127.1366286     
   3224453612.7638125     
   3139181739.6650400     
   3060210177.5049438     
   2988100148.4910951     
   3526787343.3303556     
   3407507657.6596127     
   3289768274.3134604     
   3173688054.8137512     
   3059413578.0053248     
   3348607357.3000016     
   3237793046.7814932     
   3129428489.8111024     
   3023721494.8170671     
   2920925830.3584013     
   3196917919.9873052     
   3096778207.4429808     
   3000249536.4975152     
   2907634570.0874228     
   2819297380.6360030     
   3075546754.9224544     
   2988002332.9904690     
   2905432165.0008159     
   2828216235.7230000     
   2756802470.0048475     
   2988100148.4910951     
   2914541460.4094224     
   2847441576.4886012     
   2787216274.7958627     
   2734344392.8817716     
   3059413578.0053248     
   2899594298.9902663     
   2745104947.3030353     
   2596855379.2561460     
   2456132793.0477996     
   2920925830.3584013     
   2783021105.3818851     
   2651120671.2952743     
   2526151529.8498349     
   2409317419.7937050     
   2819297380.6360030     
   2701654572.1076522     
   2590283203.5260248     
   2486032143.0852981     
   2389926496.3412132     
   2756802470.0048475     
   2657728431.7239614     
   2564715364.2317629     
   2478462969.6975207     
   2399764344.0255466     
   2734344392.8817716     
   2652109653.3012762     
   2575236326.3613300     
   2504239313.7990341     
   2439671511.2149215     
   3624924128.8533831     
   3719665524.4266520     
   3825652787.7416797     
   3942821391.1610017     
   4071077781.4949102     
   3137945241.6623421     
   3255506325.8463941     
   3382479501.4716501     
   3518395207.4283218     
   3662795298.9758043     
   2694745461.3701487     
   2830523888.1361985     
   2973610235.7531796     
   3122922058.7034030     
   3277548289.5474854     
   2298814610.0873342     
   2449510929.0076103     
   2604926822.0318589     
   2763139814.1268134     
   2922720164.0050530     
   1955363349.4795780     
   2119422670.9271610     
   2284838383.5325551     
   2448650620.1980886     
   2608901285.0126491     
   4071077781.4949102     
   4112423922.8150406     
   4151137758.2412629     
   4186318763.9708858     
   4217232606.7353821     
   3662795298.9758043     
   3702142325.6684003     
   3740122379.6028981     
   3775835267.8356519     
   3808530433.4773035     
   3277548289.5474854     
   3320745538.4815598     
   3364193812.1057782     
   3407069612.4077644     
   3448694437.9910865     
   2922720164.0050530     
   2975618525.0736341     
   3030741351.2570796     
   3087406548.5184932     
   3145081204.0608220     
   2608901285.0126491     
   2676813713.8454294     
   2749225489.9464869     
   2825628782.1626372     
   2905670904.6931725     
   4217232606.7353821     
   4133231116.2162051     
   4055732392.6615634     
   3983888488.1916232     
   3917405320.7825017     
   3808530433.4773035     
   3755914726.9411535     
   3709282385.5681415     
   3668159932.8742108     
   3632450888.0787644     
   3448694437.9910865     
   3422851475.4847236     
   3402090662.0090442     
   3386181800.9924188     
   3375107737.7242265     
   3145081204.0608220     
   3141674447.0443716     
   3141854701.9736652     
   3145520445.1369076     
   3152656523.5541406     
   2905670904.6931725     
   2920711218.1163683     
   2937066428.9457617     
   2954681248.2971849     
   2973516166.1605582     
   3917405320.7825017     
   3834406292.2308178     
   3755485260.5859089     
   3680874153.7408495     
   3610848311.2107172     
   3632450888.0787644     
   3561394319.6186776     
   3495010382.0952864     
   3433542701.5053473     
   3377281094.1010599     
   3375107737.7242265     
   3316805086.6391740     
   3263919250.2061071     
   3216687646.1014018     
   3175397246.8467178     
   3152656523.5541406     
   3107664114.5064535     
   3068966875.2269893     
   3036768817.5857520     
   3011327759.5589771     
   2973516166.1605582     
   2941887660.4320102     
   2917534360.8330798     
   2900592894.0841613     
   2891260399.4909172     
   3610848311.2107172     
   3529556303.3264956     
   3453026442.0818543     
   3381559475.6964421     
   3315534127.1366286     
   3377281094.1010599     
   3309919095.6573739     
   3247790205.7261095     
   3191174405.3403697     
   3140410410.3220148     
   3175397246.8467178     
   3120897520.3782902     
   3071997648.8215833     
   3028937745.7929673     
   2991997427.5114388     
   3011327759.5589771     
   2968326497.6900568     
   2931147674.7540374     
   2899977075.0994468     
   2875023131.4642458     
   2891260399.4909172     
   2858032102.6587472     
   2830670943.3363008     
   2809302558.2629981     
   2794062836.1099014     
   3315534127.1366286     
   3224453612.7638125     
   3139181739.6650400     
   3060210177.5049438     
   2988100148.4910951     
   3140410410.3220148     
   3063183473.5073862     
   2992787386.1305370     
   2929720085.2036352     
   2874539151.0284233     
   2991997427.5114388     
   2928959386.0820451     
   2873788410.9156494     
   2826948902.9967780     
   2788949735.6649704     
   2875023131.4642458     
   2825883572.5307374     
   2785614538.0989966     
   2754606354.4678211     
   2733277635.7779784     
   2794062836.1099014     
   2757714797.2591624     
   2731175922.4773827     
   2714732451.5128036     
   2708686434.4721541     
   2988100148.4910951     
   2914541460.4094224     
   2847441576.4886012     
   2787216274.7958627     
   2734344392.8817716     
   2874539151.0284233     
   2814382672.1191487     
   2760684824.4956512     
   2713777987.6706977     
   2674032398.1442256     
   2788949735.6649704     
   2740696246.5714931     
   2698728193.1346736     
   2663291779.0171394     
   2634652427.3783078     
   2733277635.7779784     
   2695269962.3568363     
   2663202995.4165378     
   2637243356.6763597     
   2617564991.3683524     
   2708686434.4721541     
   2679161418.0917506     
   2655077628.5840001     
   2636536051.0805674     
   2623638751.1878533     
   2734344392.8817716     
   2652109653.3012762     
   2575236326.3613300     
   2504239313.7990341     
   2439671511.2149215     
   2674032398.1442256     
   2604609108.2758675     
   2543032536.7833729     
   2489918062.5444317     
   2445901234.8462753     
   2634652427.3783078     
   2579631689.2990551     
   2534858102.9246745     
   2500942874.3051295     
   2478491325.6861601     
   2617564991.3683524     
   2577265640.6524878     
   2549462842.1765809     
   2534671295.9800353     
   2533381931.6377273     
   2623638751.1878533     
   2597019357.7212734     
   2585032999.3606715     
   2588042928.4932275     
   2606388377.3067575     
   1955363349.4795780     
   2119422670.9271610     
   2284838383.5325551     
   2448650620.1980886     
   2608901285.0126491     
   1653892946.5208411     
   1820352659.2959628     
   1988507817.9790611     
   2155662269.5532713     
   2320058177.1149178     
   1393745005.7773430     
   1571134152.3976805     
   1749524380.3998919     
   1926912203.6137700     
   2102047465.8602397     
   1207227976.3165839     
   1399184131.6815882     
   1590711235.5591180     
   1781032618.1994109     
   1969689818.9379165     
   1137008672.9210763     
   1335341956.8664885     
   1533973960.1853452     
   1732904682.8776457     
   1932134124.9433904     
   2608901285.0126491     
   2676813713.8454294     
   2749225489.9464869     
   2825628782.1626372     
   2905670904.6931725     
   2320058177.1149178     
   2407081578.5673728     
   2496546556.2880802     
   2588064316.2660704     
   2681359800.5100245     
   2102047465.8602397     
   2205785523.5029049     
   2309443667.6659632     
   2412786212.6411858     
   2515646611.1016035     
   1969689818.9379165     
   2086849926.4603219     
   2201179555.4907703     
   2312603818.3974242     
   2421070638.5738268     
   1932134124.9433904     
   2058818560.7639821     
   2180113567.9899874     
   2296019146.6214070     
   2406535296.6582408     
   2905670904.6931725     
   2920711218.1163683     
   2937066428.9457617     
   2954681248.2971849     
   2973516166.1605582     
   2681359800.5100245     
   2703234002.0302038     
   2727454356.4414682     
   2754003578.4135013     
   2782873928.0862808     
   2515646611.1016035     
   2544236752.0723062     
   2576228769.7959042     
   2611624423.9551067     
   2650429598.0381756     
   2421070638.5738268     
   2454791913.5608745     
   2492968732.7786674     
   2535604523.1677160     
   2582703582.1670723     
   2406535296.6582408     
   2442251267.4071898     
   2483464641.4688540     
   2530175418.8432317     
   2582383599.5303211     
   2973516166.1605582     
   2941887660.4320102     
   2917534360.8330798     
   2900592894.0841613     
   2891260399.4909172     
   2782873928.0862808     
   2766020831.0221529     
   2756410308.3979330     
   2754132870.2678022     
   2759311187.8162303     
   2650429598.0381756     
   2645604443.2277217     
   2647729857.1943436     
   2656848389.7297478     
   2673015547.5404816     
   2582703582.1670723     
   2586552552.4341521     
   2596807101.8473525     
   2613477296.0238118     
   2636576091.4273520     
   2582383599.5303211     
   2591247726.7023702     
   2605767120.4031782     
   2625941780.6327496     
   2651771707.3910799     
   2891260399.4909172     
   2858032102.6587472     
   2830670943.3363008     
   2809302558.2629981     
   2794062836.1099014     
   2759311187.8162303     
   2734525424.5216184     
   2716184571.6424646     
   2704375629.5060916     
   2699190983.4136376     
   2673015547.5404816     
   2655130061.7039714     
   2644202476.8910813     
   2640278165.0183773     
   2643404506.2173481     
   2636576091.4273520     
   2623376543.9984007     
   2617572737.2892008     
   2619177326.1278877     
   2628203356.3823380     
   2651771707.3910799     
   2640515853.3131766     
   2637021373.6108580     
   2641288268.2841244     
   2653316537.3329720     
   2794062836.1099014     
   2757714797.2591624     
   2731175922.4773827     
   2714732451.5128036     
   2708686434.4721541     
   2699190983.4136376     
   2675563628.4146094     
   2661561523.8064404     
   2657348203.6292329     
   2663091682.8309946     
   2643404506.2173481     
   2629508905.8994274     
   2624916473.6676807     
   2629698153.1512575     
   2643925315.6574168     
   2628203356.3823380     
   2620724823.4937458     
   2622135930.5754037     
   2632453356.3598003     
   2651693650.4768205     
   2653316537.3329720     
   2648870180.1898985     
   2652853127.4005737     
   2665265378.9650002     
   2686106934.8831773     
   2708686434.4721541     
   2679161418.0917506     
   2655077628.5840001     
   2636536051.0805674     
   2623638751.1878533     
   2663091682.8309946     
   2640219509.6597466     
   2623687448.8258061     
   2613567748.9988632     
   2609932063.9712262     
   2643925315.6574168     
   2626501351.7662687     
   2616297971.8641357     
   2613354154.4076185     
   2617707874.9898968     
   2651693650.4768205     
   2637945866.5072303     
   2632293491.0534706     
   2634747910.0063939     
   2645320052.6392527     
   2686106934.8831773     
   2673792128.2770987     
   2670463059.9878836     
   2676119730.0155373     
   2690762138.3600578     
   2623638751.1878533     
   2597019357.7212734     
   2585032999.3606715     
   2588042928.4932275     
   2606388377.3067575     
   2609932063.9712262     
   2596586648.9252300     
   2595792378.0405087     
   2607710140.8569865     
   2632488175.0287895     
   2617707874.9898968     
   2613766877.4749799     
   2620346401.2655053     
   2637500838.4170585     
   2665280090.4158816     
   2645320052.6392527     
   2647483337.4001355     
   2658204923.5390205     
   2677494770.3555031     
   2705362051.6890478     
   2690762138.3600578     
   2696410808.5797858     
   2708716140.8563356     
   2727678135.1897211     
   2753296791.5799327     
   1137008672.9210763     
   1335341956.8664885     
   1533973960.1853452     
   1732904682.8776457     
   1932134124.9433904     
   1207227976.3341067     
   1399184131.6934710     
   1590711235.5651834     
   1781032618.1991210     
   1969689818.9304733     
   1393745005.8039618     
   1571134152.4175782     
   1749524380.4117677     
   1926912203.6160126     
   2102047465.8509829     
   1653892946.5476444     
   1820352659.3191071     
   1988507817.9958792     
   2155662269.5609021     
   2320058177.1103587     
   1955363349.4997277     
   2119422670.9495530     
   2284838383.5534511     
   2448650620.2136049     
   2608901285.0188737     
   1932134124.9433904     
   2058818560.7639821     
   2180113567.9899874     
   2296019146.6214070     
   2406535296.6582408     
   1969689818.9304733     
   2086849926.4644601     
   2201179555.5083146     
   2312603818.4303865     
   2421070638.6242957     
   2102047465.8509829     
   2205785523.5110235     
   2309443667.6949935     
   2412786212.6948915     
   2515646611.1838655     
   2320058177.1103587     
   2407081578.5790410     
   2496546556.3210211     
   2588064316.3255105     
   2681359800.6013336     
   2608901285.0188737     
   2676813713.8601680     
   2749225489.9759159     
   2825628782.2130485     
   2905670904.7710371     
   2406535296.6582408     
   2442251267.4071898     
   2483464641.4688540     
   2530175418.8432317     
   2582383599.5303211     
   2421070638.6242957     
   2454791913.5579834     
   2492968732.7157655     
   2535604523.0379252     
   2582703581.9634476     
   2515646611.1838655     
   2544236752.0722280     
   2576228769.7014728     
   2611624423.7539530     
   2650429597.7177458     
   2681359800.6013336     
   2703234002.0375543     
   2727454356.3491011     
   2754003578.2052841     
   2782873927.7457862     
   2905670904.7710371     
   2920711218.1343117     
   2937066428.8862457     
   2954681248.1424627     
   2973516165.8925614     
   2582383599.5303211     
   2591247726.7023702     
   2605767120.4031782     
   2625941780.6327496     
   2651771707.3910799     
   2582703581.9634476     
   2586552552.2253942     
   2596807101.6220312     
   2613477295.7708449     
   2636576091.1357880     
   2650429597.7177458     
   2645604442.8942161     
   2647729856.8234935     
   2656848389.2976432     
   2673015547.0232797     
   2782873927.7457862     
   2766020830.6683383     
   2756410307.9926648     
   2754132869.7726941     
   2759311187.1924372     
   2973516165.8925614     
   2941887660.1671247     
   2917534360.5190430     
   2900592893.6670861     
   2891260398.9152169     
   2651771707.3910799     
   2640515853.3131766     
   2637021373.6108580     
   2641288268.2841244     
   2653316537.3329720     
   2636576091.1357880     
   2623376543.7853966     
   2617572737.1809168     
   2619177326.1499090     
   2628203356.5596280     
   2673015547.0232797     
   2655130061.2864413     
   2644202476.6220188     
   2640278164.9461565     
   2643404506.3898997     
   2759311187.1924372     
   2734525423.9496269     
   2716184571.1890960     
   2704375629.2387829     
   2699190983.4005208     
   2891260398.9152169     
   2858032102.0152707     
   2830670942.7041693     
   2809302557.7236271     
   2794062835.7473288     
   2653316537.3329720     
   2648870180.1898985     
   2652853127.4005737     
   2665265378.9650002     
   2686106934.8831773     
   2628203356.5596280     
   2620724823.3908081     
   2622135930.1757226     
   2632453355.6479897     
   2651693649.4390979     
   2643404506.3898997     
   2629508905.6289368     
   2624916472.9289823     
   2629698151.9201355     
   2643925313.9111953     
   2699190983.4005208     
   2675563627.9153671     
   2661561522.7952757     
   2657348202.0798016     
   2663091680.7167959     
   2794062835.7473288     
   2757714796.4780102     
   2731175921.2602448     
   2714732449.8394308     
   2708686432.3190942     
   2686106934.8831773     
   2673792128.2770987     
   2670463059.9878836     
   2676119730.0155373     
   2690762138.3600578     
   2651693649.4390979     
   2637945865.2864327     
   2632293489.4940920     
   2634747907.9538169     
   2645320049.9394250     
   2643925313.9111953     
   2626501349.7126746     
   2616297969.1843634     
   2613354150.7828012     
   2617707870.1007543     
   2663091680.7167959     
   2640219507.2526097     
   2623687445.6365275     
   2613567744.5339212     
   2609932057.7325525     
   2708686432.3190942     
   2679161415.8732738     
   2655077625.6386132     
   2636536046.7342749     
   2623638744.7539349     
   2690762138.3600578     
   2696410808.5797858     
   2708716140.8563356     
   2727678135.1897211     
   2753296791.5799327     
   2645320049.9394250     
   2647483339.3281884     
   2658204930.3323278     
   2677494782.2192702     
   2705362068.7923503     
   2617707870.1007543     
   2613766879.8811612     
   2620346411.3861923     
   2637500856.6348886     
   2665280117.0710201     
   2609932057.7325525     
   2596586650.5972419     
   2595792388.1728649     
   2607710159.9894409     
   2632488203.6853232     
   2623638744.7539349     
   2597019357.7553744     
   2585033006.4722376     
   2588042943.3426018     
   2606388400.6038342     
   1955363349.4997277     
   2119422670.9495530     
   2284838383.5534511     
   2448650620.2136049     
   2608901285.0188737     
   2298814610.0980339     
   2449510929.0250540     
   2604926822.0533738     
   2763139814.1498461     
   2922720164.0272198     
   2694745461.3725657     
   2830523888.1483083     
   2973610235.7735028     
   3122922058.7308178     
   3277548289.5812120     
   3137945241.6586986     
   3255506325.8534060     
   3382479501.4889898     
   3518395207.4562984     
   3662795299.0152822     
   3624924128.8463845     
   3719665524.4291120     
   3825652787.7543015     
   3942821391.1854644     
   4071077781.5337496     
   2608901285.0188737     
   2676813713.8601680     
   2749225489.9759159     
   2825628782.2130485     
   2905670904.7710371     
   2922720164.0272198     
   2975618525.0965967     
   3030741351.2842617     
   3087406548.5530648     
   3145081204.1058517     
   3277548289.5812120     
   3320745538.5093622     
   3364193812.1284323     
   3407069612.4253545     
   3448694438.0032511     
   3662795299.0152822     
   3702142325.6976471     
   3740122379.6202660     
   3775835267.8384290     
   3808530433.4620209     
   4071077781.5337496     
   4112423922.8424945     
   4151137758.2535992     
   4186318763.9630566     
   4217232606.7014084     
   2905670904.7710371     
   2920711218.1343117     
   2937066428.8862457     
   2954681248.1424627     
   2973516165.8925614     
   3145081204.1058517     
   3141674447.0626168     
   3141854701.9579930     
   3145520445.0801549     
   3152656523.4485502     
   3448694438.0032511     
   3422851475.5012727     
   3402090662.0328689     
   3386181801.0267873     
   3375107737.7716498     
   3808530433.4620209     
   3755914726.9536376     
   3709282385.6202893     
   3668159932.9791207     
   3632450888.2490211     
   4217232606.7014084     
   4133231116.2221074     
   4055732392.7267795     
   3983888488.3380418     
   3917405321.0322590     
   2973516165.8925614     
   2941887660.1671247     
   2917534360.5190430     
   2900592893.6670861     
   2891260398.9152169     
   3152656523.4485502     
   3107664114.4731460     
   3068966875.2306333     
   3036768817.5892048     
   3011327759.5233064     
   3375107737.7716498     
   3316805086.8091955     
   3263919250.4776187     
   3216687646.4518881     
   3175397247.2523427     
   3632450888.2490211     
   3561394319.9353447     
   3495010382.5485144     
   3433542702.0846834     
   3377281094.7956161     
   3917405321.0322590     
   3834406292.6202102     
   3755485261.1132560     
   3680874154.4049034     
   3610848312.0108738     
   2891260398.9152169     
   2858032102.0152707     
   2830670942.7041693     
   2809302557.7236271     
   2794062835.7473288     
   3011327759.5233064     
   2968326497.5608959     
   2931147674.5755272     
   2899977074.9187660     
   2875023131.3321643     
   3175397247.2523427     
   3120897520.6569300     
   3071997648.9848413     
   3028937745.8556209     
   2991997427.4921851     
   3377281094.7956161     
   3309919096.2030306     
   3247790206.1050458     
   3191174405.5373826     
   3140410410.3253541     
   3610848312.0108738     
   3529556303.9817524     
   3453026442.5484381     
   3381559475.9320564     
   3315534127.1012330     
   2794062835.7473288     
   2757714796.4780102     
   2731175921.2602448     
   2714732449.8394308     
   2708686432.3190942     
   2875023131.3321643     
   2825883572.1051545     
   2785614537.3824396     
   2754606353.4585195     
   2733277634.4690104     
   2991997427.4921851     
   2928959385.9267101     
   2873788410.6533289     
   2826948902.6516690     
   2788949735.2549968     
   3140410410.3253541     
   3063183473.5441351     
   2992787386.2622256     
   2929720085.4875722     
   2874539151.5158782     
   3315534127.1012330     
   3224453612.9262924     
   3139181740.1234655     
   3060210178.3550491     
   2988100149.8244324     
   2708686432.3190942     
   2679161415.8732738     
   2655077625.6386132     
   2636536046.7342749     
   2623638744.7539349     
   2733277634.4690104     
   2695269961.5441899     
   2663202994.6691332     
   2637243355.5475836     
   2617564989.3954816     
   2788949735.2549968     
   2740696247.1517940     
   2698728194.4934058     
   2663291780.9275665     
   2634652429.5981927     
   2874539151.5158782     
   2814382673.9103193     
   2760684827.5829229     
   2713777992.0378385     
   2674032403.7665448     
   2988100149.8244324     
   2914541463.0861206     
   2847441580.6855898     
   2787216280.6942434     
   2734344400.6693463     
   2623638744.7539349     
   2597019357.7553744     
   2585033006.4722376     
   2588042943.3426018     
   2606388400.6038342     
   2617564989.3954816     
   2577265643.6907854     
   2549462850.5099483     
   2534671309.9842563     
   2533381951.7863293     
   2634652429.5981927     
   2579631694.2825460     
   2534858110.5241971     
   2500942884.4996033     
   2478491338.6016183     
   2674032403.7665448     
   2604609113.9319291     
   2543032541.7677951     
   2489918066.2966952     
   2445901236.9899220     
   2734344400.6693463     
   2652109658.2165780     
   2575236327.0320077     
   2504239308.9970059     
   2439671499.9099627     
   3624924128.8463845     
   3719665524.4291120     
   3825652787.7543015     
   3942821391.1854644     
   4071077781.5337496     
   4134047075.8794322     
   4224340409.7083578     
   4320550518.6204901     
   4421020754.4535894     
   4524296732.2747374     
   4643369179.1080809     
   4755488540.1260862     
   4868730549.9786749     
   4980461354.7058496     
   5088756458.3347321     
   5151370224.5204277     
   5311285106.2206879     
   5467833989.1217661     
   5618123012.2057924     
   5760687284.3910046     
   5657786016.1890211     
   5890892024.8244371     
   6116365020.9760160     
   6331747707.3628273     
   6536817248.0691252     
   4071077781.5337496     
   4112423922.8424945     
   4151137758.2535992     
   4186318763.9630566     
   4217232606.7014084     
   4524296732.2747374     
   4538989390.8324852     
   4558356131.1280117     
   4579915979.2288733     
   4601945068.1353817     
   5088756458.3347321     
   5053977846.4689436     
   5029706380.0642815     
   5010735925.9363794     
   4993865351.3956709     
   5760687284.3910046     
   5652060943.7903414     
   5559424867.2102709     
   5473719192.9702816     
   5389403448.4820242     
   6536817248.0691252     
   6328642616.3251200     
   6142642410.6396532     
   5964911384.8541212     
   5786441771.8481741     
   4217232606.7014084     
   4133231116.2221074     
   4055732392.7267795     
   3983888488.3380418     
   3917405321.0322590     
   4601945068.1353817     
   4493760969.3793402     
   4389805228.7170134     
   4289761937.7107563     
   4193542036.8413248     
   4993865351.3956709     
   4866841023.7165852     
   4743011672.6090708     
   4622345056.3135805     
   4504881646.4152937     
   5389403448.4820242     
   5248511758.6264324     
   5110842348.2571373     
   4976435752.1981459     
   4845384318.9384451     
   5786441771.8481741     
   5636105761.8590593     
   5489961906.7431059     
   5347922664.9665775     
   5210032545.6705446     
   3917405321.0322590     
   3834406292.6202102     
   3755485261.1132560     
   3680874154.4049034     
   3610848312.0108738     
   4193542036.8413248     
   4097184395.5843229     
   4004279129.9654207     
   3915057960.0082917     
   3829816344.3364644     
   4504881646.4152937     
   4393820664.5298853     
   4285421537.1565652     
   4179883121.4280119     
   4077492333.7756500     
   4845384318.9384451     
   4718455546.3494053     
   4593299899.0829687     
   4470051059.2984533     
   4348955628.3211555     
   5210032545.6705446     
   5066197848.0975256     
   4923205349.2447577     
   4781094121.3074846     
   4640039334.2663898     
   3610848312.0108738     
   3529556303.9817524     
   3453026442.5484381     
   3381559475.9320564     
   3315534127.1012330     
   3829816344.3364644     
   3734122971.6066709     
   3642231473.0548954     
   3554404907.7835464     
   3470974200.9593897     
   4077492333.7756500     
   3968732235.5272169     
   3863006139.9113970     
   3760525774.9109778     
   3661558960.8561087     
   4348955628.3211555     
   4228538509.1120439     
   4110585090.5943575     
   3995252806.7907658     
   3882743898.9508247     
   4640039334.2663898     
   4509346025.2448492     
   4380733072.0929918     
   4254306761.2790136     
   4130209060.8886619     
   3315534127.1012330     
   3224453612.9262924     
   3139181740.1234655     
   3060210178.3550491     
   2988100149.8244324     
   3470974200.9593897     
   3363845047.7136817     
   3261877264.7945375     
   3165577266.9984727     
   3075546756.4754415     
   3661558960.8561087     
   3538267136.1815062     
   3419387719.9610448     
   3305404948.2894759     
   3196917921.5332956     
   3882743898.9508247     
   3743312527.0191851     
   3607503528.7339296     
   3475749049.9059477     
   3348607358.7031317     
   4130209060.8886619     
   3974705489.4515710     
   3822039410.9947066     
   3672570434.8495717     
   3526787344.5394392     
   2988100149.8244324     
   2914541463.0861206     
   2847441580.6855898     
   2787216280.6942434     
   2734344400.6693463     
   3075546756.4754415     
   2988002335.4892626     
   2905432168.6456342     
   2828216240.7277250     
   2756802476.6012917     
   3196917921.5332956     
   3096778209.3630695     
   3000249538.9964237     
   2907634573.3902817     
   2819297384.9944377     
   3348607358.7031317     
   3237793047.8321872     
   3129428490.6994171     
   3023721495.7558765     
   2920925831.5903845     
   3526787344.5394392     
   3407507657.6593614     
   3289768273.2635441     
   3173688052.8948107     
   3059413575.4254355     
   2734344400.6693463     
   2652109658.2165780     
   2575236327.0320077     
   2504239308.9970059     
   2439671499.9099627     
   2756802476.6012917     
   2657728433.4517169     
   2564715359.9852571     
   2478462958.4095960     
   2399764324.7091899     
   2819297384.9944377     
   2701654571.5186911     
   2590283197.3964500     
   2486032130.7585464     
   2389926477.1108141     
   2920925831.5903845     
   2783021102.8314767     
   2651120665.1075239     
   2526151520.0537267     
   2409317406.2798004     
   3059413575.4254355     
   2899594294.3213158     
   2745104941.5897555     
   2596855373.4628596     
   2456132788.0124784     
   5657786016.1890211     
   5890892024.8244371     
   6116365020.9760160     
   6331747707.3628273     
   6536817248.0691252     
   6491665151.9882984     
   6586888229.6387224     
   6757441100.7095747     
   6961241092.1631823     
   7171628314.1111717     
   7982333500.2694225     
   7734983754.7765455     
   7669195226.3764296     
   7669656585.1386414     
   7666437414.2404308     
   10130239273.326435     
   9322017436.3922691     
   8826437254.3079967     
   8443654239.4426785     
   8035861088.3231039     
   12935469774.474638     
   11340702869.786585     
   10210333908.577158     
   9273002595.3534279     
   8304271431.0933771     
   6536817248.0691252     
   6328642616.3251200     
   6142642410.6396532     
   5964911384.8541212     
   5786441771.8481741     
   7171628314.1111717     
   6910911668.3745718     
   6658100345.4316072     
   6409337279.8444099     
   6161477676.2380524     
   7666437414.2404308     
   7381086345.0148659     
   7101146098.8792553     
   6826693971.4459572     
   6557933546.2804193     
   8035861088.3231039     
   7746817600.1060352     
   7473470274.6898003     
   7213858217.1771641     
   6967989049.4717169     
   8304271431.0933771     
   8020669424.8639631     
   7779203220.8990593     
   7569187251.3741322     
   7385654217.7336092     
   5786441771.8481741     
   5636105761.8590593     
   5489961906.7431059     
   5347922664.9665775     
   5210032545.6705446     
   6161477676.2380524     
   6012784242.1616211     
   5865403262.5544682     
   5719372054.3347759     
   5574745094.2069845     
   6557933546.2804193     
   6407840088.2775908     
   6256083611.7035971     
   6102630859.0241852     
   5947509972.0732441     
   6967989049.4717169     
   6814808664.7745495     
   6656974114.2247849     
   6494201430.3793697     
   6326440319.2753496     
   7385654217.7336092     
   7228690348.2657719     
   7064173808.8401299     
   6891411659.3198261     
   6710221525.0482473     
   5210032545.6705446     
   5066197848.0975256     
   4923205349.2447577     
   4781094121.3074846     
   4640039334.2663898     
   5574745094.2069845     
   5413548383.9911528     
   5253300218.1470375     
   5094045593.6209412     
   4935890979.4155588     
   5947509972.0732441     
   5772067655.8784876     
   5598094208.2873974     
   5425619724.5372543     
   5254711812.4906893     
   6326440319.2753496     
   6139344484.4442167     
   5954596471.8186188     
   5772180322.9027777     
   5592133662.8736954     
   6710221525.0482473     
   6513562283.2019253     
   6320453532.8368120     
   6130792638.7823572     
   5944577461.1196384     
   4640039334.2663898     
   4509346025.2448492     
   4380733072.0929918     
   4254306761.2790136     
   4130209060.8886619     
   4935890979.4155588     
   4796862613.1473360     
   4659002323.8725729     
   4522398463.9672642     
   4387171773.3190756     
   5254711812.4906893     
   5107229908.3900356     
   4960024951.1823883     
   4813154539.9483995     
   4666708848.4541512     
   5592133662.8736954     
   5436242706.9405594     
   5279778111.9320545     
   5122757749.0493212     
   4965235384.0976772     
   5944577461.1196384     
   5780443437.3422441     
   5614939795.4992199     
   5448039008.4469442     
   5279755706.8870554     
   4130209060.8886619     
   3974705489.4515710     
   3822039410.9947066     
   3672570434.8495717     
   3526787344.5394392     
   4387171773.3190756     
   4216055374.1979465     
   4046942825.3535595     
   3880078773.2636433     
   3715809856.6569676     
   4666708848.4541512     
   4481660278.6132441     
   4298013623.0252018     
   4115917774.9010386     
   3935598403.9803948     
   4965235384.0976772     
   4767771929.4264040     
   4571317112.1827993     
   4375947247.9539585     
   4181795404.7687244     
   5279755706.8870554     
   5071212966.4371147     
   4863462641.1872463     
   4656530168.0122299     
   4450483817.5239525     
   3526787344.5394392     
   3407507657.6593614     
   3289768273.2635441     
   3173688052.8948107     
   3059413575.4254355     
   3715809856.6569676     
   3588134668.3307996     
   3461832017.2255769     
   3337020651.2735639     
   3213862384.7288432     
   3935598403.9803948     
   3797835585.0311289     
   3661034731.9758496     
   3525289723.5165291     
   3390754771.7081141     
   4181795404.7687244     
   4032157431.0445614     
   3882876147.6926808     
   3733995379.9180484     
   3585636215.9514136     
   4450483817.5239525     
   4287142955.3561139     
   4123410079.1866469     
   3959254310.1228971     
   3794736622.5332289     
   3059413575.4254355     
   2899594294.3213158     
   2745104941.5897555     
   2596855373.4628596     
   2456132788.0124784     
   3213862384.7288432     
   3036235392.2471685     
   2861378637.7193131     
   2689774619.7537789     
   2522113745.7700963     
   3390754771.7081141     
   3201773426.5857348     
   3013972718.6854424     
   2827522431.0899835     
   2642661719.4996920     
   3585636215.9514136     
   3391828651.6719265     
   3198548523.8062863     
   3005820109.7218657     
   2813678547.3152895     
   3794736622.5332289     
   3602391410.2833643     
   3410728713.9371004     
   3219766453.1635695     
   3029551327.0732193     
 </DataArray>
 <DataArray  type="Float64" Name="strain" NumberOfComponents="3" format="ascii">
  0.20348208667406800        0.0000000000000000       0.12540868568921709     
  0.18665479339789570       -2.7326460842052008E-002   7.4354626112006522E-002
  0.16982750012172343       -4.4677985931610854E-002   3.5132826093707395E-002
  0.15300020684555116       -5.2054575268676490E-002   7.7432856343196479E-003
  0.13617291356937888       -4.9456228853249018E-002  -7.8139952661566564E-003
  0.15985418152238334        0.0000000000000000        9.6449891067749843E-002
  0.15317781617959986       -2.1845859717979393E-002   6.2691730021722514E-002
  0.14650145083681640       -3.6176117822645758E-002   3.7403165283561371E-002
  0.13982508549403291       -4.2990774313999107E-002   2.0584196853266436E-002
  0.13314872015124948       -4.2289829192039420E-002   1.2234824730837701E-002
  0.12645823784450141        0.0000000000000000        7.4201364639945269E-002
  0.12657013718406154       -1.6365258593906785E-002   5.5279767985920998E-002
  0.12668203652362167       -2.7674249713680685E-002   4.1465104388717769E-002
  0.12679393586318180       -3.3926973359321683E-002   3.2757373848335450E-002
  0.12690583520274190       -3.5123429530829836E-002   2.9156576364774200E-002
  0.10329425564042220        0.0000000000000000        5.8663106405803397E-002
  0.10683175641128073       -1.0884657469834171E-002   5.2118740004602079E-002
  0.11036925718213925       -1.9172381604715599E-002   4.7318643409176554E-002
  0.11390675795299776       -2.4863172404644290E-002   4.4262816619526781E-002
  0.11744425872385629       -2.7957029869620231E-002   4.2951259635652800E-002
   9.0362234910145736E-002   0.0000000000000000        4.9835116365324200E-002
   9.3962673861257437E-002  -5.4040563457615574E-003   5.3208646077765667E-002
   9.7563112812369124E-002  -1.0670513495750517E-002   5.4963782344937692E-002
  0.10116355176348082       -1.5799371449966883E-002   5.5100525166840324E-002
  0.10476399071459253       -2.0790630208410647E-002   5.3618874543473506E-002
  0.13617291356937888       -4.9456228853249018E-002  -7.8139952661566564E-003
  0.13296122976914496       -4.2920027338149314E-002  -3.3966603070707813E-003
  0.12974954596891108       -3.8483051376198278E-002  -3.9044113326633725E-004
  0.12653786216867716       -3.6145300967396196E-002   1.2046622552568075E-003
  0.12332617836844328       -3.5906776111742728E-002   1.3886498584985973E-003
  0.13314872015124948       -4.2289829192039420E-002   1.2234824730837701E-002
  0.12891340545699487       -3.8422910521627100E-002   1.2179513016027821E-002
  0.12467809076274024       -3.5739646367622703E-002   1.1488055298457860E-002
  0.12044277606848558       -3.4240036730026097E-002   1.0160451578127831E-002
  0.11620746137423099       -3.3924081608837364E-002   8.1967018550377357E-003
  0.12690583520274190       -3.5123429530829836E-002   2.9156576364774200E-002
  0.12242185939698794       -3.3925793705104984E-002   2.5544189012809491E-002
  0.11793788359123389       -3.2996241359047052E-002   2.2070625440605961E-002
  0.11345390778547990       -3.2334772492656060E-002   1.8735885648163760E-002
  0.10896993197972586       -3.1941387105931987E-002   1.5539969635482771E-002
  0.11744425872385629       -2.7957029869620231E-002   4.2951259635652800E-002
  0.11348659158912419       -2.9428676888582819E-002   3.6697367683274112E-002
  0.10952892445439209       -3.0252836350471407E-002   3.1357269293178038E-002
  0.10557125731965998       -3.0429508255286012E-002   2.6930964465364436E-002
  0.10161359018492790       -2.9958692603026631E-002   2.3418453199833510E-002
  0.10476399071459253       -2.0790630208410647E-002   5.3618874543473506E-002
  0.10210760203340365       -2.4931560072060648E-002   4.5639049027421837E-002
   9.9451213352214782E-002  -2.7509431341895749E-002   3.9347986856174022E-002
   9.6794824671025903E-002  -2.8524244017915954E-002   3.4745688029730049E-002
   9.4138435989837024E-002  -2.7975998100121247E-002   3.1832152548090034E-002
  0.12332617836844328       -3.5906776111742728E-002   1.3886498584985973E-003
  0.12041453421716297       -3.6408991170343796E-002   6.4972691386228076E-004
  0.11750289006588266       -3.6293460504305007E-002   9.6902224483219612E-005
  0.11459124591460236       -3.5560184113626346E-002  -2.6982420963895387E-004
  0.11167960176332203       -3.4209161998307924E-002  -4.5045238850427438E-004
  0.11620746137423099       -3.3924081608837364E-002   8.1967018550377357E-003
  0.11346866649344275       -3.4002209009187739E-002   7.8323351243285155E-003
  0.11072987161265446       -3.3684846936208601E-002   7.6275686793464414E-003
  0.10799107673186616       -3.2971995389899894E-002   7.5824025200914025E-003
  0.10525228185107793       -3.1863654370261563E-002   7.6968366465632598E-003
  0.10896993197972586       -3.1941387105931987E-002   1.5539969635482771E-002
  0.10637748839989974       -3.1595426848031710E-002   1.5327902867390109E-002
  0.10378504482007364       -3.1076233368112171E-002   1.5248938415494833E-002
  0.10119260124024755       -3.0383806666173335E-002   1.5303076279796485E-002
   9.8600157660421420E-002  -2.9518146742215201E-002   1.5490316460295653E-002
  0.10161359018492790       -2.9958692603026631E-002   2.3418453199833510E-002
   9.9140999936534080E-002  -2.9188644686875695E-002   2.3136430143047212E-002
   9.6668409688140264E-002  -2.8467619800015755E-002   2.2961011432928419E-002
   9.4195819439746462E-002  -2.7795617942446799E-002   2.2892197069476830E-002
   9.1723229191352645E-002  -2.7172639114168839E-002   2.2929987052692832E-002
   9.4138435989837024E-002  -2.7975998100121247E-002   3.1832152548090034E-002
   9.1759201103345664E-002  -2.6781862525719694E-002   3.1257916951299869E-002
   8.9379966216854290E-002  -2.5859006231919349E-002   3.0763787731647257E-002
   8.7000731330362957E-002  -2.5207429218720306E-002   3.0349764889132110E-002
   8.4621496443871569E-002  -2.4827131486122478E-002   3.0015848423754571E-002
  0.11167960176332203       -3.4209161998307924E-002  -4.5045238850427438E-004
  0.10853321722546538       -3.2678400028532922E-002  -1.7970821334495346E-004
  0.10538683268760871       -3.1405904074484361E-002   1.6240224329086561E-004
  0.10224044814975207       -3.0391674136162217E-002   5.7587898140291915E-004
   9.9094063611895378E-002  -2.9635710213566535E-002   1.0607220009911655E-003
  0.10525228185107793       -3.1863654370261563E-002   7.6968366465632598E-003
  0.10220386457502442       -3.0635967104526235E-002   7.5618460252064867E-003
   9.9155447298970883E-002  -2.9565076819926178E-002   7.5514236459796047E-003
   9.6107030022917359E-002  -2.8650983516461594E-002   7.6655695088827455E-003
   9.3058612746863834E-002  -2.7893687194132322E-002   7.9042836139160688E-003
   9.8600157660421420E-002  -2.9518146742215201E-002   1.5490316460295653E-002
   9.5702909606824829E-002  -2.8593534180519561E-002   1.5051060077013512E-002
   9.2805661553228280E-002  -2.7724249565368154E-002   1.4789573896515501E-002
   8.9908413499631773E-002  -2.6910292896760966E-002   1.4705857918800819E-002
   8.7011165446035224E-002  -2.6151664174698080E-002   1.4799912143870234E-002
   9.1723229191352645E-002  -2.7172639114168839E-002   2.2929987052692832E-002
   8.9030352320866826E-002  -2.6551101256512936E-002   2.2287933942076517E-002
   8.6337475450381021E-002  -2.5883422310810106E-002   2.1876852994897979E-002
   8.3644598579895216E-002  -2.5169602277060398E-002   2.1696744211157051E-002
   8.0951721709409397E-002  -2.4409641155263742E-002   2.1747607590853629E-002
   8.4621496443871569E-002  -2.4827131486122478E-002   3.0015848423754571E-002
   8.2186192717150289E-002  -2.4508668332506228E-002   2.9272467620395370E-002
   7.9750888990428981E-002  -2.4042595056251968E-002   2.8813260941127627E-002
   7.7315585263707701E-002  -2.3428911657359656E-002   2.8638228385951196E-002
   7.4880281536986393E-002  -2.2667618135829487E-002   2.8747369954866236E-002
   9.9094063611895378E-002  -2.9635710213566535E-002   1.0607220009911655E-003
   9.6326986721695762E-002  -2.8954965500930158E-002   7.2876335040344964E-004
   9.3559909831496230E-002  -2.8166393192485720E-002   5.5955154522632777E-004
   9.0792832941296628E-002  -2.7269993288233100E-002   5.5308658546009137E-004
   8.8025756051097082E-002  -2.6265765788172413E-002   7.0936847110403267E-004
   9.3058612746863834E-002  -2.7893687194132322E-002   7.9042836139160688E-003
   9.0451005019575897E-002  -2.7179604386133177E-002   7.6461496191737588E-003
   8.7843397292287934E-002  -2.6395151625658878E-002   7.5442071048442971E-003
   8.5235789564999942E-002  -2.5540328912709468E-002   7.5984560709273855E-003
   8.2628181837712034E-002  -2.4615136247284897E-002   7.8088965174228919E-003
   8.7011165446035224E-002  -2.6151664174698080E-002   1.4799912143870234E-002
   8.4556471516660833E-002  -2.5404243271336127E-002   1.4578145161640535E-002
   8.2101777587286484E-002  -2.4623910058832195E-002   1.4506014294825446E-002
   7.9647083657912163E-002  -2.3810664537185888E-002   1.4583519543424902E-002
   7.7192389728537814E-002  -2.2964506706397603E-002   1.4810660907438988E-002
   8.0951721709409397E-002  -2.4409641155263742E-002   2.1747607590853629E-002
   7.8643386212950639E-002  -2.3628882156539112E-002   2.1524749977803400E-002
   7.6335050716491881E-002  -2.2852668492005321E-002   2.1444973115169796E-002
   7.4026715220033082E-002  -2.2081000161662395E-002   2.1508277002952735E-002
   7.1718379723574366E-002  -2.1313877165510142E-002   2.1714661641152364E-002
   7.4880281536986393E-002  -2.2667618135829487E-002   2.8747369954866236E-002
   7.2711749108445217E-002  -2.1853521041742111E-002   2.8485964067662628E-002
   7.0543216679904069E-002  -2.1081426925178566E-002   2.8361083565877451E-002
   6.8374684251362908E-002  -2.0351335786138791E-002   2.8372728449511019E-002
   6.6206151822821746E-002  -1.9663247624622848E-002   2.8520898718563059E-002
   8.8025756051097082E-002  -2.6265765788172413E-002   7.0936847110403267E-004
   8.4547211094797681E-002  -2.5236467614863090E-002   6.1179013580109354E-004
   8.1068666138498446E-002  -2.4264855690864839E-002   6.8343701409634416E-004
   7.7590121182199129E-002  -2.3350930016177926E-002   9.2430910598950700E-004
   7.4111576225899811E-002  -2.2494690590802002E-002   1.3344064114807486E-003
   8.2628181837712034E-002  -2.4615136247284897E-002   7.8088965174228919E-003
   7.9327151881177532E-002  -2.3674208599433089E-002   7.6330969540316373E-003
   7.6026121924642920E-002  -2.2772180939201817E-002   7.6431021765718532E-003
   7.2725091968108363E-002  -2.1909053266590778E-002   7.8389121850432619E-003
   6.9424062011573806E-002  -2.1084825581600630E-002   8.2205269794464741E-003
   7.7192389728537814E-002  -2.2964506706397603E-002   1.4810660907438988E-002
   7.4085454344101381E-002  -2.2111949584003088E-002   1.4575426377650066E-002
   7.0978518959664991E-002  -2.1279506187538350E-002   1.4542576206125882E-002
   6.7871583575228545E-002  -2.0467176517003631E-002   1.4712110392866365E-002
   6.4764648190792168E-002  -1.9674960572398870E-002   1.5084028937871974E-002
   7.1718379723574366E-002  -2.1313877165510142E-002   2.1714661641152364E-002
   6.8822118483569450E-002  -2.0549690568572976E-002   2.1438778406656405E-002
   6.5925857243564603E-002  -1.9786831435875271E-002   2.1381859102758471E-002
   6.3029596003559743E-002  -1.9025299767416706E-002   2.1543903729459076E-002
   6.0133334763554848E-002  -1.8265095563197248E-002   2.1924912286757567E-002
   6.6206151822821746E-002  -1.9663247624622848E-002   2.8520898718563059E-002
   6.3537144299581794E-002  -1.8987431553143058E-002   2.8223153041050497E-002
   6.0868136776341841E-002  -1.8294156684211985E-002   2.8160950866469692E-002
   5.8199129253101917E-002  -1.7583423017829506E-002   2.8334292194820407E-002
   5.5530121729861937E-002  -1.6855230553995681E-002   2.8743177026102851E-002
   7.4111576225899811E-002  -2.2494690590802002E-002   1.3344064114807486E-003
   7.1399373952653944E-002  -2.1647963250339408E-002   9.0359758860392159E-004
   6.8687171679407966E-002  -2.0762573830391540E-002   7.4453683851805064E-004
   6.5974969406162015E-002  -1.9838522330958550E-002   8.5722416122385736E-004
   6.3262767132916120E-002  -1.8875808752040757E-002   1.2416595567207311E-003
   6.9424062011573806E-002  -2.1084825581600630E-002   8.2205269794464741E-003
   6.6960561444033950E-002  -2.0266713996586305E-002   7.8274371166056067E-003
   6.4497060876494039E-002  -1.9421934623903403E-002   7.6600025923850845E-003
   6.2033560308954211E-002  -1.8550487463551674E-002   7.7182234067853656E-003
   5.9570059741414327E-002  -1.7652372515531312E-002   8.0020995598062417E-003
   6.4764648190792168E-002  -1.9674960572398870E-002   1.5084028937871974E-002
   6.2503756594787685E-002  -1.8885464742833008E-002   1.4716663743250480E-002
   6.0242864998783244E-002  -1.8081295417414739E-002   1.4528861153079095E-002
   5.7981973402778754E-002  -1.7262452596144694E-002   1.4520621167357306E-002
   5.5721081806774347E-002  -1.6428936279022144E-002   1.4691943786086209E-002
   6.0133334763554848E-002  -1.8265095563197248E-002   2.1924912286757567E-002
   5.8028959404915238E-002  -1.7504215489079752E-002   2.1571277468538902E-002
   5.5924584046275580E-002  -1.6740656210926450E-002   2.1351112520599333E-002
   5.3820208687635929E-002  -1.5974417728737544E-002   2.1264417442939807E-002
   5.1715833328996319E-002  -1.5205500042513059E-002   2.1311192235559502E-002
   5.5530121729861937E-002  -1.6855230553995681E-002   2.8743177026102851E-002
   5.3536169874416450E-002  -1.6122966235326580E-002   2.8391278292470623E-002
   5.1542218018970964E-002  -1.5400017004438160E-002   2.8126756694947130E-002
   4.9548266163525478E-002  -1.4686382861330588E-002   2.7949612233532511E-002
   4.7554314308079992E-002  -1.3982063806003808E-002   2.7859844908226739E-002
   6.3262767132916120E-002  -1.8875808752040757E-002   1.2416595567207311E-003
   6.0055153887298207E-002  -1.7921663171391322E-002   1.2185799052536472E-003
   5.6847540641680239E-002  -1.7023315666766042E-002   1.1009257260407579E-003
   5.3639927396062270E-002  -1.6180766238163495E-002   8.8869701908383947E-004
   5.0432314150444357E-002  -1.5394014885583562E-002   5.8189378438155970E-004
   5.9570059741414327E-002  -1.7652372515531312E-002   8.0020995598062417E-003
   5.6319454576016892E-002  -1.6758252354559244E-002   7.8291042542722455E-003
   5.3068849410619401E-002  -1.5898789555351761E-002   7.6646996369243436E-003
   4.9818244245222076E-002  -1.5073984117909396E-002   7.5088857077617033E-003
   4.6567639079824530E-002  -1.4283836042231268E-002   7.3616624667851571E-003
   5.5721081806774347E-002  -1.6428936279022144E-002   1.4691943786086209E-002
   5.2530649937528207E-002  -1.5594841537726667E-002   1.4390173540743650E-002
   4.9340218068282093E-002  -1.4774263443938049E-002   1.4200159199517795E-002
   4.6149786199035786E-002  -1.3967201997655356E-002   1.4121900762408567E-002
   4.2959354329789756E-002  -1.3173657198878974E-002   1.4155398229416027E-002
   5.1715833328996319E-002  -1.5205500042513059E-002   2.1311192235559502E-002
   4.8688739971832172E-002  -1.4431430720894561E-002   2.0901787764667050E-002
   4.5661646614668039E-002  -1.3649737332524052E-002   2.0707304413822143E-002
   4.2634553257504017E-002  -1.2860419877401287E-002   2.0727742183025026E-002
   3.9607459900339717E-002  -1.2063478355526680E-002   2.0963101072275059E-002
   4.7554314308079992E-002  -1.3982063806003808E-002   2.7859844908226739E-002
   4.4793724678928781E-002  -1.3268019904062178E-002   2.7363946926043048E-002
   4.2033135049777515E-002  -1.2525211221110041E-002   2.7186135279837403E-002
   3.9272545420626248E-002  -1.1753637757147353E-002   2.7326409969610069E-002
   3.6511955791475037E-002  -1.0953299512174386E-002   2.7784770995361141E-002
   9.0362234910145736E-002   0.0000000000000000        4.9835116365324200E-002
   9.3962673861257437E-002  -5.4040563457615574E-003   5.3208646077765667E-002
   9.7563112812369124E-002  -1.0670513495750517E-002   5.4963782344937692E-002
  0.10116355176348082       -1.5799371449966883E-002   5.5100525166840324E-002
  0.10476399071459253       -2.0790630208410647E-002   5.3618874543473506E-002
   8.2424488677441829E-002   0.0000000000000000        4.4783971813214599E-002
   8.4635513278066732E-002  -4.5739863728553364E-003   4.8267314527383400E-002
   8.6846537878691607E-002  -9.0370791702786626E-003   5.0590221985848019E-002
   8.9057562479316510E-002  -1.3389278392269969E-002   5.1752694188608485E-002
   9.1268587079941399E-002  -1.7630584038829271E-002   5.1754731135664762E-002
   7.4243329966080338E-002   0.0000000000000000        4.0576250044181514E-002
   7.5522898405783662E-002  -3.7439163999491163E-003   4.4142700139737069E-002
   7.6802466845487027E-002  -7.4036448448068035E-003   4.7006673169153704E-002
   7.8082035285190365E-002  -1.0979185334573066E-002   4.9168169132431418E-002
   7.9361603724893703E-002  -1.4470537869247891E-002   5.0627188029570225E-002
   6.5818758776061234E-002   0.0000000000000000        3.7211951058224932E-002
   6.6624829244408296E-002  -2.9138464270428966E-003   4.0834802914826641E-002
   6.7430899712755343E-002  -5.7702105193349496E-003   4.4213135894854705E-002
   6.8236970181102391E-002  -8.5690922768761578E-003   4.7346949998309101E-002
   6.9043040649449439E-002  -1.1310491699666520E-002   5.0236245225189838E-002
   5.7150775107384533E-002   0.0000000000000000        3.4691074855344867E-002
   5.7941305793940551E-002  -2.0837764541366752E-003   3.8343622852652179E-002
   5.8731836480496569E-002  -4.1367761938630922E-003   4.2209610162951050E-002
   5.9522367167052594E-002  -6.1589992191792477E-003   4.6289036786241543E-002
   6.0312897853608605E-002  -8.1504455300851330E-003   5.0581902722523629E-002
  0.10476399071459253       -2.0790630208410647E-002   5.3618874543473506E-002
  0.10210760203340365       -2.4931560072060648E-002   4.5639049027421837E-002
   9.9451213352214782E-002  -2.7509431341895749E-002   3.9347986856174022E-002
   9.6794824671025903E-002  -2.8524244017915954E-002   3.4745688029730049E-002
   9.4138435989837024E-002  -2.7975998100121247E-002   3.1832152548090034E-002
   9.1268587079941399E-002  -1.7630584038829271E-002   5.1754731135664762E-002
   9.0063377591759919E-002  -2.1205951699860850E-002   4.6517762242139132E-002
   8.8858168103578425E-002  -2.3560336965269043E-002   4.2494388389824431E-002
   8.7652958615396931E-002  -2.4693739835053807E-002   3.9684609578720602E-002
   8.6447749127215437E-002  -2.4606160309215183E-002   3.8088425808827708E-002
   7.9361603724893703E-002  -1.4470537869247891E-002   5.0627188029570225E-002
   7.9132405126126612E-002  -1.7480343327661043E-002   4.7790999560379181E-002
   7.8903206527359521E-002  -1.9611242588642309E-002   4.5693237828806042E-002
   7.8674007928592415E-002  -2.0863235652191659E-002   4.4333902834850815E-002
   7.8444809329825296E-002  -2.1236322518309134E-002   4.3712994578513457E-002
   6.9043040649449439E-002  -1.1310491699666520E-002   5.0236245225189838E-002
   6.9314684636503754E-002  -1.3754734955461246E-002   4.9458760982141879E-002
   6.9586328623558028E-002  -1.5662148212015593E-002   4.8944535173118843E-002
   6.9857972610612315E-002  -1.7032731469329519E-002   4.8693567798120653E-002
   7.0129616597666616E-002  -1.7866484727403077E-002   4.8705858857147413E-002
   6.0312897853608605E-002  -8.1504455300851330E-003   5.0581902722523629E-002
   6.0610216122891289E-002  -1.0029126583261432E-002   5.1521046507427268E-002
   6.0907534392173959E-002  -1.1713053835388865E-002   5.2248280422762770E-002
   6.1204852661456650E-002  -1.3202227286467366E-002   5.2763604468530186E-002
   6.1502170930739328E-002  -1.4496646936497028E-002   5.3067018644729520E-002
   9.4138435989837024E-002  -2.7975998100121247E-002   3.1832152548090034E-002
   9.1759201103345664E-002  -2.6781862525719694E-002   3.1257916951299869E-002
   8.9379966216854290E-002  -2.5859006231919349E-002   3.0763787731647257E-002
   8.7000731330362957E-002  -2.5207429218720306E-002   3.0349764889132110E-002
   8.4621496443871569E-002  -2.4827131486122478E-002   3.0015848423754571E-002
   8.6447749127215437E-002  -2.4606160309215183E-002   3.8088425808827708E-002
   8.4195080127682009E-002  -2.3961473613475448E-002   3.7059373118878178E-002
   8.1942411128148568E-002  -2.3423554973556835E-002   3.6203345825707035E-002
   7.9689742128615140E-002  -2.2992404389459424E-002   3.5520343929314233E-002
   7.7437073129081713E-002  -2.2668021861183163E-002   3.5010367429699693E-002
   7.8444809329825296E-002  -2.1236322518309134E-002   4.3712994578513457E-002
   7.6411625236890601E-002  -2.1141084701231168E-002   4.2393636020184644E-002
   7.4378441143955934E-002  -2.0988103715194308E-002   4.1340221878275026E-002
   7.2345257051021253E-002  -2.0777379560198504E-002   4.0552752152784532E-002
   7.0312072958086558E-002  -2.0508912236243848E-002   4.0031226843713248E-002
   7.0129616597666616E-002  -1.7866484727403077E-002   4.8705858857147413E-002
   6.8408836430971481E-002  -1.8320695788986898E-002   4.7260705655219386E-002
   6.6688056264276346E-002  -1.8552652456831787E-002   4.6174415889351401E-002
   6.4967276097581225E-002  -1.8562354730937675E-002   4.5446989559543294E-002
   6.3246495930886104E-002  -1.8349802611304547E-002   4.5078426665795292E-002
   6.1502170930739328E-002  -1.4496646936497028E-002   5.3067018644729520E-002
   6.0186713709924594E-002  -1.5500306876742656E-002   5.1660582023982424E-002
   5.8871256489109854E-002  -1.6117201198469273E-002   5.0705927858936045E-002
   5.7555799268295113E-002  -1.6347329901676724E-002   5.0203056149590468E-002
   5.6240342047480393E-002  -1.6190692986365246E-002   5.0151966895945810E-002
   8.4621496443871569E-002  -2.4827131486122478E-002   3.0015848423754571E-002
   8.2186192717150289E-002  -2.4508668332506228E-002   2.9272467620395370E-002
   7.9750888990428981E-002  -2.4042595056251968E-002   2.8813260941127627E-002
   7.7315585263707701E-002  -2.3428911657359656E-002   2.8638228385951196E-002
   7.4880281536986393E-002  -2.2667618135829487E-002   2.8747369954866236E-002
   7.7437073129081713E-002  -2.2668021861183163E-002   3.5010367429699693E-002
   7.5271831792770028E-002  -2.2342704504019928E-002   3.4440421954569950E-002
   7.3106590456458329E-002  -2.1908749433261598E-002   3.4126427136168036E-002
   7.0941349120146643E-002  -2.1366156648908195E-002   3.4068382974493890E-002
   6.8776107783834944E-002  -2.0714926150959628E-002   3.4266289469547559E-002
   7.0312072958086558E-002  -2.0508912236243848E-002   4.0031226843713248E-002
   6.8388670544820881E-002  -2.0176740675533614E-002   3.9595744287770046E-002
   6.6465268131555177E-002  -1.9774903810271176E-002   3.9387988921191067E-002
   6.4541865718289487E-002  -1.9303401640456557E-002   3.9407960743976338E-002
   6.2618463305023783E-002  -1.8762234166089728E-002   3.9655659756125637E-002
   6.3246495930886104E-002  -1.8349802611304547E-002   4.5078426665795292E-002
   6.1536708973302816E-002  -1.8010776847047306E-002   4.4738434619995819E-002
   5.9826922015719500E-002  -1.7641058187280741E-002   4.4597946296196823E-002
   5.8117135058136211E-002  -1.7240646632004992E-002   4.4656961694398416E-002
   5.6407348100552895E-002  -1.6809542181219862E-002   4.4915480814600686E-002
   5.6240342047480393E-002  -1.6190692986365246E-002   5.0151966895945810E-002
   5.4715947078215837E-002  -1.5844813018561013E-002   4.9868492951246915E-002
   5.3191552108951330E-002  -1.5507212564290371E-002   4.9756299261185175E-002
   5.1667157139686837E-002  -1.5177891623553357E-002   4.9815385825760297E-002
   5.0142762170422267E-002  -1.4856850196349997E-002   5.0045752644972463E-002
   7.4880281536986393E-002  -2.2667618135829487E-002   2.8747369954866236E-002
   7.2711749108445217E-002  -2.1853521041742111E-002   2.8485964067662628E-002
   7.0543216679904069E-002  -2.1081426925178566E-002   2.8361083565877451E-002
   6.8374684251362908E-002  -2.0351335786138791E-002   2.8372728449511019E-002
   6.6206151822821746E-002  -1.9663247624622848E-002   2.8520898718563059E-002
   6.8776107783834944E-002  -2.0714926150959628E-002   3.4266289469547559E-002
   6.6754017736665255E-002  -2.0019200947780341E-002   3.3930504212308366E-002
   6.4731927689495622E-002  -1.9343124047734535E-002   3.3751078332393609E-002
   6.2709837642326016E-002  -1.8686695450822313E-002   3.3728011829803256E-002
   6.0687747595156299E-002  -1.8049915157043628E-002   3.3861304704537243E-002
   6.2618463305023783E-002  -1.8762234166089728E-002   3.9655659756125637E-002
   6.0762649631131455E-002  -1.8184880853818482E-002   3.9267849803241280E-002
   5.8906835957239105E-002  -1.7604821170290500E-002   3.9056233219587150E-002
   5.7051022283346756E-002  -1.7022055115505808E-002   3.9020810005163130E-002
   5.5195208609454455E-002  -1.6436582689464380E-002   3.9161580159969442E-002
   5.6407348100552895E-002  -1.6809542181219862E-002   4.4915480814600686E-002
   5.4737644791843690E-002  -1.6350560759856667E-002   4.4498000840461259E-002
   5.3067941483134498E-002  -1.5866518292846438E-002   4.4276548227457899E-002
   5.1398238174425334E-002  -1.5357414780189371E-002   4.4251122975590668E-002
   4.9728534865716122E-002  -1.4823250221885173E-002   4.4421725084859309E-002
   5.0142762170422267E-002  -1.4856850196349997E-002   5.0045752644972463E-002
   4.8679003218802031E-002  -1.4516240665894853E-002   4.9620957323968318E-002
   4.7215244267181808E-002  -1.4128215415402400E-002   4.9412023356006071E-002
   4.5751485315561592E-002  -1.3692774444872843E-002   4.9418950741085758E-002
   4.4287726363941349E-002  -1.3209917754305966E-002   4.9641739479207192E-002
   6.6206151822821746E-002  -1.9663247624622848E-002   2.8520898718563059E-002
   6.3537144299581794E-002  -1.8987431553143058E-002   2.8223153041050497E-002
   6.0868136776341841E-002  -1.8294156684211985E-002   2.8160950866469692E-002
   5.8199129253101917E-002  -1.7583423017829506E-002   2.8334292194820407E-002
   5.5530121729861937E-002  -1.6855230553995681E-002   2.8743177026102851E-002
   6.0687747595156299E-002  -1.8049915157043628E-002   3.3861304704537243E-002
   5.8248072221500788E-002  -1.7416039601802755E-002   3.3598861727395971E-002
   5.5808396847845235E-002  -1.6768325220503547E-002   3.3559539546491587E-002
   5.3368721474189737E-002  -1.6106772013146437E-002   3.3743338161824614E-002
   5.0929046100534170E-002  -1.5431379979731152E-002   3.4150257573394877E-002
   5.5195208609454455E-002  -1.6436582689464380E-002   3.9161580159969442E-002
   5.2972442678688884E-002  -1.5844647650462271E-002   3.8930819911805761E-002
   5.0749676747923314E-002  -1.5242493756795213E-002   3.8910757753185012E-002
   4.8526910817157758E-002  -1.4630121008463367E-002   3.9101393684106978E-002
   4.6304144886392173E-002  -1.4007529405466762E-002   3.9502727704571527E-002
   4.9728534865716122E-002  -1.4823250221885173E-002   4.4421725084859309E-002
   4.7710255671146097E-002  -1.4273255699121933E-002   4.4219027594280244E-002
   4.5691976476576121E-002  -1.3716662293086882E-002   4.4214605486549534E-002
   4.3673697282006138E-002  -1.3153470003780365E-002   4.4408458761667241E-002
   4.1655418087436127E-002  -1.2583678831202302E-002   4.4800587419633164E-002
   4.4287726363941349E-002  -1.3209917754305966E-002   4.9641739479207192E-002
   4.2461511198872454E-002  -1.2701863747781456E-002   4.9463484774819377E-002
   4.0635296033803600E-002  -1.2190830829378482E-002   4.9471082746585376E-002
   3.8809080868734726E-002  -1.1676818999097349E-002   4.9664533394505453E-002
   3.6982865703665851E-002  -1.1159828256937898E-002   5.0043836718579371E-002
   5.5530121729861937E-002  -1.6855230553995681E-002   2.8743177026102851E-002
   5.3536169874416450E-002  -1.6122966235326580E-002   2.8391278292470623E-002
   5.1542218018970964E-002  -1.5400017004438160E-002   2.8126756694947130E-002
   4.9548266163525478E-002  -1.4686382861330588E-002   2.7949612233532511E-002
   4.7554314308079992E-002  -1.3982063806003808E-002   2.7859844908226739E-002
   5.0929046100534170E-002  -1.5431379979731152E-002   3.4150257573394877E-002
   4.9037573127681103E-002  -1.4751489800339940E-002   3.3782556190488616E-002
   4.7146100154828036E-002  -1.4076442155054797E-002   3.3532435436658362E-002
   4.5254627181975024E-002  -1.3406237043875759E-002   3.3399895311904258E-002
   4.3363154209121929E-002  -1.2740874466802776E-002   3.3384935816226036E-002
   4.6304144886392173E-002  -1.4007529405466762E-002   3.9502727704571527E-002
   4.4545354289098782E-002  -1.3380013365353424E-002   3.9123696226065985E-002
   4.2786563691805363E-002  -1.2752867305671489E-002   3.8892448869603691E-002
   4.1027773094511957E-002  -1.2126091226421040E-002   3.8808985635184534E-002
   3.9268982497218552E-002  -1.1499685127601939E-002   3.8873306522808862E-002
   4.1655418087436127E-002  -1.2583678831202302E-002   4.4800587419633164E-002
   4.0059513358669516E-002  -1.2008536930366819E-002   4.4414698399202972E-002
   3.8463608629902932E-002  -1.1429292456288154E-002   4.4206796993783257E-002
   3.6867703901136334E-002  -1.0845945408966211E-002   4.4176883203373880E-002
   3.5271799172369736E-002  -1.0258495788401059E-002   4.4324957027975037E-002
   3.6982865703665851E-002  -1.1159828256937898E-002   5.0043836718579371E-002
   3.5580050336393276E-002  -1.0637060495380324E-002   4.9655562709899181E-002
   3.4177234969120715E-002  -1.0105717606904846E-002   4.9475479809196754E-002
   3.2774419601848147E-002  -9.5657995915114993E-003   4.9503588016471700E-002
   3.1371604234575579E-002  -9.0173064492001243E-003   4.9739887331724575E-002
   4.7554314308079992E-002  -1.3982063806003808E-002   2.7859844908226739E-002
   4.4793724678928781E-002  -1.3268019904062178E-002   2.7363946926043048E-002
   4.2033135049777515E-002  -1.2525211221110041E-002   2.7186135279837403E-002
   3.9272545420626248E-002  -1.1753637757147353E-002   2.7326409969610069E-002
   3.6511955791475037E-002  -1.0953299512174386E-002   2.7784770995361141E-002
   4.3363154209121929E-002  -1.2740874466802776E-002   3.3384935816226036E-002
   4.0892566556892357E-002  -1.2065218263513228E-002   3.2985039145815326E-002
   3.8421978904662785E-002  -1.1364132273683950E-002   3.2847060093269737E-002
   3.5951391252433226E-002  -1.0637616497314765E-002   3.2970998658588893E-002
   3.3480803600203612E-002  -9.8856709344062876E-003   3.3356854841773198E-002
   3.9268982497218552E-002  -1.1499685127601939E-002   3.8873306522808862E-002
   3.7032228103797360E-002  -1.0862416622964138E-002   3.8566076169700217E-002
   3.4795473710376251E-002  -1.0203053326257587E-002   3.8464594716343538E-002
   3.2558719316955101E-002  -9.5215952374822620E-003   3.8568862162738665E-002
   3.0321964923533951E-002  -8.8180423566380783E-003   3.8878878508885606E-002
   3.5271799172369736E-002  -1.0258495788401059E-002   4.4324957027975037E-002
   3.3212709319643846E-002  -9.6596149824151184E-003   4.4107057997697624E-002
   3.1153619466917915E-002  -9.0419743788314709E-003   4.4038739149059064E-002
   2.9094529614192028E-002  -8.4055739776495511E-003   4.4120000482059614E-002
   2.7035439761466204E-002  -7.7504137788699246E-003   4.4350841996698170E-002
   3.1371604234575579E-002  -9.0173064492001243E-003   4.9739887331724575E-002
   2.9434010204431704E-002  -8.4568133418662095E-003   4.9607984629808033E-002
   2.7496416174287858E-002  -7.8808954314052854E-003   4.9569493391416836E-002
   2.5558822144144025E-002  -7.2895527178170154E-003   4.9624413616551219E-002
   2.3621228114000137E-002  -6.6827852011017708E-003   4.9772745305211030E-002
   5.7150775107384533E-002   0.0000000000000000        3.4691074855344867E-002
   5.7941305793940551E-002  -2.0837764541366752E-003   3.8343622852652179E-002
   5.8731836480496569E-002  -4.1367761938630922E-003   4.2209610162951050E-002
   5.9522367167052594E-002  -6.1589992191792477E-003   4.6289036786241543E-002
   6.0312897853608605E-002  -8.1504455300851330E-003   5.0581902722523629E-002
   4.8651120820665777E-002   0.0000000000000000        3.2790353130223215E-002
   4.9589899770441440E-002  -1.7092347799432753E-003   3.6966213536495415E-002
   5.0528678720217109E-002  -3.4323818419701030E-003   4.1225131156215324E-002
   5.1467457669992764E-002  -5.1694411860804881E-003   4.5567105989382933E-002
   5.2406236619768440E-002  -6.9204128122744256E-003   4.9992138035998217E-002
   4.0731537776520520E-002   0.0000000000000000        3.1286517577541875E-002
   4.1688182889971934E-002  -1.3346931057498720E-003   3.5941001396285158E-002
   4.2644828003423355E-002  -2.7279874900771163E-003   4.0548160328932256E-002
   4.3601473116874769E-002  -4.1798831529817294E-003   4.5107994375483143E-002
   4.4558118230326189E-002  -5.6903800944637156E-003   4.9620503535937853E-002
   3.3392025974948752E-002   0.0000000000000000        3.0179568197300843E-002
   3.4236155152532026E-002  -9.6015143155646961E-004   3.5267986432021406E-002
   3.5080284330115299E-002  -2.0235931381841266E-003   4.0178697681101862E-002
   3.5924413507698573E-002  -3.1903251198829746E-003   4.4911701944542241E-002
   3.6768542685281853E-002  -4.4603473766529986E-003   4.9466999222342524E-002
   2.6632585415950476E-002   0.0000000000000000        2.9469504989500121E-002
   2.7233816558121716E-002  -5.8560975736306805E-004   3.4947168643704125E-002
   2.7835047700292957E-002  -1.3191987862911404E-003   4.0116743212724147E-002
   2.8436278842464198E-002  -2.2007670867842128E-003   4.4978228696560187E-002
   2.9037509984635442E-002  -3.2303146588422947E-003   4.9531625095212237E-002
   6.0312897853608605E-002  -8.1504455300851330E-003   5.0581902722523629E-002
   6.0610216122891289E-002  -1.0029126583261432E-002   5.1521046507427268E-002
   6.0907534392173959E-002  -1.1713053835388865E-002   5.2248280422762770E-002
   6.1204852661456650E-002  -1.3202227286467366E-002   5.2763604468530186E-002
   6.1502170930739328E-002  -1.4496646936497028E-002   5.3067018644729520E-002
   5.2406236619768440E-002  -6.9204128122744256E-003   4.9992138035998217E-002
   5.2530514141741841E-002  -8.5839538881105695E-003   5.1220457379482630E-002
   5.2654791663715256E-002  -1.0058721581147598E-002   5.2314605097916578E-002
   5.2779069185688657E-002  -1.1344715891385471E-002   5.3274581191300130E-002
   5.2903346707662072E-002  -1.2441936818824259E-002   5.4100385659633224E-002
   4.4558118230326189E-002  -5.6903800944637156E-003   4.9620503535937853E-002
   4.4587093249508006E-002  -7.1387811929597041E-003   5.1132018019753263E-002
   4.4616068268689801E-002  -8.4043893269063231E-003   5.2587099123035871E-002
   4.4645043287871632E-002  -9.4872044963035841E-003   5.3985746845785769E-002
   4.4674018307053448E-002  -1.0387226701151487E-002   5.5327961188002893E-002
   3.6768542685281853E-002  -4.4603473766529986E-003   4.9466999222342524E-002
   3.6779953446189728E-002  -5.6936084978088334E-003   5.1255728428239153E-002
   3.6791364207097638E-002  -6.7500570726650635E-003   5.3065762498120721E-002
   3.6802774968005526E-002  -7.6296931012216785E-003   5.4897101431987186E-002
   3.6814185728913408E-002  -8.3325165834787097E-003   5.6749745229838590E-002
   2.9037509984635442E-002  -3.2303146588422947E-003   4.9531625095212237E-002
   2.9109094731787081E-002  -4.2484358026579705E-003   5.1591588604940355E-002
   2.9180679478938723E-002  -5.0957248184237787E-003   5.3750595223171042E-002
   2.9252264226090362E-002  -5.7721817061397894E-003   5.6008644949904346E-002
   2.9323848973242007E-002  -6.2778064658059601E-003   5.8365737785140231E-002
   6.1502170930739328E-002  -1.4496646936497028E-002   5.3067018644729520E-002
   6.0186713709924594E-002  -1.5500306876742656E-002   5.1660582023982424E-002
   5.8871256489109854E-002  -1.6117201198469273E-002   5.0705927858936045E-002
   5.7555799268295113E-002  -1.6347329901676724E-002   5.0203056149590468E-002
   5.6240342047480393E-002  -1.6190692986365246E-002   5.0151966895945810E-002
   5.2903346707662072E-002  -1.2441936818824259E-002   5.4100385659633224E-002
   5.1987474717211109E-002  -1.3291722943932219E-002   5.3357678556208418E-002
   5.1071602726760139E-002  -1.3835412847177805E-002   5.2962359457810311E-002
   5.0155730736309148E-002  -1.4073006528560920E-002   5.2914428364438978E-002
   4.9239858745858199E-002  -1.4004503988081632E-002   5.3213885276094372E-002
   4.4674018307053448E-002  -1.0387226701151487E-002   5.5327961188002893E-002
   4.4053337096292160E-002  -1.1083139011121797E-002   5.5168314205243749E-002
   4.3432655885530878E-002  -1.1553624495886334E-002   5.5251660776837297E-002
   4.2811974674769625E-002  -1.1798683155445104E-002   5.5578000902783517E-002
   4.2191293464008336E-002  -1.1818314989798087E-002   5.6147334583082395E-002
   3.6814185728913408E-002  -8.3325165834787097E-003   5.6749745229838590E-002
   3.6384300847167775E-002  -8.8745550783113671E-003   5.7092488971088484E-002
   3.5954415965422142E-002  -9.2718361445948919E-003   5.7573831816016989E-002
   3.5524531083676501E-002  -9.5243597823292930E-003   5.8193773764624097E-002
   3.5094646201930861E-002  -9.6321259915144800E-003   5.8952314816909809E-002
   2.9323848973242007E-002  -6.2778064658059601E-003   5.8365737785140231E-002
   2.8980365969837937E-002  -6.6659711455009443E-003   5.9130202853742528E-002
   2.8636882966433859E-002  -6.9900477933033910E-003   5.9928872575349380E-002
   2.8293399963029781E-002  -7.2500364092134692E-003   6.0761746949960796E-002
   2.7949916959625717E-002  -7.4459369932309283E-003   6.1628825977576684E-002
   5.6240342047480393E-002  -1.6190692986365246E-002   5.0151966895945810E-002
   5.4715947078215837E-002  -1.5844813018561013E-002   4.9868492951246915E-002
   5.3191552108951330E-002  -1.5507212564290371E-002   4.9756299261185175E-002
   5.1667157139686837E-002  -1.5177891623553357E-002   4.9815385825760297E-002
   5.0142762170422267E-002  -1.4856850196349997E-002   5.0045752644972463E-002
   4.9239858745858199E-002  -1.4004503988081632E-002   5.3213885276094372E-002
   4.7893423429340470E-002  -1.3774606806546637E-002   5.2893215522635449E-002
   4.6546988112822762E-002  -1.3528016564762688E-002   5.2757184820033158E-002
   4.5200552796305048E-002  -1.3264733262729700E-002   5.2805793168287582E-002
   4.3854117479787319E-002  -1.2984756900447758E-002   5.3039040567398610E-002
   4.2191293464008336E-002  -1.1818314989798087E-002   5.6147334583082395E-002
   4.1036176596457120E-002  -1.1704400594532378E-002   5.5814441594645950E-002
   3.9881059728905925E-002  -1.1548820565235034E-002   5.5679546453285912E-002
   3.8725942861354695E-002  -1.1351574901906086E-002   5.5742649159002178E-002
   3.7570825993803507E-002  -1.1112663604545533E-002   5.6003749711794774E-002
   3.5094646201930861E-002  -9.6321259915144800E-003   5.8952314816909809E-002
   3.4144206579565815E-002  -9.6341943825180611E-003   5.8632171167278535E-002
   3.3193766957200790E-002  -9.5696245657073929E-003   5.8523384160943222E-002
   3.2243327334835752E-002  -9.4384165410824096E-003   5.8625953797903994E-002
   3.1292887712470720E-002  -9.2405703086432742E-003   5.8939880078160818E-002
   2.7949916959625717E-002  -7.4459369932309283E-003   6.1628825977576684E-002
   2.7217513378666548E-002  -7.5639881705037298E-003   6.1346404240533142E-002
   2.6485109797707379E-002  -7.5904285661796897E-003   6.1288697943005302E-002
   2.5752706216748217E-002  -7.5252581802587853E-003   6.1455707084993171E-002
   2.5020302635789041E-002  -7.3684770127410426E-003   6.1847431666496727E-002
   5.0142762170422267E-002  -1.4856850196349997E-002   5.0045752644972463E-002
   4.8679003218802031E-002  -1.4516240665894853E-002   4.9620957323968318E-002
   4.7215244267181808E-002  -1.4128215415402400E-002   4.9412023356006071E-002
   4.5751485315561592E-002  -1.3692774444872843E-002   4.9418950741085758E-002
   4.4287726363941349E-002  -1.3209917754305966E-002   4.9641739479207192E-002
   4.3854117479787319E-002  -1.2984756900447758E-002   5.3039040567398610E-002
   4.2599352217483892E-002  -1.2678399289043157E-002   5.2654473366337218E-002
   4.1344586955180423E-002  -1.2335972239642390E-002   5.2472032190867463E-002
   4.0089821692876969E-002  -1.1957475752245345E-002   5.2491717040989400E-002
   3.8835056430573514E-002  -1.1542909826852132E-002   5.2713527916703140E-002
   3.7570825993803507E-002  -1.1112663604545533E-002   5.6003749711794774E-002
   3.6511319093366607E-002  -1.0840557912191545E-002   5.5648064348635090E-002
   3.5451812192929755E-002  -1.0543729063882328E-002   5.5480769683616898E-002
   3.4392305292492896E-002  -1.0222177059617876E-002   5.5501865716740199E-002
   3.3332798392055989E-002  -9.8759018993982706E-003   5.5711352448005014E-002
   3.1292887712470720E-002  -9.2405703086432742E-003   5.8939880078160818E-002
   3.0414903846450250E-002  -9.0027165353398220E-003   5.8601730270861865E-002
   2.9536919980429770E-002  -8.7514858881222648E-003   5.8438235834254164E-002
   2.8658936114409308E-002  -8.4868783669903910E-003   5.8449396768337811E-002
   2.7780952248388849E-002  -8.2088939719443949E-003   5.8635213073112577E-002
   2.5020302635789041E-002  -7.3684770127410426E-003   6.1847431666496727E-002
   2.4310106476734775E-002  -7.1648751584882514E-003   6.1515471133017391E-002
   2.3599910317680516E-002  -6.9592427123622361E-003   6.1344430642779321E-002
   2.2889714158626246E-002  -6.7515796743629012E-003   6.1334310195782331E-002
   2.2179517999571990E-002  -6.5418860444905191E-003   6.1485109792026427E-002
   4.4287726363941349E-002  -1.3209917754305966E-002   4.9641739479207192E-002
   4.2461511198872454E-002  -1.2701863747781456E-002   4.9463484774819377E-002
   4.0635296033803600E-002  -1.2190830829378482E-002   4.9471082746585376E-002
   3.8809080868734726E-002  -1.1676818999097349E-002   4.9664533394505453E-002
   3.6982865703665851E-002  -1.1159828256937898E-002   5.0043836718579371E-002
   3.8835056430573514E-002  -1.1542909826852132E-002   5.2713527916703140E-002
   3.7203735248212730E-002  -1.1106561075402824E-002   5.2499963976716954E-002
   3.5572414065851952E-002  -1.0662716109837406E-002   5.2490335325993023E-002
   3.3941092883491189E-002  -1.0211374930155954E-002   5.2684641964531272E-002
   3.2309771701130419E-002  -9.7525375363587408E-003   5.3082883892332011E-002
   3.3332798392055989E-002  -9.8759018993982706E-003   5.5711352448005014E-002
   3.1914453805511660E-002  -9.5112584030240671E-003   5.5466996574658173E-002
   3.0496109218967300E-002  -9.1346013902962805E-003   5.5444658603681925E-002
   2.9077764632422981E-002  -8.7459308612146177E-003   5.5644338535076332E-002
   2.7659420045878631E-002  -8.3452468157793336E-003   5.6066036368841249E-002
   2.7780952248388849E-002  -8.2088939719443949E-003   5.8635213073112577E-002
   2.6593666870769271E-002  -7.9159557306455117E-003   5.8364582568642999E-002
   2.5406381493149700E-002  -7.6064866707552352E-003   5.8334052579652247E-002
   2.4219096115530116E-002  -7.2804867922733633E-003   5.8543623106140405E-002
   2.3031810737910552E-002  -6.9379560951999958E-003   5.8993294148107743E-002
   2.2179517999571990E-002  -6.5418860444905191E-003   6.1485109792026427E-002
   2.1241374443985536E-002  -6.3206530582667342E-003   6.1192721958671425E-002
   2.0303230888399082E-002  -6.0783719512140372E-003   6.1158517253903921E-002
   1.9365087332812621E-002  -5.8150427233317932E-003   6.1382495677723511E-002
   1.8426943777226173E-002  -5.5306653746207135E-003   6.1864657230130571E-002
   3.6982865703665851E-002  -1.1159828256937898E-002   5.0043836718579371E-002
   3.5580050336393276E-002  -1.0637060495380324E-002   4.9655562709899181E-002
   3.4177234969120715E-002  -1.0105717606904846E-002   4.9475479809196754E-002
   3.2774419601848147E-002  -9.5657995915114993E-003   4.9503588016471700E-002
   3.1371604234575579E-002  -9.0173064492001243E-003   4.9739887331724575E-002
   3.2309771701130419E-002  -9.7525375363587408E-003   5.3082883892332011E-002
   3.1105898977326032E-002  -9.2870417629055124E-003   5.2715301602482778E-002
   2.9902026253521660E-002  -8.8157254442570443E-003   5.2537413491592383E-002
   2.8698153529717281E-002  -8.3385885804130935E-003   5.2549219559660729E-002
   2.7494280805912916E-002  -7.8556311713740001E-003   5.2750719806687885E-002
   2.7659420045878631E-002  -8.3452468157793336E-003   5.6066036368841249E-002
   2.6635993036523600E-002  -7.9370230304306733E-003   5.5716391216100503E-002
   2.5612566027168628E-002  -7.5257332816092842E-003   5.5537943313299712E-002
   2.4589139017813642E-002  -7.1113775693149063E-003   5.5530692660438717E-002
   2.3565712008458625E-002  -6.6939558935479593E-003   5.5694639257517928E-002
   2.3031810737910552E-002  -6.9379560951999958E-003   5.8993294148107743E-002
   2.2170332513986084E-002  -6.5870042979558202E-003   5.8658831550752598E-002
   2.1308854290061623E-002  -6.2357411189614756E-003   5.8477069274318796E-002
   2.0447376066137165E-002  -5.8841665582167763E-003   5.8448007318805950E-002
   1.9585897842212697E-002  -5.5322806157217658E-003   5.8571645684214579E-002
   1.8426943777226173E-002  -5.5306653746207135E-003   6.1864657230130571E-002
   1.7708917409713421E-002  -5.2369855654810782E-003   6.1542622606438835E-002
   1.6990891042200654E-002  -4.9457489563137502E-003   6.1354791374649470E-002
   1.6272864674687901E-002  -4.6569555471184312E-003   6.1301163534762421E-002
   1.5554838307175148E-002  -4.3706053378958498E-003   6.1381739086777520E-002
   3.1371604234575579E-002  -9.0173064492001243E-003   4.9739887331724575E-002
   2.9434010204431704E-002  -8.4568133418662095E-003   4.9607984629808033E-002
   2.7496416174287858E-002  -7.8808954314052854E-003   4.9569493391416836E-002
   2.5558822144144025E-002  -7.2895527178170154E-003   4.9624413616551219E-002
   2.3621228114000137E-002  -6.6827852011017708E-003   4.9772745305211030E-002
   2.7494280805912916E-002  -7.8556311713740001E-003   5.2750719806687885E-002
   2.5682724666800175E-002  -7.3616402425240035E-003   5.2616033812262264E-002
   2.3871168527687441E-002  -6.8514028192479259E-003   5.2640012136372816E-002
   2.2059612388574745E-002  -6.3249189015457744E-003   5.2822654779020858E-002
   2.0248056249461965E-002  -5.7821884894173614E-003   5.3163961740205323E-002
   2.3565712008458625E-002  -6.6939558935479593E-003   5.5694639257517928E-002
   2.1945446615388386E-002  -6.2664671431818531E-003   5.5557991661881745E-002
   2.0325181222318169E-002  -5.8219102070907400E-003   5.5645261239793471E-002
   1.8704915829247885E-002  -5.3602850852743408E-003   5.5956447991253849E-002
   1.7084650436177670E-002  -4.8815917777330631E-003   5.6491551916262261E-002
   1.9585897842212697E-002  -5.5322806157217658E-003   5.8571645684214579E-002
   1.8222176050196361E-002  -5.1712940438396193E-003   5.8433858178667024E-002
   1.6858454258180021E-002  -4.7924175949334118E-003   5.8585240701678996E-002
   1.5494732466163681E-002  -4.3956512690031145E-003   5.9025793253250219E-002
   1.4131010674147345E-002  -3.9809950660487092E-003   5.9755515833381609E-002
   1.5554838307175148E-002  -4.3706053378958498E-003   6.1381739086777520E-002
   1.4512912971224076E-002  -4.0761209444974411E-003   6.1243633362617567E-002
   1.3470987635272998E-002  -3.7629249827762085E-003   6.1459950522028878E-002
   1.2429062299321923E-002  -3.4310174527316696E-003   6.2030690565010801E-002
   1.1387136963370847E-002  -3.0803983543643554E-003   6.2955853491563740E-002
   2.6632585415950476E-002   0.0000000000000000        2.9469504989500121E-002
   2.7233816558121716E-002  -5.8560975736306805E-004   3.4947168643704125E-002
   2.7835047700292957E-002  -1.3191987862911404E-003   4.0116743212724147E-002
   2.8436278842464198E-002  -2.2007670867842128E-003   4.4978228696560187E-002
   2.9037509984635442E-002  -3.2303146588422947E-003   4.9531625095212237E-002
   2.0115995124152672E-002   0.0000000000000000        2.9021837383130314E-002
   2.0448582506054056E-002  -4.3920731800325616E-004   3.4315093791449175E-002
   2.0781169887955444E-002  -9.8939908969492094E-004   3.9379151764412326E-002
   2.1113757269856832E-002  -1.6505753150750013E-003   4.4214011302019733E-002
   2.1446344651758219E-002  -2.4227359941434929E-003   4.8819672404271423E-002
   1.3505034124182302E-002   0.0000000000000000        2.8702074807182024E-002
   1.3647868395642089E-002  -2.9280487864344470E-004   3.3847918787492347E-002
   1.3790702667101881E-002  -6.5959939309870839E-004   3.8843454982275198E-002
   1.3933536938561667E-002  -1.1003835433657872E-003   4.3688683391530564E-002
   1.4076371210021456E-002  -1.6151573294446910E-003   4.8383604015258479E-002
   6.7997024160393760E-003   0.0000000000000000        2.8510217261655247E-002
   6.8316742268858220E-003  -1.4640243928363303E-004   3.3545643631833606E-002
   6.8636460377322689E-003  -3.2979969650249151E-004   3.8509652866312756E-002
   6.8956178485787166E-003  -5.5019177165657610E-004   4.3402244965092686E-002
   6.9275896594251617E-003  -8.0757866474588571E-004   4.8223419928173410E-002
  -2.7611159886253844E-013   0.0000000000000000        2.8446264746549980E-002
  -2.1475096007028682E-013   7.6177779362307518E-014   3.3408268324472981E-002
  -1.5339097179933869E-013   9.3721905236598957E-014   3.8377745416525028E-002
  -9.2030658267738819E-014   5.2641918601992188E-014   4.3354696022706113E-002
  -3.0670344736138944E-014  -4.7088201393652440E-014   4.8339120143016237E-002
   2.9037509984635442E-002  -3.2303146588422947E-003   4.9531625095212237E-002
   2.9109094731787081E-002  -4.2484358026579705E-003   5.1591588604940355E-002
   2.9180679478938723E-002  -5.0957248184237787E-003   5.3750595223171042E-002
   2.9252264226090362E-002  -5.7721817061397894E-003   5.6008644949904346E-002
   2.9323848973242007E-002  -6.2778064658059601E-003   5.8365737785140231E-002
   2.1446344651758219E-002  -2.4227359941434929E-003   4.8819672404271423E-002
   2.1587737683579539E-002  -3.1863268520200814E-003   5.1221071093368112E-002
   2.1729130715400856E-002  -3.8217936138244535E-003   5.3663043243301518E-002
   2.1870523747222165E-002  -4.3291362795566026E-003   5.6145588854071782E-002
   2.2011916779043492E-002  -4.7083548492165422E-003   5.8668707925678736E-002
   1.4076371210021456E-002  -1.6151573294446910E-003   4.8383604015258479E-002
   1.4229102878846626E-002  -2.1242179013822066E-003   5.1083729851746112E-002
   1.4381834547671793E-002  -2.5478624092251149E-003   5.3765959501404705E-002
   1.4534566216496965E-002  -2.8860908529734441E-003   5.6430292964234213E-002
   1.4687297885322130E-002  -3.1389032326271729E-003   5.9076730240234632E-002
   6.9275896594251617E-003  -8.0757866474588571E-004   4.8223419928173410E-002
   7.0331903175883592E-003  -1.0621089507443142E-003   5.1179564880074385E-002
   7.1387909757515515E-003  -1.2739312046257899E-003   5.4059343997480490E-002
   7.2443916339147464E-003  -1.4430454263902749E-003   5.6862757280391675E-002
   7.3499922920779405E-003  -1.5694516160377724E-003   5.9589804728808010E-002
  -3.0670344736138944E-014  -4.7088201393652440E-014   4.8339120143016237E-002
  -1.9527305120115024E-013  -1.0644610193288884E-013   5.1508576178352930E-002
  -3.5987727554920301E-013  -2.6461688742984713E-014   5.4543196731528902E-002
  -5.2448247567921102E-013   1.9290553312720227E-013   5.7442981802544188E-002
  -6.8908420636226708E-013   5.5160043199720121E-013   6.0207931391398753E-002
   2.9323848973242007E-002  -6.2778064658059601E-003   5.8365737785140231E-002
   2.8980365969837937E-002  -6.6659711455009443E-003   5.9130202853742528E-002
   2.8636882966433859E-002  -6.9900477933033910E-003   5.9928872575349380E-002
   2.8293399963029781E-002  -7.2500364092134692E-003   6.0761746949960796E-002
   2.7949916959625717E-002  -7.4459369932309283E-003   6.1628825977576684E-002
   2.2011916779043492E-002  -4.7083548492165422E-003   5.8668707925678736E-002
   2.1715554953131596E-002  -4.9994783589707957E-003   5.9489479847061710E-002
   2.1419193127219710E-002  -5.2425358449857927E-003   6.0370289470424526E-002
   2.1122831301307814E-002  -5.4375273072616191E-003   6.1311136795767197E-002
   2.0826469475395931E-002  -5.5844527457982185E-003   6.2312021823089633E-002
   1.4687297885322130E-002  -3.1389032326271729E-003   5.9076730240234632E-002
   1.4463890285877714E-002  -3.3329855724406367E-003   5.9937787006245052E-002
   1.4240482686433300E-002  -3.4950238966681684E-003   6.0884714523210509E-002
   1.4017075086988885E-002  -3.6250182053098111E-003   6.1917512791131071E-002
   1.3793667487544469E-002  -3.7229684983655087E-003   6.3036181810006836E-002
   7.3499922920779405E-003  -1.5694516160377724E-003   5.9589804728808010E-002
   7.2253719680762923E-003  -1.6664927859105037E-003   6.0475124331292457E-002
   7.1007516440746415E-003  -1.7475119483505710E-003   6.1472147733707301E-002
   6.9761313200729889E-003  -1.8125091033580237E-003   6.2580874936052563E-002
   6.8515109960713399E-003  -1.8614842509328267E-003   6.3801305938328251E-002
  -6.8908420636226708E-013   5.5160043199720121E-013   6.0207931391398753E-002
  -2.7267684638010437E-013   6.1968138953538698E-013   6.1101491822203979E-002
   1.4373051360205835E-013  -3.2935459914895659E-014   6.2132589101914944E-002
   5.6013743990335207E-013  -1.4061920031172015E-012   6.3301223230531611E-002
   9.7654523356638379E-013  -3.5000891074332685E-012   6.4607394208053920E-002
   2.7949916959625717E-002  -7.4459369932309283E-003   6.1628825977576684E-002
   2.7217513378666548E-002  -7.5639881705037298E-003   6.1346404240533142E-002
   2.6485109797707379E-002  -7.5904285661796897E-003   6.1288697943005302E-002
   2.5752706216748217E-002  -7.5252581802587853E-003   6.1455707084993171E-002
   2.5020302635789041E-002  -7.3684770127410426E-003   6.1847431666496727E-002
   2.0826469475395931E-002  -5.5844527457982185E-003   6.2312021823089633E-002
   2.0308377697965219E-002  -5.6729911292827534E-003   6.2190001380418067E-002
   1.9790285920534528E-002  -5.6928214264023377E-003   6.2271889105287741E-002
   1.9272194143103827E-002  -5.6439436371569767E-003   6.2557684997698676E-002
   1.8754102365673125E-002  -5.5263577615466963E-003   6.3047389057650824E-002
   1.3793667487544469E-002  -3.7229684983655087E-003   6.3036181810006836E-002
   1.3469080241667765E-002  -3.7819940880617561E-003   6.3051659966475326E-002
   1.3144492995791072E-002  -3.7952142866249892E-003   6.3250239018510609E-002
   1.2819905749914375E-002  -3.7626290940551968E-003   6.3631918966112644E-002
   1.2495318504037674E-002  -3.6842385103523917E-003   6.4196699809281471E-002
   6.8515109960713399E-003  -1.8614842509328267E-003   6.3801305938328251E-002
   6.6996210097741773E-003  -1.8909970468407693E-003   6.3931379998704949E-002
   6.5477310234770105E-003  -1.8976071468476529E-003   6.4223747682673887E-002
   6.3958410371798419E-003  -1.8813145509534025E-003   6.4678408990235192E-002
   6.2439510508826802E-003  -1.8421192591580801E-003   6.5295363921388752E-002
   9.7654523356638379E-013  -3.5000891074332685E-012   6.4607394208053920E-002
   2.2844452024495254E-012  -5.6197546616232330E-012   6.4829161477106836E-002
   3.5923399671622391E-012  -7.0703026766594235E-012   6.5192415097777540E-002
   4.9002355992366908E-012  -7.8516117218985215E-012   6.5697155070066141E-002
   6.2081347007580945E-012  -7.9637407779387104E-012   6.6343381393972528E-002
   2.5020302635789041E-002  -7.3684770127410426E-003   6.1847431666496727E-002
   2.4310106476734775E-002  -7.1648751584882514E-003   6.1515471133017391E-002
   2.3599910317680516E-002  -6.9592427123622361E-003   6.1344430642779321E-002
   2.2889714158626246E-002  -6.7515796743629012E-003   6.1334310195782331E-002
   2.2179517999571990E-002  -6.5418860444905191E-003   6.1485109792026427E-002
   1.8754102365673125E-002  -5.5263577615466963E-003   6.3047389057650824E-002
   1.8208983498873725E-002  -5.3736563706008739E-003   6.2728778949755468E-002
   1.7663864632074314E-002  -5.2194320353490115E-003   6.2579403383128701E-002
   1.7118745765274918E-002  -5.0636847557908003E-003   6.2599262357770524E-002
   1.6573626898475517E-002  -4.9064145319266395E-003   6.2788355873680923E-002
   1.2495318504037674E-002  -3.6842385103523917E-003   6.4196699809281471E-002
   1.2123591427520609E-002  -3.5824375827135449E-003   6.3890932479402904E-002
   1.1751864351003548E-002  -3.4796213583356723E-003   6.3762714188820388E-002
   1.1380137274486491E-002  -3.3757898372186986E-003   6.3812044937534007E-002
   1.1008410197969429E-002  -3.2709430193626765E-003   6.4038924725543719E-002
   6.2439510508826802E-003  -1.8421192591580801E-003   6.5295363921388752E-002
   6.0539302626754438E-003  -1.7912187948262749E-003   6.5001931721959907E-002
   5.8639094744682013E-003  -1.7398106813222795E-003   6.4894363059854604E-002
   5.6738886862609640E-003  -1.6878949186465695E-003   6.4972657935072897E-002
   5.4838678980537216E-003  -1.6354715067986997E-003   6.5236816347614676E-002
   6.2081347007580945E-012  -7.9637407779387104E-012   6.6343381393972528E-002
   4.3382103465106070E-012  -6.9388383927559971E-012   6.6061776677426270E-002
   2.4682842575396435E-012  -4.3091225032654279E-012   6.5974349996231113E-002
   5.9835903593041806E-013  -7.4416167672453071E-014   6.6081101350387056E-002
  -1.2715661856788074E-012   5.7651661222735129E-012   6.6382030739894016E-002
   2.2179517999571990E-002  -6.5418860444905191E-003   6.1485109792026427E-002
   2.1241374443985536E-002  -6.3206530582667342E-003   6.1192721958671425E-002
   2.0303230888399082E-002  -6.0783719512140372E-003   6.1158517253903921E-002
   1.9365087332812621E-002  -5.8150427233317932E-003   6.1382495677723511E-002
   1.8426943777226173E-002  -5.5306653746207135E-003   6.1864657230130571E-002
   1.6573626898475517E-002  -4.9064145319266395E-003   6.2788355873680923E-002
   1.5887754661565577E-002  -4.7404897911653143E-003   6.2549147736164157E-002
   1.5201882424655640E-002  -4.5587789609162210E-003   6.2556299107413199E-002
   1.4516010187745712E-002  -4.3612820411792624E-003   6.2809809987428022E-002
   1.3830137950835784E-002  -4.1479990319544524E-003   6.3309680376208599E-002
   1.1008410197969429E-002  -3.2709430193626765E-003   6.4038924725543719E-002
   1.0562985659914478E-002  -3.1603265240637557E-003   6.3847634252523822E-002
   1.0117561121859544E-002  -3.0391859706185090E-003   6.3890879668448114E-002
   9.6721365838046015E-003  -2.9075213590265634E-003   6.4168660973316582E-002
   9.2267120457496590E-003  -2.7653326892881080E-003   6.4680978167129338E-002
   5.4838678980537216E-003  -1.6354715067986997E-003   6.5236816347614676E-002
   5.2670674390322483E-003  -1.5801632569623220E-003   6.5088181507750295E-002
   5.0502669800107603E-003  -1.5195929803206894E-003   6.5162258937008569E-002
   4.8334665209892793E-003  -1.4537606768738375E-003   6.5459048635389636E-002
   4.6166660619677991E-003  -1.3826663466218053E-003   6.5978550602893260E-002
  -1.2715661856788074E-012   5.7651661222735129E-012   6.6382030739894016E-002
  -1.0811213035921696E-012   1.0139250550267320E-011   6.6270789501843785E-002
  -8.9068336039943574E-013   9.9770192107939693E-012   6.6370436913094688E-002
  -7.0024368248322588E-013   5.2789161930633099E-012   6.6680972973646752E-002
  -5.0980053512006407E-013  -3.9555025921345077E-012   6.7202397683500004E-002
   1.8426943777226173E-002  -5.5306653746207135E-003   6.1864657230130571E-002
   1.7708917409713421E-002  -5.2369855654810782E-003   6.1542622606438835E-002
   1.6990891042200654E-002  -4.9457489563137502E-003   6.1354791374649470E-002
   1.6272864674687901E-002  -4.6569555471184312E-003   6.1301163534762421E-002
   1.5554838307175148E-002  -4.3706053378958498E-003   6.1381739086777520E-002
   1.3830137950835784E-002  -4.1479990319544524E-003   6.3309680376208599E-002
   1.3257640776099790E-002  -3.9277391778379522E-003   6.2990213674857104E-002
   1.2685143601363812E-002  -3.7093117234262840E-003   6.2827601967156949E-002
   1.2112646426627819E-002  -3.4927166687191494E-003   6.2821845253107952E-002
   1.1540149251891840E-002  -3.2779540137168883E-003   6.2972943532710324E-002
   9.2267120457496590E-003  -2.7653326892881080E-003   6.4680978167129338E-002
   8.8223956655393981E-003  -2.6184927901949651E-003   6.4364690188385892E-002
   8.4180792853291476E-003  -2.4728744905388594E-003   6.4227908805042547E-002
   8.0137629051188937E-003  -2.3284777903199196E-003   6.4270634017099371E-002
   7.6094465249086397E-003  -2.1853026895378991E-003   6.4492865824556447E-002
   4.6166660619677991E-003  -1.3826663466218053E-003   6.5978550602893260E-002
   4.4031820780322355E-003  -1.3092464025519918E-003   6.5666052147025172E-002
   4.1896980940966796E-003  -1.2364372576515251E-003   6.5555711888306237E-002
   3.9762141101611168E-003  -1.1642389119204972E-003   6.5647529826736509E-002
   3.7627301262255540E-003  -1.0926513653589237E-003   6.5941505962315877E-002
  -5.0980053512006407E-013  -3.9555025921345077E-012   6.7202397683500004E-002
   1.3578294738580965E-011  -1.4908851930783840E-011   6.6894299550775027E-002
   2.7666396951175898E-011  -2.4764079675776429E-011   6.6811011216948102E-002
   4.1754492224876927E-011  -3.3521185827112276E-011   6.6952532682019367E-002
   5.5842594437471860E-011  -4.1180059362488919E-011   6.7318863945988738E-002
   1.5554838307175148E-002  -4.3706053378958498E-003   6.1381739086777520E-002
   1.4512912971224076E-002  -4.0761209444974411E-003   6.1243633362617567E-002
   1.3470987635272998E-002  -3.7629249827762085E-003   6.1459950522028878E-002
   1.2429062299321923E-002  -3.4310174527316696E-003   6.2030690565010801E-002
   1.1387136963370847E-002  -3.0803983543643554E-003   6.2955853491563740E-002
   1.1540149251891840E-002  -3.2779540137168883E-003   6.2972943532710324E-002
   1.0829161411230082E-002  -3.0570907111192314E-003   6.2911711380178065E-002
   1.0118173570568351E-002  -2.8221937136262559E-003   6.3157931334653444E-002
   9.4071857299066197E-003  -2.5732630212383402E-003   6.3711603396136754E-002
   8.6961978892448610E-003  -2.3102986339551546E-003   6.4572727564627397E-002
   7.6094465249086397E-003  -2.1853026895378991E-003   6.4492865824556447E-002
   7.1824254029729875E-003  -2.0380604777408828E-003   6.4503829370223906E-002
   6.7554042810373336E-003  -1.8814624444765185E-003   6.4775274246335862E-002
   6.3283831591016632E-003  -1.7155085897448980E-003   6.5307200452892317E-002
   5.9013620371660414E-003  -1.5401989135459537E-003   6.6099607989893006E-002
   3.7627301262255540E-003  -1.0926513653589237E-003   6.5941505962315877E-002
   3.5727049464527377E-003  -1.0190302443624927E-003   6.6019987332755187E-002
   3.3826797666799261E-003  -9.4073117532672904E-004   6.6311979257075798E-002
   3.1926545869071180E-003  -8.5775415825140120E-004   6.6817481735277615E-002
   3.0026294071342982E-003  -7.7009919313675290E-004   6.7536494767360539E-002
   5.5842594437471860E-011  -4.1180059362488919E-011   6.7318863945988738E-002
   4.1669369343910745E-011  -1.0984269049885143E-011   6.7460185267772088E-002
   2.7496147719796582E-011   9.3823171454232579E-011   6.7768046366873225E-002
   1.3322931299852847E-011   2.7324198459410809E-010   6.8242447243292481E-002
  -8.5029205898479177E-013   5.2727244792549754E-010   6.8883387897029635E-002
  -2.7611159886253844E-013   0.0000000000000000        2.8446264746549980E-002
  -2.1475096007028682E-013   7.6177779362307518E-014   3.3408268324472981E-002
  -1.5339097179933869E-013   9.3721905236598957E-014   3.8377745416525028E-002
  -9.2030658267738819E-014   5.2641918601992188E-014   4.3354696022706113E-002
  -3.0670344736138944E-014  -4.7088201393652440E-014   4.8339120143016237E-002
  -6.7997024165651516E-003   0.0000000000000000        2.8510217261850115E-002
  -6.8316742273019536E-003   1.4640243941747150E-004   3.3545643631964751E-002
  -6.8636460380387529E-003   3.2979969668033883E-004   3.8509652866354015E-002
  -6.8956178487755556E-003   5.5019177178860200E-004   4.3402244965017926E-002
  -6.9275896595123549E-003   8.0757866474225320E-004   4.8223419927956465E-002
  -1.3505034124628739E-002   0.0000000000000000        2.8702074807539533E-002
  -1.3647868396018106E-002   2.9280487875876565E-004   3.3847918787749828E-002
  -1.3790702667407473E-002   6.5959939326695315E-004   3.8843454982380343E-002
  -1.3933536938796840E-002   1.1003835435245603E-003   4.3688683391431102E-002
  -1.4076371210186204E-002   1.6151573295315881E-003   4.8383604014902090E-002
  -2.0115995124466872E-002   0.0000000000000000        2.9021837383618229E-002
  -2.0448582506363208E-002   4.3920731810006045E-004   3.4315093791828198E-002
  -2.0781169888259548E-002   9.8939908985357051E-004   3.9379151764604013E-002
  -2.1113757270155891E-002   1.6505753152605230E-003   4.4214011301945640E-002
  -2.1446344652052227E-002   2.4227359943209247E-003   4.8819672403853091E-002
  -2.6632585416079553E-002   0.0000000000000000        2.9469504990086208E-002
  -2.7233816558337266E-002   5.8560975744135352E-004   3.4947168644199895E-002
  -2.7835047700594983E-002   1.3191987864401827E-003   4.0116743213025004E-002
  -2.8436278842852696E-002   2.2007670869964822E-003   4.4978228696561540E-002
  -2.9037509985110406E-002   3.2303146591102609E-003   4.9531625094809476E-002
  -3.0670344736138944E-014  -4.7088201393652440E-014   4.8339120143016237E-002
  -1.9527305120115024E-013  -1.0644610193288884E-013   5.1508576178352930E-002
  -3.5987727554920301E-013  -2.6461688742984713E-014   5.4543196731528902E-002
  -5.2448247567921102E-013   1.9290553312720227E-013   5.7442981802544188E-002
  -6.8908420636226708E-013   5.5160043199720121E-013   6.0207931391398753E-002
  -6.9275896595123549E-003   8.0757866474225320E-004   4.8223419927956465E-002
  -7.0331903179808638E-003   1.0621089506584621E-003   5.1179564880067335E-002
  -7.1387909764493752E-003   1.2739312046544163E-003   5.4059343997731109E-002
  -7.2443916349178841E-003   1.4430454267300682E-003   5.6862757280947786E-002
  -7.3499922933863955E-003   1.5694516168854727E-003   5.9589804729717352E-002
  -1.4076371210186204E-002   1.6151573295315881E-003   4.8383604014902090E-002
  -1.4229102879245016E-002   2.1242179014233694E-003   5.1083729851727509E-002
  -1.4381834548303826E-002   2.5478624093352668E-003   5.3765959501819449E-002
  -1.4534566217362635E-002   2.8860908532672585E-003   5.6430292965177861E-002
  -1.4687297886421447E-002   3.1389032332193520E-003   5.9076730241802822E-002
  -2.1446344652052227E-002   2.4227359943209247E-003   4.8819672403853091E-002
  -2.1587737683987723E-002   3.1863268521882806E-003   5.1221071093333438E-002
  -2.1729130715923230E-002   3.8217936140161135E-003   5.3663043243793902E-002
  -2.1870523747858740E-002   4.3291362798044278E-003   5.6145588855234456E-002
  -2.2011916779794236E-002   4.7083548495532139E-003   5.8668707927655148E-002
  -2.9037509985110406E-002   3.2303146591102609E-003   4.9531625094809476E-002
  -2.9109094732208990E-002   4.2484358029531754E-003   5.1591588604885136E-002
  -2.9180679479307584E-002   5.0957248186969785E-003   5.3750595223654482E-002
  -2.9252264226406168E-002   5.7721817063416210E-003   5.6008644951117577E-002
  -2.9323848973504756E-002   6.2778064658870966E-003   5.8365737787274365E-002
  -6.8908420636226708E-013   5.5160043199720121E-013   6.0207931391398753E-002
  -2.7267684638010437E-013   6.1968138953538698E-013   6.1101491822203979E-002
   1.4373051360205835E-013  -3.2935459914895659E-014   6.2132589101914944E-002
   5.6013743990335207E-013  -1.4061920031172015E-012   6.3301223230531611E-002
   9.7654523356638379E-013  -3.5000891074332685E-012   6.4607394208053920E-002
  -7.3499922933863955E-003   1.5694516168854727E-003   5.9589804729717352E-002
  -7.2253719686192009E-003   1.6664927868539556E-003   6.0475124331042789E-002
  -7.1007516438520105E-003   1.7475119483688281E-003   6.1472147732164133E-002
  -6.9761313190848202E-003   1.8125091014301372E-003   6.2580874933081357E-002
  -6.8515109943176281E-003   1.8614842460378950E-003   6.3801305933794378E-002
  -1.4687297886421447E-002   3.1389032332193520E-003   5.9076730241802822E-002
  -1.4463890286413306E-002   3.3329855730882315E-003   5.9937787005915573E-002
  -1.4240482686405164E-002   3.4950238967706073E-003   6.0884714520714346E-002
  -1.4017075086397025E-002   3.6250182042665085E-003   6.1917512786199211E-002
  -1.3793667486388887E-002   3.7229684955759068E-003   6.3036181802370014E-002
  -2.2011916779794236E-002   4.7083548495532139E-003   5.8668707927655148E-002
  -2.1715554953654976E-002   4.9994783593225274E-003   5.9489479846822332E-002
  -2.1419193127515737E-002   5.2425358451724203E-003   6.0370289467565653E-002
  -2.1122831301376491E-002   5.4375273071028450E-003   6.1311136789885159E-002
  -2.0826469475237235E-002   5.5844527451139186E-003   6.2312021813780927E-002
  -2.9323848973504756E-002   6.2778064658870966E-003   5.8365737787274365E-002
  -2.8980365970344233E-002   6.6659711455567955E-003   5.9130202853762984E-002
  -2.8636882967183707E-002   6.9900477935741692E-003   5.9928872572717964E-002
  -2.8293399964023188E-002   7.2500364099392142E-003   6.0761746944139293E-002
  -2.7949916960862665E-002   7.4459369946519305E-003   6.1628825968026962E-002
   9.7654523356638379E-013  -3.5000891074332685E-012   6.4607394208053920E-002
   2.2844452024495254E-012  -5.6197546616232330E-012   6.4829161477106836E-002
   3.5923399671622391E-012  -7.0703026766594235E-012   6.5192415097777540E-002
   4.9002355992366908E-012  -7.8516117218985215E-012   6.5697155070066141E-002
   6.2081347007580945E-012  -7.9637407779387104E-012   6.6343381393972528E-002
  -6.8515109943176281E-003   1.8614842460378950E-003   6.3801305933794378E-002
  -6.6996210055878256E-003   1.8909970389317243E-003   6.3931379994721774E-002
  -6.5477310168580221E-003   1.8976071368513210E-003   6.4223747678875093E-002
  -6.3958410281282196E-003   1.8813145397966651E-003   6.4678408986254377E-002
  -6.2439510393984161E-003   1.8421192477677817E-003   6.5295363916859667E-002
  -1.3793667486388887E-002   3.7229684955759068E-003   6.3036181802370014E-002
  -1.3469080238629031E-002   3.7819940834832172E-003   6.3051659959528453E-002
  -1.3144492990869169E-002   3.7952142807728892E-003   6.3250239011521020E-002
  -1.2819905743109304E-002   3.7626290874449558E-003   6.3631918958347716E-002
  -1.2495318495349447E-002   3.6842385034993319E-003   6.4196699800008500E-002
  -2.0826469475237235E-002   5.5844527451139186E-003   6.2312021813780927E-002
  -2.0308377696839158E-002   5.6729911280347031E-003   6.2190001371526964E-002
  -1.9790285918441088E-002   5.6928214246945268E-003   6.2271889095715280E-002
  -1.9272194140043018E-002   5.6439436350932118E-003   6.2557684986345910E-002
  -1.8754102361644945E-002   5.5263577592308405E-003   6.3047389043418806E-002
  -2.7949916960862665E-002   7.4459369946519305E-003   6.1628825968026962E-002
  -2.7217513380218238E-002   7.5639881725862376E-003   6.1346404230717244E-002
  -2.6485109799573792E-002   7.5904285686161019E-003   6.1288697931457969E-002
  -2.5752706218929361E-002   7.5252581827414729E-003   6.1455707070249103E-002
  -2.5020302638284926E-002   7.3684770149624046E-003   6.1847431647090750E-002
   6.2081347007580945E-012  -7.9637407779387104E-012   6.6343381393972528E-002
   4.3382103465106070E-012  -6.9388383927559971E-012   6.6061776677426270E-002
   2.4682842575396435E-012  -4.3091225032654279E-012   6.5974349996231113E-002
   5.9835903593041806E-013  -7.4416167672453071E-014   6.6081101350387056E-002
  -1.2715661856788074E-012   5.7651661222735129E-012   6.6382030739894016E-002
  -6.2439510393984161E-003   1.8421192477677817E-003   6.5295363916859667E-002
  -6.0539302546345711E-003   1.7912187848071748E-003   6.5001931718609657E-002
  -5.8639094698707296E-003   1.7398106749575565E-003   6.4894363058276047E-002
  -5.6738886851068863E-003   1.6878949182187360E-003   6.4972657935858991E-002
  -5.4838679003430361E-003   1.6354715145908694E-003   6.5236816351358362E-002
  -1.2495318495349447E-002   3.6842385034993319E-003   6.4196699800008500E-002
  -1.2123591421386398E-002   3.5824375765533267E-003   6.3890932471560510E-002
  -1.1751864347423348E-002   3.4796213542241869E-003   6.3762714183594527E-002
  -1.1380137273460296E-002   3.3757898365119731E-003   6.3812044936110410E-002
  -1.1008410199497247E-002   3.2709430234165726E-003   6.4038924729108215E-002
  -1.8754102361644945E-002   5.5263577592308405E-003   6.3047389043418806E-002
  -1.8208983495917257E-002   5.3736563682993815E-003   6.2728778936278970E-002
  -1.7663864630189575E-002   5.2194320334907583E-003   6.2579403372186523E-002
  -1.7118745764461891E-002   5.0636847548051677E-003   6.2599262351141424E-002
  -1.6573626898734213E-002   4.9064145322422759E-003   6.2788355873143659E-002
  -2.5020302638284926E-002   7.3684770149624046E-003   6.1847431647090750E-002
  -2.4310106478227178E-002   7.1648751600455196E-003   6.1515471112765008E-002
  -2.3599910318169416E-002   6.9592427127574547E-003   6.1344430624052038E-002
  -2.2889714158111665E-002   6.7515796730983658E-003   6.1334310180951854E-002
  -2.2179517998053906E-002   6.5418860410679236E-003   6.1485109783464498E-002
  -1.2715661856788074E-012   5.7651661222735129E-012   6.6382030739894016E-002
  -1.0811213035921696E-012   1.0139250550267320E-011   6.6270789501843785E-002
  -8.9068336039943574E-013   9.9770192107939693E-012   6.6370436913094688E-002
  -7.0024368248322588E-013   5.2789161930633099E-012   6.6680972973646752E-002
  -5.0980053512006407E-013  -3.9555025921345077E-012   6.7202397683500004E-002
  -5.4838679003430361E-003   1.6354715145908694E-003   6.5236816351358362E-002
  -5.2670674410144336E-003   1.5801632709807334E-003   6.5088181504256604E-002
  -5.0502669816858328E-003   1.5195929942950770E-003   6.5162258926129993E-002
  -4.8334665223572311E-003   1.4537606845338655E-003   6.5459048616978460E-002
  -4.6166660630286224E-003   1.3826663416971474E-003   6.5978550576802242E-002
  -1.1008410199497247E-002   3.2709430234165726E-003   6.4038924729108215E-002
  -1.0562985661356487E-002   3.1603265318222024E-003   6.3847634244415488E-002
  -1.0117561123215714E-002   3.0391859786129127E-003   6.3890879648371895E-002
  -9.6721365850749481E-003   2.9075213637888148E-003   6.4168660940977520E-002
  -9.2267120469341820E-003   2.7653326873497419E-003   6.4680978122232335E-002
  -1.6573626898734213E-002   4.9064145322422759E-003   6.2788355873143659E-002
  -1.5887754662107272E-002   4.7404897926638448E-003   6.2549147722320536E-002
  -1.5201882425480333E-002   4.5587789629309428E-003   6.2556299079820660E-002
  -1.4516010188853391E-002   4.3612820430438751E-003   6.2809809945644002E-002
  -1.3830137952226446E-002   4.1479990330023087E-003   6.3309680319790534E-002
  -2.2179517998053906E-002   6.5418860410679236E-003   6.1485109783464498E-002
  -2.1241374443266792E-002   6.3206530535052097E-003   6.1192721937971761E-002
  -2.0303230888479681E-002   6.0783719472487507E-003   6.1158517220476133E-002
  -1.9365087333692584E-002   5.8150427222987827E-003   6.1382495630977668E-002
  -1.8426943778905462E-002   5.5306653786549864E-003   6.1864657169476478E-002
  -5.0980053512006407E-013  -3.9555025921345077E-012   6.7202397683500004E-002
   1.3578294738580965E-011  -1.4908851930783840E-011   6.6894299550775027E-002
   2.7666396951175898E-011  -2.4764079675776429E-011   6.6811011216948102E-002
   4.1754492224876927E-011  -3.3521185827112276E-011   6.6952532682019367E-002
   5.5842594437471860E-011  -4.1180059362488919E-011   6.7318863945988738E-002
  -4.6166660630286224E-003   1.3826663416971474E-003   6.5978550576802242E-002
  -4.4031820530904004E-003   1.3092463826342160E-003   6.5666052120503055E-002
  -4.1896980431521905E-003   1.2364372241941979E-003   6.5555711857005899E-002
  -3.9762140332139755E-003   1.1642388663772041E-003   6.5647529786310888E-002
  -3.7627300232757517E-003   1.0926513091833456E-003   6.5941505908417963E-002
  -9.2267120469341820E-003   2.7653326873497419E-003   6.4680978122232335E-002
  -8.8223956472418767E-003   2.6184927801771174E-003   6.4364690141883812E-002
  -8.4180792475495817E-003   2.4728744731525309E-003   6.4227908748241358E-002
  -8.0137628478572816E-003   2.3284777662756495E-003   6.4270633941304958E-002
  -7.6094464481649814E-003   2.1853026595468061E-003   6.4492865721074738E-002
  -1.3830137952226446E-002   4.1479990330023087E-003   6.3309680319790534E-002
  -1.3257640768876117E-002   3.9277391777202131E-003   6.2990213614917551E-002
  -1.2685143585525773E-002   3.7093117221109195E-003   6.2827601890654602E-002
  -1.2112646402175430E-002   3.4927166661741782E-003   6.2821845147001690E-002
  -1.1540149218825095E-002   3.2779540099102389E-003   6.2972943383958799E-002
  -1.8426943778905462E-002   5.5306653786549864E-003   6.1864657169476478E-002
  -1.7708917417993107E-002   5.2369855752630590E-003   6.1542622539604019E-002
  -1.6990891057080765E-002   4.9457489710691832E-003   6.1354791284245508E-002
  -1.6272864696168420E-002   4.6569555660723842E-003   6.1301163403400957E-002
  -1.5554838335256067E-002   4.3706053602737271E-003   6.1381738897070492E-002
   5.5842594437471860E-011  -4.1180059362488919E-011   6.7318863945988738E-002
   4.1669369343910745E-011  -1.0984269049885143E-011   6.7460185267772088E-002
   2.7496147719796582E-011   9.3823171454232579E-011   6.7768046366873225E-002
   1.3322931299852847E-011   2.7324198459410809E-010   6.8242447243292481E-002
  -8.5029205898479177E-013   5.2727244792549754E-010   6.8883387897029635E-002
  -3.7627300232757517E-003   1.0926513091833456E-003   6.5941505908417963E-002
  -3.5727048698668031E-003   1.0190302305300714E-003   6.6019987390229351E-002
  -3.3826797164578596E-003   9.4073130833466356E-004   6.6311979429887064E-002
  -3.1926545630489266E-003   8.5775454259721939E-004   6.6817482027391031E-002
  -3.0026294096399883E-003   7.7009993331800253E-004   6.7536495182741629E-002
  -7.6094464481649814E-003   2.1853026595468061E-003   6.4492865721074738E-002
  -7.1824253466454789E-003   2.0380604720441620E-003   6.4503829444760713E-002
  -6.7554042451259894E-003   1.8814625228461557E-003   6.4775274506821426E-002
  -6.3283831436065033E-003   1.7155088119524264E-003   6.5307200907256863E-002
  -5.9013620420869835E-003   1.5401993393635571E-003   6.6099608646067232E-002
  -1.1540149218825095E-002   3.2779540099102389E-003   6.2972943383958799E-002
  -1.0829161388666643E-002   3.0570907135582664E-003   6.2911711431366119E-002
  -1.0118173558508199E-002   2.8221937373574812E-003   6.3157931597676187E-002
  -9.4071857283497696E-003   2.5732630813077584E-003   6.3711603882889573E-002
  -8.6961978981912984E-003   2.3102987454091117E-003   6.4572728287006290E-002
  -1.5554838335256067E-002   4.3706053602737271E-003   6.1381738897070492E-002
  -1.4512912995930285E-002   4.0761209550725375E-003   6.1243633350045346E-002
  -1.3470987656604521E-002   3.7629249518692093E-003   6.1459950702451777E-002
  -1.2429062317278769E-002   3.4310173506628301E-003   6.2030690954289716E-002
  -1.1387136977952975E-002   3.0803981514546663E-003   6.2955854105559039E-002
  -2.6632585416079553E-002   0.0000000000000000        2.9469504990086208E-002
  -2.7233816558337266E-002   5.8560975744135352E-004   3.4947168644199895E-002
  -2.7835047700594983E-002   1.3191987864401827E-003   4.0116743213025004E-002
  -2.8436278842852696E-002   2.2007670869964822E-003   4.4978228696561540E-002
  -2.9037509985110406E-002   3.2303146591102609E-003   4.9531625094809476E-002
  -3.3392025974896156E-002   0.0000000000000000        3.0179568197936074E-002
  -3.4236155152648398E-002   9.6015143158798347E-004   3.5267986432540102E-002
  -3.5080284330400641E-002   2.0235931382776825E-003   4.0178697681443651E-002
  -3.5924413508152897E-002   3.1903251200690970E-003   4.4911701944646706E-002
  -3.6768542685905133E-002   4.4603473769622278E-003   4.9466999222149290E-002
  -4.0731537776346055E-002   0.0000000000000000        3.1286517578160457E-002
  -4.1688182890004741E-002   1.3346931057346134E-003   3.5941001396799073E-002
  -4.2644828003663426E-002   2.7279874901151848E-003   4.0548160329325296E-002
  -4.3601473117322105E-002   4.1798831531417117E-003   4.5107994375739126E-002
  -4.4558118230980791E-002   5.6903800948141983E-003   4.9620503536040583E-002
  -4.8651120820429258E-002   0.0000000000000000        3.2790353130759342E-002
  -4.9589899770406280E-002   1.7092347798812434E-003   3.6966213536976787E-002
  -5.0528678720383302E-002   3.4323818419526846E-003   4.1225131156669932E-002
  -5.1467457670360338E-002   5.1694411862143299E-003   4.5567105989838770E-002
  -5.2406236620337353E-002   6.9204128126661669E-003   4.9992138036483315E-002
  -5.7150775107145758E-002   0.0000000000000000        3.4691074855732744E-002
  -5.7941305793853023E-002   2.0837764540278733E-003   3.8343622853073259E-002
  -5.8731836480560309E-002   4.1367761937901888E-003   4.2209610163477566E-002
  -5.9522367167267588E-002   6.1589992192869411E-003   4.6289036786945681E-002
  -6.0312897853974867E-002   8.1504455305181356E-003   5.0581902723477581E-002
  -2.9037509985110406E-002   3.2303146591102609E-003   4.9531625094809476E-002
  -2.9109094732208990E-002   4.2484358029531754E-003   5.1591588604885136E-002
  -2.9180679479307584E-002   5.0957248186969785E-003   5.3750595223654482E-002
  -2.9252264226406168E-002   5.7721817063416210E-003   5.6008644951117577E-002
  -2.9323848973504756E-002   6.2778064658870966E-003   5.8365737787274365E-002
  -3.6768542685905133E-002   4.4603473769622278E-003   4.9466999222149290E-002
  -3.6779953446606437E-002   5.6936084981951633E-003   5.1255728428386937E-002
  -3.6791364207307747E-002   6.7500570730059748E-003   5.3065762498725445E-002
  -3.6802774968009051E-002   7.6296931013946825E-003   5.4897101433164813E-002
  -3.6814185728710341E-002   8.3325165833612325E-003   5.6749745231705020E-002
  -4.4558118230980791E-002   5.6903800948141983E-003   4.9620503536040583E-002
  -4.4587093249877682E-002   7.1387811934371260E-003   5.1132018020117270E-002
  -4.4616068268774553E-002   8.4043893273149702E-003   5.2587099123701957E-002
  -4.4645043287671445E-002   9.4872044964477483E-003   5.3985746846794622E-002
  -4.4674018306568329E-002   1.0387226700835427E-002   5.5327961189395265E-002
  -5.2406236620337353E-002   6.9204128126661669E-003   4.9992138036483315E-002
  -5.2530514142022693E-002   8.5839538886790957E-003   5.1220457380076113E-002
  -5.2654791663708039E-002   1.0058721581623981E-002   5.2314605098584023E-002
  -5.2779069185393372E-002   1.1344715891500825E-002   5.3274581192007057E-002
  -5.2903346707078698E-002   1.2441936818309593E-002   5.4100385660345175E-002
  -6.0312897853974867E-002   8.1504455305181356E-003   5.0581902723477581E-002
  -6.0610216123041516E-002   1.0029126583921074E-002   5.1521046508263467E-002
  -6.0907534392108165E-002   1.1713053835932973E-002   5.2248280423371631E-002
  -6.1204852661174827E-002   1.3202227286553892E-002   5.2763604468802010E-002
  -6.1502170930241469E-002   1.4496646935783772E-002   5.3067018644554695E-002
  -2.9323848973504756E-002   6.2778064658870966E-003   5.8365737787274365E-002
  -2.8980365970344233E-002   6.6659711455567955E-003   5.9130202853762984E-002
  -2.8636882967183707E-002   6.9900477935741692E-003   5.9928872572717964E-002
  -2.8293399964023188E-002   7.2500364099392142E-003   6.0761746944139293E-002
  -2.7949916960862665E-002   7.4459369946519305E-003   6.1628825968026962E-002
  -3.6814185728710341E-002   8.3325165833612325E-003   5.6749745231705020E-002
  -3.6384300847635893E-002   8.8745550780927850E-003   5.7092488971138666E-002
  -3.5954415966561425E-002   9.2718361447763631E-003   5.7573831813933836E-002
  -3.5524531085486956E-002   9.5243597834119530E-003   5.8193773760090522E-002
  -3.5094646204412508E-002   9.6321259939996517E-003   5.8952314809608782E-002
  -4.4674018306568329E-002   1.0387226700835427E-002   5.5327961189395265E-002
  -4.4053337096684748E-002   1.1083139010628788E-002   5.5168314205378335E-002
  -4.3432655886801168E-002   1.1553624495978531E-002   5.5251660775618112E-002
  -4.2811974676917608E-002   1.1798683156884706E-002   5.5578000900114596E-002
  -4.2191293467034020E-002   1.1818314993347304E-002   5.6147334578867746E-002
  -5.2903346707078698E-002   1.2441936818309593E-002   5.4100385660345175E-002
  -5.1987474717490857E-002   1.3291722943164764E-002   5.3357678556482019E-002
  -5.1071602727902989E-002   1.3835412847180739E-002   5.2962359457770752E-002
  -5.0155730738315134E-002   1.4073006530357439E-002   5.2914428364211341E-002
  -4.9239858748727272E-002   1.4004503992694976E-002   5.3213885275803847E-002
  -6.1502170930241469E-002   1.4496646935783772E-002   5.3067018644554695E-002
  -6.0186713710054150E-002   1.5500306875700788E-002   5.1660582024449689E-002
  -5.8871256489866852E-002   1.6117201198382915E-002   5.0705927860391763E-002
  -5.7555799269679520E-002   1.6347329903830185E-002   5.0203056152380909E-002
  -5.6240342049492215E-002   1.6190692992042677E-002   5.0151966900417039E-002
  -2.7949916960862665E-002   7.4459369946519305E-003   6.1628825968026962E-002
  -2.7217513380218238E-002   7.5639881725862376E-003   6.1346404230717244E-002
  -2.6485109799573792E-002   7.5904285686161019E-003   6.1288697931457969E-002
  -2.5752706218929361E-002   7.5252581827414729E-003   6.1455707070249103E-002
  -2.5020302638284926E-002   7.3684770149624046E-003   6.1847431647090750E-002
  -3.5094646204412508E-002   9.6321259939996517E-003   5.8952314809608782E-002
  -3.4144206583564110E-002   9.6341943863750418E-003   5.8632171160240373E-002
  -3.3193766962715726E-002   9.5696245703738997E-003   5.8523384153229455E-002
  -3.2243327341867349E-002   9.4384165459962636E-003   5.8625953788575942E-002
  -3.1292887721018944E-002   9.2405703132421579E-003   5.8939880066279926E-002
  -4.2191293467034020E-002   1.1818314993347304E-002   5.6147334578867746E-002
  -4.1036176601674690E-002   1.1704400600163836E-002   5.5814441590968600E-002
  -3.9881059736315339E-002   1.1548820572131756E-002   5.5679546449733941E-002
  -3.8725942870955980E-002   1.1351574909251153E-002   5.5742649155163734E-002
  -3.7570826005596657E-002   1.1112663611521939E-002   5.6003749707257994E-002
  -4.9239858748727272E-002   1.4004503992694976E-002   5.3213885275803847E-002
  -4.7893423434549928E-002   1.3774606813952634E-002   5.2893215522901910E-002
  -4.6546988120372591E-002   1.3528016573889612E-002   5.2757184820971463E-002
  -4.5200552806195268E-002   1.3264733272505923E-002   5.2805793170012515E-002
  -4.3854117492017924E-002   1.2984756909801748E-002   5.3039040570025120E-002
  -5.6240342049492215E-002   1.6190692992042677E-002   5.0151966900417039E-002
  -5.4715947082189881E-002   1.5844813027741426E-002   4.9868492956040317E-002
  -5.3191552114887554E-002   1.5507212575647390E-002   4.9756299266942028E-002
  -5.1667157147585199E-002   1.5177891635760868E-002   4.9815385833122332E-002
  -5.0142762180282865E-002   1.4856850208081501E-002   5.0045752654581083E-002
  -2.5020302638284926E-002   7.3684770149624046E-003   6.1847431647090750E-002
  -2.4310106478227178E-002   7.1648751600455196E-003   6.1515471112765008E-002
  -2.3599910318169416E-002   6.9592427127574547E-003   6.1344430624052038E-002
  -2.2889714158111665E-002   6.7515796730983658E-003   6.1334310180951854E-002
  -2.2179517998053906E-002   6.5418860410679236E-003   6.1485109783464498E-002
  -3.1292887721018944E-002   9.2405703132421579E-003   5.8939880066279926E-002
  -3.0414903852037031E-002   9.0027165388412433E-003   5.8601730259777801E-002
  -2.9536919983055101E-002   8.7514858895230280E-003   5.8438235825511178E-002
  -2.8658936114073174E-002   8.4868783652877790E-003   5.8449396763480189E-002
  -2.7780952245091257E-002   8.2088939661352778E-003   5.8635213073684744E-002
  -3.7570826005596657E-002   1.1112663611521939E-002   5.6003749707257994E-002
  -3.6511319101067759E-002   1.0840557917636898E-002   5.5648064346033449E-002
  -3.5451812196538868E-002   1.0543729066288678E-002   5.5480769683667240E-002
  -3.4392305292009984E-002   1.0222177057477190E-002   5.5501865720159346E-002
  -3.3332798387481100E-002   9.8759018912025487E-003   5.5711352455509761E-002
  -4.3854117492017924E-002   1.2984756909801748E-002   5.3039040570025120E-002
  -4.2599352225319319E-002   1.2678399296432587E-002   5.2654473371532118E-002
  -4.1344586958620720E-002   1.2335972243054234E-002   5.2472032198520195E-002
  -4.0089821691922101E-002   1.1957475749666630E-002   5.2491717050989359E-002
  -3.8835056425223509E-002   1.1542909816269778E-002   5.2713527928939685E-002
  -5.0142762180282865E-002   1.4856850208081501E-002   5.0045752654581083E-002
  -4.8679003224791753E-002   1.4516240675228304E-002   4.9620957336273530E-002
  -4.7215244269300634E-002   1.4128215419819866E-002   4.9412023370069932E-002
  -4.5751485313809515E-002   1.3692774441856062E-002   4.9418950755970130E-002
  -4.4287726358318388E-002   1.3209917741337118E-002   4.9641739493974379E-002
  -2.2179517998053906E-002   6.5418860410679236E-003   6.1485109783464498E-002
  -2.1241374443266792E-002   6.3206530535052097E-003   6.1192721937971761E-002
  -2.0303230888479681E-002   6.0783719472487507E-003   6.1158517220476133E-002
  -1.9365087333692584E-002   5.8150427222987827E-003   6.1382495630977668E-002
  -1.8426943778905462E-002   5.5306653786549864E-003   6.1864657169476478E-002
  -2.7780952245091257E-002   8.2088939661352778E-003   5.8635213073684744E-002
  -2.6593666868779425E-002   7.9159557220728483E-003   5.8364582559568778E-002
  -2.5406381492467617E-002   7.6064866631078004E-003   5.8334052560505001E-002
  -2.4219096116155817E-002   7.2804867892400892E-003   5.8543623076493551E-002
  -2.3031810739844002E-002   6.9379561004695445E-003   5.8993294107534205E-002
  -3.3332798387481100E-002   9.8759018912025487E-003   5.5711352455509761E-002
  -3.1914453802589546E-002   9.5112583906404036E-003   5.5466996576561706E-002
  -3.0496109217697985E-002   9.1346013789667391E-003   5.5444658599720878E-002
  -2.9077764632806400E-002   8.7459308561812846E-003   5.5644338524987361E-002
  -2.7659420047914867E-002   8.3452468222842691E-003   5.6066036352361084E-002
  -3.8835056425223509E-002   1.1542909816269778E-002   5.2713527928939685E-002
  -3.7203735244697146E-002   1.1106561059208056E-002   5.2499963988950474E-002
  -3.5572414064170770E-002   1.0662716094825567E-002   5.2490335338123473E-002
  -3.3941092883644407E-002   1.0211374923122536E-002   5.2684641976458835E-002
  -3.2309771703118016E-002   9.7525375440989381E-003   5.3082883903956504E-002
  -4.4287726358318388E-002   1.3209917741337118E-002   4.9641739493974379E-002
  -4.2461511195102178E-002   1.2701863727775597E-002   4.9463484796735013E-002
  -4.0635296031885974E-002   1.2190830810684686E-002   4.9471082775712993E-002
  -3.8809080868669785E-002   1.1676818990063859E-002   4.9664533430908361E-002
  -3.6982865705453546E-002   1.1159828265913552E-002   5.0043836762320992E-002
  -1.8426943778905462E-002   5.5306653786549864E-003   6.1864657169476478E-002
  -1.7708917417993107E-002   5.2369855752630590E-003   6.1542622539604019E-002
  -1.6990891057080765E-002   4.9457489710691832E-003   6.1354791284245508E-002
  -1.6272864696168420E-002   4.6569555660723842E-003   6.1301163403400957E-002
  -1.5554838335256067E-002   4.3706053602737271E-003   6.1381738897070492E-002
  -2.3031810739844002E-002   6.9379561004695445E-003   5.8993294107534205E-002
  -2.2170332536709476E-002   6.5870043129419575E-003   5.8658831506530618E-002
  -2.1308854333574927E-002   6.2357411428025922E-003   5.8477069215457297E-002
  -2.0447376130440367E-002   5.8841665900510667E-003   5.8448007234314460E-002
  -1.9585897927305845E-002   5.5322806546880821E-003   5.8571645563101904E-002
  -2.7659420047914867E-002   8.3452468222842691E-003   5.6066036352361084E-002
  -2.6635993067141733E-002   7.9370230506207590E-003   5.5716391198416662E-002
  -2.5612566086368610E-002   7.5257333145360081E-003   5.5537943289819112E-002
  -2.4589139105595518E-002   7.1113776140297510E-003   5.5530692626568179E-002
  -2.3565712124822384E-002   6.6939559491024092E-003   5.5694639208664257E-002
  -3.2309771703118016E-002   9.7525375440989381E-003   5.3082883903956504E-002
  -3.1105899009289929E-002   9.2870417882994424E-003   5.2715301615262049E-002
  -2.9902026315461832E-002   8.8157254862694760E-003   5.2537413507330814E-002
  -2.8698153621633738E-002   8.3385886380084352E-003   5.2549219580162662E-002
  -2.7494280927805648E-002   7.8556312435167502E-003   5.2750719833757745E-002
  -3.6982865705453546E-002   1.1159828265913552E-002   5.0043836762320992E-002
  -3.5580050363154064E-002   1.0637060525978431E-002   4.9655562757066951E-002
  -3.4177235020854603E-002   1.0105717658002861E-002   4.9475479867992389E-002
  -3.2774419678555128E-002   9.5657996619870414E-003   4.9503588095097389E-002
  -3.1371604336255646E-002   9.0173065379310913E-003   4.9739887438381980E-002
  -1.5554838335256067E-002   4.3706053602737271E-003   6.1381738897070492E-002
  -1.4512912995930285E-002   4.0761209550725375E-003   6.1243633350045346E-002
  -1.3470987656604521E-002   3.7629249518692093E-003   6.1459950702451777E-002
  -1.2429062317278769E-002   3.4310173506628301E-003   6.2030690954289716E-002
  -1.1387136977952975E-002   3.0803981514546663E-003   6.2955854105559039E-002
  -1.9585897927305845E-002   5.5322806546880821E-003   5.8571645563101904E-002
  -1.8222176119152250E-002   5.1712940616851777E-003   5.8433858214671203E-002
  -1.6858454310998652E-002   4.7924175360145038E-003   5.8585240904464708E-002
  -1.5494732502845086E-002   4.3956510776757413E-003   5.9025793632482129E-002
  -1.4131010694691457E-002   3.9809946866694590E-003   5.9755516398723896E-002
  -2.3565712124822384E-002   6.6939559491024092E-003   5.5694639208664257E-002
  -2.1945446709048383E-002   6.2664671682977902E-003   5.5557991724162592E-002
  -2.0325181293274357E-002   5.8219101201600135E-003   5.5645261416677631E-002
  -1.8704915877500346E-002   5.3602848046887339E-003   5.5956448286209312E-002
  -1.7084650461726331E-002   4.8815912218842517E-003   5.6491552332757877E-002
  -2.7494280927805648E-002   7.8556312435167502E-003   5.2750719833757745E-002
  -2.5682724765618576E-002   7.3616402749104165E-003   5.2616033878519569E-002
  -2.3871168603431570E-002   6.8514027043053601E-003   5.2640012239090782E-002
  -2.2059612441244530E-002   6.3249185317015193E-003   5.2822654915471411E-002
  -2.0248056279057493E-002   5.7821877570990443E-003   5.3163961907661067E-002
  -3.1371604336255646E-002   9.0173065379310913E-003   4.9739887438381980E-002
  -2.9434010288862986E-002   8.4568133815231539E-003   4.9607984677742023E-002
  -2.7496416241470333E-002   7.8808952884510397E-003   4.9569493371703910E-002
  -2.5558822194077718E-002   7.2895522587145545E-003   4.9624413520267724E-002
  -2.3621228146685047E-002   6.6827842923138370E-003   4.9772745123433548E-002
  -5.7150775107145758E-002   0.0000000000000000        3.4691074855732744E-002
  -5.7941305793853023E-002   2.0837764540278733E-003   3.8343622853073259E-002
  -5.8731836480560309E-002   4.1367761937901888E-003   4.2209610163477566E-002
  -5.9522367167267588E-002   6.1589992192869411E-003   4.6289036786945681E-002
  -6.0312897853974867E-002   8.1504455305181356E-003   5.0581902723477581E-002
  -6.5818758775851569E-002   0.0000000000000000        3.7211951058467835E-002
  -6.6624829244280093E-002   2.9138464269758387E-003   4.0834802915211507E-002
  -6.7430899712708658E-002   5.7702105192842783E-003   4.4213135895448827E-002
  -6.8236970181137183E-002   8.5690922769253199E-003   4.7346949999179856E-002
  -6.9043040649565721E-002   1.1310491699898968E-002   5.0236245226404533E-002
  -7.4243329965902674E-002   0.0000000000000000        4.0576250044351815E-002
  -7.5522898405622610E-002   3.7439163999238058E-003   4.4142700140096795E-002
  -7.6802466845342532E-002   7.4036448447783740E-003   4.7006673169765305E-002
  -7.8082035285062454E-002   1.0979185334563702E-002   4.9168169133357385E-002
  -7.9361603724782376E-002   1.4470537869279800E-002   5.0627188030873002E-002
  -8.2424488677299096E-002   0.0000000000000000        4.4783971813384678E-002
  -8.4635513277880534E-002   4.5739863728717720E-003   4.8267314527729137E-002
  -8.6846537878461985E-002   9.0370791702724662E-003   5.0590221986427007E-002
  -8.9057562479043423E-002   1.3389278392202088E-002   5.1752694189478310E-002
  -9.1268587079624861E-002   1.7630584038660621E-002   5.1754731136883017E-002
  -9.0362234910040820E-002   0.0000000000000000        4.9835116365566437E-002
  -9.3962673861053891E-002   5.4040563458197383E-003   5.3208646078108518E-002
  -9.7563112812066977E-002   1.0670513495766559E-002   5.4963782345433899E-002
 -0.10116355176308006        1.5799371449840463E-002   5.5100525167542574E-002
 -0.10476399071409313        2.0790630208041460E-002   5.3618874544434550E-002
  -6.0312897853974867E-002   8.1504455305181356E-003   5.0581902723477581E-002
  -6.0610216123041516E-002   1.0029126583921074E-002   5.1521046508263467E-002
  -6.0907534392108165E-002   1.1713053835932973E-002   5.2248280423371631E-002
  -6.1204852661174827E-002   1.3202227286553892E-002   5.2763604468802010E-002
  -6.1502170930241469E-002   1.4496646935783772E-002   5.3067018644554695E-002
  -6.9043040649565721E-002   1.1310491699898968E-002   5.0236245226404533E-002
  -6.9314684636504365E-002   1.3754734955827411E-002   4.9458760982963361E-002
  -6.9586328623443008E-002   1.5662148212332812E-002   4.8944535173455955E-002
  -6.9857972610381666E-002   1.7032731469415200E-002   4.8693567797882288E-002
  -7.0129616597320324E-002   1.7866484727074569E-002   4.8705858856242394E-002
  -7.9361603724782376E-002   1.4470537869279800E-002   5.0627188030873002E-002
  -7.9132405125981534E-002   1.7480343327733759E-002   4.7790999561172748E-002
  -7.8903206527180678E-002   1.9611242588732654E-002   4.5693237829017755E-002
  -7.8674007928379808E-002   2.0863235652276511E-002   4.4333902834408016E-002
  -7.8444809329578993E-002   2.1236322518365332E-002   4.3712994577343539E-002
  -9.1268587079624861E-002   1.7630584038660621E-002   5.1754731136883017E-002
  -9.0063377591472982E-002   2.1205951699640086E-002   4.6517762242891655E-002
  -8.8858168103321117E-002   2.3560336965132492E-002   4.2494388390057050E-002
  -8.7652958615169252E-002   2.4693739835137830E-002   3.9684609578379222E-002
  -8.6447749127017387E-002   2.4606160309656098E-002   3.8088425807858151E-002
 -0.10476399071409313        2.0790630208041460E-002   5.3618874544434550E-002
 -0.10210760203297875        2.4931560071546448E-002   4.5639049028120063E-002
  -9.9451213351864354E-002   2.7509431341532348E-002   3.9347986856573834E-002
  -9.6794824670749971E-002   2.8524244017999131E-002   3.4745688029795871E-002
  -9.4138435989635588E-002   2.7975998100946885E-002   3.1832152547786173E-002
  -6.1502170930241469E-002   1.4496646935783772E-002   5.3067018644554695E-002
  -6.0186713710054150E-002   1.5500306875700788E-002   5.1660582024449689E-002
  -5.8871256489866852E-002   1.6117201198382915E-002   5.0705927860391763E-002
  -5.7555799269679520E-002   1.6347329903830185E-002   5.0203056152380909E-002
  -5.6240342049492215E-002   1.6190692992042677E-002   5.0151966900417039E-002
  -7.0129616597320324E-002   1.7866484727074569E-002   4.8705858856242394E-002
  -6.8408836430954481E-002   1.8320695788521729E-002   4.7260705655971055E-002
  -6.6688056264588638E-002   1.8552652456967546E-002   4.6174415892009713E-002
  -6.4967276098222781E-002   1.8562354732411985E-002   4.5446989564358387E-002
  -6.3246495931856953E-002   1.8349802614855110E-002   4.5078426673017112E-002
  -7.8444809329578993E-002   2.1236322518365332E-002   4.3712994577343539E-002
  -7.6411625236771599E-002   2.1141084701342686E-002   4.2393636021139269E-002
  -7.4378441143964247E-002   2.0988103715552167E-002   4.1340221881508044E-002
  -7.2345257051156853E-002   2.0777379560993785E-002   4.0552752158449792E-002
  -7.0312072958349500E-002   2.0508912237667543E-002   4.0031226851964509E-002
  -8.6447749127017387E-002   2.4606160309656098E-002   3.8088425807858151E-002
  -8.4195080127505526E-002   2.3961473614163634E-002   3.7059373119954463E-002
  -8.1942411127993678E-002   2.3423554974136798E-002   3.6203345828886783E-002
  -7.9689742128481830E-002   2.2992404389575543E-002   3.5520343934655037E-002
  -7.7437073128969969E-002   2.2668021860479920E-002   3.5010367437259403E-002
  -9.4138435989635588E-002   2.7975998100946885E-002   3.1832152547786173E-002
  -9.1759201103156260E-002   2.6781862526984591E-002   3.1257916952416580E-002
  -8.9379966216676932E-002   2.5859006232721402E-002   3.0763787734145929E-002
  -8.7000731330197589E-002   2.5207429218157360E-002   3.0349764892974224E-002
  -8.4621496443718275E-002   2.4827131483292394E-002   3.0015848428901495E-002
  -5.6240342049492215E-002   1.6190692992042677E-002   5.0151966900417039E-002
  -5.4715947082189881E-002   1.5844813027741426E-002   4.9868492956040317E-002
  -5.3191552114887554E-002   1.5507212575647390E-002   4.9756299266942028E-002
  -5.1667157147585199E-002   1.5177891635760868E-002   4.9815385833122332E-002
  -5.0142762180282865E-002   1.4856850208081501E-002   5.0045752654581083E-002
  -6.3246495931856953E-002   1.8349802614855110E-002   4.5078426673017112E-002
  -6.1536708975473142E-002   1.8010776852601593E-002   4.4738434626223109E-002
  -5.9826922019089353E-002   1.7641058193955922E-002   4.4597946302313535E-002
  -5.8117135062705542E-002   1.7240646638918437E-002   4.4656961701288349E-002
  -5.6407348106321753E-002   1.6809542187488813E-002   4.4915480823147585E-002
  -7.0312072958349500E-002   2.0508912237667543E-002   4.0031226851964509E-002
  -6.8388670545278377E-002   2.0176740677461665E-002   3.9595744294153919E-002
  -6.6465268132207156E-002   1.9774903812264478E-002   3.9387988926833734E-002
  -6.4541865719135963E-002   1.9303401642075963E-002   3.9407960750003808E-002
  -6.2618463306064770E-002   1.8762234166896111E-002   3.9655659763664315E-002
  -7.7437073128969969E-002   2.2668021860479920E-002   3.5010367437259403E-002
  -7.5271831791605501E-002   2.2342704502321772E-002   3.4440421959832920E-002
  -7.3106590454241033E-002   2.1908749430572992E-002   3.4126427140502617E-002
  -7.0941349116876537E-002   2.1366156645233527E-002   3.4068382979268653E-002
  -6.8776107779512097E-002   2.0714926146303415E-002   3.4266289476130925E-002
  -8.4621496443718275E-002   2.4827131483292394E-002   3.0015848428901495E-002
  -8.2186192714454598E-002   2.4508668327181932E-002   2.9272467623259829E-002
  -7.9750888985190907E-002   2.4042595048881555E-002   2.8813260943320269E-002
  -7.7315585255927244E-002   2.3428911648391056E-002   2.8638228389082875E-002
  -7.4880281526663539E-002   2.2667618125710692E-002   2.8747369960547747E-002
  -5.0142762180282865E-002   1.4856850208081501E-002   5.0045752654581083E-002
  -4.8679003224791753E-002   1.4516240675228304E-002   4.9620957336273530E-002
  -4.7215244269300634E-002   1.4128215419819866E-002   4.9412023370069932E-002
  -4.5751485313809515E-002   1.3692774441856062E-002   4.9418950755970130E-002
  -4.4287726358318388E-002   1.3209917741337118E-002   4.9641739493974379E-002
  -5.6407348106321753E-002   1.6809542187488813E-002   4.4915480823147585E-002
  -5.4737644794827171E-002   1.6350560764317706E-002   4.4498000850212355E-002
  -5.3067941483332590E-002   1.5866518294055693E-002   4.4276548237180066E-002
  -5.1398238171838022E-002   1.5357414776702570E-002   4.4251122984050796E-002
  -4.9728534860343454E-002   1.4823250212258388E-002   4.4421725090824593E-002
  -6.2618463306064770E-002   1.8762234166896111E-002   3.9655659763664315E-002
  -6.0762649630767718E-002   1.8184880853407179E-002   3.9267849811565461E-002
  -5.8906835955470582E-002   1.7604821168291523E-002   3.9056233227168641E-002
  -5.7051022280173454E-002   1.7022055111548997E-002   3.9020810010474041E-002
  -5.5195208604876325E-002   1.6436582683179685E-002   3.9161580161481441E-002
  -6.8776107779512097E-002   2.0714926146303415E-002   3.4266289476130925E-002
  -6.6754017732613288E-002   2.0019200942496672E-002   3.3930504220332815E-002
  -6.4731927685714508E-002   1.9343124042527297E-002   3.3751078340035823E-002
  -6.2709837638815699E-002   1.8686695446395434E-002   3.3728011835240046E-002
  -6.0687747591916898E-002   1.8049915154101051E-002   3.3861304705945505E-002
  -7.4880281526663539E-002   2.2667618125710692E-002   2.8747369960547747E-002
  -7.2711749100364029E-002   2.1853521031586109E-002   2.8485964076514408E-002
  -7.0543216674064463E-002   2.1081426916763214E-002   2.8361083575781459E-002
  -6.8374684247764925E-002   2.0351335781241910E-002   2.8372728458348796E-002
  -6.6206151821465387E-002   1.9663247625022306E-002   2.8520898724216426E-002
  -4.4287726358318388E-002   1.3209917741337118E-002   4.9641739493974379E-002
  -4.2461511195102178E-002   1.2701863727775597E-002   4.9463484796735013E-002
  -4.0635296031885974E-002   1.2190830810684686E-002   4.9471082775712993E-002
  -3.8809080868669785E-002   1.1676818990063859E-002   4.9664533430908361E-002
  -3.6982865705453546E-002   1.1159828265913552E-002   5.0043836762320992E-002
  -4.9728534860343454E-002   1.4823250212258388E-002   4.4421725090824593E-002
  -4.7710255667590969E-002   1.4273255685365013E-002   4.4219027613727632E-002
  -4.5691976474838483E-002   1.3716662280663872E-002   4.4214605519485917E-002
  -4.3673697282086012E-002   1.3153469998155365E-002   4.4408458808099266E-002
  -4.1655418089333561E-002   1.2583678837839174E-002   4.4800587479567916E-002
  -5.5195208604876325E-002   1.6436582683179685E-002   3.9161580161481441E-002
  -5.2972442675949763E-002   1.5844647642954235E-002   3.8930819930249147E-002
  -5.0749676747023229E-002   1.5242493750643273E-002   3.8910757788509824E-002
  -4.8526910818096611E-002   1.4630121006246758E-002   3.9101393736263576E-002
  -4.6304144889170062E-002   1.4007529409764741E-002   3.9502727773510132E-002
  -6.0687747591916898E-002   1.8049915154101051E-002   3.3861304705945505E-002
  -5.8248072220178512E-002   1.7416039600543526E-002   3.3598861746299745E-002
  -5.5808396848440051E-002   1.6768325220622510E-002   3.3559539582784986E-002
  -5.3368721476701630E-002   1.6106772014338206E-002   3.3743338215400764E-002
  -5.0929046104963155E-002   1.5431379981690391E-002   3.4150257644147405E-002
  -6.6206151821465387E-002   1.9663247625022306E-002   2.8520898724216426E-002
  -6.3537144300277210E-002   1.8987431558132817E-002   2.8223153061879447E-002
  -6.0868136779089116E-002   1.8294156690602012E-002   2.8160950902311022E-002
  -5.8199129257900967E-002   1.7583423022429528E-002   2.8334292245511192E-002
  -5.5530121736712845E-002   1.6855230553615930E-002   2.8743177091479999E-002
  -3.6982865705453546E-002   1.1159828265913552E-002   5.0043836762320992E-002
  -3.5580050363154064E-002   1.0637060525978431E-002   4.9655562757066951E-002
  -3.4177235020854603E-002   1.0105717658002861E-002   4.9475479867992389E-002
  -3.2774419678555128E-002   9.5657996619870414E-003   4.9503588095097389E-002
  -3.1371604336255646E-002   9.0173065379310913E-003   4.9739887438381980E-002
  -4.1655418089333561E-002   1.2583678837839174E-002   4.4800587479567916E-002
  -4.0059513376587801E-002   1.2008536951150395E-002   4.4414698461134855E-002
  -3.8463608663842047E-002   1.1429292489523513E-002   4.4206797067414691E-002
  -3.6867703951096335E-002   1.0845945452958777E-002   4.4176883298407570E-002
  -3.5271799238350582E-002   1.0258495841456328E-002   4.4324957154113331E-002
  -4.6304144889170062E-002   1.4007529409764741E-002   3.9502727773510132E-002
  -4.4545354297444738E-002   1.3380013376322317E-002   3.9123696295000426E-002
  -4.2786563705719365E-002   1.2752867321044206E-002   3.8892448949737118E-002
  -4.1027773113993977E-002   1.2126091243930676E-002   3.8808985737720007E-002
  -3.9268982522268611E-002   1.1499685144981564E-002   3.8873306658949197E-002
  -5.0929046104963155E-002   1.5431379981690391E-002   3.4150257644147405E-002
  -4.9037573125724841E-002   1.4751489801494232E-002   3.3782556258663519E-002
  -4.7146100146486500E-002   1.4076442152564879E-002   3.3532435514959366E-002
  -4.5254627167248193E-002   1.3406237034902494E-002   3.3399895413034737E-002
  -4.3363154188009838E-002   1.2740874448506578E-002   3.3384935952889841E-002
  -5.5530121736712845E-002   1.6855230553615930E-002   2.8743177091479999E-002
  -5.3536169861428173E-002   1.6122966226666258E-002   2.8391278352124238E-002
  -5.1542217986143501E-002   1.5400016984085579E-002   2.8126756763081545E-002
  -4.9548266110858885E-002   1.4686382825874207E-002   2.7949612324351641E-002
  -4.7554314235574158E-002   1.3982063752031926E-002   2.7859845035934860E-002
  -3.1371604336255646E-002   9.0173065379310913E-003   4.9739887438381980E-002
  -2.9434010288862986E-002   8.4568133815231539E-003   4.9607984677742023E-002
  -2.7496416241470333E-002   7.8808952884510397E-003   4.9569493371703910E-002
  -2.5558822194077718E-002   7.2895522587145545E-003   4.9624413520267724E-002
  -2.3621228146685047E-002   6.6827842923138370E-003   4.9772745123433548E-002
  -3.5271799238350582E-002   1.0258495841456328E-002   4.4324957154113331E-002
  -3.3212709375347316E-002   9.6596150046987517E-003   4.4107057966540714E-002
  -3.1153619512344063E-002   9.0419742923687207E-003   4.4038738955587381E-002
  -2.9094529649340770E-002   8.4055737044662002E-003   4.4120000121253153E-002
  -2.7035439786337545E-002   7.7504132409913495E-003   4.4350841463538737E-002
  -3.9268982522268611E-002   1.1499685144981564E-002   3.8873306658949197E-002
  -3.7032228121637367E-002   1.0862416627874405E-002   3.8566076105535557E-002
  -3.4795473721005991E-002   1.0203053296286568E-002   3.8464594450758838E-002
  -3.2558719320374706E-002   9.5215951502180679E-003   3.8568861694618720E-002
  -3.0321964919743330E-002   8.8180421896688621E-003   3.8878877837115411E-002
  -4.3363154188009838E-002   1.2740874448506578E-002   3.3384935952889841E-002
  -4.0892566527733078E-002   1.2065218251050031E-002   3.2985039094726949E-002
  -3.8421978867456283E-002   1.1364132300204333E-002   3.2847059857218447E-002
  -3.5951391207179557E-002   1.0637616595969880E-002   3.2970998240363737E-002
  -3.3480803546902679E-002   9.8856711383463747E-003   3.3356854244163694E-002
  -4.7554314235574158E-002   1.3982063752031926E-002   2.7859845035934860E-002
  -4.4793724593634510E-002   1.3268019874225601E-002   2.7363946934114702E-002
  -4.2033134951694889E-002   1.2525211304122263E-002   2.7186135174965931E-002
  -3.9272545309755144E-002   1.1753638041721651E-002   2.7326409758488768E-002
  -3.6511955667815454E-002   1.0953300087023887E-002   2.7784770684683435E-002
  -9.0362234910040820E-002   0.0000000000000000        4.9835116365566437E-002
  -9.3962673861053891E-002   5.4040563458197383E-003   5.3208646078108518E-002
  -9.7563112812066977E-002   1.0670513495766559E-002   5.4963782345433899E-002
 -0.10116355176308006        1.5799371449840463E-002   5.5100525167542574E-002
 -0.10476399071409313        2.0790630208041460E-002   5.3618874544434550E-002
 -0.10329425564034347        0.0000000000000000        5.8663106406135292E-002
 -0.10683175641106525        1.0884657469866599E-002   5.2118740004957469E-002
 -0.11036925718178704        1.9172381604703366E-002   4.7318643409578941E-002
 -0.11390675795250885        2.4863172404510293E-002   4.4262816619999666E-002
 -0.11744425872323058        2.7957029869287393E-002   4.2951259636219714E-002
 -0.12645823784442264        0.0000000000000000        7.4201364640329462E-002
 -0.12657013718383711        1.6365258593913461E-002   5.5279767986274819E-002
 -0.12668203652325163        2.7674249713640155E-002   4.1465104389035445E-002
 -0.12679393586266616        3.3926973359180115E-002   3.2757373848611354E-002
 -0.12690583520208062        3.5123429530533302E-002   2.9156576365002528E-002
 -0.15985418152227832        0.0000000000000000        9.6449891068148941E-002
 -0.15317781617936957        2.1845859717960311E-002   6.2691730022060577E-002
 -0.14650145083646082        3.6176117822576959E-002   3.7403165283803434E-002
 -0.13982508549355205        4.2990774313849948E-002   2.0584196853377597E-002
 -0.13314872015064327        4.2289829191779267E-002   1.2234824730782983E-002
 -0.20348208667391054        0.0000000000000000       0.12540868568959376     
 -0.18665479339766250        2.7326460842007176E-002   7.4354626112314720E-002
 -0.16982750012141451        4.4677985931513765E-002   3.5132826093882949E-002
 -0.15300020684516652        5.2054575268519775E-002   7.7432856342983664E-003
 -0.13617291356891847        4.9456228853025176E-002  -7.8139952664389029E-003
 -0.10476399071409313        2.0790630208041460E-002   5.3618874544434550E-002
 -0.10210760203297875        2.4931560071546448E-002   4.5639049028120063E-002
  -9.9451213351864354E-002   2.7509431341532348E-002   3.9347986856573834E-002
  -9.6794824670749971E-002   2.8524244017999131E-002   3.4745688029795871E-002
  -9.4138435989635588E-002   2.7975998100946885E-002   3.1832152547786173E-002
 -0.11744425872323058        2.7957029869287393E-002   4.2951259636219714E-002
 -0.11348659158859579        2.9428676888130650E-002   3.6697367683766344E-002
 -0.10952892445396095        3.0252836350136099E-002   3.1357269293585580E-002
 -0.10557125731932615        3.0429508255303699E-002   2.6930964465677432E-002
 -0.10161359018469129        2.9958692603633479E-002   2.3418453200041843E-002
 -0.12690583520208062        3.5123429530533302E-002   2.9156576365002528E-002
 -0.12242185939642108        3.3925793704714879E-002   2.5544189013091530E-002
 -0.11793788359076146        3.2996241358739839E-002   2.2070625440957514E-002
 -0.11345390778510191        3.2334772492608244E-002   1.8735885648600369E-002
 -0.10896993197944228        3.1941387106320093E-002   1.5539969636020263E-002
 -0.13314872015064327        4.2289829191779267E-002   1.2234824730782983E-002
 -0.12891340545645461        3.8422910521299050E-002   1.2179513016095650E-002
 -0.12467809076226591        3.5739646367343600E-002   1.1488055298689613E-002
 -0.12044277606807716        3.4240036729912833E-002   1.0160451578564829E-002
 -0.11620746137388849        3.3924081609006729E-002   8.1967018557212654E-003
 -0.13617291356891847        4.9456228853025176E-002  -7.8139952664389029E-003
 -0.13296122976869634        4.2920027337883276E-002  -3.3966603072213275E-003
 -0.12974954596847421        3.8483051375947319E-002  -3.9044113321815357E-004
 -0.12653786216825208        3.6145300967217325E-002   1.2046622555706770E-003
 -0.12332617836802995        3.5906776111693323E-002   1.3886498591450525E-003
  -9.4138435989635588E-002   2.7975998100946885E-002   3.1832152547786173E-002
  -9.1759201103156260E-002   2.6781862526984591E-002   3.1257916952416580E-002
  -8.9379966216676932E-002   2.5859006232721402E-002   3.0763787734145929E-002
  -8.7000731330197589E-002   2.5207429218157360E-002   3.0349764892974224E-002
  -8.4621496443718275E-002   2.4827131483292394E-002   3.0015848428901495E-002
 -0.10161359018469129        2.9958692603633479E-002   2.3418453200041843E-002
  -9.9140999936281046E-002   2.9188644687825345E-002   2.3136430143939547E-002
  -9.6668409687870813E-002   2.8467619800579311E-002   2.2961011434600085E-002
  -9.4195819439460565E-002   2.7795617941895261E-002   2.2892197072023550E-002
  -9.1723229191050276E-002   2.7172639111773284E-002   2.2929987056209925E-002
 -0.10896993197944228        3.1941387106320093E-002   1.5539969636020263E-002
 -0.10637748839943714        3.1595426848666147E-002   1.5327902868048129E-002
 -0.10378504481943207        3.1076233368437227E-002   1.5248938416502794E-002
 -0.10119260123942696        3.0383806665633162E-002   1.5303076281384356E-002
  -9.8600157659421844E-002   2.9518146740254235E-002   1.5490316462692718E-002
 -0.11620746137388849        3.3924081609006729E-002   8.1967018557212654E-003
 -0.11346866649262463        3.4002209009506901E-002   7.8323351247423702E-003
 -0.11072987161136071        3.3684846936295053E-002   7.6275686798541898E-003
 -0.10799107673009685        3.2971995389371088E-002   7.5824025210567006E-003
 -0.10525228184883297        3.1863654368735145E-002   7.6968366483500762E-003
 -0.12332617836802995        3.5906776111693323E-002   1.3886498591450525E-003
 -0.12041453421584336        3.6408991170347696E-002   6.4972691402226390E-004
 -0.11750289006365680        3.6293460504153031E-002   9.6902224653999669E-005
 -0.11459124591147020        3.5560184113109010E-002  -2.6982420895948350E-004
 -0.11167960175928365        3.4209161997216075E-002  -4.5045238681817867E-004
  -8.4621496443718275E-002   2.4827131483292394E-002   3.0015848428901495E-002
  -8.2186192714454598E-002   2.4508668327181932E-002   2.9272467623259829E-002
  -7.9750888985190907E-002   2.4042595048881555E-002   2.8813260943320269E-002
  -7.7315585255927244E-002   2.3428911648391056E-002   2.8638228389082875E-002
  -7.4880281526663539E-002   2.2667618125710692E-002   2.8747369960547747E-002
  -9.1723229191050276E-002   2.7172639111773284E-002   2.2929987056209925E-002
  -8.9030352317223505E-002   2.6551101252009039E-002   2.2287933943371301E-002
  -8.6337475443396719E-002   2.5883422304398267E-002   2.1876852993956766E-002
  -8.3644598569569920E-002   2.5169602268940897E-002   2.1696744207966183E-002
  -8.0951721695743162E-002   2.4409641145637040E-002   2.1747607585399731E-002
  -9.8600157659421844E-002   2.9518146740254235E-002   1.5490316462692718E-002
  -9.5702909603310099E-002   2.8593534176836147E-002   1.5051060077000633E-002
  -9.2805661547198326E-002   2.7724249559915003E-002   1.4789573892454581E-002
  -8.9908413491086567E-002   2.6910292889490650E-002   1.4705857909054255E-002
  -8.7011165434974794E-002   2.6151664165563290E-002   1.4799912126799923E-002
 -0.10525228184883297        3.1863654368735145E-002   7.6968366483500762E-003
 -0.10220386457271440        3.0635967101663268E-002   7.5618460241479914E-003
  -9.9155447296595783E-002   2.9565076815431714E-002   7.5514236388134898E-003
  -9.6107030020477158E-002   2.8650983510040556E-002   7.6655694923470812E-003
  -9.3058612744358615E-002   2.7893687185489534E-002   7.9042835847483572E-003
 -0.11167960175928365        3.4209161997216075E-002  -4.5045238681817867E-004
 -0.10853321722543635        3.2678400026490362E-002  -1.7970821518692448E-004
 -0.10538683269158902        3.1405904070948482E-002   1.6240223303409795E-004
 -0.10224044815774173        3.0391674130590247E-002   5.7587895784466658E-004
  -9.9094063623894391E-002   2.9635710205415833E-002   1.0607219592451145E-003
  -7.4880281526663539E-002   2.2667618125710692E-002   2.8747369960547747E-002
  -7.2711749100364029E-002   2.1853521031586109E-002   2.8485964076514408E-002
  -7.0543216674064463E-002   2.1081426916763214E-002   2.8361083575781459E-002
  -6.8374684247764925E-002   2.0351335781241910E-002   2.8372728458348796E-002
  -6.6206151821465387E-002   1.9663247625022306E-002   2.8520898724216426E-002
  -8.0951721695743162E-002   2.4409641145637040E-002   2.1747607585399731E-002
  -7.8643386202885038E-002   2.3628882146503841E-002   2.1524749972217372E-002
  -7.6335050710026997E-002   2.2852668483558547E-002   2.1444973108851753E-002
  -7.4026715217168929E-002   2.2081000156801381E-002   2.1508276995303062E-002
  -7.1718379724310832E-002   2.1313877166232009E-002   2.1714661631571097E-002
  -8.7011165434974794E-002   2.6151664165563290E-002   1.4799912126799923E-002
  -8.4556471509041720E-002   2.5404243261421433E-002   1.4578145141354949E-002
  -8.2101777583108604E-002   2.4623910050353821E-002   1.4506014272243111E-002
  -7.9647083657175530E-002   2.3810664532360793E-002   1.4583519519464615E-002
  -7.7192389731242483E-002   2.2964506707441795E-002   1.4810660883019230E-002
  -9.3058612744358615E-002   2.7893687185489534E-002   7.9042835847483572E-003
  -9.0451005018833977E-002   2.7179604376339123E-002   7.6461495839271268E-003
  -8.7843397293309478E-002   2.6395151617149316E-002   7.5442070659551353E-003
  -8.5235789567784867E-002   2.5540328907920264E-002   7.5984560308332161E-003
  -8.2628181842260368E-002   2.4615136248651706E-002   7.8088964785609262E-003
  -9.9094063623894391E-002   2.9635710205415833E-002   1.0607219592451145E-003
  -9.6326986732261921E-002   2.8954965491256784E-002   7.2876329993376565E-004
  -9.3559909840629396E-002   2.8166393183944580E-002   5.5955148998829141E-004
  -9.0792832948996899E-002   2.7269993283479631E-002   5.5308652940926767E-004
  -8.8025756057364402E-002   2.6265765789861284E-002   7.0936841819624341E-004
  -6.6206151821465387E-002   1.9663247625022306E-002   2.8520898724216426E-002
  -6.3537144300277210E-002   1.8987431558132817E-002   2.8223153061879447E-002
  -6.0868136779089116E-002   1.8294156690602012E-002   2.8160950902311022E-002
  -5.8199129257900967E-002   1.7583423022429528E-002   2.8334292245511192E-002
  -5.5530121736712845E-002   1.6855230553615930E-002   2.8743177091479999E-002
  -7.1718379724310832E-002   2.1313877166232009E-002   2.1714661631571097E-002
  -6.8822118486170814E-002   2.0549690574180324E-002   2.1438778409433895E-002
  -6.5925857248030739E-002   1.9786831442975161E-002   2.1381859118432017E-002
  -6.3029596009890720E-002   1.9025299772617063E-002   2.1543903758565137E-002
  -6.0133334771750646E-002   1.8265095563105682E-002   2.1924912329833762E-002
  -7.7192389731242483E-002   2.2964506707441795E-002   1.4810660883019230E-002
  -7.4085454347783908E-002   2.2111949590227636E-002   1.4575426362570157E-002
  -7.0978518964325374E-002   2.1279506195348429E-002   1.4542576201622893E-002
  -6.7871583580866812E-002   2.0467176522804546E-002   1.4712110400177458E-002
  -6.4764648197408278E-002   1.9674960572595324E-002   1.5084028958233742E-002
  -8.2628181842260368E-002   2.4615136248651706E-002   7.8088964785609262E-003
  -7.9327151885116687E-002   2.3674208606274963E-002   7.6330969212883258E-003
  -7.6026121927972964E-002   2.2772180947721692E-002   7.6431021518837804E-003
  -7.2725091970829256E-002   2.1909053272991832E-002   7.8389121703477810E-003
  -6.9424062013685589E-002   2.1084825582085104E-002   8.2205269766802216E-003
  -8.8025756057364402E-002   2.6265765789861284E-002   7.0936841819624341E-004
  -8.4547211098168984E-002   2.5236467622322567E-002   6.1179008558803760E-004
  -8.1068666138973566E-002   2.4264855700095012E-002   6.8343696921460695E-004
  -7.7590121179778121E-002   2.3350930023179325E-002   9.2430906907645799E-004
  -7.4111576220582731E-002   2.2494690591574718E-002   1.3344063851730148E-003
  -5.5530121736712845E-002   1.6855230553615930E-002   2.8743177091479999E-002
  -5.3536169861428173E-002   1.6122966226666258E-002   2.8391278352124238E-002
  -5.1542217986143501E-002   1.5400016984085579E-002   2.8126756763081545E-002
  -4.9548266110858885E-002   1.4686382825874207E-002   2.7949612324351641E-002
  -4.7554314235574158E-002   1.3982063752031926E-002   2.7859845035934860E-002
  -6.0133334771750646E-002   1.8265095563105682E-002   2.1924912329833762E-002
  -5.8028959384883519E-002   1.7504215480748153E-002   2.1571277500042563E-002
  -5.5924583998016364E-002   1.6740656191851305E-002   2.1351112543103262E-002
  -5.3820208611149264E-002   1.5974417696415284E-002   2.1264417459016208E-002
  -5.1715833224282068E-002   1.5205499994439819E-002   2.1311192247780830E-002
  -6.4764648197408278E-002   1.9674960572595324E-002   1.5084028958233742E-002
  -6.2503756576419711E-002   1.8885464734830021E-002   1.4716663747098818E-002
  -6.0242864955431089E-002   1.8081295399617017E-002   1.4528861131354889E-002
  -5.7981973334442501E-002   1.7262452566956413E-002   1.4520621111001726E-002
  -5.5721081713453899E-002   1.6428936236847880E-002   1.4691943686039599E-002
  -6.9424062013685589E-002   2.1084825582085104E-002   8.2205269766802216E-003
  -6.6960561436036639E-002   2.0266713988911958E-002   7.8274370932930742E-003
  -6.4497060858387703E-002   1.9421934607382847E-002   7.6600025278358401E-003
  -6.2033560280738753E-002   1.8550487437497293E-002   7.7182232803084325E-003
  -5.9570059703089817E-002   1.7652372479255746E-002   8.0020993507110005E-003
  -7.4111576220582731E-002   2.2494690591574718E-002   1.3344063851730148E-003
  -7.1399373963734469E-002   2.1647963242993895E-002   9.0359753862556680E-004
  -6.8687171706886152E-002   2.0762573815148622E-002   7.4453673254673558E-004
  -6.5974969450037890E-002   1.9838522308038384E-002   8.5722396693661135E-004
  -6.3262767193189573E-002   1.8875808721663945E-002   1.2416592417952010E-003
  -4.7554314235574158E-002   1.3982063752031926E-002   2.7859845035934860E-002
  -4.4793724593634510E-002   1.3268019874225601E-002   2.7363946934114702E-002
  -4.2033134951694889E-002   1.2525211304122263E-002   2.7186135174965931E-002
  -3.9272545309755144E-002   1.1753638041721651E-002   2.7326409758488768E-002
  -3.6511955667815454E-002   1.0953300087023887E-002   2.7784770684683435E-002
  -5.1715833224282068E-002   1.5205499994439819E-002   2.1311192247780830E-002
  -4.8688739860206276E-002   1.4431430705422021E-002   2.0901787695039670E-002
  -4.5661646496130436E-002   1.3649737448858210E-002   2.0707304243898994E-002
  -4.2634553132054706E-002   1.2860420224748505E-002   2.0727741894358900E-002
  -3.9607459767978859E-002   1.2063479033093016E-002   2.0963100646419708E-002
  -5.5721081713453899E-002   1.6428936236847880E-002   1.4691943686039599E-002
  -5.2530649868312962E-002   1.5594841536618470E-002   1.4390173407128573E-002
  -4.9340218023172004E-002   1.4774263593594100E-002   1.4200158988747463E-002
  -4.6149786178031046E-002   1.3967202407775527E-002   1.4121900430896124E-002
  -4.2959354332890040E-002   1.3173657979162146E-002   1.4155397733574049E-002
  -5.9570059703089817E-002   1.7652372479255746E-002   8.0020993507110005E-003
  -5.6319454617954574E-002   1.6758252367814960E-002   7.8291040703817073E-003
  -5.3068849532819359E-002   1.5898789738330241E-002   7.6646994095110194E-003
  -4.9818244447684110E-002   1.5073984590802354E-002   7.5088853680992454E-003
  -4.6567639362548832E-002   1.4283836925231053E-002   7.3616619461462363E-003
  -6.3262767193189573E-002   1.8875808721663945E-002   1.2416592417952010E-003
  -6.0055154109131093E-002   1.7921663199011006E-002   1.2185796847986041E-003
  -5.6847541025072501E-002   1.7023315883066076E-002   1.1009255061902035E-003
  -5.3639927941014048E-002   1.6180766773829215E-002   8.8869670596882638E-004
  -5.0432314856955429E-002   1.5394015871300404E-002   5.8189328413638108E-004
 </DataArray>
 </PointData>
 </Piece>
 <Piece  NumberOfPoints="          1600 "  NumberOfCells="         1024 ">
 <Points>
 <DataArray  type="Float64" NumberOfComponents="3"  format="ascii" >
  0.50000000000000000        0.0000000000000000        0.0000000000000000     
  0.53125000000000000        0.0000000000000000        0.0000000000000000     
  0.56250000000000000        0.0000000000000000        0.0000000000000000     
  0.59375000000000000        0.0000000000000000        0.0000000000000000     
  0.62500000000000000        0.0000000000000000        0.0000000000000000     
  0.50000000000000000        3.1250000000000000E-002   0.0000000000000000     
  0.53125000000000000        3.1250000000000000E-002   0.0000000000000000     
  0.56250000000000000        3.1250000000000000E-002   0.0000000000000000     
  0.59375000000000000        3.1250000000000000E-002   0.0000000000000000     
  0.62500000000000000        3.1250000000000000E-002   0.0000000000000000     
  0.50000000000000000        6.2500000000000000E-002   0.0000000000000000     
  0.53125000000000000        6.2500000000000000E-002   0.0000000000000000     
  0.56250000000000000        6.2500000000000000E-002   0.0000000000000000     
  0.59375000000000000        6.2500000000000000E-002   0.0000000000000000     
  0.62500000000000000        6.2500000000000000E-002   0.0000000000000000     
  0.50000000000000000        9.3750000000000000E-002   0.0000000000000000     
  0.53125000000000000        9.3750000000000000E-002   0.0000000000000000     
  0.56250000000000000        9.3750000000000000E-002   0.0000000000000000     
  0.59375000000000000        9.3750000000000000E-002   0.0000000000000000     
  0.62500000000000000        9.3750000000000000E-002   0.0000000000000000     
  0.50000000000000000       0.12500000000000000        0.0000000000000000     
  0.53125000000000000       0.12500000000000000        0.0000000000000000     
  0.56250000000000000       0.12500000000000000        0.0000000000000000     
  0.59375000000000000       0.12500000000000000        0.0000000000000000     
  0.62500000000000000       0.12500000000000000        0.0000000000000000     
  0.62500000000000000        0.0000000000000000        0.0000000000000000     
  0.65625000000000000        0.0000000000000000        0.0000000000000000     
  0.68750000000000000        0.0000000000000000        0.0000000000000000     
  0.71875000000000000        0.0000000000000000        0.0000000000000000     
  0.75000000000000000        0.0000000000000000        0.0000000000000000     
  0.62500000000000000        3.1250000000000000E-002   0.0000000000000000     
  0.65625000000000000        3.1250000000000000E-002   0.0000000000000000     
  0.68750000000000000        3.1250000000000000E-002   0.0000000000000000     
  0.71875000000000000        3.1250000000000000E-002   0.0000000000000000     
  0.75000000000000000        3.1250000000000000E-002   0.0000000000000000     
  0.62500000000000000        6.2500000000000000E-002   0.0000000000000000     
  0.65625000000000000        6.2500000000000000E-002   0.0000000000000000     
  0.68750000000000000        6.2500000000000000E-002   0.0000000000000000     
  0.71875000000000000        6.2500000000000000E-002   0.0000000000000000     
  0.75000000000000000        6.2500000000000000E-002   0.0000000000000000     
  0.62500000000000000        9.3750000000000000E-002   0.0000000000000000     
  0.65625000000000000        9.3750000000000000E-002   0.0000000000000000     
  0.68750000000000000        9.3750000000000000E-002   0.0000000000000000     
  0.71875000000000000        9.3750000000000000E-002   0.0000000000000000     
  0.75000000000000000        9.3750000000000000E-002   0.0000000000000000     
  0.62500000000000000       0.12500000000000000        0.0000000000000000     
  0.65625000000000000       0.12500000000000000        0.0000000000000000     
  0.68750000000000000       0.12500000000000000        0.0000000000000000     
  0.71875000000000000       0.12500000000000000        0.0000000000000000     
  0.75000000000000000       0.12500000000000000        0.0000000000000000     
  0.75000000000000000        0.0000000000000000        0.0000000000000000     
  0.78125000000000000        0.0000000000000000        0.0000000000000000     
  0.81250000000000000        0.0000000000000000        0.0000000000000000     
  0.84375000000000000        0.0000000000000000        0.0000000000000000     
  0.87500000000000000        0.0000000000000000        0.0000000000000000     
  0.75000000000000000        3.1250000000000000E-002   0.0000000000000000     
  0.78125000000000000        3.1250000000000000E-002   0.0000000000000000     
  0.81250000000000000        3.1250000000000000E-002   0.0000000000000000     
  0.84375000000000000        3.1250000000000000E-002   0.0000000000000000     
  0.87500000000000000        3.1250000000000000E-002   0.0000000000000000     
  0.75000000000000000        6.2500000000000000E-002   0.0000000000000000     
  0.78125000000000000        6.2500000000000000E-002   0.0000000000000000     
  0.81250000000000000        6.2500000000000000E-002   0.0000000000000000     
  0.84375000000000000        6.2500000000000000E-002   0.0000000000000000     
  0.87500000000000000        6.2500000000000000E-002   0.0000000000000000     
  0.75000000000000000        9.3750000000000000E-002   0.0000000000000000     
  0.78125000000000000        9.3750000000000000E-002   0.0000000000000000     
  0.81250000000000000        9.3750000000000000E-002   0.0000000000000000     
  0.84375000000000000        9.3750000000000000E-002   0.0000000000000000     
  0.87500000000000000        9.3750000000000000E-002   0.0000000000000000     
  0.75000000000000000       0.12500000000000000        0.0000000000000000     
  0.78125000000000000       0.12500000000000000        0.0000000000000000     
  0.81250000000000000       0.12500000000000000        0.0000000000000000     
  0.84375000000000000       0.12500000000000000        0.0000000000000000     
  0.87500000000000000       0.12500000000000000        0.0000000000000000     
  0.87500000000000000        0.0000000000000000        0.0000000000000000     
  0.90625000000000000        0.0000000000000000        0.0000000000000000     
  0.93750000000000000        0.0000000000000000        0.0000000000000000     
  0.96875000000000000        0.0000000000000000        0.0000000000000000     
   1.0000000000000000        0.0000000000000000        0.0000000000000000     
  0.87500000000000000        3.1250000000000000E-002   0.0000000000000000     
  0.90625000000000000        3.1250000000000000E-002   0.0000000000000000     
  0.93750000000000000        3.1250000000000000E-002   0.0000000000000000     
  0.96875000000000000        3.1250000000000000E-002   0.0000000000000000     
   1.0000000000000000        3.1250000000000000E-002   0.0000000000000000     
  0.87500000000000000        6.2500000000000000E-002   0.0000000000000000     
  0.90625000000000000        6.2500000000000000E-002   0.0000000000000000     
  0.93750000000000000        6.2500000000000000E-002   0.0000000000000000     
  0.96875000000000000        6.2500000000000000E-002   0.0000000000000000     
   1.0000000000000000        6.2500000000000000E-002   0.0000000000000000     
  0.87500000000000000        9.3750000000000000E-002   0.0000000000000000     
  0.90625000000000000        9.3750000000000000E-002   0.0000000000000000     
  0.93750000000000000        9.3750000000000000E-002   0.0000000000000000     
  0.96875000000000000        9.3750000000000000E-002   0.0000000000000000     
   1.0000000000000000        9.3750000000000000E-002   0.0000000000000000     
  0.87500000000000000       0.12500000000000000        0.0000000000000000     
  0.90625000000000000       0.12500000000000000        0.0000000000000000     
  0.93750000000000000       0.12500000000000000        0.0000000000000000     
  0.96875000000000000       0.12500000000000000        0.0000000000000000     
   1.0000000000000000       0.12500000000000000        0.0000000000000000     
   1.0000000000000000        0.0000000000000000        0.0000000000000000     
   1.0312500000000000        0.0000000000000000        0.0000000000000000     
   1.0625000000000000        0.0000000000000000        0.0000000000000000     
   1.0937500000000000        0.0000000000000000        0.0000000000000000     
   1.1250000000000000        0.0000000000000000        0.0000000000000000     
   1.0000000000000000        3.1250000000000000E-002   0.0000000000000000     
   1.0312500000000000        3.1250000000000000E-002   0.0000000000000000     
   1.0625000000000000        3.1250000000000000E-002   0.0000000000000000     
   1.0937500000000000        3.1250000000000000E-002   0.0000000000000000     
   1.1250000000000000        3.1250000000000000E-002   0.0000000000000000     
   1.0000000000000000        6.2500000000000000E-002   0.0000000000000000     
   1.0312500000000000        6.2500000000000000E-002   0.0000000000000000     
   1.0625000000000000        6.2500000000000000E-002   0.0000000000000000     
   1.0937500000000000        6.2500000000000000E-002   0.0000000000000000     
   1.1250000000000000        6.2500000000000000E-002   0.0000000000000000     
   1.0000000000000000        9.3750000000000000E-002   0.0000000000000000     
   1.0312500000000000        9.3750000000000000E-002   0.0000000000000000     
   1.0625000000000000        9.3750000000000000E-002   0.0000000000000000     
   1.0937500000000000        9.3750000000000000E-002   0.0000000000000000     
   1.1250000000000000        9.3750000000000000E-002   0.0000000000000000     
   1.0000000000000000       0.12500000000000000        0.0000000000000000     
   1.0312500000000000       0.12500000000000000        0.0000000000000000     
   1.0625000000000000       0.12500000000000000        0.0000000000000000     
   1.0937500000000000       0.12500000000000000        0.0000000000000000     
   1.1250000000000000       0.12500000000000000        0.0000000000000000     
   1.1250000000000000        0.0000000000000000        0.0000000000000000     
   1.1562500000000000        0.0000000000000000        0.0000000000000000     
   1.1875000000000000        0.0000000000000000        0.0000000000000000     
   1.2187500000000000        0.0000000000000000        0.0000000000000000     
   1.2500000000000000        0.0000000000000000        0.0000000000000000     
   1.1250000000000000        3.1250000000000000E-002   0.0000000000000000     
   1.1562500000000000        3.1250000000000000E-002   0.0000000000000000     
   1.1875000000000000        3.1250000000000000E-002   0.0000000000000000     
   1.2187500000000000        3.1250000000000000E-002   0.0000000000000000     
   1.2500000000000000        3.1250000000000000E-002   0.0000000000000000     
   1.1250000000000000        6.2500000000000000E-002   0.0000000000000000     
   1.1562500000000000        6.2500000000000000E-002   0.0000000000000000     
   1.1875000000000000        6.2500000000000000E-002   0.0000000000000000     
   1.2187500000000000        6.2500000000000000E-002   0.0000000000000000     
   1.2500000000000000        6.2500000000000000E-002   0.0000000000000000     
   1.1250000000000000        9.3750000000000000E-002   0.0000000000000000     
   1.1562500000000000        9.3750000000000000E-002   0.0000000000000000     
   1.1875000000000000        9.3750000000000000E-002   0.0000000000000000     
   1.2187500000000000        9.3750000000000000E-002   0.0000000000000000     
   1.2500000000000000        9.3750000000000000E-002   0.0000000000000000     
   1.1250000000000000       0.12500000000000000        0.0000000000000000     
   1.1562500000000000       0.12500000000000000        0.0000000000000000     
   1.1875000000000000       0.12500000000000000        0.0000000000000000     
   1.2187500000000000       0.12500000000000000        0.0000000000000000     
   1.2500000000000000       0.12500000000000000        0.0000000000000000     
   1.2500000000000000        0.0000000000000000        0.0000000000000000     
   1.2812500000000000        0.0000000000000000        0.0000000000000000     
   1.3125000000000000        0.0000000000000000        0.0000000000000000     
   1.3437500000000000        0.0000000000000000        0.0000000000000000     
   1.3750000000000000        0.0000000000000000        0.0000000000000000     
   1.2500000000000000        3.1250000000000000E-002   0.0000000000000000     
   1.2812500000000000        3.1250000000000000E-002   0.0000000000000000     
   1.3125000000000000        3.1250000000000000E-002   0.0000000000000000     
   1.3437500000000000        3.1250000000000000E-002   0.0000000000000000     
   1.3750000000000000        3.1250000000000000E-002   0.0000000000000000     
   1.2500000000000000        6.2500000000000000E-002   0.0000000000000000     
   1.2812500000000000        6.2500000000000000E-002   0.0000000000000000     
   1.3125000000000000        6.2500000000000000E-002   0.0000000000000000     
   1.3437500000000000        6.2500000000000000E-002   0.0000000000000000     
   1.3750000000000000        6.2500000000000000E-002   0.0000000000000000     
   1.2500000000000000        9.3750000000000000E-002   0.0000000000000000     
   1.2812500000000000        9.3750000000000000E-002   0.0000000000000000     
   1.3125000000000000        9.3750000000000000E-002   0.0000000000000000     
   1.3437500000000000        9.3750000000000000E-002   0.0000000000000000     
   1.3750000000000000        9.3750000000000000E-002   0.0000000000000000     
   1.2500000000000000       0.12500000000000000        0.0000000000000000     
   1.2812500000000000       0.12500000000000000        0.0000000000000000     
   1.3125000000000000       0.12500000000000000        0.0000000000000000     
   1.3437500000000000       0.12500000000000000        0.0000000000000000     
   1.3750000000000000       0.12500000000000000        0.0000000000000000     
   1.3750000000000000        0.0000000000000000        0.0000000000000000     
   1.4062500000000000        0.0000000000000000        0.0000000000000000     
   1.4375000000000000        0.0000000000000000        0.0000000000000000     
   1.4687500000000000        0.0000000000000000        0.0000000000000000     
   1.5000000000000000        0.0000000000000000        0.0000000000000000     
   1.3750000000000000        3.1250000000000000E-002   0.0000000000000000     
   1.4062500000000000        3.1250000000000000E-002   0.0000000000000000     
   1.4375000000000000        3.1250000000000000E-002   0.0000000000000000     
   1.4687500000000000        3.1250000000000000E-002   0.0000000000000000     
   1.5000000000000000        3.1250000000000000E-002   0.0000000000000000     
   1.3750000000000000        6.2500000000000000E-002   0.0000000000000000     
   1.4062500000000000        6.2500000000000000E-002   0.0000000000000000     
   1.4375000000000000        6.2500000000000000E-002   0.0000000000000000     
   1.4687500000000000        6.2500000000000000E-002   0.0000000000000000     
   1.5000000000000000        6.2500000000000000E-002   0.0000000000000000     
   1.3750000000000000        9.3750000000000000E-002   0.0000000000000000     
   1.4062500000000000        9.3750000000000000E-002   0.0000000000000000     
   1.4375000000000000        9.3750000000000000E-002   0.0000000000000000     
   1.4687500000000000        9.3750000000000000E-002   0.0000000000000000     
   1.5000000000000000        9.3750000000000000E-002   0.0000000000000000     
   1.3750000000000000       0.12500000000000000        0.0000000000000000     
   1.4062500000000000       0.12500000000000000        0.0000000000000000     
   1.4375000000000000       0.12500000000000000        0.0000000000000000     
   1.4687500000000000       0.12500000000000000        0.0000000000000000     
   1.5000000000000000       0.12500000000000000        0.0000000000000000     
  0.50000000000000000       0.12500000000000000        0.0000000000000000     
  0.53125000000000000       0.12500000000000000        0.0000000000000000     
  0.56250000000000000       0.12500000000000000        0.0000000000000000     
  0.59375000000000000       0.12500000000000000        0.0000000000000000     
  0.62500000000000000       0.12500000000000000        0.0000000000000000     
  0.50000000000000000       0.15625000000000000        0.0000000000000000     
  0.53125000000000000       0.15625000000000000        0.0000000000000000     
  0.56250000000000000       0.15625000000000000        0.0000000000000000     
  0.59375000000000000       0.15625000000000000        0.0000000000000000     
  0.62500000000000000       0.15625000000000000        0.0000000000000000     
  0.50000000000000000       0.18750000000000000        0.0000000000000000     
  0.53125000000000000       0.18750000000000000        0.0000000000000000     
  0.56250000000000000       0.18750000000000000        0.0000000000000000     
  0.59375000000000000       0.18750000000000000        0.0000000000000000     
  0.62500000000000000       0.18750000000000000        0.0000000000000000     
  0.50000000000000000       0.21875000000000000        0.0000000000000000     
  0.53125000000000000       0.21875000000000000        0.0000000000000000     
  0.56250000000000000       0.21875000000000000        0.0000000000000000     
  0.59375000000000000       0.21875000000000000        0.0000000000000000     
  0.62500000000000000       0.21875000000000000        0.0000000000000000     
  0.50000000000000000       0.25000000000000000        0.0000000000000000     
  0.53125000000000000       0.25000000000000000        0.0000000000000000     
  0.56250000000000000       0.25000000000000000        0.0000000000000000     
  0.59375000000000000       0.25000000000000000        0.0000000000000000     
  0.62500000000000000       0.25000000000000000        0.0000000000000000     
  0.62500000000000000       0.12500000000000000        0.0000000000000000     
  0.65625000000000000       0.12500000000000000        0.0000000000000000     
  0.68750000000000000       0.12500000000000000        0.0000000000000000     
  0.71875000000000000       0.12500000000000000        0.0000000000000000     
  0.75000000000000000       0.12500000000000000        0.0000000000000000     
  0.62500000000000000       0.15625000000000000        0.0000000000000000     
  0.65625000000000000       0.15625000000000000        0.0000000000000000     
  0.68750000000000000       0.15625000000000000        0.0000000000000000     
  0.71875000000000000       0.15625000000000000        0.0000000000000000     
  0.75000000000000000       0.15625000000000000        0.0000000000000000     
  0.62500000000000000       0.18750000000000000        0.0000000000000000     
  0.65625000000000000       0.18750000000000000        0.0000000000000000     
  0.68750000000000000       0.18750000000000000        0.0000000000000000     
  0.71875000000000000       0.18750000000000000        0.0000000000000000     
  0.75000000000000000       0.18750000000000000        0.0000000000000000     
  0.62500000000000000       0.21875000000000000        0.0000000000000000     
  0.65625000000000000       0.21875000000000000        0.0000000000000000     
  0.68750000000000000       0.21875000000000000        0.0000000000000000     
  0.71875000000000000       0.21875000000000000        0.0000000000000000     
  0.75000000000000000       0.21875000000000000        0.0000000000000000     
  0.62500000000000000       0.25000000000000000        0.0000000000000000     
  0.65625000000000000       0.25000000000000000        0.0000000000000000     
  0.68750000000000000       0.25000000000000000        0.0000000000000000     
  0.71875000000000000       0.25000000000000000        0.0000000000000000     
  0.75000000000000000       0.25000000000000000        0.0000000000000000     
  0.75000000000000000       0.12500000000000000        0.0000000000000000     
  0.78125000000000000       0.12500000000000000        0.0000000000000000     
  0.81250000000000000       0.12500000000000000        0.0000000000000000     
  0.84375000000000000       0.12500000000000000        0.0000000000000000     
  0.87500000000000000       0.12500000000000000        0.0000000000000000     
  0.75000000000000000       0.15625000000000000        0.0000000000000000     
  0.78125000000000000       0.15625000000000000        0.0000000000000000     
  0.81250000000000000       0.15625000000000000        0.0000000000000000     
  0.84375000000000000       0.15625000000000000        0.0000000000000000     
  0.87500000000000000       0.15625000000000000        0.0000000000000000     
  0.75000000000000000       0.18750000000000000        0.0000000000000000     
  0.78125000000000000       0.18750000000000000        0.0000000000000000     
  0.81250000000000000       0.18750000000000000        0.0000000000000000     
  0.84375000000000000       0.18750000000000000        0.0000000000000000     
  0.87500000000000000       0.18750000000000000        0.0000000000000000     
  0.75000000000000000       0.21875000000000000        0.0000000000000000     
  0.78125000000000000       0.21875000000000000        0.0000000000000000     
  0.81250000000000000       0.21875000000000000        0.0000000000000000     
  0.84375000000000000       0.21875000000000000        0.0000000000000000     
  0.87500000000000000       0.21875000000000000        0.0000000000000000     
  0.75000000000000000       0.25000000000000000        0.0000000000000000     
  0.78125000000000000       0.25000000000000000        0.0000000000000000     
  0.81250000000000000       0.25000000000000000        0.0000000000000000     
  0.84375000000000000       0.25000000000000000        0.0000000000000000     
  0.87500000000000000       0.25000000000000000        0.0000000000000000     
  0.87500000000000000       0.12500000000000000        0.0000000000000000     
  0.90625000000000000       0.12500000000000000        0.0000000000000000     
  0.93750000000000000       0.12500000000000000        0.0000000000000000     
  0.96875000000000000       0.12500000000000000        0.0000000000000000     
   1.0000000000000000       0.12500000000000000        0.0000000000000000     
  0.87500000000000000       0.15625000000000000        0.0000000000000000     
  0.90625000000000000       0.15625000000000000        0.0000000000000000     
  0.93750000000000000       0.15625000000000000        0.0000000000000000     
  0.96875000000000000       0.15625000000000000        0.0000000000000000     
   1.0000000000000000       0.15625000000000000        0.0000000000000000     
  0.87500000000000000       0.18750000000000000        0.0000000000000000     
  0.90625000000000000       0.18750000000000000        0.0000000000000000     
  0.93750000000000000       0.18750000000000000        0.0000000000000000     
  0.96875000000000000       0.18750000000000000        0.0000000000000000     
   1.0000000000000000       0.18750000000000000        0.0000000000000000     
  0.87500000000000000       0.21875000000000000        0.0000000000000000     
  0.90625000000000000       0.21875000000000000        0.0000000000000000     
  0.93750000000000000       0.21875000000000000        0.0000000000000000     
  0.96875000000000000       0.21875000000000000        0.0000000000000000     
   1.0000000000000000       0.21875000000000000        0.0000000000000000     
  0.87500000000000000       0.25000000000000000        0.0000000000000000     
  0.90625000000000000       0.25000000000000000        0.0000000000000000     
  0.93750000000000000       0.25000000000000000        0.0000000000000000     
  0.96875000000000000       0.25000000000000000        0.0000000000000000     
   1.0000000000000000       0.25000000000000000        0.0000000000000000     
   1.0000000000000000       0.12500000000000000        0.0000000000000000     
   1.0312500000000000       0.12500000000000000        0.0000000000000000     
   1.0625000000000000       0.12500000000000000        0.0000000000000000     
   1.0937500000000000       0.12500000000000000        0.0000000000000000     
   1.1250000000000000       0.12500000000000000        0.0000000000000000     
   1.0000000000000000       0.15625000000000000        0.0000000000000000     
   1.0312500000000000       0.15625000000000000        0.0000000000000000     
   1.0625000000000000       0.15625000000000000        0.0000000000000000     
   1.0937500000000000       0.15625000000000000        0.0000000000000000     
   1.1250000000000000       0.15625000000000000        0.0000000000000000     
   1.0000000000000000       0.18750000000000000        0.0000000000000000     
   1.0312500000000000       0.18750000000000000        0.0000000000000000     
   1.0625000000000000       0.18750000000000000        0.0000000000000000     
   1.0937500000000000       0.18750000000000000        0.0000000000000000     
   1.1250000000000000       0.18750000000000000        0.0000000000000000     
   1.0000000000000000       0.21875000000000000        0.0000000000000000     
   1.0312500000000000       0.21875000000000000        0.0000000000000000     
   1.0625000000000000       0.21875000000000000        0.0000000000000000     
   1.0937500000000000       0.21875000000000000        0.0000000000000000     
   1.1250000000000000       0.21875000000000000        0.0000000000000000     
   1.0000000000000000       0.25000000000000000        0.0000000000000000     
   1.0312500000000000       0.25000000000000000        0.0000000000000000     
   1.0625000000000000       0.25000000000000000        0.0000000000000000     
   1.0937500000000000       0.25000000000000000        0.0000000000000000     
   1.1250000000000000       0.25000000000000000        0.0000000000000000     
   1.1250000000000000       0.12500000000000000        0.0000000000000000     
   1.1562500000000000       0.12500000000000000        0.0000000000000000     
   1.1875000000000000       0.12500000000000000        0.0000000000000000     
   1.2187500000000000       0.12500000000000000        0.0000000000000000     
   1.2500000000000000       0.12500000000000000        0.0000000000000000     
   1.1250000000000000       0.15625000000000000        0.0000000000000000     
   1.1562500000000000       0.15625000000000000        0.0000000000000000     
   1.1875000000000000       0.15625000000000000        0.0000000000000000     
   1.2187500000000000       0.15625000000000000        0.0000000000000000     
   1.2500000000000000       0.15625000000000000        0.0000000000000000     
   1.1250000000000000       0.18750000000000000        0.0000000000000000     
   1.1562500000000000       0.18750000000000000        0.0000000000000000     
   1.1875000000000000       0.18750000000000000        0.0000000000000000     
   1.2187500000000000       0.18750000000000000        0.0000000000000000     
   1.2500000000000000       0.18750000000000000        0.0000000000000000     
   1.1250000000000000       0.21875000000000000        0.0000000000000000     
   1.1562500000000000       0.21875000000000000        0.0000000000000000     
   1.1875000000000000       0.21875000000000000        0.0000000000000000     
   1.2187500000000000       0.21875000000000000        0.0000000000000000     
   1.2500000000000000       0.21875000000000000        0.0000000000000000     
   1.1250000000000000       0.25000000000000000        0.0000000000000000     
   1.1562500000000000       0.25000000000000000        0.0000000000000000     
   1.1875000000000000       0.25000000000000000        0.0000000000000000     
   1.2187500000000000       0.25000000000000000        0.0000000000000000     
   1.2500000000000000       0.25000000000000000        0.0000000000000000     
   1.2500000000000000       0.12500000000000000        0.0000000000000000     
   1.2812500000000000       0.12500000000000000        0.0000000000000000     
   1.3125000000000000       0.12500000000000000        0.0000000000000000     
   1.3437500000000000       0.12500000000000000        0.0000000000000000     
   1.3750000000000000       0.12500000000000000        0.0000000000000000     
   1.2500000000000000       0.15625000000000000        0.0000000000000000     
   1.2812500000000000       0.15625000000000000        0.0000000000000000     
   1.3125000000000000       0.15625000000000000        0.0000000000000000     
   1.3437500000000000       0.15625000000000000        0.0000000000000000     
   1.3750000000000000       0.15625000000000000        0.0000000000000000     
   1.2500000000000000       0.18750000000000000        0.0000000000000000     
   1.2812500000000000       0.18750000000000000        0.0000000000000000     
   1.3125000000000000       0.18750000000000000        0.0000000000000000     
   1.3437500000000000       0.18750000000000000        0.0000000000000000     
   1.3750000000000000       0.18750000000000000        0.0000000000000000     
   1.2500000000000000       0.21875000000000000        0.0000000000000000     
   1.2812500000000000       0.21875000000000000        0.0000000000000000     
   1.3125000000000000       0.21875000000000000        0.0000000000000000     
   1.3437500000000000       0.21875000000000000        0.0000000000000000     
   1.3750000000000000       0.21875000000000000        0.0000000000000000     
   1.2500000000000000       0.25000000000000000        0.0000000000000000     
   1.2812500000000000       0.25000000000000000        0.0000000000000000     
   1.3125000000000000       0.25000000000000000        0.0000000000000000     
   1.3437500000000000       0.25000000000000000        0.0000000000000000     
   1.3750000000000000       0.25000000000000000        0.0000000000000000     
   1.3750000000000000       0.12500000000000000        0.0000000000000000     
   1.4062500000000000       0.12500000000000000        0.0000000000000000     
   1.4375000000000000       0.12500000000000000        0.0000000000000000     
   1.4687500000000000       0.12500000000000000        0.0000000000000000     
   1.5000000000000000       0.12500000000000000        0.0000000000000000     
   1.3750000000000000       0.15625000000000000        0.0000000000000000     
   1.4062500000000000       0.15625000000000000        0.0000000000000000     
   1.4375000000000000       0.15625000000000000        0.0000000000000000     
   1.4687500000000000       0.15625000000000000        0.0000000000000000     
   1.5000000000000000       0.15625000000000000        0.0000000000000000     
   1.3750000000000000       0.18750000000000000        0.0000000000000000     
   1.4062500000000000       0.18750000000000000        0.0000000000000000     
   1.4375000000000000       0.18750000000000000        0.0000000000000000     
   1.4687500000000000       0.18750000000000000        0.0000000000000000     
   1.5000000000000000       0.18750000000000000        0.0000000000000000     
   1.3750000000000000       0.21875000000000000        0.0000000000000000     
   1.4062500000000000       0.21875000000000000        0.0000000000000000     
   1.4375000000000000       0.21875000000000000        0.0000000000000000     
   1.4687500000000000       0.21875000000000000        0.0000000000000000     
   1.5000000000000000       0.21875000000000000        0.0000000000000000     
   1.3750000000000000       0.25000000000000000        0.0000000000000000     
   1.4062500000000000       0.25000000000000000        0.0000000000000000     
   1.4375000000000000       0.25000000000000000        0.0000000000000000     
   1.4687500000000000       0.25000000000000000        0.0000000000000000     
   1.5000000000000000       0.25000000000000000        0.0000000000000000     
  0.50000000000000000       0.25000000000000000        0.0000000000000000     
  0.53125000000000000       0.25000000000000000        0.0000000000000000     
  0.56250000000000000       0.25000000000000000        0.0000000000000000     
  0.59375000000000000       0.25000000000000000        0.0000000000000000     
  0.62500000000000000       0.25000000000000000        0.0000000000000000     
  0.50000000000000000       0.28125000000000000        0.0000000000000000     
  0.53125000000000000       0.28125000000000000        0.0000000000000000     
  0.56250000000000000       0.28125000000000000        0.0000000000000000     
  0.59375000000000000       0.28125000000000000        0.0000000000000000     
  0.62500000000000000       0.28125000000000000        0.0000000000000000     
  0.50000000000000000       0.31250000000000000        0.0000000000000000     
  0.53125000000000000       0.31250000000000000        0.0000000000000000     
  0.56250000000000000       0.31250000000000000        0.0000000000000000     
  0.59375000000000000       0.31250000000000000        0.0000000000000000     
  0.62500000000000000       0.31250000000000000        0.0000000000000000     
  0.50000000000000000       0.34375000000000000        0.0000000000000000     
  0.53125000000000000       0.34375000000000000        0.0000000000000000     
  0.56250000000000000       0.34375000000000000        0.0000000000000000     
  0.59375000000000000       0.34375000000000000        0.0000000000000000     
  0.62500000000000000       0.34375000000000000        0.0000000000000000     
  0.50000000000000000       0.37500000000000000        0.0000000000000000     
  0.53125000000000000       0.37500000000000000        0.0000000000000000     
  0.56250000000000000       0.37500000000000000        0.0000000000000000     
  0.59375000000000000       0.37500000000000000        0.0000000000000000     
  0.62500000000000000       0.37500000000000000        0.0000000000000000     
  0.62500000000000000       0.25000000000000000        0.0000000000000000     
  0.65625000000000000       0.25000000000000000        0.0000000000000000     
  0.68750000000000000       0.25000000000000000        0.0000000000000000     
  0.71875000000000000       0.25000000000000000        0.0000000000000000     
  0.75000000000000000       0.25000000000000000        0.0000000000000000     
  0.62500000000000000       0.28125000000000000        0.0000000000000000     
  0.65625000000000000       0.28125000000000000        0.0000000000000000     
  0.68750000000000000       0.28125000000000000        0.0000000000000000     
  0.71875000000000000       0.28125000000000000        0.0000000000000000     
  0.75000000000000000       0.28125000000000000        0.0000000000000000     
  0.62500000000000000       0.31250000000000000        0.0000000000000000     
  0.65625000000000000       0.31250000000000000        0.0000000000000000     
  0.68750000000000000       0.31250000000000000        0.0000000000000000     
  0.71875000000000000       0.31250000000000000        0.0000000000000000     
  0.75000000000000000       0.31250000000000000        0.0000000000000000     
  0.62500000000000000       0.34375000000000000        0.0000000000000000     
  0.65625000000000000       0.34375000000000000        0.0000000000000000     
  0.68750000000000000       0.34375000000000000        0.0000000000000000     
  0.71875000000000000       0.34375000000000000        0.0000000000000000     
  0.75000000000000000       0.34375000000000000        0.0000000000000000     
  0.62500000000000000       0.37500000000000000        0.0000000000000000     
  0.65625000000000000       0.37500000000000000        0.0000000000000000     
  0.68750000000000000       0.37500000000000000        0.0000000000000000     
  0.71875000000000000       0.37500000000000000        0.0000000000000000     
  0.75000000000000000       0.37500000000000000        0.0000000000000000     
  0.75000000000000000       0.25000000000000000        0.0000000000000000     
  0.78125000000000000       0.25000000000000000        0.0000000000000000     
  0.81250000000000000       0.25000000000000000        0.0000000000000000     
  0.84375000000000000       0.25000000000000000        0.0000000000000000     
  0.87500000000000000       0.25000000000000000        0.0000000000000000     
  0.75000000000000000       0.28125000000000000        0.0000000000000000     
  0.78125000000000000       0.28125000000000000        0.0000000000000000     
  0.81250000000000000       0.28125000000000000        0.0000000000000000     
  0.84375000000000000       0.28125000000000000        0.0000000000000000     
  0.87500000000000000       0.28125000000000000        0.0000000000000000     
  0.75000000000000000       0.31250000000000000        0.0000000000000000     
  0.78125000000000000       0.31250000000000000        0.0000000000000000     
  0.81250000000000000       0.31250000000000000        0.0000000000000000     
  0.84375000000000000       0.31250000000000000        0.0000000000000000     
  0.87500000000000000       0.31250000000000000        0.0000000000000000     
  0.75000000000000000       0.34375000000000000        0.0000000000000000     
  0.78125000000000000       0.34375000000000000        0.0000000000000000     
  0.81250000000000000       0.34375000000000000        0.0000000000000000     
  0.84375000000000000       0.34375000000000000        0.0000000000000000     
  0.87500000000000000       0.34375000000000000        0.0000000000000000     
  0.75000000000000000       0.37500000000000000        0.0000000000000000     
  0.78125000000000000       0.37500000000000000        0.0000000000000000     
  0.81250000000000000       0.37500000000000000        0.0000000000000000     
  0.84375000000000000       0.37500000000000000        0.0000000000000000     
  0.87500000000000000       0.37500000000000000        0.0000000000000000     
  0.87500000000000000       0.25000000000000000        0.0000000000000000     
  0.90625000000000000       0.25000000000000000        0.0000000000000000     
  0.93750000000000000       0.25000000000000000        0.0000000000000000     
  0.96875000000000000       0.25000000000000000        0.0000000000000000     
   1.0000000000000000       0.25000000000000000        0.0000000000000000     
  0.87500000000000000       0.28125000000000000        0.0000000000000000     
  0.90625000000000000       0.28125000000000000        0.0000000000000000     
  0.93750000000000000       0.28125000000000000        0.0000000000000000     
  0.96875000000000000       0.28125000000000000        0.0000000000000000     
   1.0000000000000000       0.28125000000000000        0.0000000000000000     
  0.87500000000000000       0.31250000000000000        0.0000000000000000     
  0.90625000000000000       0.31250000000000000        0.0000000000000000     
  0.93750000000000000       0.31250000000000000        0.0000000000000000     
  0.96875000000000000       0.31250000000000000        0.0000000000000000     
   1.0000000000000000       0.31250000000000000        0.0000000000000000     
  0.87500000000000000       0.34375000000000000        0.0000000000000000     
  0.90625000000000000       0.34375000000000000        0.0000000000000000     
  0.93750000000000000       0.34375000000000000        0.0000000000000000     
  0.96875000000000000       0.34375000000000000        0.0000000000000000     
   1.0000000000000000       0.34375000000000000        0.0000000000000000     
  0.87500000000000000       0.37500000000000000        0.0000000000000000     
  0.90625000000000000       0.37500000000000000        0.0000000000000000     
  0.93750000000000000       0.37500000000000000        0.0000000000000000     
  0.96875000000000000       0.37500000000000000        0.0000000000000000     
   1.0000000000000000       0.37500000000000000        0.0000000000000000     
   1.0000000000000000       0.25000000000000000        0.0000000000000000     
   1.0312500000000000       0.25000000000000000        0.0000000000000000     
   1.0625000000000000       0.25000000000000000        0.0000000000000000     
   1.0937500000000000       0.25000000000000000        0.0000000000000000     
   1.1250000000000000       0.25000000000000000        0.0000000000000000     
   1.0000000000000000       0.28125000000000000        0.0000000000000000     
   1.0312500000000000       0.28125000000000000        0.0000000000000000     
   1.0625000000000000       0.28125000000000000        0.0000000000000000     
   1.0937500000000000       0.28125000000000000        0.0000000000000000     
   1.1250000000000000       0.28125000000000000        0.0000000000000000     
   1.0000000000000000       0.31250000000000000        0.0000000000000000     
   1.0312500000000000       0.31250000000000000        0.0000000000000000     
   1.0625000000000000       0.31250000000000000        0.0000000000000000     
   1.0937500000000000       0.31250000000000000        0.0000000000000000     
   1.1250000000000000       0.31250000000000000        0.0000000000000000     
   1.0000000000000000       0.34375000000000000        0.0000000000000000     
   1.0312500000000000       0.34375000000000000        0.0000000000000000     
   1.0625000000000000       0.34375000000000000        0.0000000000000000     
   1.0937500000000000       0.34375000000000000        0.0000000000000000     
   1.1250000000000000       0.34375000000000000        0.0000000000000000     
   1.0000000000000000       0.37500000000000000        0.0000000000000000     
   1.0312500000000000       0.37500000000000000        0.0000000000000000     
   1.0625000000000000       0.37500000000000000        0.0000000000000000     
   1.0937500000000000       0.37500000000000000        0.0000000000000000     
   1.1250000000000000       0.37500000000000000        0.0000000000000000     
   1.1250000000000000       0.25000000000000000        0.0000000000000000     
   1.1562500000000000       0.25000000000000000        0.0000000000000000     
   1.1875000000000000       0.25000000000000000        0.0000000000000000     
   1.2187500000000000       0.25000000000000000        0.0000000000000000     
   1.2500000000000000       0.25000000000000000        0.0000000000000000     
   1.1250000000000000       0.28125000000000000        0.0000000000000000     
   1.1562500000000000       0.28125000000000000        0.0000000000000000     
   1.1875000000000000       0.28125000000000000        0.0000000000000000     
   1.2187500000000000       0.28125000000000000        0.0000000000000000     
   1.2500000000000000       0.28125000000000000        0.0000000000000000     
   1.1250000000000000       0.31250000000000000        0.0000000000000000     
   1.1562500000000000       0.31250000000000000        0.0000000000000000     
   1.1875000000000000       0.31250000000000000        0.0000000000000000     
   1.2187500000000000       0.31250000000000000        0.0000000000000000     
   1.2500000000000000       0.31250000000000000        0.0000000000000000     
   1.1250000000000000       0.34375000000000000        0.0000000000000000     
   1.1562500000000000       0.34375000000000000        0.0000000000000000     
   1.1875000000000000       0.34375000000000000        0.0000000000000000     
   1.2187500000000000       0.34375000000000000        0.0000000000000000     
   1.2500000000000000       0.34375000000000000        0.0000000000000000     
   1.1250000000000000       0.37500000000000000        0.0000000000000000     
   1.1562500000000000       0.37500000000000000        0.0000000000000000     
   1.1875000000000000       0.37500000000000000        0.0000000000000000     
   1.2187500000000000       0.37500000000000000        0.0000000000000000     
   1.2500000000000000       0.37500000000000000        0.0000000000000000     
   1.2500000000000000       0.25000000000000000        0.0000000000000000     
   1.2812500000000000       0.25000000000000000        0.0000000000000000     
   1.3125000000000000       0.25000000000000000        0.0000000000000000     
   1.3437500000000000       0.25000000000000000        0.0000000000000000     
   1.3750000000000000       0.25000000000000000        0.0000000000000000     
   1.2500000000000000       0.28125000000000000        0.0000000000000000     
   1.2812500000000000       0.28125000000000000        0.0000000000000000     
   1.3125000000000000       0.28125000000000000        0.0000000000000000     
   1.3437500000000000       0.28125000000000000        0.0000000000000000     
   1.3750000000000000       0.28125000000000000        0.0000000000000000     
   1.2500000000000000       0.31250000000000000        0.0000000000000000     
   1.2812500000000000       0.31250000000000000        0.0000000000000000     
   1.3125000000000000       0.31250000000000000        0.0000000000000000     
   1.3437500000000000       0.31250000000000000        0.0000000000000000     
   1.3750000000000000       0.31250000000000000        0.0000000000000000     
   1.2500000000000000       0.34375000000000000        0.0000000000000000     
   1.2812500000000000       0.34375000000000000        0.0000000000000000     
   1.3125000000000000       0.34375000000000000        0.0000000000000000     
   1.3437500000000000       0.34375000000000000        0.0000000000000000     
   1.3750000000000000       0.34375000000000000        0.0000000000000000     
   1.2500000000000000       0.37500000000000000        0.0000000000000000     
   1.2812500000000000       0.37500000000000000        0.0000000000000000     
   1.3125000000000000       0.37500000000000000        0.0000000000000000     
   1.3437500000000000       0.37500000000000000        0.0000000000000000     
   1.3750000000000000       0.37500000000000000        0.0000000000000000     
   1.3750000000000000       0.25000000000000000        0.0000000000000000     
   1.4062500000000000       0.25000000000000000        0.0000000000000000     
   1.4375000000000000       0.25000000000000000        0.0000000000000000     
   1.4687500000000000       0.25000000000000000        0.0000000000000000     
   1.5000000000000000       0.25000000000000000        0.0000000000000000     
   1.3750000000000000       0.28125000000000000        0.0000000000000000     
   1.4062500000000000       0.28125000000000000        0.0000000000000000     
   1.4375000000000000       0.28125000000000000        0.0000000000000000     
   1.4687500000000000       0.28125000000000000        0.0000000000000000     
   1.5000000000000000       0.28125000000000000        0.0000000000000000     
   1.3750000000000000       0.31250000000000000        0.0000000000000000     
   1.4062500000000000       0.31250000000000000        0.0000000000000000     
   1.4375000000000000       0.31250000000000000        0.0000000000000000     
   1.4687500000000000       0.31250000000000000        0.0000000000000000     
   1.5000000000000000       0.31250000000000000        0.0000000000000000     
   1.3750000000000000       0.34375000000000000        0.0000000000000000     
   1.4062500000000000       0.34375000000000000        0.0000000000000000     
   1.4375000000000000       0.34375000000000000        0.0000000000000000     
   1.4687500000000000       0.34375000000000000        0.0000000000000000     
   1.5000000000000000       0.34375000000000000        0.0000000000000000     
   1.3750000000000000       0.37500000000000000        0.0000000000000000     
   1.4062500000000000       0.37500000000000000        0.0000000000000000     
   1.4375000000000000       0.37500000000000000        0.0000000000000000     
   1.4687500000000000       0.37500000000000000        0.0000000000000000     
   1.5000000000000000       0.37500000000000000        0.0000000000000000     
  0.50000000000000000       0.37500000000000000        0.0000000000000000     
  0.53125000000000000       0.37500000000000000        0.0000000000000000     
  0.56250000000000000       0.37500000000000000        0.0000000000000000     
  0.59375000000000000       0.37500000000000000        0.0000000000000000     
  0.62500000000000000       0.37500000000000000        0.0000000000000000     
  0.50000000000000000       0.40625000000000000        0.0000000000000000     
  0.53125000000000000       0.40625000000000000        0.0000000000000000     
  0.56250000000000000       0.40625000000000000        0.0000000000000000     
  0.59375000000000000       0.40625000000000000        0.0000000000000000     
  0.62500000000000000       0.40625000000000000        0.0000000000000000     
  0.50000000000000000       0.43750000000000000        0.0000000000000000     
  0.53125000000000000       0.43750000000000000        0.0000000000000000     
  0.56250000000000000       0.43750000000000000        0.0000000000000000     
  0.59375000000000000       0.43750000000000000        0.0000000000000000     
  0.62500000000000000       0.43750000000000000        0.0000000000000000     
  0.50000000000000000       0.46875000000000000        0.0000000000000000     
  0.53125000000000000       0.46875000000000000        0.0000000000000000     
  0.56250000000000000       0.46875000000000000        0.0000000000000000     
  0.59375000000000000       0.46875000000000000        0.0000000000000000     
  0.62500000000000000       0.46875000000000000        0.0000000000000000     
  0.50000000000000000       0.50000000000000000        0.0000000000000000     
  0.53125000000000000       0.50000000000000000        0.0000000000000000     
  0.56250000000000000       0.50000000000000000        0.0000000000000000     
  0.59375000000000000       0.50000000000000000        0.0000000000000000     
  0.62500000000000000       0.50000000000000000        0.0000000000000000     
  0.62500000000000000       0.37500000000000000        0.0000000000000000     
  0.65625000000000000       0.37500000000000000        0.0000000000000000     
  0.68750000000000000       0.37500000000000000        0.0000000000000000     
  0.71875000000000000       0.37500000000000000        0.0000000000000000     
  0.75000000000000000       0.37500000000000000        0.0000000000000000     
  0.62500000000000000       0.40625000000000000        0.0000000000000000     
  0.65625000000000000       0.40625000000000000        0.0000000000000000     
  0.68750000000000000       0.40625000000000000        0.0000000000000000     
  0.71875000000000000       0.40625000000000000        0.0000000000000000     
  0.75000000000000000       0.40625000000000000        0.0000000000000000     
  0.62500000000000000       0.43750000000000000        0.0000000000000000     
  0.65625000000000000       0.43750000000000000        0.0000000000000000     
  0.68750000000000000       0.43750000000000000        0.0000000000000000     
  0.71875000000000000       0.43750000000000000        0.0000000000000000     
  0.75000000000000000       0.43750000000000000        0.0000000000000000     
  0.62500000000000000       0.46875000000000000        0.0000000000000000     
  0.65625000000000000       0.46875000000000000        0.0000000000000000     
  0.68750000000000000       0.46875000000000000        0.0000000000000000     
  0.71875000000000000       0.46875000000000000        0.0000000000000000     
  0.75000000000000000       0.46875000000000000        0.0000000000000000     
  0.62500000000000000       0.50000000000000000        0.0000000000000000     
  0.65625000000000000       0.50000000000000000        0.0000000000000000     
  0.68750000000000000       0.50000000000000000        0.0000000000000000     
  0.71875000000000000       0.50000000000000000        0.0000000000000000     
  0.75000000000000000       0.50000000000000000        0.0000000000000000     
  0.75000000000000000       0.37500000000000000        0.0000000000000000     
  0.78125000000000000       0.37500000000000000        0.0000000000000000     
  0.81250000000000000       0.37500000000000000        0.0000000000000000     
  0.84375000000000000       0.37500000000000000        0.0000000000000000     
  0.87500000000000000       0.37500000000000000        0.0000000000000000     
  0.75000000000000000       0.40625000000000000        0.0000000000000000     
  0.78125000000000000       0.40625000000000000        0.0000000000000000     
  0.81250000000000000       0.40625000000000000        0.0000000000000000     
  0.84375000000000000       0.40625000000000000        0.0000000000000000     
  0.87500000000000000       0.40625000000000000        0.0000000000000000     
  0.75000000000000000       0.43750000000000000        0.0000000000000000     
  0.78125000000000000       0.43750000000000000        0.0000000000000000     
  0.81250000000000000       0.43750000000000000        0.0000000000000000     
  0.84375000000000000       0.43750000000000000        0.0000000000000000     
  0.87500000000000000       0.43750000000000000        0.0000000000000000     
  0.75000000000000000       0.46875000000000000        0.0000000000000000     
  0.78125000000000000       0.46875000000000000        0.0000000000000000     
  0.81250000000000000       0.46875000000000000        0.0000000000000000     
  0.84375000000000000       0.46875000000000000        0.0000000000000000     
  0.87500000000000000       0.46875000000000000        0.0000000000000000     
  0.75000000000000000       0.50000000000000000        0.0000000000000000     
  0.78125000000000000       0.50000000000000000        0.0000000000000000     
  0.81250000000000000       0.50000000000000000        0.0000000000000000     
  0.84375000000000000       0.50000000000000000        0.0000000000000000     
  0.87500000000000000       0.50000000000000000        0.0000000000000000     
  0.87500000000000000       0.37500000000000000        0.0000000000000000     
  0.90625000000000000       0.37500000000000000        0.0000000000000000     
  0.93750000000000000       0.37500000000000000        0.0000000000000000     
  0.96875000000000000       0.37500000000000000        0.0000000000000000     
   1.0000000000000000       0.37500000000000000        0.0000000000000000     
  0.87500000000000000       0.40625000000000000        0.0000000000000000     
  0.90625000000000000       0.40625000000000000        0.0000000000000000     
  0.93750000000000000       0.40625000000000000        0.0000000000000000     
  0.96875000000000000       0.40625000000000000        0.0000000000000000     
   1.0000000000000000       0.40625000000000000        0.0000000000000000     
  0.87500000000000000       0.43750000000000000        0.0000000000000000     
  0.90625000000000000       0.43750000000000000        0.0000000000000000     
  0.93750000000000000       0.43750000000000000        0.0000000000000000     
  0.96875000000000000       0.43750000000000000        0.0000000000000000     
   1.0000000000000000       0.43750000000000000        0.0000000000000000     
  0.87500000000000000       0.46875000000000000        0.0000000000000000     
  0.90625000000000000       0.46875000000000000        0.0000000000000000     
  0.93750000000000000       0.46875000000000000        0.0000000000000000     
  0.96875000000000000       0.46875000000000000        0.0000000000000000     
   1.0000000000000000       0.46875000000000000        0.0000000000000000     
  0.87500000000000000       0.50000000000000000        0.0000000000000000     
  0.90625000000000000       0.50000000000000000        0.0000000000000000     
  0.93750000000000000       0.50000000000000000        0.0000000000000000     
  0.96875000000000000       0.50000000000000000        0.0000000000000000     
   1.0000000000000000       0.50000000000000000        0.0000000000000000     
   1.0000000000000000       0.37500000000000000        0.0000000000000000     
   1.0312500000000000       0.37500000000000000        0.0000000000000000     
   1.0625000000000000       0.37500000000000000        0.0000000000000000     
   1.0937500000000000       0.37500000000000000        0.0000000000000000     
   1.1250000000000000       0.37500000000000000        0.0000000000000000     
   1.0000000000000000       0.40625000000000000        0.0000000000000000     
   1.0312500000000000       0.40625000000000000        0.0000000000000000     
   1.0625000000000000       0.40625000000000000        0.0000000000000000     
   1.0937500000000000       0.40625000000000000        0.0000000000000000     
   1.1250000000000000       0.40625000000000000        0.0000000000000000     
   1.0000000000000000       0.43750000000000000        0.0000000000000000     
   1.0312500000000000       0.43750000000000000        0.0000000000000000     
   1.0625000000000000       0.43750000000000000        0.0000000000000000     
   1.0937500000000000       0.43750000000000000        0.0000000000000000     
   1.1250000000000000       0.43750000000000000        0.0000000000000000     
   1.0000000000000000       0.46875000000000000        0.0000000000000000     
   1.0312500000000000       0.46875000000000000        0.0000000000000000     
   1.0625000000000000       0.46875000000000000        0.0000000000000000     
   1.0937500000000000       0.46875000000000000        0.0000000000000000     
   1.1250000000000000       0.46875000000000000        0.0000000000000000     
   1.0000000000000000       0.50000000000000000        0.0000000000000000     
   1.0312500000000000       0.50000000000000000        0.0000000000000000     
   1.0625000000000000       0.50000000000000000        0.0000000000000000     
   1.0937500000000000       0.50000000000000000        0.0000000000000000     
   1.1250000000000000       0.50000000000000000        0.0000000000000000     
   1.1250000000000000       0.37500000000000000        0.0000000000000000     
   1.1562500000000000       0.37500000000000000        0.0000000000000000     
   1.1875000000000000       0.37500000000000000        0.0000000000000000     
   1.2187500000000000       0.37500000000000000        0.0000000000000000     
   1.2500000000000000       0.37500000000000000        0.0000000000000000     
   1.1250000000000000       0.40625000000000000        0.0000000000000000     
   1.1562500000000000       0.40625000000000000        0.0000000000000000     
   1.1875000000000000       0.40625000000000000        0.0000000000000000     
   1.2187500000000000       0.40625000000000000        0.0000000000000000     
   1.2500000000000000       0.40625000000000000        0.0000000000000000     
   1.1250000000000000       0.43750000000000000        0.0000000000000000     
   1.1562500000000000       0.43750000000000000        0.0000000000000000     
   1.1875000000000000       0.43750000000000000        0.0000000000000000     
   1.2187500000000000       0.43750000000000000        0.0000000000000000     
   1.2500000000000000       0.43750000000000000        0.0000000000000000     
   1.1250000000000000       0.46875000000000000        0.0000000000000000     
   1.1562500000000000       0.46875000000000000        0.0000000000000000     
   1.1875000000000000       0.46875000000000000        0.0000000000000000     
   1.2187500000000000       0.46875000000000000        0.0000000000000000     
   1.2500000000000000       0.46875000000000000        0.0000000000000000     
   1.1250000000000000       0.50000000000000000        0.0000000000000000     
   1.1562500000000000       0.50000000000000000        0.0000000000000000     
   1.1875000000000000       0.50000000000000000        0.0000000000000000     
   1.2187500000000000       0.50000000000000000        0.0000000000000000     
   1.2500000000000000       0.50000000000000000        0.0000000000000000     
   1.2500000000000000       0.37500000000000000        0.0000000000000000     
   1.2812500000000000       0.37500000000000000        0.0000000000000000     
   1.3125000000000000       0.37500000000000000        0.0000000000000000     
   1.3437500000000000       0.37500000000000000        0.0000000000000000     
   1.3750000000000000       0.37500000000000000        0.0000000000000000     
   1.2500000000000000       0.40625000000000000        0.0000000000000000     
   1.2812500000000000       0.40625000000000000        0.0000000000000000     
   1.3125000000000000       0.40625000000000000        0.0000000000000000     
   1.3437500000000000       0.40625000000000000        0.0000000000000000     
   1.3750000000000000       0.40625000000000000        0.0000000000000000     
   1.2500000000000000       0.43750000000000000        0.0000000000000000     
   1.2812500000000000       0.43750000000000000        0.0000000000000000     
   1.3125000000000000       0.43750000000000000        0.0000000000000000     
   1.3437500000000000       0.43750000000000000        0.0000000000000000     
   1.3750000000000000       0.43750000000000000        0.0000000000000000     
   1.2500000000000000       0.46875000000000000        0.0000000000000000     
   1.2812500000000000       0.46875000000000000        0.0000000000000000     
   1.3125000000000000       0.46875000000000000        0.0000000000000000     
   1.3437500000000000       0.46875000000000000        0.0000000000000000     
   1.3750000000000000       0.46875000000000000        0.0000000000000000     
   1.2500000000000000       0.50000000000000000        0.0000000000000000     
   1.2812500000000000       0.50000000000000000        0.0000000000000000     
   1.3125000000000000       0.50000000000000000        0.0000000000000000     
   1.3437500000000000       0.50000000000000000        0.0000000000000000     
   1.3750000000000000       0.50000000000000000        0.0000000000000000     
   1.3750000000000000       0.37500000000000000        0.0000000000000000     
   1.4062500000000000       0.37500000000000000        0.0000000000000000     
   1.4375000000000000       0.37500000000000000        0.0000000000000000     
   1.4687500000000000       0.37500000000000000        0.0000000000000000     
   1.5000000000000000       0.37500000000000000        0.0000000000000000     
   1.3750000000000000       0.40625000000000000        0.0000000000000000     
   1.4062500000000000       0.40625000000000000        0.0000000000000000     
   1.4375000000000000       0.40625000000000000        0.0000000000000000     
   1.4687500000000000       0.40625000000000000        0.0000000000000000     
   1.5000000000000000       0.40625000000000000        0.0000000000000000     
   1.3750000000000000       0.43750000000000000        0.0000000000000000     
   1.4062500000000000       0.43750000000000000        0.0000000000000000     
   1.4375000000000000       0.43750000000000000        0.0000000000000000     
   1.4687500000000000       0.43750000000000000        0.0000000000000000     
   1.5000000000000000       0.43750000000000000        0.0000000000000000     
   1.3750000000000000       0.46875000000000000        0.0000000000000000     
   1.4062500000000000       0.46875000000000000        0.0000000000000000     
   1.4375000000000000       0.46875000000000000        0.0000000000000000     
   1.4687500000000000       0.46875000000000000        0.0000000000000000     
   1.5000000000000000       0.46875000000000000        0.0000000000000000     
   1.3750000000000000       0.50000000000000000        0.0000000000000000     
   1.4062500000000000       0.50000000000000000        0.0000000000000000     
   1.4375000000000000       0.50000000000000000        0.0000000000000000     
   1.4687500000000000       0.50000000000000000        0.0000000000000000     
   1.5000000000000000       0.50000000000000000        0.0000000000000000     
  0.50000000000000000       0.50000000000000000        0.0000000000000000     
  0.53125000000000000       0.50000000000000000        0.0000000000000000     
  0.56250000000000000       0.50000000000000000        0.0000000000000000     
  0.59375000000000000       0.50000000000000000        0.0000000000000000     
  0.62500000000000000       0.50000000000000000        0.0000000000000000     
  0.50000000000000000       0.53125000000000000        0.0000000000000000     
  0.53125000000000000       0.53125000000000000        0.0000000000000000     
  0.56250000000000000       0.53125000000000000        0.0000000000000000     
  0.59375000000000000       0.53125000000000000        0.0000000000000000     
  0.62500000000000000       0.53125000000000000        0.0000000000000000     
  0.50000000000000000       0.56250000000000000        0.0000000000000000     
  0.53125000000000000       0.56250000000000000        0.0000000000000000     
  0.56250000000000000       0.56250000000000000        0.0000000000000000     
  0.59375000000000000       0.56250000000000000        0.0000000000000000     
  0.62500000000000000       0.56250000000000000        0.0000000000000000     
  0.50000000000000000       0.59375000000000000        0.0000000000000000     
  0.53125000000000000       0.59375000000000000        0.0000000000000000     
  0.56250000000000000       0.59375000000000000        0.0000000000000000     
  0.59375000000000000       0.59375000000000000        0.0000000000000000     
  0.62500000000000000       0.59375000000000000        0.0000000000000000     
  0.50000000000000000       0.62500000000000000        0.0000000000000000     
  0.53125000000000000       0.62500000000000000        0.0000000000000000     
  0.56250000000000000       0.62500000000000000        0.0000000000000000     
  0.59375000000000000       0.62500000000000000        0.0000000000000000     
  0.62500000000000000       0.62500000000000000        0.0000000000000000     
  0.62500000000000000       0.50000000000000000        0.0000000000000000     
  0.65625000000000000       0.50000000000000000        0.0000000000000000     
  0.68750000000000000       0.50000000000000000        0.0000000000000000     
  0.71875000000000000       0.50000000000000000        0.0000000000000000     
  0.75000000000000000       0.50000000000000000        0.0000000000000000     
  0.62500000000000000       0.53125000000000000        0.0000000000000000     
  0.65625000000000000       0.53125000000000000        0.0000000000000000     
  0.68750000000000000       0.53125000000000000        0.0000000000000000     
  0.71875000000000000       0.53125000000000000        0.0000000000000000     
  0.75000000000000000       0.53125000000000000        0.0000000000000000     
  0.62500000000000000       0.56250000000000000        0.0000000000000000     
  0.65625000000000000       0.56250000000000000        0.0000000000000000     
  0.68750000000000000       0.56250000000000000        0.0000000000000000     
  0.71875000000000000       0.56250000000000000        0.0000000000000000     
  0.75000000000000000       0.56250000000000000        0.0000000000000000     
  0.62500000000000000       0.59375000000000000        0.0000000000000000     
  0.65625000000000000       0.59375000000000000        0.0000000000000000     
  0.68750000000000000       0.59375000000000000        0.0000000000000000     
  0.71875000000000000       0.59375000000000000        0.0000000000000000     
  0.75000000000000000       0.59375000000000000        0.0000000000000000     
  0.62500000000000000       0.62500000000000000        0.0000000000000000     
  0.65625000000000000       0.62500000000000000        0.0000000000000000     
  0.68750000000000000       0.62500000000000000        0.0000000000000000     
  0.71875000000000000       0.62500000000000000        0.0000000000000000     
  0.75000000000000000       0.62500000000000000        0.0000000000000000     
  0.75000000000000000       0.50000000000000000        0.0000000000000000     
  0.78125000000000000       0.50000000000000000        0.0000000000000000     
  0.81250000000000000       0.50000000000000000        0.0000000000000000     
  0.84375000000000000       0.50000000000000000        0.0000000000000000     
  0.87500000000000000       0.50000000000000000        0.0000000000000000     
  0.75000000000000000       0.53125000000000000        0.0000000000000000     
  0.78125000000000000       0.53125000000000000        0.0000000000000000     
  0.81250000000000000       0.53125000000000000        0.0000000000000000     
  0.84375000000000000       0.53125000000000000        0.0000000000000000     
  0.87500000000000000       0.53125000000000000        0.0000000000000000     
  0.75000000000000000       0.56250000000000000        0.0000000000000000     
  0.78125000000000000       0.56250000000000000        0.0000000000000000     
  0.81250000000000000       0.56250000000000000        0.0000000000000000     
  0.84375000000000000       0.56250000000000000        0.0000000000000000     
  0.87500000000000000       0.56250000000000000        0.0000000000000000     
  0.75000000000000000       0.59375000000000000        0.0000000000000000     
  0.78125000000000000       0.59375000000000000        0.0000000000000000     
  0.81250000000000000       0.59375000000000000        0.0000000000000000     
  0.84375000000000000       0.59375000000000000        0.0000000000000000     
  0.87500000000000000       0.59375000000000000        0.0000000000000000     
  0.75000000000000000       0.62500000000000000        0.0000000000000000     
  0.78125000000000000       0.62500000000000000        0.0000000000000000     
  0.81250000000000000       0.62500000000000000        0.0000000000000000     
  0.84375000000000000       0.62500000000000000        0.0000000000000000     
  0.87500000000000000       0.62500000000000000        0.0000000000000000     
  0.87500000000000000       0.50000000000000000        0.0000000000000000     
  0.90625000000000000       0.50000000000000000        0.0000000000000000     
  0.93750000000000000       0.50000000000000000        0.0000000000000000     
  0.96875000000000000       0.50000000000000000        0.0000000000000000     
   1.0000000000000000       0.50000000000000000        0.0000000000000000     
  0.87500000000000000       0.53125000000000000        0.0000000000000000     
  0.90625000000000000       0.53125000000000000        0.0000000000000000     
  0.93750000000000000       0.53125000000000000        0.0000000000000000     
  0.96875000000000000       0.53125000000000000        0.0000000000000000     
   1.0000000000000000       0.53125000000000000        0.0000000000000000     
  0.87500000000000000       0.56250000000000000        0.0000000000000000     
  0.90625000000000000       0.56250000000000000        0.0000000000000000     
  0.93750000000000000       0.56250000000000000        0.0000000000000000     
  0.96875000000000000       0.56250000000000000        0.0000000000000000     
   1.0000000000000000       0.56250000000000000        0.0000000000000000     
  0.87500000000000000       0.59375000000000000        0.0000000000000000     
  0.90625000000000000       0.59375000000000000        0.0000000000000000     
  0.93750000000000000       0.59375000000000000        0.0000000000000000     
  0.96875000000000000       0.59375000000000000        0.0000000000000000     
   1.0000000000000000       0.59375000000000000        0.0000000000000000     
  0.87500000000000000       0.62500000000000000        0.0000000000000000     
  0.90625000000000000       0.62500000000000000        0.0000000000000000     
  0.93750000000000000       0.62500000000000000        0.0000000000000000     
  0.96875000000000000       0.62500000000000000        0.0000000000000000     
   1.0000000000000000       0.62500000000000000        0.0000000000000000     
   1.0000000000000000       0.50000000000000000        0.0000000000000000     
   1.0312500000000000       0.50000000000000000        0.0000000000000000     
   1.0625000000000000       0.50000000000000000        0.0000000000000000     
   1.0937500000000000       0.50000000000000000        0.0000000000000000     
   1.1250000000000000       0.50000000000000000        0.0000000000000000     
   1.0000000000000000       0.53125000000000000        0.0000000000000000     
   1.0312500000000000       0.53125000000000000        0.0000000000000000     
   1.0625000000000000       0.53125000000000000        0.0000000000000000     
   1.0937500000000000       0.53125000000000000        0.0000000000000000     
   1.1250000000000000       0.53125000000000000        0.0000000000000000     
   1.0000000000000000       0.56250000000000000        0.0000000000000000     
   1.0312500000000000       0.56250000000000000        0.0000000000000000     
   1.0625000000000000       0.56250000000000000        0.0000000000000000     
   1.0937500000000000       0.56250000000000000        0.0000000000000000     
   1.1250000000000000       0.56250000000000000        0.0000000000000000     
   1.0000000000000000       0.59375000000000000        0.0000000000000000     
   1.0312500000000000       0.59375000000000000        0.0000000000000000     
   1.0625000000000000       0.59375000000000000        0.0000000000000000     
   1.0937500000000000       0.59375000000000000        0.0000000000000000     
   1.1250000000000000       0.59375000000000000        0.0000000000000000     
   1.0000000000000000       0.62500000000000000        0.0000000000000000     
   1.0312500000000000       0.62500000000000000        0.0000000000000000     
   1.0625000000000000       0.62500000000000000        0.0000000000000000     
   1.0937500000000000       0.62500000000000000        0.0000000000000000     
   1.1250000000000000       0.62500000000000000        0.0000000000000000     
   1.1250000000000000       0.50000000000000000        0.0000000000000000     
   1.1562500000000000       0.50000000000000000        0.0000000000000000     
   1.1875000000000000       0.50000000000000000        0.0000000000000000     
   1.2187500000000000       0.50000000000000000        0.0000000000000000     
   1.2500000000000000       0.50000000000000000        0.0000000000000000     
   1.1250000000000000       0.53125000000000000        0.0000000000000000     
   1.1562500000000000       0.53125000000000000        0.0000000000000000     
   1.1875000000000000       0.53125000000000000        0.0000000000000000     
   1.2187500000000000       0.53125000000000000        0.0000000000000000     
   1.2500000000000000       0.53125000000000000        0.0000000000000000     
   1.1250000000000000       0.56250000000000000        0.0000000000000000     
   1.1562500000000000       0.56250000000000000        0.0000000000000000     
   1.1875000000000000       0.56250000000000000        0.0000000000000000     
   1.2187500000000000       0.56250000000000000        0.0000000000000000     
   1.2500000000000000       0.56250000000000000        0.0000000000000000     
   1.1250000000000000       0.59375000000000000        0.0000000000000000     
   1.1562500000000000       0.59375000000000000        0.0000000000000000     
   1.1875000000000000       0.59375000000000000        0.0000000000000000     
   1.2187500000000000       0.59375000000000000        0.0000000000000000     
   1.2500000000000000       0.59375000000000000        0.0000000000000000     
   1.1250000000000000       0.62500000000000000        0.0000000000000000     
   1.1562500000000000       0.62500000000000000        0.0000000000000000     
   1.1875000000000000       0.62500000000000000        0.0000000000000000     
   1.2187500000000000       0.62500000000000000        0.0000000000000000     
   1.2500000000000000       0.62500000000000000        0.0000000000000000     
   1.2500000000000000       0.50000000000000000        0.0000000000000000     
   1.2812500000000000       0.50000000000000000        0.0000000000000000     
   1.3125000000000000       0.50000000000000000        0.0000000000000000     
   1.3437500000000000       0.50000000000000000        0.0000000000000000     
   1.3750000000000000       0.50000000000000000        0.0000000000000000     
   1.2500000000000000       0.53125000000000000        0.0000000000000000     
   1.2812500000000000       0.53125000000000000        0.0000000000000000     
   1.3125000000000000       0.53125000000000000        0.0000000000000000     
   1.3437500000000000       0.53125000000000000        0.0000000000000000     
   1.3750000000000000       0.53125000000000000        0.0000000000000000     
   1.2500000000000000       0.56250000000000000        0.0000000000000000     
   1.2812500000000000       0.56250000000000000        0.0000000000000000     
   1.3125000000000000       0.56250000000000000        0.0000000000000000     
   1.3437500000000000       0.56250000000000000        0.0000000000000000     
   1.3750000000000000       0.56250000000000000        0.0000000000000000     
   1.2500000000000000       0.59375000000000000        0.0000000000000000     
   1.2812500000000000       0.59375000000000000        0.0000000000000000     
   1.3125000000000000       0.59375000000000000        0.0000000000000000     
   1.3437500000000000       0.59375000000000000        0.0000000000000000     
   1.3750000000000000       0.59375000000000000        0.0000000000000000     
   1.2500000000000000       0.62500000000000000        0.0000000000000000     
   1.2812500000000000       0.62500000000000000        0.0000000000000000     
   1.3125000000000000       0.62500000000000000        0.0000000000000000     
   1.3437500000000000       0.62500000000000000        0.0000000000000000     
   1.3750000000000000       0.62500000000000000        0.0000000000000000     
   1.3750000000000000       0.50000000000000000        0.0000000000000000     
   1.4062500000000000       0.50000000000000000        0.0000000000000000     
   1.4375000000000000       0.50000000000000000        0.0000000000000000     
   1.4687500000000000       0.50000000000000000        0.0000000000000000     
   1.5000000000000000       0.50000000000000000        0.0000000000000000     
   1.3750000000000000       0.53125000000000000        0.0000000000000000     
   1.4062500000000000       0.53125000000000000        0.0000000000000000     
   1.4375000000000000       0.53125000000000000        0.0000000000000000     
   1.4687500000000000       0.53125000000000000        0.0000000000000000     
   1.5000000000000000       0.53125000000000000        0.0000000000000000     
   1.3750000000000000       0.56250000000000000        0.0000000000000000     
   1.4062500000000000       0.56250000000000000        0.0000000000000000     
   1.4375000000000000       0.56250000000000000        0.0000000000000000     
   1.4687500000000000       0.56250000000000000        0.0000000000000000     
   1.5000000000000000       0.56250000000000000        0.0000000000000000     
   1.3750000000000000       0.59375000000000000        0.0000000000000000     
   1.4062500000000000       0.59375000000000000        0.0000000000000000     
   1.4375000000000000       0.59375000000000000        0.0000000000000000     
   1.4687500000000000       0.59375000000000000        0.0000000000000000     
   1.5000000000000000       0.59375000000000000        0.0000000000000000     
   1.3750000000000000       0.62500000000000000        0.0000000000000000     
   1.4062500000000000       0.62500000000000000        0.0000000000000000     
   1.4375000000000000       0.62500000000000000        0.0000000000000000     
   1.4687500000000000       0.62500000000000000        0.0000000000000000     
   1.5000000000000000       0.62500000000000000        0.0000000000000000     
  0.50000000000000000       0.62500000000000000        0.0000000000000000     
  0.53125000000000000       0.62500000000000000        0.0000000000000000     
  0.56250000000000000       0.62500000000000000        0.0000000000000000     
  0.59375000000000000       0.62500000000000000        0.0000000000000000     
  0.62500000000000000       0.62500000000000000        0.0000000000000000     
  0.50000000000000000       0.65625000000000000        0.0000000000000000     
  0.53125000000000000       0.65625000000000000        0.0000000000000000     
  0.56250000000000000       0.65625000000000000        0.0000000000000000     
  0.59375000000000000       0.65625000000000000        0.0000000000000000     
  0.62500000000000000       0.65625000000000000        0.0000000000000000     
  0.50000000000000000       0.68750000000000000        0.0000000000000000     
  0.53125000000000000       0.68750000000000000        0.0000000000000000     
  0.56250000000000000       0.68750000000000000        0.0000000000000000     
  0.59375000000000000       0.68750000000000000        0.0000000000000000     
  0.62500000000000000       0.68750000000000000        0.0000000000000000     
  0.50000000000000000       0.71875000000000000        0.0000000000000000     
  0.53125000000000000       0.71875000000000000        0.0000000000000000     
  0.56250000000000000       0.71875000000000000        0.0000000000000000     
  0.59375000000000000       0.71875000000000000        0.0000000000000000     
  0.62500000000000000       0.71875000000000000        0.0000000000000000     
  0.50000000000000000       0.75000000000000000        0.0000000000000000     
  0.53125000000000000       0.75000000000000000        0.0000000000000000     
  0.56250000000000000       0.75000000000000000        0.0000000000000000     
  0.59375000000000000       0.75000000000000000        0.0000000000000000     
  0.62500000000000000       0.75000000000000000        0.0000000000000000     
  0.62500000000000000       0.62500000000000000        0.0000000000000000     
  0.65625000000000000       0.62500000000000000        0.0000000000000000     
  0.68750000000000000       0.62500000000000000        0.0000000000000000     
  0.71875000000000000       0.62500000000000000        0.0000000000000000     
  0.75000000000000000       0.62500000000000000        0.0000000000000000     
  0.62500000000000000       0.65625000000000000        0.0000000000000000     
  0.65625000000000000       0.65625000000000000        0.0000000000000000     
  0.68750000000000000       0.65625000000000000        0.0000000000000000     
  0.71875000000000000       0.65625000000000000        0.0000000000000000     
  0.75000000000000000       0.65625000000000000        0.0000000000000000     
  0.62500000000000000       0.68750000000000000        0.0000000000000000     
  0.65625000000000000       0.68750000000000000        0.0000000000000000     
  0.68750000000000000       0.68750000000000000        0.0000000000000000     
  0.71875000000000000       0.68750000000000000        0.0000000000000000     
  0.75000000000000000       0.68750000000000000        0.0000000000000000     
  0.62500000000000000       0.71875000000000000        0.0000000000000000     
  0.65625000000000000       0.71875000000000000        0.0000000000000000     
  0.68750000000000000       0.71875000000000000        0.0000000000000000     
  0.71875000000000000       0.71875000000000000        0.0000000000000000     
  0.75000000000000000       0.71875000000000000        0.0000000000000000     
  0.62500000000000000       0.75000000000000000        0.0000000000000000     
  0.65625000000000000       0.75000000000000000        0.0000000000000000     
  0.68750000000000000       0.75000000000000000        0.0000000000000000     
  0.71875000000000000       0.75000000000000000        0.0000000000000000     
  0.75000000000000000       0.75000000000000000        0.0000000000000000     
  0.75000000000000000       0.62500000000000000        0.0000000000000000     
  0.78125000000000000       0.62500000000000000        0.0000000000000000     
  0.81250000000000000       0.62500000000000000        0.0000000000000000     
  0.84375000000000000       0.62500000000000000        0.0000000000000000     
  0.87500000000000000       0.62500000000000000        0.0000000000000000     
  0.75000000000000000       0.65625000000000000        0.0000000000000000     
  0.78125000000000000       0.65625000000000000        0.0000000000000000     
  0.81250000000000000       0.65625000000000000        0.0000000000000000     
  0.84375000000000000       0.65625000000000000        0.0000000000000000     
  0.87500000000000000       0.65625000000000000        0.0000000000000000     
  0.75000000000000000       0.68750000000000000        0.0000000000000000     
  0.78125000000000000       0.68750000000000000        0.0000000000000000     
  0.81250000000000000       0.68750000000000000        0.0000000000000000     
  0.84375000000000000       0.68750000000000000        0.0000000000000000     
  0.87500000000000000       0.68750000000000000        0.0000000000000000     
  0.75000000000000000       0.71875000000000000        0.0000000000000000     
  0.78125000000000000       0.71875000000000000        0.0000000000000000     
  0.81250000000000000       0.71875000000000000        0.0000000000000000     
  0.84375000000000000       0.71875000000000000        0.0000000000000000     
  0.87500000000000000       0.71875000000000000        0.0000000000000000     
  0.75000000000000000       0.75000000000000000        0.0000000000000000     
  0.78125000000000000       0.75000000000000000        0.0000000000000000     
  0.81250000000000000       0.75000000000000000        0.0000000000000000     
  0.84375000000000000       0.75000000000000000        0.0000000000000000     
  0.87500000000000000       0.75000000000000000        0.0000000000000000     
  0.87500000000000000       0.62500000000000000        0.0000000000000000     
  0.90625000000000000       0.62500000000000000        0.0000000000000000     
  0.93750000000000000       0.62500000000000000        0.0000000000000000     
  0.96875000000000000       0.62500000000000000        0.0000000000000000     
   1.0000000000000000       0.62500000000000000        0.0000000000000000     
  0.87500000000000000       0.65625000000000000        0.0000000000000000     
  0.90625000000000000       0.65625000000000000        0.0000000000000000     
  0.93750000000000000       0.65625000000000000        0.0000000000000000     
  0.96875000000000000       0.65625000000000000        0.0000000000000000     
   1.0000000000000000       0.65625000000000000        0.0000000000000000     
  0.87500000000000000       0.68750000000000000        0.0000000000000000     
  0.90625000000000000       0.68750000000000000        0.0000000000000000     
  0.93750000000000000       0.68750000000000000        0.0000000000000000     
  0.96875000000000000       0.68750000000000000        0.0000000000000000     
   1.0000000000000000       0.68750000000000000        0.0000000000000000     
  0.87500000000000000       0.71875000000000000        0.0000000000000000     
  0.90625000000000000       0.71875000000000000        0.0000000000000000     
  0.93750000000000000       0.71875000000000000        0.0000000000000000     
  0.96875000000000000       0.71875000000000000        0.0000000000000000     
   1.0000000000000000       0.71875000000000000        0.0000000000000000     
  0.87500000000000000       0.75000000000000000        0.0000000000000000     
  0.90625000000000000       0.75000000000000000        0.0000000000000000     
  0.93750000000000000       0.75000000000000000        0.0000000000000000     
  0.96875000000000000       0.75000000000000000        0.0000000000000000     
   1.0000000000000000       0.75000000000000000        0.0000000000000000     
   1.0000000000000000       0.62500000000000000        0.0000000000000000     
   1.0312500000000000       0.62500000000000000        0.0000000000000000     
   1.0625000000000000       0.62500000000000000        0.0000000000000000     
   1.0937500000000000       0.62500000000000000        0.0000000000000000     
   1.1250000000000000       0.62500000000000000        0.0000000000000000     
   1.0000000000000000       0.65625000000000000        0.0000000000000000     
   1.0312500000000000       0.65625000000000000        0.0000000000000000     
   1.0625000000000000       0.65625000000000000        0.0000000000000000     
   1.0937500000000000       0.65625000000000000        0.0000000000000000     
   1.1250000000000000       0.65625000000000000        0.0000000000000000     
   1.0000000000000000       0.68750000000000000        0.0000000000000000     
   1.0312500000000000       0.68750000000000000        0.0000000000000000     
   1.0625000000000000       0.68750000000000000        0.0000000000000000     
   1.0937500000000000       0.68750000000000000        0.0000000000000000     
   1.1250000000000000       0.68750000000000000        0.0000000000000000     
   1.0000000000000000       0.71875000000000000        0.0000000000000000     
   1.0312500000000000       0.71875000000000000        0.0000000000000000     
   1.0625000000000000       0.71875000000000000        0.0000000000000000     
   1.0937500000000000       0.71875000000000000        0.0000000000000000     
   1.1250000000000000       0.71875000000000000        0.0000000000000000     
   1.0000000000000000       0.75000000000000000        0.0000000000000000     
   1.0312500000000000       0.75000000000000000        0.0000000000000000     
   1.0625000000000000       0.75000000000000000        0.0000000000000000     
   1.0937500000000000       0.75000000000000000        0.0000000000000000     
   1.1250000000000000       0.75000000000000000        0.0000000000000000     
   1.1250000000000000       0.62500000000000000        0.0000000000000000     
   1.1562500000000000       0.62500000000000000        0.0000000000000000     
   1.1875000000000000       0.62500000000000000        0.0000000000000000     
   1.2187500000000000       0.62500000000000000        0.0000000000000000     
   1.2500000000000000       0.62500000000000000        0.0000000000000000     
   1.1250000000000000       0.65625000000000000        0.0000000000000000     
   1.1562500000000000       0.65625000000000000        0.0000000000000000     
   1.1875000000000000       0.65625000000000000        0.0000000000000000     
   1.2187500000000000       0.65625000000000000        0.0000000000000000     
   1.2500000000000000       0.65625000000000000        0.0000000000000000     
   1.1250000000000000       0.68750000000000000        0.0000000000000000     
   1.1562500000000000       0.68750000000000000        0.0000000000000000     
   1.1875000000000000       0.68750000000000000        0.0000000000000000     
   1.2187500000000000       0.68750000000000000        0.0000000000000000     
   1.2500000000000000       0.68750000000000000        0.0000000000000000     
   1.1250000000000000       0.71875000000000000        0.0000000000000000     
   1.1562500000000000       0.71875000000000000        0.0000000000000000     
   1.1875000000000000       0.71875000000000000        0.0000000000000000     
   1.2187500000000000       0.71875000000000000        0.0000000000000000     
   1.2500000000000000       0.71875000000000000        0.0000000000000000     
   1.1250000000000000       0.75000000000000000        0.0000000000000000     
   1.1562500000000000       0.75000000000000000        0.0000000000000000     
   1.1875000000000000       0.75000000000000000        0.0000000000000000     
   1.2187500000000000       0.75000000000000000        0.0000000000000000     
   1.2500000000000000       0.75000000000000000        0.0000000000000000     
   1.2500000000000000       0.62500000000000000        0.0000000000000000     
   1.2812500000000000       0.62500000000000000        0.0000000000000000     
   1.3125000000000000       0.62500000000000000        0.0000000000000000     
   1.3437500000000000       0.62500000000000000        0.0000000000000000     
   1.3750000000000000       0.62500000000000000        0.0000000000000000     
   1.2500000000000000       0.65625000000000000        0.0000000000000000     
   1.2812500000000000       0.65625000000000000        0.0000000000000000     
   1.3125000000000000       0.65625000000000000        0.0000000000000000     
   1.3437500000000000       0.65625000000000000        0.0000000000000000     
   1.3750000000000000       0.65625000000000000        0.0000000000000000     
   1.2500000000000000       0.68750000000000000        0.0000000000000000     
   1.2812500000000000       0.68750000000000000        0.0000000000000000     
   1.3125000000000000       0.68750000000000000        0.0000000000000000     
   1.3437500000000000       0.68750000000000000        0.0000000000000000     
   1.3750000000000000       0.68750000000000000        0.0000000000000000     
   1.2500000000000000       0.71875000000000000        0.0000000000000000     
   1.2812500000000000       0.71875000000000000        0.0000000000000000     
   1.3125000000000000       0.71875000000000000        0.0000000000000000     
   1.3437500000000000       0.71875000000000000        0.0000000000000000     
   1.3750000000000000       0.71875000000000000        0.0000000000000000     
   1.2500000000000000       0.75000000000000000        0.0000000000000000     
   1.2812500000000000       0.75000000000000000        0.0000000000000000     
   1.3125000000000000       0.75000000000000000        0.0000000000000000     
   1.3437500000000000       0.75000000000000000        0.0000000000000000     
   1.3750000000000000       0.75000000000000000        0.0000000000000000     
   1.3750000000000000       0.62500000000000000        0.0000000000000000     
   1.4062500000000000       0.62500000000000000        0.0000000000000000     
   1.4375000000000000       0.62500000000000000        0.0000000000000000     
   1.4687500000000000       0.62500000000000000        0.0000000000000000     
   1.5000000000000000       0.62500000000000000        0.0000000000000000     
   1.3750000000000000       0.65625000000000000        0.0000000000000000     
   1.4062500000000000       0.65625000000000000        0.0000000000000000     
   1.4375000000000000       0.65625000000000000        0.0000000000000000     
   1.4687500000000000       0.65625000000000000        0.0000000000000000     
   1.5000000000000000       0.65625000000000000        0.0000000000000000     
   1.3750000000000000       0.68750000000000000        0.0000000000000000     
   1.4062500000000000       0.68750000000000000        0.0000000000000000     
   1.4375000000000000       0.68750000000000000        0.0000000000000000     
   1.4687500000000000       0.68750000000000000        0.0000000000000000     
   1.5000000000000000       0.68750000000000000        0.0000000000000000     
   1.3750000000000000       0.71875000000000000        0.0000000000000000     
   1.4062500000000000       0.71875000000000000        0.0000000000000000     
   1.4375000000000000       0.71875000000000000        0.0000000000000000     
   1.4687500000000000       0.71875000000000000        0.0000000000000000     
   1.5000000000000000       0.71875000000000000        0.0000000000000000     
   1.3750000000000000       0.75000000000000000        0.0000000000000000     
   1.4062500000000000       0.75000000000000000        0.0000000000000000     
   1.4375000000000000       0.75000000000000000        0.0000000000000000     
   1.4687500000000000       0.75000000000000000        0.0000000000000000     
   1.5000000000000000       0.75000000000000000        0.0000000000000000     
  0.50000000000000000       0.75000000000000000        0.0000000000000000     
  0.53125000000000000       0.75000000000000000        0.0000000000000000     
  0.56250000000000000       0.75000000000000000        0.0000000000000000     
  0.59375000000000000       0.75000000000000000        0.0000000000000000     
  0.62500000000000000       0.75000000000000000        0.0000000000000000     
  0.50000000000000000       0.78125000000000000        0.0000000000000000     
  0.53125000000000000       0.78125000000000000        0.0000000000000000     
  0.56250000000000000       0.78125000000000000        0.0000000000000000     
  0.59375000000000000       0.78125000000000000        0.0000000000000000     
  0.62500000000000000       0.78125000000000000        0.0000000000000000     
  0.50000000000000000       0.81250000000000000        0.0000000000000000     
  0.53125000000000000       0.81250000000000000        0.0000000000000000     
  0.56250000000000000       0.81250000000000000        0.0000000000000000     
  0.59375000000000000       0.81250000000000000        0.0000000000000000     
  0.62500000000000000       0.81250000000000000        0.0000000000000000     
  0.50000000000000000       0.84375000000000000        0.0000000000000000     
  0.53125000000000000       0.84375000000000000        0.0000000000000000     
  0.56250000000000000       0.84375000000000000        0.0000000000000000     
  0.59375000000000000       0.84375000000000000        0.0000000000000000     
  0.62500000000000000       0.84375000000000000        0.0000000000000000     
  0.50000000000000000       0.87500000000000000        0.0000000000000000     
  0.53125000000000000       0.87500000000000000        0.0000000000000000     
  0.56250000000000000       0.87500000000000000        0.0000000000000000     
  0.59375000000000000       0.87500000000000000        0.0000000000000000     
  0.62500000000000000       0.87500000000000000        0.0000000000000000     
  0.62500000000000000       0.75000000000000000        0.0000000000000000     
  0.65625000000000000       0.75000000000000000        0.0000000000000000     
  0.68750000000000000       0.75000000000000000        0.0000000000000000     
  0.71875000000000000       0.75000000000000000        0.0000000000000000     
  0.75000000000000000       0.75000000000000000        0.0000000000000000     
  0.62500000000000000       0.78125000000000000        0.0000000000000000     
  0.65625000000000000       0.78125000000000000        0.0000000000000000     
  0.68750000000000000       0.78125000000000000        0.0000000000000000     
  0.71875000000000000       0.78125000000000000        0.0000000000000000     
  0.75000000000000000       0.78125000000000000        0.0000000000000000     
  0.62500000000000000       0.81250000000000000        0.0000000000000000     
  0.65625000000000000       0.81250000000000000        0.0000000000000000     
  0.68750000000000000       0.81250000000000000        0.0000000000000000     
  0.71875000000000000       0.81250000000000000        0.0000000000000000     
  0.75000000000000000       0.81250000000000000        0.0000000000000000     
  0.62500000000000000       0.84375000000000000        0.0000000000000000     
  0.65625000000000000       0.84375000000000000        0.0000000000000000     
  0.68750000000000000       0.84375000000000000        0.0000000000000000     
  0.71875000000000000       0.84375000000000000        0.0000000000000000     
  0.75000000000000000       0.84375000000000000        0.0000000000000000     
  0.62500000000000000       0.87500000000000000        0.0000000000000000     
  0.65625000000000000       0.87500000000000000        0.0000000000000000     
  0.68750000000000000       0.87500000000000000        0.0000000000000000     
  0.71875000000000000       0.87500000000000000        0.0000000000000000     
  0.75000000000000000       0.87500000000000000        0.0000000000000000     
  0.75000000000000000       0.75000000000000000        0.0000000000000000     
  0.78125000000000000       0.75000000000000000        0.0000000000000000     
  0.81250000000000000       0.75000000000000000        0.0000000000000000     
  0.84375000000000000       0.75000000000000000        0.0000000000000000     
  0.87500000000000000       0.75000000000000000        0.0000000000000000     
  0.75000000000000000       0.78125000000000000        0.0000000000000000     
  0.78125000000000000       0.78125000000000000        0.0000000000000000     
  0.81250000000000000       0.78125000000000000        0.0000000000000000     
  0.84375000000000000       0.78125000000000000        0.0000000000000000     
  0.87500000000000000       0.78125000000000000        0.0000000000000000     
  0.75000000000000000       0.81250000000000000        0.0000000000000000     
  0.78125000000000000       0.81250000000000000        0.0000000000000000     
  0.81250000000000000       0.81250000000000000        0.0000000000000000     
  0.84375000000000000       0.81250000000000000        0.0000000000000000     
  0.87500000000000000       0.81250000000000000        0.0000000000000000     
  0.75000000000000000       0.84375000000000000        0.0000000000000000     
  0.78125000000000000       0.84375000000000000        0.0000000000000000     
  0.81250000000000000       0.84375000000000000        0.0000000000000000     
  0.84375000000000000       0.84375000000000000        0.0000000000000000     
  0.87500000000000000       0.84375000000000000        0.0000000000000000     
  0.75000000000000000       0.87500000000000000        0.0000000000000000     
  0.78125000000000000       0.87500000000000000        0.0000000000000000     
  0.81250000000000000       0.87500000000000000        0.0000000000000000     
  0.84375000000000000       0.87500000000000000        0.0000000000000000     
  0.87500000000000000       0.87500000000000000        0.0000000000000000     
  0.87500000000000000       0.75000000000000000        0.0000000000000000     
  0.90625000000000000       0.75000000000000000        0.0000000000000000     
  0.93750000000000000       0.75000000000000000        0.0000000000000000     
  0.96875000000000000       0.75000000000000000        0.0000000000000000     
   1.0000000000000000       0.75000000000000000        0.0000000000000000     
  0.87500000000000000       0.78125000000000000        0.0000000000000000     
  0.90625000000000000       0.78125000000000000        0.0000000000000000     
  0.93750000000000000       0.78125000000000000        0.0000000000000000     
  0.96875000000000000       0.78125000000000000        0.0000000000000000     
   1.0000000000000000       0.78125000000000000        0.0000000000000000     
  0.87500000000000000       0.81250000000000000        0.0000000000000000     
  0.90625000000000000       0.81250000000000000        0.0000000000000000     
  0.93750000000000000       0.81250000000000000        0.0000000000000000     
  0.96875000000000000       0.81250000000000000        0.0000000000000000     
   1.0000000000000000       0.81250000000000000        0.0000000000000000     
  0.87500000000000000       0.84375000000000000        0.0000000000000000     
  0.90625000000000000       0.84375000000000000        0.0000000000000000     
  0.93750000000000000       0.84375000000000000        0.0000000000000000     
  0.96875000000000000       0.84375000000000000        0.0000000000000000     
   1.0000000000000000       0.84375000000000000        0.0000000000000000     
  0.87500000000000000       0.87500000000000000        0.0000000000000000     
  0.90625000000000000       0.87500000000000000        0.0000000000000000     
  0.93750000000000000       0.87500000000000000        0.0000000000000000     
  0.96875000000000000       0.87500000000000000        0.0000000000000000     
   1.0000000000000000       0.87500000000000000        0.0000000000000000     
   1.0000000000000000       0.75000000000000000        0.0000000000000000     
   1.0312500000000000       0.75000000000000000        0.0000000000000000     
   1.0625000000000000       0.75000000000000000        0.0000000000000000     
   1.0937500000000000       0.75000000000000000        0.0000000000000000     
   1.1250000000000000       0.75000000000000000        0.0000000000000000     
   1.0000000000000000       0.78125000000000000        0.0000000000000000     
   1.0312500000000000       0.78125000000000000        0.0000000000000000     
   1.0625000000000000       0.78125000000000000        0.0000000000000000     
   1.0937500000000000       0.78125000000000000        0.0000000000000000     
   1.1250000000000000       0.78125000000000000        0.0000000000000000     
   1.0000000000000000       0.81250000000000000        0.0000000000000000     
   1.0312500000000000       0.81250000000000000        0.0000000000000000     
   1.0625000000000000       0.81250000000000000        0.0000000000000000     
   1.0937500000000000       0.81250000000000000        0.0000000000000000     
   1.1250000000000000       0.81250000000000000        0.0000000000000000     
   1.0000000000000000       0.84375000000000000        0.0000000000000000     
   1.0312500000000000       0.84375000000000000        0.0000000000000000     
   1.0625000000000000       0.84375000000000000        0.0000000000000000     
   1.0937500000000000       0.84375000000000000        0.0000000000000000     
   1.1250000000000000       0.84375000000000000        0.0000000000000000     
   1.0000000000000000       0.87500000000000000        0.0000000000000000     
   1.0312500000000000       0.87500000000000000        0.0000000000000000     
   1.0625000000000000       0.87500000000000000        0.0000000000000000     
   1.0937500000000000       0.87500000000000000        0.0000000000000000     
   1.1250000000000000       0.87500000000000000        0.0000000000000000     
   1.1250000000000000       0.75000000000000000        0.0000000000000000     
   1.1562500000000000       0.75000000000000000        0.0000000000000000     
   1.1875000000000000       0.75000000000000000        0.0000000000000000     
   1.2187500000000000       0.75000000000000000        0.0000000000000000     
   1.2500000000000000       0.75000000000000000        0.0000000000000000     
   1.1250000000000000       0.78125000000000000        0.0000000000000000     
   1.1562500000000000       0.78125000000000000        0.0000000000000000     
   1.1875000000000000       0.78125000000000000        0.0000000000000000     
   1.2187500000000000       0.78125000000000000        0.0000000000000000     
   1.2500000000000000       0.78125000000000000        0.0000000000000000     
   1.1250000000000000       0.81250000000000000        0.0000000000000000     
   1.1562500000000000       0.81250000000000000        0.0000000000000000     
   1.1875000000000000       0.81250000000000000        0.0000000000000000     
   1.2187500000000000       0.81250000000000000        0.0000000000000000     
   1.2500000000000000       0.81250000000000000        0.0000000000000000     
   1.1250000000000000       0.84375000000000000        0.0000000000000000     
   1.1562500000000000       0.84375000000000000        0.0000000000000000     
   1.1875000000000000       0.84375000000000000        0.0000000000000000     
   1.2187500000000000       0.84375000000000000        0.0000000000000000     
   1.2500000000000000       0.84375000000000000        0.0000000000000000     
   1.1250000000000000       0.87500000000000000        0.0000000000000000     
   1.1562500000000000       0.87500000000000000        0.0000000000000000     
   1.1875000000000000       0.87500000000000000        0.0000000000000000     
   1.2187500000000000       0.87500000000000000        0.0000000000000000     
   1.2500000000000000       0.87500000000000000        0.0000000000000000     
   1.2500000000000000       0.75000000000000000        0.0000000000000000     
   1.2812500000000000       0.75000000000000000        0.0000000000000000     
   1.3125000000000000       0.75000000000000000        0.0000000000000000     
   1.3437500000000000       0.75000000000000000        0.0000000000000000     
   1.3750000000000000       0.75000000000000000        0.0000000000000000     
   1.2500000000000000       0.78125000000000000        0.0000000000000000     
   1.2812500000000000       0.78125000000000000        0.0000000000000000     
   1.3125000000000000       0.78125000000000000        0.0000000000000000     
   1.3437500000000000       0.78125000000000000        0.0000000000000000     
   1.3750000000000000       0.78125000000000000        0.0000000000000000     
   1.2500000000000000       0.81250000000000000        0.0000000000000000     
   1.2812500000000000       0.81250000000000000        0.0000000000000000     
   1.3125000000000000       0.81250000000000000        0.0000000000000000     
   1.3437500000000000       0.81250000000000000        0.0000000000000000     
   1.3750000000000000       0.81250000000000000        0.0000000000000000     
   1.2500000000000000       0.84375000000000000        0.0000000000000000     
   1.2812500000000000       0.84375000000000000        0.0000000000000000     
   1.3125000000000000       0.84375000000000000        0.0000000000000000     
   1.3437500000000000       0.84375000000000000        0.0000000000000000     
   1.3750000000000000       0.84375000000000000        0.0000000000000000     
   1.2500000000000000       0.87500000000000000        0.0000000000000000     
   1.2812500000000000       0.87500000000000000        0.0000000000000000     
   1.3125000000000000       0.87500000000000000        0.0000000000000000     
   1.3437500000000000       0.87500000000000000        0.0000000000000000     
   1.3750000000000000       0.87500000000000000        0.0000000000000000     
   1.3750000000000000       0.75000000000000000        0.0000000000000000     
   1.4062500000000000       0.75000000000000000        0.0000000000000000     
   1.4375000000000000       0.75000000000000000        0.0000000000000000     
   1.4687500000000000       0.75000000000000000        0.0000000000000000     
   1.5000000000000000       0.75000000000000000        0.0000000000000000     
   1.3750000000000000       0.78125000000000000        0.0000000000000000     
   1.4062500000000000       0.78125000000000000        0.0000000000000000     
   1.4375000000000000       0.78125000000000000        0.0000000000000000     
   1.4687500000000000       0.78125000000000000        0.0000000000000000     
   1.5000000000000000       0.78125000000000000        0.0000000000000000     
   1.3750000000000000       0.81250000000000000        0.0000000000000000     
   1.4062500000000000       0.81250000000000000        0.0000000000000000     
   1.4375000000000000       0.81250000000000000        0.0000000000000000     
   1.4687500000000000       0.81250000000000000        0.0000000000000000     
   1.5000000000000000       0.81250000000000000        0.0000000000000000     
   1.3750000000000000       0.84375000000000000        0.0000000000000000     
   1.4062500000000000       0.84375000000000000        0.0000000000000000     
   1.4375000000000000       0.84375000000000000        0.0000000000000000     
   1.4687500000000000       0.84375000000000000        0.0000000000000000     
   1.5000000000000000       0.84375000000000000        0.0000000000000000     
   1.3750000000000000       0.87500000000000000        0.0000000000000000     
   1.4062500000000000       0.87500000000000000        0.0000000000000000     
   1.4375000000000000       0.87500000000000000        0.0000000000000000     
   1.4687500000000000       0.87500000000000000        0.0000000000000000     
   1.5000000000000000       0.87500000000000000        0.0000000000000000     
  0.50000000000000000       0.87500000000000000        0.0000000000000000     
  0.53125000000000000       0.87500000000000000        0.0000000000000000     
  0.56250000000000000       0.87500000000000000        0.0000000000000000     
  0.59375000000000000       0.87500000000000000        0.0000000000000000     
  0.62500000000000000       0.87500000000000000        0.0000000000000000     
  0.50000000000000000       0.90625000000000000        0.0000000000000000     
  0.53125000000000000       0.90625000000000000        0.0000000000000000     
  0.56250000000000000       0.90625000000000000        0.0000000000000000     
  0.59375000000000000       0.90625000000000000        0.0000000000000000     
  0.62500000000000000       0.90625000000000000        0.0000000000000000     
  0.50000000000000000       0.93750000000000000        0.0000000000000000     
  0.53125000000000000       0.93750000000000000        0.0000000000000000     
  0.56250000000000000       0.93750000000000000        0.0000000000000000     
  0.59375000000000000       0.93750000000000000        0.0000000000000000     
  0.62500000000000000       0.93750000000000000        0.0000000000000000     
  0.50000000000000000       0.96875000000000000        0.0000000000000000     
  0.53125000000000000       0.96875000000000000        0.0000000000000000     
  0.56250000000000000       0.96875000000000000        0.0000000000000000     
  0.59375000000000000       0.96875000000000000        0.0000000000000000     
  0.62500000000000000       0.96875000000000000        0.0000000000000000     
  0.50000000000000000        1.0000000000000000        0.0000000000000000     
  0.53125000000000000        1.0000000000000000        0.0000000000000000     
  0.56250000000000000        1.0000000000000000        0.0000000000000000     
  0.59375000000000000        1.0000000000000000        0.0000000000000000     
  0.62500000000000000        1.0000000000000000        0.0000000000000000     
  0.62500000000000000       0.87500000000000000        0.0000000000000000     
  0.65625000000000000       0.87500000000000000        0.0000000000000000     
  0.68750000000000000       0.87500000000000000        0.0000000000000000     
  0.71875000000000000       0.87500000000000000        0.0000000000000000     
  0.75000000000000000       0.87500000000000000        0.0000000000000000     
  0.62500000000000000       0.90625000000000000        0.0000000000000000     
  0.65625000000000000       0.90625000000000000        0.0000000000000000     
  0.68750000000000000       0.90625000000000000        0.0000000000000000     
  0.71875000000000000       0.90625000000000000        0.0000000000000000     
  0.75000000000000000       0.90625000000000000        0.0000000000000000     
  0.62500000000000000       0.93750000000000000        0.0000000000000000     
  0.65625000000000000       0.93750000000000000        0.0000000000000000     
  0.68750000000000000       0.93750000000000000        0.0000000000000000     
  0.71875000000000000       0.93750000000000000        0.0000000000000000     
  0.75000000000000000       0.93750000000000000        0.0000000000000000     
  0.62500000000000000       0.96875000000000000        0.0000000000000000     
  0.65625000000000000       0.96875000000000000        0.0000000000000000     
  0.68750000000000000       0.96875000000000000        0.0000000000000000     
  0.71875000000000000       0.96875000000000000        0.0000000000000000     
  0.75000000000000000       0.96875000000000000        0.0000000000000000     
  0.62500000000000000        1.0000000000000000        0.0000000000000000     
  0.65625000000000000        1.0000000000000000        0.0000000000000000     
  0.68750000000000000        1.0000000000000000        0.0000000000000000     
  0.71875000000000000        1.0000000000000000        0.0000000000000000     
  0.75000000000000000        1.0000000000000000        0.0000000000000000     
  0.75000000000000000       0.87500000000000000        0.0000000000000000     
  0.78125000000000000       0.87500000000000000        0.0000000000000000     
  0.81250000000000000       0.87500000000000000        0.0000000000000000     
  0.84375000000000000       0.87500000000000000        0.0000000000000000     
  0.87500000000000000       0.87500000000000000        0.0000000000000000     
  0.75000000000000000       0.90625000000000000        0.0000000000000000     
  0.78125000000000000       0.90625000000000000        0.0000000000000000     
  0.81250000000000000       0.90625000000000000        0.0000000000000000     
  0.84375000000000000       0.90625000000000000        0.0000000000000000     
  0.87500000000000000       0.90625000000000000        0.0000000000000000     
  0.75000000000000000       0.93750000000000000        0.0000000000000000     
  0.78125000000000000       0.93750000000000000        0.0000000000000000     
  0.81250000000000000       0.93750000000000000        0.0000000000000000     
  0.84375000000000000       0.93750000000000000        0.0000000000000000     
  0.87500000000000000       0.93750000000000000        0.0000000000000000     
  0.75000000000000000       0.96875000000000000        0.0000000000000000     
  0.78125000000000000       0.96875000000000000        0.0000000000000000     
  0.81250000000000000       0.96875000000000000        0.0000000000000000     
  0.84375000000000000       0.96875000000000000        0.0000000000000000     
  0.87500000000000000       0.96875000000000000        0.0000000000000000     
  0.75000000000000000        1.0000000000000000        0.0000000000000000     
  0.78125000000000000        1.0000000000000000        0.0000000000000000     
  0.81250000000000000        1.0000000000000000        0.0000000000000000     
  0.84375000000000000        1.0000000000000000        0.0000000000000000     
  0.87500000000000000        1.0000000000000000        0.0000000000000000     
  0.87500000000000000       0.87500000000000000        0.0000000000000000     
  0.90625000000000000       0.87500000000000000        0.0000000000000000     
  0.93750000000000000       0.87500000000000000        0.0000000000000000     
  0.96875000000000000       0.87500000000000000        0.0000000000000000     
   1.0000000000000000       0.87500000000000000        0.0000000000000000     
  0.87500000000000000       0.90625000000000000        0.0000000000000000     
  0.90625000000000000       0.90625000000000000        0.0000000000000000     
  0.93750000000000000       0.90625000000000000        0.0000000000000000     
  0.96875000000000000       0.90625000000000000        0.0000000000000000     
   1.0000000000000000       0.90625000000000000        0.0000000000000000     
  0.87500000000000000       0.93750000000000000        0.0000000000000000     
  0.90625000000000000       0.93750000000000000        0.0000000000000000     
  0.93750000000000000       0.93750000000000000        0.0000000000000000     
  0.96875000000000000       0.93750000000000000        0.0000000000000000     
   1.0000000000000000       0.93750000000000000        0.0000000000000000     
  0.87500000000000000       0.96875000000000000        0.0000000000000000     
  0.90625000000000000       0.96875000000000000        0.0000000000000000     
  0.93750000000000000       0.96875000000000000        0.0000000000000000     
  0.96875000000000000       0.96875000000000000        0.0000000000000000     
   1.0000000000000000       0.96875000000000000        0.0000000000000000     
  0.87500000000000000        1.0000000000000000        0.0000000000000000     
  0.90625000000000000        1.0000000000000000        0.0000000000000000     
  0.93750000000000000        1.0000000000000000        0.0000000000000000     
  0.96875000000000000        1.0000000000000000        0.0000000000000000     
   1.0000000000000000        1.0000000000000000        0.0000000000000000     
   1.0000000000000000       0.87500000000000000        0.0000000000000000     
   1.0312500000000000       0.87500000000000000        0.0000000000000000     
   1.0625000000000000       0.87500000000000000        0.0000000000000000     
   1.0937500000000000       0.87500000000000000        0.0000000000000000     
   1.1250000000000000       0.87500000000000000        0.0000000000000000     
   1.0000000000000000       0.90625000000000000        0.0000000000000000     
   1.0312500000000000       0.90625000000000000        0.0000000000000000     
   1.0625000000000000       0.90625000000000000        0.0000000000000000     
   1.0937500000000000       0.90625000000000000        0.0000000000000000     
   1.1250000000000000       0.90625000000000000        0.0000000000000000     
   1.0000000000000000       0.93750000000000000        0.0000000000000000     
   1.0312500000000000       0.93750000000000000        0.0000000000000000     
   1.0625000000000000       0.93750000000000000        0.0000000000000000     
   1.0937500000000000       0.93750000000000000        0.0000000000000000     
   1.1250000000000000       0.93750000000000000        0.0000000000000000     
   1.0000000000000000       0.96875000000000000        0.0000000000000000     
   1.0312500000000000       0.96875000000000000        0.0000000000000000     
   1.0625000000000000       0.96875000000000000        0.0000000000000000     
   1.0937500000000000       0.96875000000000000        0.0000000000000000     
   1.1250000000000000       0.96875000000000000        0.0000000000000000     
   1.0000000000000000        1.0000000000000000        0.0000000000000000     
   1.0312500000000000        1.0000000000000000        0.0000000000000000     
   1.0625000000000000        1.0000000000000000        0.0000000000000000     
   1.0937500000000000        1.0000000000000000        0.0000000000000000     
   1.1250000000000000        1.0000000000000000        0.0000000000000000     
   1.1250000000000000       0.87500000000000000        0.0000000000000000     
   1.1562500000000000       0.87500000000000000        0.0000000000000000     
   1.1875000000000000       0.87500000000000000        0.0000000000000000     
   1.2187500000000000       0.87500000000000000        0.0000000000000000     
   1.2500000000000000       0.87500000000000000        0.0000000000000000     
   1.1250000000000000       0.90625000000000000        0.0000000000000000     
   1.1562500000000000       0.90625000000000000        0.0000000000000000     
   1.1875000000000000       0.90625000000000000        0.0000000000000000     
   1.2187500000000000       0.90625000000000000        0.0000000000000000     
   1.2500000000000000       0.90625000000000000        0.0000000000000000     
   1.1250000000000000       0.93750000000000000        0.0000000000000000     
   1.1562500000000000       0.93750000000000000        0.0000000000000000     
   1.1875000000000000       0.93750000000000000        0.0000000000000000     
   1.2187500000000000       0.93750000000000000        0.0000000000000000     
   1.2500000000000000       0.93750000000000000        0.0000000000000000     
   1.1250000000000000       0.96875000000000000        0.0000000000000000     
   1.1562500000000000       0.96875000000000000        0.0000000000000000     
   1.1875000000000000       0.96875000000000000        0.0000000000000000     
   1.2187500000000000       0.96875000000000000        0.0000000000000000     
   1.2500000000000000       0.96875000000000000        0.0000000000000000     
   1.1250000000000000        1.0000000000000000        0.0000000000000000     
   1.1562500000000000        1.0000000000000000        0.0000000000000000     
   1.1875000000000000        1.0000000000000000        0.0000000000000000     
   1.2187500000000000        1.0000000000000000        0.0000000000000000     
   1.2500000000000000        1.0000000000000000        0.0000000000000000     
   1.2500000000000000       0.87500000000000000        0.0000000000000000     
   1.2812500000000000       0.87500000000000000        0.0000000000000000     
   1.3125000000000000       0.87500000000000000        0.0000000000000000     
   1.3437500000000000       0.87500000000000000        0.0000000000000000     
   1.3750000000000000       0.87500000000000000        0.0000000000000000     
   1.2500000000000000       0.90625000000000000        0.0000000000000000     
   1.2812500000000000       0.90625000000000000        0.0000000000000000     
   1.3125000000000000       0.90625000000000000        0.0000000000000000     
   1.3437500000000000       0.90625000000000000        0.0000000000000000     
   1.3750000000000000       0.90625000000000000        0.0000000000000000     
   1.2500000000000000       0.93750000000000000        0.0000000000000000     
   1.2812500000000000       0.93750000000000000        0.0000000000000000     
   1.3125000000000000       0.93750000000000000        0.0000000000000000     
   1.3437500000000000       0.93750000000000000        0.0000000000000000     
   1.3750000000000000       0.93750000000000000        0.0000000000000000     
   1.2500000000000000       0.96875000000000000        0.0000000000000000     
   1.2812500000000000       0.96875000000000000        0.0000000000000000     
   1.3125000000000000       0.96875000000000000        0.0000000000000000     
   1.3437500000000000       0.96875000000000000        0.0000000000000000     
   1.3750000000000000       0.96875000000000000        0.0000000000000000     
   1.2500000000000000        1.0000000000000000        0.0000000000000000     
   1.2812500000000000        1.0000000000000000        0.0000000000000000     
   1.3125000000000000        1.0000000000000000        0.0000000000000000     
   1.3437500000000000        1.0000000000000000        0.0000000000000000     
   1.3750000000000000        1.0000000000000000        0.0000000000000000     
   1.3750000000000000       0.87500000000000000        0.0000000000000000     
   1.4062500000000000       0.87500000000000000        0.0000000000000000     
   1.4375000000000000       0.87500000000000000        0.0000000000000000     
   1.4687500000000000       0.87500000000000000        0.0000000000000000     
   1.5000000000000000       0.87500000000000000        0.0000000000000000     
   1.3750000000000000       0.90625000000000000        0.0000000000000000     
   1.4062500000000000       0.90625000000000000        0.0000000000000000     
   1.4375000000000000       0.90625000000000000        0.0000000000000000     
   1.4687500000000000       0.90625000000000000        0.0000000000000000     
   1.5000000000000000       0.90625000000000000        0.0000000000000000     
   1.3750000000000000       0.93750000000000000        0.0000000000000000     
   1.4062500000000000       0.93750000000000000        0.0000000000000000     
   1.4375000000000000       0.93750000000000000        0.0000000000000000     
   1.4687500000000000       0.93750000000000000        0.0000000000000000     
   1.5000000000000000       0.93750000000000000        0.0000000000000000     
   1.3750000000000000       0.96875000000000000        0.0000000000000000     
   1.4062500000000000       0.96875000000000000        0.0000000000000000     
   1.4375000000000000       0.96875000000000000        0.0000000000000000     
   1.4687500000000000       0.96875000000000000        0.0000000000000000     
   1.5000000000000000       0.96875000000000000        0.0000000000000000     
   1.3750000000000000        1.0000000000000000        0.0000000000000000     
   1.4062500000000000        1.0000000000000000        0.0000000000000000     
   1.4375000000000000        1.0000000000000000        0.0000000000000000     
   1.4687500000000000        1.0000000000000000        0.0000000000000000     
   1.5000000000000000        1.0000000000000000        0.0000000000000000     
 </DataArray>
 </Points>
 <Cells>
 <DataArray  type="Int32"  Name="connectivity"  format="ascii">
           0           1           6           5
           1           2           7           6
           2           3           8           7
           3           4           9           8
           5           6          11          10
           6           7          12          11
           7           8          13          12
           8           9          14          13
          10          11          16          15
          11          12          17          16
          12          13          18          17
          13          14          19          18
          15          16          21          20
          16          17          22          21
          17          18          23          22
          18          19          24          23
          25          26          31          30
          26          27          32          31
          27          28          33          32
          28          29          34          33
          30          31          36          35
          31          32          37          36
          32          33          38          37
          33          34          39          38
          35          36          41          40
          36          37          42          41
          37          38          43          42
          38          39          44          43
          40          41          46          45
          41          42          47          46
          42          43          48          47
          43          44          49          48
          50          51          56          55
          51          52          57          56
          52          53          58          57
          53          54          59          58
          55          56          61          60
          56          57          62          61
          57          58          63          62
          58          59          64          63
          60          61          66          65
          61          62          67          66
          62          63          68          67
          63          64          69          68
          65          66          71          70
          66          67          72          71
          67          68          73          72
          68          69          74          73
          75          76          81          80
          76          77          82          81
          77          78          83          82
          78          79          84          83
          80          81          86          85
          81          82          87          86
          82          83          88          87
          83          84          89          88
          85          86          91          90
          86          87          92          91
          87          88          93          92
          88          89          94          93
          90          91          96          95
          91          92          97          96
          92          93          98          97
          93          94          99          98
         100         101         106         105
         101         102         107         106
         102         103         108         107
         103         104         109         108
         105         106         111         110
         106         107         112         111
         107         108         113         112
         108         109         114         113
         110         111         116         115
         111         112         117         116
         112         113         118         117
         113         114         119         118
         115         116         121         120
         116         117         122         121
         117         118         123         122
         118         119         124         123
         125         126         131         130
         126         127         132         131
         127         128         133         132
         128         129         134         133
         130         131         136         135
         131         132         137         136
         132         133         138         137
         133         134         139         138
         135         136         141         140
         136         137         142         141
         137         138         143         142
         138         139         144         143
         140         141         146         145
         141         142         147         146
         142         143         148         147
         143         144         149         148
         150         151         156         155
         151         152         157         156
         152         153         158         157
         153         154         159         158
         155         156         161         160
         156         157         162         161
         157         158         163         162
         158         159         164         163
         160         161         166         165
         161         162         167         166
         162         163         168         167
         163         164         169         168
         165         166         171         170
         166         167         172         171
         167         168         173         172
         168         169         174         173
         175         176         181         180
         176         177         182         181
         177         178         183         182
         178         179         184         183
         180         181         186         185
         181         182         187         186
         182         183         188         187
         183         184         189         188
         185         186         191         190
         186         187         192         191
         187         188         193         192
         188         189         194         193
         190         191         196         195
         191         192         197         196
         192         193         198         197
         193         194         199         198
         200         201         206         205
         201         202         207         206
         202         203         208         207
         203         204         209         208
         205         206         211         210
         206         207         212         211
         207         208         213         212
         208         209         214         213
         210         211         216         215
         211         212         217         216
         212         213         218         217
         213         214         219         218
         215         216         221         220
         216         217         222         221
         217         218         223         222
         218         219         224         223
         225         226         231         230
         226         227         232         231
         227         228         233         232
         228         229         234         233
         230         231         236         235
         231         232         237         236
         232         233         238         237
         233         234         239         238
         235         236         241         240
         236         237         242         241
         237         238         243         242
         238         239         244         243
         240         241         246         245
         241         242         247         246
         242         243         248         247
         243         244         249         248
         250         251         256         255
         251         252         257         256
         252         253         258         257
         253         254         259         258
         255         256         261         260
         256         257         262         261
         257         258         263         262
         258         259         264         263
         260         261         266         265
         261         262         267         266
         262         263         268         267
         263         264         269         268
         265         266         271         270
         266         267         272         271
         267         268         273         272
         268         269         274         273
         275         276         281         280
         276         277         282         281
         277         278         283         282
         278         279         284         283
         280         281         286         285
         281         282         287         286
         282         283         288         287
         283         284         289         288
         285         286         291         290
         286         287         292         291
         287         288         293         292
         288         289         294         293
         290         291         296         295
         291         292         297         296
         292         293         298         297
         293         294         299         298
         300         301         306         305
         301         302         307         306
         302         303         308         307
         303         304         309         308
         305         306         311         310
         306         307         312         311
         307         308         313         312
         308         309         314         313
         310         311         316         315
         311         312         317         316
         312         313         318         317
         313         314         319         318
         315         316         321         320
         316         317         322         321
         317         318         323         322
         318         319         324         323
         325         326         331         330
         326         327         332         331
         327         328         333         332
         328         329         334         333
         330         331         336         335
         331         332         337         336
         332         333         338         337
         333         334         339         338
         335         336         341         340
         336         337         342         341
         337         338         343         342
         338         339         344         343
         340         341         346         345
         341         342         347         346
         342         343         348         347
         343         344         349         348
         350         351         356         355
         351         352         357         356
         352         353         358         357
         353         354         359         358
         355         356         361         360
         356         357         362         361
         357         358         363         362
         358         359         364         363
         360         361         366         365
         361         362         367         366
         362         363         368         367
         363         364         369         368
         365         366         371         370
         366         367         372         371
         367         368         373         372
         368         369         374         373
         375         376         381         380
         376         377         382         381
         377         378         383         382
         378         379         384         383
         380         381         386         385
         381         382         387         386
         382         383         388         387
         383         384         389         388
         385         386         391         390
         386         387         392         391
         387         388         393         392
         388         389         394         393
         390         391         396         395
         391         392         397         396
         392         393         398         397
         393         394         399         398
         400         401         406         405
         401         402         407         406
         402         403         408         407
         403         404         409         408
         405         406         411         410
         406         407         412         411
         407         408         413         412
         408         409         414         413
         410         411         416         415
         411         412         417         416
         412         413         418         417
         413         414         419         418
         415         416         421         420
         416         417         422         421
         417         418         423         422
         418         419         424         423
         425         426         431         430
         426         427         432         431
         427         428         433         432
         428         429         434         433
         430         431         436         435
         431         432         437         436
         432         433         438         437
         433         434         439         438
         435         436         441         440
         436         437         442         441
         437         438         443         442
         438         439         444         443
         440         441         446         445
         441         442         447         446
         442         443         448         447
         443         444         449         448
         450         451         456         455
         451         452         457         456
         452         453         458         457
         453         454         459         458
         455         456         461         460
         456         457         462         461
         457         458         463         462
         458         459         464         463
         460         461         466         465
         461         462         467         466
         462         463         468         467
         463         464         469         468
         465         466         471         470
         466         467         472         471
         467         468         473         472
         468         469         474         473
         475         476         481         480
         476         477         482         481
         477         478         483         482
         478         479         484         483
         480         481         486         485
         481         482         487         486
         482         483         488         487
         483         484         489         488
         485         486         491         490
         486         487         492         491
         487         488         493         492
         488         489         494         493
         490         491         496         495
         491         492         497         496
         492         493         498         497
         493         494         499         498
         500         501         506         505
         501         502         507         506
         502         503         508         507
         503         504         509         508
         505         506         511         510
         506         507         512         511
         507         508         513         512
         508         509         514         513
         510         511         516         515
         511         512         517         516
         512         513         518         517
         513         514         519         518
         515         516         521         520
         516         517         522         521
         517         518         523         522
         518         519         524         523
         525         526         531         530
         526         527         532         531
         527         528         533         532
         528         529         534         533
         530         531         536         535
         531         532         537         536
         532         533         538         537
         533         534         539         538
         535         536         541         540
         536         537         542         541
         537         538         543         542
         538         539         544         543
         540         541         546         545
         541         542         547         546
         542         543         548         547
         543         544         549         548
         550         551         556         555
         551         552         557         556
         552         553         558         557
         553         554         559         558
         555         556         561         560
         556         557         562         561
         557         558         563         562
         558         559         564         563
         560         561         566         565
         561         562         567         566
         562         563         568         567
         563         564         569         568
         565         566         571         570
         566         567         572         571
         567         568         573         572
         568         569         574         573
         575         576         581         580
         576         577         582         581
         577         578         583         582
         578         579         584         583
         580         581         586         585
         581         582         587         586
         582         583         588         587
         583         584         589         588
         585         586         591         590
         586         587         592         591
         587         588         593         592
         588         589         594         593
         590         591         596         595
         591         592         597         596
         592         593         598         597
         593         594         599         598
         600         601         606         605
         601         602         607         606
         602         603         608         607
         603         604         609         608
         605         606         611         610
         606         607         612         611
         607         608         613         612
         608         609         614         613
         610         611         616         615
         611         612         617         616
         612         613         618         617
         613         614         619         618
         615         616         621         620
         616         617         622         621
         617         618         623         622
         618         619         624         623
         625         626         631         630
         626         627         632         631
         627         628         633         632
         628         629         634         633
         630         631         636         635
         631         632         637         636
         632         633         638         637
         633         634         639         638
         635         636         641         640
         636         637         642         641
         637         638         643         642
         638         639         644         643
         640         641         646         645
         641         642         647         646
         642         643         648         647
         643         644         649         648
         650         651         656         655
         651         652         657         656
         652         653         658         657
         653         654         659         658
         655         656         661         660
         656         657         662         661
         657         658         663         662
         658         659         664         663
         660         661         666         665
         661         662         667         666
         662         663         668         667
         663         664         669         668
         665         666         671         670
         666         667         672         671
         667         668         673         672
         668         669         674         673
         675         676         681         680
         676         677         682         681
         677         678         683         682
         678         679         684         683
         680         681         686         685
         681         682         687         686
         682         683         688         687
         683         684         689         688
         685         686         691         690
         686         687         692         691
         687         688         693         692
         688         689         694         693
         690         691         696         695
         691         692         697         696
         692         693         698         697
         693         694         699         698
         700         701         706         705
         701         702         707         706
         702         703         708         707
         703         704         709         708
         705         706         711         710
         706         707         712         711
         707         708         713         712
         708         709         714         713
         710         711         716         715
         711         712         717         716
         712         713         718         717
         713         714         719         718
         715         716         721         720
         716         717         722         721
         717         718         723         722
         718         719         724         723
         725         726         731         730
         726         727         732         731
         727         728         733         732
         728         729         734         733
         730         731         736         735
         731         732         737         736
         732         733         738         737
         733         734         739         738
         735         736         741         740
         736         737         742         741
         737         738         743         742
         738         739         744         743
         740         741         746         745
         741         742         747         746
         742         743         748         747
         743         744         749         748
         750         751         756         755
         751         752         757         756
         752         753         758         757
         753         754         759         758
         755         756         761         760
         756         757         762         761
         757         758         763         762
         758         759         764         763
         760         761         766         765
         761         762         767         766
         762         763         768         767
         763         764         769         768
         765         766         771         770
         766         767         772         771
         767         768         773         772
         768         769         774         773
         775         776         781         780
         776         777         782         781
         777         778         783         782
         778         779         784         783
         780         781         786         785
         781         782         787         786
         782         783         788         787
         783         784         789         788
         785         786         791         790
         786         787         792         791
         787         788         793         792
         788         789         794         793
         790         791         796         795
         791         792         797         796
         792         793         798         797
         793         794         799         798
         800         801         806         805
         801         802         807         806
         802         803         808         807
         803         804         809         808
         805         806         811         810
         806         807         812         811
         807         808         813         812
         808         809         814         813
         810         811         816         815
         811         812         817         816
         812         813         818         817
         813         814         819         818
         815         816         821         820
         816         817         822         821
         817         818         823         822
         818         819         824         823
         825         826         831         830
         826         827         832         831
         827         828         833         832
         828         829         834         833
         830         831         836         835
         831         832         837         836
         832         833         838         837
         833         834         839         838
         835         836         841         840
         836         837         842         841
         837         838         843         842
         838         839         844         843
         840         841         846         845
         841         842         847         846
         842         843         848         847
         843         844         849         848
         850         851         856         855
         851         852         857         856
         852         853         858         857
         853         854         859         858
         855         856         861         860
         856         857         862         861
         857         858         863         862
         858         859         864         863
         860         861         866         865
         861         862         867         866
         862         863         868         867
         863         864         869         868
         865         866         871         870
         866         867         872         871
         867         868         873         872
         868         869         874         873
         875         876         881         880
         876         877         882         881
         877         878         883         882
         878         879         884         883
         880         881         886         885
         881         882         887         886
         882         883         888         887
         883         884         889         888
         885         886         891         890
         886         887         892         891
         887         888         893         892
         888         889         894         893
         890         891         896         895
         891         892         897         896
         892         893         898         897
         893         894         899         898
         900         901         906         905
         901         902         907         906
         902         903         908         907
         903         904         909         908
         905         906         911         910
         906         907         912         911
         907         908         913         912
         908         909         914         913
         910         911         916         915
         911         912         917         916
         912         913         918         917
         913         914         919         918
         915         916         921         920
         916         917         922         921
         917         918         923         922
         918         919         924         923
         925         926         931         930
         926         927         932         931
         927         928         933         932
         928         929         934         933
         930         931         936         935
         931         932         937         936
         932         933         938         937
         933         934         939         938
         935         936         941         940
         936         937         942         941
         937         938         943         942
         938         939         944         943
         940         941         946         945
         941         942         947         946
         942         943         948         947
         943         944         949         948
         950         951         956         955
         951         952         957         956
         952         953         958         957
         953         954         959         958
         955         956         961         960
         956         957         962         961
         957         958         963         962
         958         959         964         963
         960         961         966         965
         961         962         967         966
         962         963         968         967
         963         964         969         968
         965         966         971         970
         966         967         972         971
         967         968         973         972
         968         969         974         973
         975         976         981         980
         976         977         982         981
         977         978         983         982
         978         979         984         983
         980         981         986         985
         981         982         987         986
         982         983         988         987
         983         984         989         988
         985         986         991         990
         986         987         992         991
         987         988         993         992
         988         989         994         993
         990         991         996         995
         991         992         997         996
         992         993         998         997
         993         994         999         998
        1000        1001        1006        1005
        1001        1002        1007        1006
        1002        1003        1008        1007
        1003        1004        1009        1008
        1005        1006        1011        1010
        1006        1007        1012        1011
        1007        1008        1013        1012
        1008        1009        1014        1013
        1010        1011        1016        1015
        1011        1012        1017        1016
        1012        1013        1018        1017
        1013        1014        1019        1018
        1015        1016        1021        1020
        1016        1017        1022        1021
        1017        1018        1023        1022
        1018        1019        1024        1023
        1025        1026        1031        1030
        1026        1027        1032        1031
        1027        1028        1033        1032
        1028        1029        1034        1033
        1030        1031        1036        1035
        1031        1032        1037        1036
        1032        1033        1038        1037
        1033        1034        1039        1038
        1035        1036        1041        1040
        1036        1037        1042        1041
        1037        1038        1043        1042
        1038        1039        1044        1043
        1040        1041        1046        1045
        1041        1042        1047        1046
        1042        1043        1048        1047
        1043        1044        1049        1048
        1050        1051        1056        1055
        1051        1052        1057        1056
        1052        1053        1058        1057
        1053        1054        1059        1058
        1055        1056        1061        1060
        1056        1057        1062        1061
        1057        1058        1063        1062
        1058        1059        1064        1063
        1060        1061        1066        1065
        1061        1062        1067        1066
        1062        1063        1068        1067
        1063        1064        1069        1068
        1065        1066        1071        1070
        1066        1067        1072        1071
        1067        1068        1073        1072
        1068        1069        1074        1073
        1075        1076        1081        1080
        1076        1077        1082        1081
        1077        1078        1083        1082
        1078        1079        1084        1083
        1080        1081        1086        1085
        1081        1082        1087        1086
        1082        1083        1088        1087
        1083        1084        1089        1088
        1085        1086        1091        1090
        1086        1087        1092        1091
        1087        1088        1093        1092
        1088        1089        1094        1093
        1090        1091        1096        1095
        1091        1092        1097        1096
        1092        1093        1098        1097
        1093        1094        1099        1098
        1100        1101        1106        1105
        1101        1102        1107        1106
        1102        1103        1108        1107
        1103        1104        1109        1108
        1105        1106        1111        1110
        1106        1107        1112        1111
        1107        1108        1113        1112
        1108        1109        1114        1113
        1110        1111        1116        1115
        1111        1112        1117        1116
        1112        1113        1118        1117
        1113        1114        1119        1118
        1115        1116        1121        1120
        1116        1117        1122        1121
        1117        1118        1123        1122
        1118        1119        1124        1123
        1125        1126        1131        1130
        1126        1127        1132        1131
        1127        1128        1133        1132
        1128        1129        1134        1133
        1130        1131        1136        1135
        1131        1132        1137        1136
        1132        1133        1138        1137
        1133        1134        1139        1138
        1135        1136        1141        1140
        1136        1137        1142        1141
        1137        1138        1143        1142
        1138        1139        1144        1143
        1140        1141        1146        1145
        1141        1142        1147        1146
        1142        1143        1148        1147
        1143        1144        1149        1148
        1150        1151        1156        1155
        1151        1152        1157        1156
        1152        1153        1158        1157
        1153        1154        1159        1158
        1155        1156        1161        1160
        1156        1157        1162        1161
        1157        1158        1163        1162
        1158        1159        1164        1163
        1160        1161        1166        1165
        1161        1162        1167        1166
        1162        1163        1168        1167
        1163        1164        1169        1168
        1165        1166        1171        1170
        1166        1167        1172        1171
        1167        1168        1173        1172
        1168        1169        1174        1173
        1175        1176        1181        1180
        1176        1177        1182        1181
        1177        1178        1183        1182
        1178        1179        1184        1183
        1180        1181        1186        1185
        1181        1182        1187        1186
        1182        1183        1188        1187
        1183        1184        1189        1188
        1185        1186        1191        1190
        1186        1187        1192        1191
        1187        1188        1193        1192
        1188        1189        1194        1193
        1190        1191        1196        1195
        1191        1192        1197        1196
        1192        1193        1198        1197
        1193        1194        1199        1198
        1200        1201        1206        1205
        1201        1202        1207        1206
        1202        1203        1208        1207
        1203        1204        1209        1208
        1205        1206        1211        1210
        1206        1207        1212        1211
        1207        1208        1213        1212
        1208        1209        1214        1213
        1210        1211        1216        1215
        1211        1212        1217        1216
        1212        1213        1218        1217
        1213        1214        1219        1218
        1215        1216        1221        1220
        1216        1217        1222        1221
        1217        1218        1223        1222
        1218        1219        1224        1223
        1225        1226        1231        1230
        1226        1227        1232        1231
        1227        1228        1233        1232
        1228        1229        1234        1233
        1230        1231        1236        1235
        1231        1232        1237        1236
        1232        1233        1238        1237
        1233        1234        1239        1238
        1235        1236        1241        1240
        1236        1237        1242        1241
        1237        1238        1243        1242
        1238        1239        1244        1243
        1240        1241        1246        1245
        1241        1242        1247        1246
        1242        1243        1248        1247
        1243        1244        1249        1248
        1250        1251        1256        1255
        1251        1252        1257        1256
        1252        1253        1258        1257
        1253        1254        1259        1258
        1255        1256        1261        1260
        1256        1257        1262        1261
        1257        1258        1263        1262
        1258        1259        1264        1263
        1260        1261        1266        1265
        1261        1262        1267        1266
        1262        1263        1268        1267
        1263        1264        1269        1268
        1265        1266        1271        1270
        1266        1267        1272        1271
        1267        1268        1273        1272
        1268        1269        1274        1273
        1275        1276        1281        1280
        1276        1277        1282        1281
        1277        1278        1283        1282
        1278        1279        1284        1283
        1280        1281        1286        1285
        1281        1282        1287        1286
        1282        1283        1288        1287
        1283        1284        1289        1288
        1285        1286        1291        1290
        1286        1287        1292        1291
        1287        1288        1293        1292
        1288        1289        1294        1293
        1290        1291        1296        1295
        1291        1292        1297        1296
        1292        1293        1298        1297
        1293        1294        1299        1298
        1300        1301        1306        1305
        1301        1302        1307        1306
        1302        1303        1308        1307
        1303        1304        1309        1308
        1305        1306        1311        1310
        1306        1307        1312        1311
        1307        1308        1313        1312
        1308        1309        1314        1313
        1310        1311        1316        1315
        1311        1312        1317        1316
        1312        1313        1318        1317
        1313        1314        1319        1318
        1315        1316        1321        1320
        1316        1317        1322        1321
        1317        1318        1323        1322
        1318        1319        1324        1323
        1325        1326        1331        1330
        1326        1327        1332        1331
        1327        1328        1333        1332
        1328        1329        1334        1333
        1330        1331        1336        1335
        1331        1332        1337        1336
        1332        1333        1338        1337
        1333        1334        1339        1338
        1335        1336        1341        1340
        1336        1337        1342        1341
        1337        1338        1343        1342
        1338        1339        1344        1343
        1340        1341        1346        1345
        1341        1342        1347        1346
        1342        1343        1348        1347
        1343        1344        1349        1348
        1350        1351        1356        1355
        1351        1352        1357        1356
        1352        1353        1358        1357
        1353        1354        1359        1358
        1355        1356        1361        1360
        1356        1357        1362        1361
        1357        1358        1363        1362
        1358        1359        1364        1363
        1360        1361        1366        1365
        1361        1362        1367        1366
        1362        1363        1368        1367
        1363        1364        1369        1368
        1365        1366        1371        1370
        1366        1367        1372        1371
        1367        1368        1373        1372
        1368        1369        1374        1373
        1375        1376        1381        1380
        1376        1377        1382        1381
        1377        1378        1383        1382
        1378        1379        1384        1383
        1380        1381        1386        1385
        1381        1382        1387        1386
        1382        1383        1388        1387
        1383        1384        1389        1388
        1385        1386        1391        1390
        1386        1387        1392        1391
        1387        1388        1393        1392
        1388        1389        1394        1393
        1390        1391        1396        1395
        1391        1392        1397        1396
        1392        1393        1398        1397
        1393        1394        1399        1398
        1400        1401        1406        1405
        1401        1402        1407        1406
        1402        1403        1408        1407
        1403        1404        1409        1408
        1405        1406        1411        1410
        1406        1407        1412        1411
        1407        1408        1413        1412
        1408        1409        1414        1413
        1410        1411        1416        1415
        1411        1412        1417        1416
        1412        1413        1418        1417
        1413        1414        1419        1418
        1415        1416        1421        1420
        1416        1417        1422        1421
        1417        1418        1423        1422
        1418        1419        1424        1423
        1425        1426        1431        1430
        1426        1427        1432        1431
        1427        1428        1433        1432
        1428        1429        1434        1433
        1430        1431        1436        1435
        1431        1432        1437        1436
        1432        1433        1438        1437
        1433        1434        1439        1438
        1435        1436        1441        1440
        1436        1437        1442        1441
        1437        1438        1443        1442
        1438        1439        1444        1443
        1440        1441        1446        1445
        1441        1442        1447        1446
        1442        1443        1448        1447
        1443        1444        1449        1448
        1450        1451        1456        1455
        1451        1452        1457        1456
        1452        1453        1458        1457
        1453        1454        1459        1458
        1455        1456        1461        1460
        1456        1457        1462        1461
        1457        1458        1463        1462
        1458        1459        1464        1463
        1460        1461        1466        1465
        1461        1462        1467        1466
        1462        1463        1468        1467
        1463        1464        1469        1468
        1465        1466        1471        1470
        1466        1467        1472        1471
        1467        1468        1473        1472
        1468        1469        1474        1473
        1475        1476        1481        1480
        1476        1477        1482        1481
        1477        1478        1483        1482
        1478        1479        1484        1483
        1480        1481        1486        1485
        1481        1482        1487        1486
        1482        1483        1488        1487
        1483        1484        1489        1488
        1485        1486        1491        1490
        1486        1487        1492        1491
        1487        1488        1493        1492
        1488        1489        1494        1493
        1490        1491        1496        1495
        1491        1492        1497        1496
        1492        1493        1498        1497
        1493        1494        1499        1498
        1500        1501        1506        1505
        1501        1502        1507        1506
        1502        1503        1508        1507
        1503        1504        1509        1508
        1505        1506        1511        1510
        1506        1507        1512        1511
        1507        1508        1513        1512
        1508        1509        1514        1513
        1510        1511        1516        1515
        1511        1512        1517        1516
        1512        1513        1518        1517
        1513        1514        1519        1518
        1515        1516        1521        1520
        1516        1517        1522        1521
        1517        1518        1523        1522
        1518        1519        1524        1523
        1525        1526        1531        1530
        1526        1527        1532        1531
        1527        1528        1533        1532
        1528        1529        1534        1533
        1530        1531        1536        1535
        1531        1532        1537        1536
        1532        1533        1538        1537
        1533        1534        1539        1538
        1535        1536        1541        1540
        1536        1537        1542        1541
        1537        1538        1543        1542
        1538        1539        1544        1543
        1540        1541        1546        1545
        1541        1542        1547        1546
        1542        1543        1548        1547
        1543        1544        1549        1548
        1550        1551        1556        1555
        1551        1552        1557        1556
        1552        1553        1558        1557
        1553        1554        1559        1558
        1555        1556        1561        1560
        1556        1557        1562        1561
        1557        1558        1563        1562
        1558        1559        1564        1563
        1560        1561        1566        1565
        1561        1562        1567        1566
        1562        1563        1568        1567
        1563        1564        1569        1568
        1565        1566        1571        1570
        1566        1567        1572        1571
        1567        1568        1573        1572
        1568        1569        1574        1573
        1575        1576        1581        1580
        1576        1577        1582        1581
        1577        1578        1583        1582
        1578        1579        1584        1583
        1580        1581        1586        1585
        1581        1582        1587        1586
        1582        1583        1588        1587
        1583        1584        1589        1588
        1585        1586        1591        1590
        1586        1587        1592        1591
        1587        1588        1593        1592
        1588        1589        1594        1593
        1590        1591        1596        1595
        1591        1592        1597        1596
        1592        1593        1598        1597
        1593        1594        1599        1598
 </DataArray>
 <DataArray  type="Int32"  Name="offsets"  format="ascii"> 
           4
           8
          12
          16
          20
          24
          28
          32
          36
          40
          44
          48
          52
          56
          60
          64
          68
          72
          76
          80
          84
          88
          92
          96
         100
         104
         108
         112
         116
         120
         124
         128
         132
         136
         140
         144
         148
         152
         156
         160
         164
         168
         172
         176
         180
         184
         188
         192
         196
         200
         204
         208
         212
         216
         220
         224
         228
         232
         236
         240
         244
         248
         252
         256
         260
         264
         268
         272
         276
         280
         284
         288
         292
         296
         300
         304
         308
         312
         316
         320
         324
         328
         332
         336
         340
         344
         348
         352
         356
         360
         364
         368
         372
         376
         380
         384
         388
         392
         396
         400
         404
         408
         412
         416
         420
         424
         428
         432
         436
         440
         444
         448
         452
         456
         460
         464
         468
         472
         476
         480
         484
         488
         492
         496
         500
         504
         508
         512
         516
         520
         524
         528
         532
         536
         540
         544
         548
         552
         556
         560
         564
         568
         572
         576
         580
         584
         588
         592
         596
         600
         604
         608
         612
         616
         620
         624
         628
         632
         636
         640
         644
         648
         652
         656
         660
         664
         668
         672
         676
         680
         684
         688
         692
         696
         700
         704
         708
         712
         716
         720
         724
         728
         732
         736
         740
         744
         748
         752
         756
         760
         764
         768
         772
         776
         780
         784
         788
         792
         796
         800
         804
         808
         812
         816
         820
         824
         828
         832
         836
         840
         844
         848
         852
         856
         860
         864
         868
         872
         876
         880
         884
         888
         892
         896
         900
         904
         908
         912
         916
         920
         924
         928
         932
         936
         940
         944
         948
         952
         956
         960
         964
         968
         972
         976
         980
         984
         988
         992
         996
        1000
        1004
        1008
        1012
        1016
        1020
        1024
        1028
        1032
        1036
        1040
        1044
        1048
        1052
        1056
        1060
        1064
        1068
        1072
        1076
        1080
        1084
        1088
        1092
        1096
        1100
        1104
        1108
        1112
        1116
        1120
        1124
        1128
        1132
        1136
        1140
        1144
        1148
        1152
        1156
        1160
        1164
        1168
        1172
        1176
        1180
        1184
        1188
        1192
        1196
        1200
        1204
        1208
        1212
        1216
        1220
        1224
        1228
        1232
        1236
        1240
        1244
        1248
        1252
        1256
        1260
        1264
        1268
        1272
        1276
        1280
        1284
        1288
        1292
        1296
        1300
        1304
        1308
        1312
        1316
        1320
        1324
        1328
        1332
        1336
        1340
        1344
        1348
        1352
        1356
        1360
        1364
        1368
        1372
        1376
        1380
        1384
        1388
        1392
        1396
        1400
        1404
        1408
        1412
        1416
        1420
        1424
        1428
        1432
        1436
        1440
        1444
        1448
        1452
        1456
        1460
        1464
        1468
        1472
        1476
        1480
        1484
        1488
        1492
        1496
        1500
        1504
        1508
        1512
        1516
        1520
        1524
        1528
        1532
        1536
        1540
        1544
        1548
        1552
        1556
        1560
        1564
        1568
        1572
        1576
        1580
        1584
        1588
        1592
        1596
        1600
        1604
        1608
        1612
        1616
        1620
        1624
        1628
        1632
        1636
        1640
        1644
        1648
        1652
        1656
        1660
        1664
        1668
        1672
        1676
        1680
        1684
        1688
        1692
        1696
        1700
        1704
        1708
        1712
        1716
        1720
        1724
        1728
        1732
        1736
        1740
        1744
        1748
        1752
        1756
        1760
        1764
        1768
        1772
        1776
        1780
        1784
        1788
        1792
        1796
        1800
        1804
        1808
        1812
        1816
        1820
        1824
        1828
        1832
        1836
        1840
        1844
        1848
        1852
        1856
        1860
        1864
        1868
        1872
        1876
        1880
        1884
        1888
        1892
        1896
        1900
        1904
        1908
        1912
        1916
        1920
        1924
        1928
        1932
        1936
        1940
        1944
        1948
        1952
        1956
        1960
        1964
        1968
        1972
        1976
        1980
        1984
        1988
        1992
        1996
        2000
        2004
        2008
        2012
        2016
        2020
        2024
        2028
        2032
        2036
        2040
        2044
        2048
        2052
        2056
        2060
        2064
        2068
        2072
        2076
        2080
        2084
        2088
        2092
        2096
        2100
        2104
        2108
        2112
        2116
        2120
        2124
        2128
        2132
        2136
        2140
        2144
        2148
        2152
        2156
        2160
        2164
        2168
        2172
        2176
        2180
        2184
        2188
        2192
        2196
        2200
        2204
        2208
        2212
        2216
        2220
        2224
        2228
        2232
        2236
        2240
        2244
        2248
        2252
        2256
        2260
        2264
        2268
        2272
        2276
        2280
        2284
        2288
        2292
        2296
        2300
        2304
        2308
        2312
        2316
        2320
        2324
        2328
        2332
        2336
        2340
        2344
        2348
        2352
        2356
        2360
        2364
        2368
        2372
        2376
        2380
        2384
        2388
        2392
        2396
        2400
        2404
        2408
        2412
        2416
        2420
        2424
        2428
        2432
        2436
        2440
        2444
        2448
        2452
        2456
        2460
        2464
        2468
        2472
        2476
        2480
        2484
        2488
        2492
        2496
        2500
        2504
        2508
        2512
        2516
        2520
        2524
        2528
        2532
        2536
        2540
        2544
        2548
        2552
        2556
        2560
        2564
        2568
        2572
        2576
        2580
        2584
        2588
        2592
        2596
        2600
        2604
        2608
        2612
        2616
        2620
        2624
        2628
        2632
        2636
        2640
        2644
        2648
        2652
        2656
        2660
        2664
        2668
        2672
        2676
        2680
        2684
        2688
        2692
        2696
        2700
        2704
        2708
        2712
        2716
        2720
        2724
        2728
        2732
        2736
        2740
        2744
        2748
        2752
        2756
        2760
        2764
        2768
        2772
        2776
        2780
        2784
        2788
        2792
        2796
        2800
        2804
        2808
        2812
        2816
        2820
        2824
        2828
        2832
        2836
        2840
        2844
        2848
        2852
        2856
        2860
        2864
        2868
        2872
        2876
        2880
        2884
        2888
        2892
        2896
        2900
        2904
        2908
        2912
        2916
        2920
        2924
        2928
        2932
        2936
        2940
        2944
        2948
        2952
        2956
        2960
        2964
        2968
        2972
        2976
        2980
        2984
        2988
        2992
        2996
        3000
        3004
        3008
        3012
        3016
        3020
        3024
        3028
        3032
        3036
        3040
        3044
        3048
        3052
        3056
        3060
        3064
        3068
        3072
        3076
        3080
        3084
        3088
        3092
        3096
        3100
        3104
        3108
        3112
        3116
        3120
        3124
        3128
        3132
        3136
        3140
        3144
        3148
        3152
        3156
        3160
        3164
        3168
        3172
        3176
        3180
        3184
        3188
        3192
        3196
        3200
        3204
        3208
        3212
        3216
        3220
        3224
        3228
        3232
        3236
        3240
        3244
        3248
        3252
        3256
        3260
        3264
        3268
        3272
        3276
        3280
        3284
        3288
        3292
        3296
        3300
        3304
        3308
        3312
        3316
        3320
        3324
        3328
        3332
        3336
        3340
        3344
        3348
        3352
        3356
        3360
        3364
        3368
        3372
        3376
        3380
        3384
        3388
        3392
        3396
        3400
        3404
        3408
        3412
        3416
        3420
        3424
        3428
        3432
        3436
        3440
        3444
        3448
        3452
        3456
        3460
        3464
        3468
        3472
        3476
        3480
        3484
        3488
        3492
        3496
        3500
        3504
        3508
        3512
        3516
        3520
        3524
        3528
        3532
        3536
        3540
        3544
        3548
        3552
        3556
        3560
        3564
        3568
        3572
        3576
        3580
        3584
        3588
        3592
        3596
        3600
        3604
        3608
        3612
        3616
        3620
        3624
        3628
        3632
        3636
        3640
        3644
        3648
        3652
        3656
        3660
        3664
        3668
        3672
        3676
        3680
        3684
        3688
        3692
        3696
        3700
        3704
        3708
        3712
        3716
        3720
        3724
        3728
        3732
        3736
        3740
        3744
        3748
        3752
        3756
        3760
        3764
        3768
        3772
        3776
        3780
        3784
        3788
        3792
        3796
        3800
        3804
        3808
        3812
        3816
        3820
        3824
        3828
        3832
        3836
        3840
        3844
        3848
        3852
        3856
        3860
        3864
        3868
        3872
        3876
        3880
        3884
        3888
        3892
        3896
        3900
        3904
        3908
        3912
        3916
        3920
        3924
        3928
        3932
        3936
        3940
        3944
        3948
        3952
        3956
        3960
        3964
        3968
        3972
        3976
        3980
        3984
        3988
        3992
        3996
        4000
        4004
        4008
        4012
        4016
        4020
        4024
        4028
        4032
        4036
        4040
        4044
        4048
        4052
        4056
        4060
        4064
        4068
        4072
        4076
        4080
        4084
        4088
        4092
        4096
 </DataArray>
 <DataArray  type="UInt8"  Name="types"  format="ascii">
 9
 9
 9
 9
 9
 9
 9
 9
 9
 9
 9
 9
 9
 9
 9
 9
 9
 9
 9
 9
 9
 9
 9
 9
 9
 9
 9
 9
 9
 9
 9
 9
 9
 9
 9
 9
 9
 9
 9
 9
 9
 9
 9
 9
 9
 9
 9
 9
 9
 9
 9
 9
 9
 9
 9
 9
 9
 9
 9
 9
 9
 9
 9
 9
 9
 9
 9
 9
 9
 9
 9
 9
 9
 9
 9
 9
 9
 9
 9
 9
 9
 9
 9
 9
 9
 9
 9
 9
 9
 9
 9
 9
 9
 9
 9
 9
 9
 9
 9
 9
 9
 9
 9
 9
 9
 9
 9
 9
 9
 9
 9
 9
 9
 9
 9
 9
 9
 9
 9
 9
 9
 9
 9
 9
 9
 9
 9
 9
 9
 9
 9
 9
 9
 9
 9
 9
 9
 9
 9
 9
 9
 9
 9
 9
 9
 9
 9
 9
 9
 9
 9
 9
 9
 9
 9
 9
 9
 9
 9
 9
 9
 9
 9
 9
 9
 9
 9
 9
 9
 9
 9
 9
 9
 9
 9
 9
 9
 9
 9
 9
 9
 9
 9
 9
 9
 9
 9
 9
 9
 9
 9
 9
 9
 9
 9
 9
 9
 9
 9
 9
 9
 9
 9
 9
 9
 9
 9
 9
 9
 9
 9
 9
 9
 9
 9
 9
 9
 9
 9
 9
 9
 9
 9
 9
 9
 9
 9
 9
 9
 9
 9
 9
 9
 9
 9
 9
 9
 9
 9
 9
 9
 9
 9
 9
 9
 9
 9
 9
 9
 9
 9
 9
 9
 9
 9
 9
 9
 9
 9
 9
 9
 9
 9
 9
 9
 9
 9
 9
 9
 9
 9
 9
 9
 9
 9
 9
 9
 9
 9
 9
 9
 9
 9
 9
 9
 9
 9
 9
 9
 9
 9
 9
 9
 9
 9
 9
 9
 9
 9
 9
 9
 9
 9
 9
 9
 9
 9
 9
 9
 9
 9
 9
 9
 9
 9
 9
 9
 9
 9
 9
 9
 9
 9
 9
 9
 9
 9
 9
 9
 9
 9
 9
 9
 9
 9
 9
 9
 9
 9
 9
 9
 9
 9
 9
 9
 9
 9
 9
 9
 9
 9
 9
 9
 9
 9
 9
 9
 9
 9
 9
 9
 9
 9
 9
 9
 9
 9
 9
 9
 9
 9
 9
 9
 9
 9
 9
 9
 9
 9
 9
 9
 9
 9
 9
 9
 9
 9
 9
 9
 9
 9
 9
 9
 9
 9
 9
 9
 9
 9
 9
 9
 9
 9
 9
 9
 9
 9
 9
 9
 9
 9
 9
 9
 9
 9
 9
 9
 9
 9
 9
 9
 9
 9
 9
 9
 9
 9
 9
 9
 9
 9
 9
 9
 9
 9
 9
 9
 9
 9
 9
 9
 9
 9
 9
 9
 9
 9
 9
 9
 9
 9
 9
 9
 9
 9
 9
 9
 9
 9
 9
 9
 9
 9
 9
 9
 9
 9
 9
 9
 9
 9
 9
 9
 9
 9
 9
 9
 9
 9
 9
 9
 9
 9
 9
 9
 9
 9
 9
 9
 9
 9
 9
 9
 9
 9
 9
 9
 9
 9
 9
 9
 9
 9
 9
 9
 9
 9
 9
 9
 9
 9
 9
 9
 9
 9
 9
 9
 9
 9
 9
 9
 9
 9
 9
 9
 9
 9
 9
 9
 9
 9
 9
 9
 9
 9
 9
 9
 9
 9
 9
 9
 9
 9
 9
 9
 9
 9
 9
 9
 9
 9
 9
 9
 9
 9
 9
 9
 9
 9
 9
 9
 9
 9
 9
 9
 9
 9
 9
 9
 9
 9
 9
 9
 9
 9
 9
 9
 9
 9
 9
 9
 9
 9
 9
 9
 9
 9
 9
 9
 9
 9
 9
 9
 9
 9
 9
 9
 9
 9
 9
 9
 9
 9
 9
 9
 9
 9
 9
 9
 9
 9
 9
 9
 9
 9
 9
 9
 9
 9
 9
 9
 9
 9
 9
 9
 9
 9
 9
 9
 9
 9
 9
 9
 9
 9
 9
 9
 9
 9
 9
 9
 9
 9
 9
 9
 9
 9
 9
 9
 9
 9
 9
 9
 9
 9
 9
 9
 9
 9
 9
 9
 9
 9
 9
 9
 9
 9
 9
 9
 9
 9
 9
 9
 9
 9
 9
 9
 9
 9
 9
 9
 9
 9
 9
 9
 9
 9
 9
 9
 9
 9
 9
 9
 9
 9
 9
 9
 9
 9
 9
 9
 9
 9
 9
 9
 9
 9
 9
 9
 9
 9
 9
 9
 9
 9
 9
 9
 9
 9
 9
 9
 9
 9
 9
 9
 9
 9
 9
 9
 9
 9
 9
 9
 9
 9
 9
 9
 9
 9
 9
 9
 9
 9
 9
 9
 9
 9
 9
 9
 9
 9
 9
 9
 9
 9
 9
 9
 9
 9
 9
 9
 9
 9
 9
 9
 9
 9
 9
 9
 9
 9
 9
 9
 9
 9
 9
 9
 9
 9
 9
 9
 9
 9
 9
 9
 9
 9
 9
 9
 9
 9
 9
 9
 9
 9
 9
 9
 9
 9
 9
 9
 9
 9
 9
 9
 9
 9
 9
 9
 9
 9
 9
 9
 9
 9
 9
 9
 9
 9
 9
 9
 9
 9
 9
 9
 9
 9
 9
 9
 9
 9
 9
 9
 9
 9
 9
 9
 9
 9
 9
 9
 9
 9
 9
 9
 9
 9
 9
 9
 9
 9
 9
 9
 9
 9
 9
 9
 9
 9
 9
 9
 9
 9
 9
 9
 9
 9
 9
 9
 9
 9
 9
 9
 9
 9
 9
 9
 9
 9
 9
 9
 9
 9
 9
 9
 9
 9
 9
 9
 9
 9
 9
 9
 9
 9
 9
 9
 9
 9
 9
 9
 9
 9
 9
 9
 9
 9
 9
 9
 9
 9
 9
 9
 9
 9
 9
 9
 9
 9
 9
 9
 9
 9
 9
 9
 9
 9
 9
 9
 9
 9
 9
 9
 9
 9
 9
 9
 9
 9
 9
 9
 9
 9
 9
 9
 9
 9
 9
 9
 9
 9
 9
 9
 9
 9
 9
 9
 9
 9
 9
 9
 9
 9
 9
 9
 9
 9
 9
 9
 9
 9
 9
 9
 9
 9
 9
 9
 9
 9
 9
 9
 9
 9
 9
 9
 9
 9
 9
 9
 9
 9
 9
 9
 9
 9
 9
 9
 9
 9
 9
 9
 9
 9
 9
 9
 9
 9
 9
 9
 9
 9
 9
 9
 9
 9
 9
 9
 9
 9
 9
 9
 9
 9
 9
 </DataArray>
 </Cells> 
 <PointData>
 <DataArray  type="Float64" Name="disp" NumberOfComponents="3" format="ascii">
   6.5327822063636798E-002   6.2791668745313431E-002   0.0000000000000000     
   6.8445212358042018E-002   6.8168522151277541E-002   0.0000000000000000     
   7.1432846168417732E-002   7.3730404908830913E-002   0.0000000000000000     
   7.4290723494763941E-002   7.9477317017973517E-002   0.0000000000000000     
   7.7018844337080658E-002   8.5409258478705397E-002   0.0000000000000000     
   6.0088200459876832E-002   6.1892518125202876E-002   0.0000000000000000     
   6.3038554151338036E-002   6.7291137153554906E-002   0.0000000000000000     
   6.5859035407046809E-002   7.2877623632216504E-002   0.0000000000000000     
   6.8549644227003173E-002   7.8651977561187664E-002   0.0000000000000000     
   7.1110380611207127E-002   8.4614198940468399E-002   0.0000000000000000     
   5.5080881307050175E-002   6.1048052386403776E-002   0.0000000000000000     
   5.7852652119673262E-002   6.6469050791024012E-002   0.0000000000000000     
   6.0497618367051600E-002   7.2079818325228889E-002   0.0000000000000000     
   6.3015780049185177E-002   7.7880354989018422E-002   0.0000000000000000     
   6.5407137166074006E-002   8.3870660782392609E-002   0.0000000000000000     
   5.0305864605156833E-002   6.0258271528916094E-002   0.0000000000000000     
   5.2887506263047696E-002   6.5702263063684860E-002   0.0000000000000000     
   5.5348595048432064E-002   7.1336988987868097E-002   0.0000000000000000     
   5.7689130961309946E-002   7.7162449301465805E-002   0.0000000000000000     
   5.9909114001681314E-002   8.3178644004477997E-002   0.0000000000000000     
   4.5763150354196785E-002   5.9523175552739865E-002   0.0000000000000000     
   4.8143116581461337E-002   6.4990773971537463E-002   0.0000000000000000     
   5.0411965451188236E-002   7.0649135620134099E-002   0.0000000000000000     
   5.2569696963377467E-002   7.6498260498529813E-002   0.0000000000000000     
   5.4616311118029053E-002   8.2538148606724593E-002   0.0000000000000000     
   7.7018844337080658E-002   8.5409258478705397E-002   0.0000000000000000     
   7.9645797467245136E-002   9.1511382695782850E-002   0.0000000000000000     
   8.2200171657134669E-002   9.7768843073962219E-002   0.0000000000000000     
   8.4681966906749229E-002  0.10418163961324349        0.0000000000000000     
   8.7091183216088830E-002  0.11074977231362668        0.0000000000000000     
   7.1110380611207127E-002   8.4614198940468399E-002   0.0000000000000000     
   7.3572874766505716E-002   9.0747244386797571E-002   0.0000000000000000     
   7.5968756899746068E-002   9.7034070516914026E-002   0.0000000000000000     
   7.8298027010928140E-002  0.10347467733081780        0.0000000000000000     
   8.0560685100051960E-002  0.11006906482850887        0.0000000000000000     
   6.5407137166074006E-002   8.3870660782392609E-002   0.0000000000000000     
   6.7704514177008873E-002   9.0032171431941727E-002   0.0000000000000000     
   6.9940735541280580E-002   9.6346322664256148E-002   0.0000000000000000     
   7.2115801258889153E-002  0.10281311447933582        0.0000000000000000     
   7.4229711329834538E-002  0.10943254687718079        0.0000000000000000     
   5.9909114001681314E-002   8.3178644004477997E-002   0.0000000000000000     
   6.2040715698754613E-002   8.9366163831215345E-002   0.0000000000000000     
   6.4116107581738260E-002   9.5705599515988518E-002   0.0000000000000000     
   6.6135289650632229E-002  0.10219695105879759        0.0000000000000000     
   6.8098261905436552E-002  0.10884021845964247        0.0000000000000000     
   5.4616311118029053E-002   8.2538148606724593E-002   0.0000000000000000     
   5.6581479331742943E-002   8.8749221584618398E-002   0.0000000000000000     
   5.8494873021119040E-002   9.5111901072111218E-002   0.0000000000000000     
   6.0356492186157379E-002  0.10162618706920305        0.0000000000000000     
   6.2166336826857967E-002  0.10829207957589390        0.0000000000000000     
   8.7091183216088830E-002  0.11074977231362668        0.0000000000000000     
   8.9411372192153227E-002  0.11746229244171028        0.0000000000000000     
   9.1626085441942146E-002  0.12430825126409281        0.0000000000000000     
   9.3735322965455614E-002  0.13128764878077429        0.0000000000000000     
   9.5739084762693646E-002  0.13840048499175467        0.0000000000000000     
   8.0560685100051960E-002  0.11006906482850887        0.0000000000000000     
   8.2739916562147811E-002  0.11680756032529419        0.0000000000000000     
   8.4818906792245949E-002  0.12368049113648076        0.0000000000000000     
   8.6797655790346401E-002  0.13068785726206861        0.0000000000000000     
   8.8676163556449139E-002  0.13782965870205768        0.0000000000000000     
   7.4229711329834538E-002  0.10943254687718079        0.0000000000000000     
   7.6265773057326097E-002  0.11619589334153727        0.0000000000000000     
   7.8207293744573136E-002  0.12309442735615160        0.0000000000000000     
   8.0054273391575656E-002  0.13012814892102370        0.0000000000000000     
   8.1806711998333670E-002  0.13729705803615361        0.0000000000000000     
   6.8098261905436552E-002  0.10884021845964247        0.0000000000000000     
   6.9988941677688071E-002  0.11562729149043956        0.0000000000000000     
   7.1791246298923708E-002  0.12255005992310529        0.0000000000000000     
   7.3505175769143435E-002  0.12960852375763959        0.0000000000000000     
   7.5130730088347253E-002  0.13680268299404247        0.0000000000000000     
   6.2166336826857967E-002  0.10829207957589390        0.0000000000000000     
   6.3909422423233719E-002  0.11510175477200105        0.0000000000000000     
   6.5570764455297637E-002  0.12204738883734184        0.0000000000000000     
   6.7150362923049683E-002  0.12912898177191626        0.0000000000000000     
   6.8648217826489874E-002  0.13634653357572429        0.0000000000000000     
   9.5739084762693646E-002  0.13840048499175467        0.0000000000000000     
   9.7644907664765246E-002  0.14563526646140451        0.0000000000000000     
   9.9460328502779458E-002  0.15298049975409428        0.0000000000000000     
  0.10118534727673630       0.16043618486982400        0.0000000000000000     
  0.10281996398663575       0.16800232180859365        0.0000000000000000     
   8.8676163556449139E-002  0.13782965870205768        0.0000000000000000     
   9.0462341260298090E-002  0.14509325297273820        0.0000000000000000     
   9.2164100071637250E-002  0.15246599759040036        0.0000000000000000     
   9.3781439990466550E-002  0.15994789255504416        0.0000000000000000     
   9.5314361016786031E-002  0.16753893786666957        0.0000000000000000     
   8.1806711998333670E-002  0.13729705803615361        0.0000000000000000     
   8.3472348913721281E-002  0.14458774643642308        0.0000000000000000     
   8.5058923486612620E-002  0.15198680585671384        0.0000000000000000     
   8.6566435717007686E-002  0.15949423629702589        0.0000000000000000     
   8.7994885604906495E-002  0.16711003775735925        0.0000000000000000     
   7.5130730088347253E-002  0.13680268299404247        0.0000000000000000     
   7.6674930625034776E-002  0.14411874685245915        0.0000000000000000     
   7.8144798747705566E-002  0.15154292455303475        0.0000000000000000     
   7.9540334456359704E-002  0.15907521609576927        0.0000000000000000     
   8.0861537750997109E-002  0.16671562148066271        0.0000000000000000     
   6.8648217826489874E-002  0.13634653357572429        0.0000000000000000     
   7.0070086394238576E-002  0.14368625422084638        0.0000000000000000     
   7.1421725854916143E-002  0.15113435367936301        0.0000000000000000     
   7.2703136208522590E-002  0.15869083195127423        0.0000000000000000     
   7.3914317455057887E-002  0.16635568903657993        0.0000000000000000     
  0.10281996398663575       0.16800232180859365        0.0000000000000000     
  0.10436648914414226       0.17566827726875328        0.0000000000000000     
  0.10582723326092024       0.18342341794865288        0.0000000000000000     
  0.10720219633696973       0.19126774384829245        0.0000000000000000     
  0.10849137837229068       0.19920125496767199        0.0000000000000000     
   9.5314361016786031E-002  0.16753893786666957        0.0000000000000000     
   9.6762961420354510E-002  0.17522961969161571        0.0000000000000000     
   9.8127339470930774E-002  0.18301042419622168        0.0000000000000000     
   9.9407495168514881E-002  0.19088135138048748        0.0000000000000000     
  0.10060342851310677       0.19884240124441308        0.0000000000000000     
   8.7994885604906495E-002  0.16711003775735925        0.0000000000000000     
   8.9342857653020857E-002  0.17482530335936633        0.0000000000000000     
   9.0608936364062670E-002  0.18263112622469962        0.0000000000000000     
   9.1793121738031905E-002  0.19052750635335913        0.0000000000000000     
   9.2895413774928534E-002  0.19851444374534480        0.0000000000000000     
   8.0861537750997109E-002  0.16671562148066271        0.0000000000000000     
   8.2106177842141359E-002  0.17445532827200519        0.0000000000000000     
   8.3272023940315895E-002  0.18228552403408674        0.0000000000000000     
   8.4359076045520801E-002  0.19020620876690736        0.0000000000000000     
   8.5367334157756020E-002  0.19821738247046711        0.0000000000000000     
   7.3914317455057887E-002  0.16635568903657993        0.0000000000000000     
   7.5052921987715918E-002  0.17411969442953218        0.0000000000000000     
   7.6116602199690450E-002  0.18197361762438294        0.0000000000000000     
   7.7105358090981554E-002  0.18991745862113227        0.0000000000000000     
   7.8019189661589189E-002  0.19795121741978011        0.0000000000000000     
  0.10849137837229068       0.19920125496767199        0.0000000000000000     
  0.10969990405521771       0.20722030208480216        0.0000000000000000     
  0.11083289807408532       0.21532123597769354        0.0000000000000000     
  0.11189036042889355       0.22350405664634609        0.0000000000000000     
  0.11287229111964239       0.23176876409075989        0.0000000000000000     
  0.10060342851310677       0.19884240124441308        0.0000000000000000     
  0.10172064690294577       0.20688730058249125        0.0000000000000000     
  0.10276465773627116       0.21500977618921469        0.0000000000000000     
  0.10373546101308298       0.22320982806458345        0.0000000000000000     
  0.10463305673338116       0.23148745620859754        0.0000000000000000     
   9.2895413774928534E-002  0.19851444374534480        0.0000000000000000     
   9.3920739163077444E-002  0.20658417573147841        0.0000000000000000     
   9.4874024590803421E-002  0.21472893964258183        0.0000000000000000     
   9.5755270058106454E-002  0.22294873547865507        0.0000000000000000     
   9.6564475564986568E-002  0.23124356323969808        0.0000000000000000     
   8.5367334157756020E-002  0.19821738247046711        0.0000000000000000     
   8.6300180835612736E-002  0.20631092753176372        0.0000000000000000     
   8.7160998637682049E-002  0.21447872633779497        0.0000000000000000     
   8.7949787563964058E-002  0.22272077888856090        0.0000000000000000     
   8.8666547614458649E-002  0.23103708518406144        0.0000000000000000     
   7.8019189661589189E-002  0.19795121741978011        0.0000000000000000     
   7.8858971920551607E-002  0.20606755598334719        0.0000000000000000     
   7.9625579876907132E-002  0.21425913627485410        0.0000000000000000     
   8.0319013530655681E-002  0.22252595829430091        0.0000000000000000     
   8.0939272881797364E-002  0.23086802204168766        0.0000000000000000     
  0.11287229111964239       0.23176876409075989        0.0000000000000000     
  0.11380695593851810       0.24013181214890258        0.0000000000000000     
  0.11472262067770693       0.24860965465874180        0.0000000000000000     
  0.11561928533720889       0.25720229162027758        0.0000000000000000     
  0.11649694991702397       0.26590972303350985        0.0000000000000000     
  0.10463305673338116       0.23148745620859754        0.0000000000000000     
  0.10546248014230887       0.23986610796435920        0.0000000000000000     
  0.10622876648500917       0.24836923067497055        0.0000000000000000     
  0.10693191576148212       0.25699682434043181        0.0000000000000000     
  0.10757192797172765       0.26574888896074278        0.0000000000000000     
   9.6564475564986568E-002  0.23124356323969808        0.0000000000000000     
   9.7292446718982004E-002  0.23963990193444176        0.0000000000000000     
   9.7929989127630998E-002  0.24816423057161704        0.0000000000000000     
   9.8477102790933496E-002  0.25681654915122393        0.0000000000000000     
   9.8933787708889581E-002  0.26559685767326247        0.0000000000000000     
   8.8666547614458649E-002  0.23103708518406144        0.0000000000000000     
   8.9296855668537539E-002  0.23945319405915033        0.0000000000000000     
   8.9826288605572333E-002  0.24799465434868115        0.0000000000000000     
   9.0254846425563084E-002  0.25666146605265400        0.0000000000000000     
   9.0582529128509767E-002  0.26545362917106891        0.0000000000000000     
   8.0939272881797364E-002  0.23086802204168766        0.0000000000000000     
   8.1475706990975422E-002  0.23930598433848480        0.0000000000000000     
   8.1917664918833233E-002  0.24786050200616291        0.0000000000000000     
   8.2265146665370825E-002  0.25653157504472202        0.0000000000000000     
   8.2518152230588157E-002  0.26531920345416204        0.0000000000000000     
  0.11649694991702397       0.26590972303350985        0.0000000000000000     
  0.11729594541074917       0.27489659784394704        0.0000000000000000     
  0.11795660281198139       0.28432756499709727        0.0000000000000000     
  0.11847892212072071       0.29420262449296064        0.0000000000000000     
  0.11886290333696704       0.30452177633153710        0.0000000000000000     
  0.10757192797172765       0.26574888896074278        0.0000000000000000     
  0.10812982574143658       0.27475758438072845        0.0000000000000000     
  0.10858663169629958       0.28415507044521365        0.0000000000000000     
  0.10894234583631665       0.29394134715419834        0.0000000000000000     
  0.10919696816148783       0.30411641450768256        0.0000000000000000     
   9.8933787708889581E-002  0.26559685767326247        0.0000000000000000     
   9.9311072732059788E-002  0.27460344184241681        0.0000000000000000     
   9.9619986711004638E-002  0.28393458736337124        0.0000000000000000     
   9.9860529645724158E-002  0.29359029423612576        0.0000000000000000     
  0.10003270153621836       0.30357056246068043        0.0000000000000000     
   9.0582529128509767E-002  0.26545362917106891        0.0000000000000000     
   9.0839686382618801E-002  0.27443417022901218        0.0000000000000000     
   9.1056667856096618E-002  0.28366611575157019        0.0000000000000000     
   9.1233473548943234E-002  0.29314946573874295        0.0000000000000000     
   9.1370103461158675E-002  0.30288422019053063        0.0000000000000000     
   8.2518152230588157E-002  0.26531920345416204        0.0000000000000000     
   8.2715666693113601E-002  0.27424976954051439        0.0000000000000000     
   8.2896675131575503E-002  0.28334965560981040        0.0000000000000000     
   8.3061177545973891E-002  0.29261886166204992        0.0000000000000000     
   8.3209173936308722E-002  0.30205738769723312        0.0000000000000000     
   4.5763150354196785E-002   5.9523175552739865E-002   0.0000000000000000     
   4.8143116581461337E-002   6.4990773971537463E-002   0.0000000000000000     
   5.0411965451188236E-002   7.0649135620134099E-002   0.0000000000000000     
   5.2569696963377467E-002   7.6498260498529813E-002   0.0000000000000000     
   5.4616311118029053E-002   8.2538148606724593E-002   0.0000000000000000     
   4.1392070129926697E-002   5.8845937960650047E-002   0.0000000000000000     
   4.3567149056585992E-002   6.4335556369601907E-002   0.0000000000000000     
   4.5641731898524204E-002   7.0015875083292226E-002   0.0000000000000000     
   4.7615818655741327E-002   7.5886894101721003E-002   0.0000000000000000     
   4.9489409328237366E-002   8.1948613424888211E-002   0.0000000000000000     
   3.7131955508103179E-002   5.8229732255421572E-002   0.0000000000000000     
   3.9107269670093495E-002   6.3737583112898344E-002   0.0000000000000000     
   4.0991896713644144E-002   6.9436824238607781E-002   0.0000000000000000     
   4.2785836638755105E-002   7.5327455632549903E-002   0.0000000000000000     
   4.4489089445426386E-002   8.1409477294724697E-002   0.0000000000000000     
   3.2982806488726236E-002   5.7674558437054484E-002   0.0000000000000000     
   3.4763478421983837E-002   6.3196854201426761E-002   0.0000000000000000     
   3.6462459896548026E-002   6.8911983086080791E-002   0.0000000000000000     
   3.8079750912418796E-002   7.4819945091016540E-002   0.0000000000000000     
   3.9615351469596147E-002   8.0920740216234036E-002   0.0000000000000000     
   2.8944623071795864E-002   5.7180416505548740E-002   0.0000000000000000     
   3.0535775312257016E-002   6.2713369635187158E-002   0.0000000000000000     
   3.2053421447235858E-002   6.8441351625711216E-002   0.0000000000000000     
   3.3497561476732406E-002   7.4364362477120902E-002   0.0000000000000000     
   3.4868195400746628E-002   8.0482402189416213E-002   0.0000000000000000     
   5.4616311118029053E-002   8.2538148606724593E-002   0.0000000000000000     
   5.6581479331742943E-002   8.8749221584618398E-002   0.0000000000000000     
   5.8494873021119040E-002   9.5111901072111218E-002   0.0000000000000000     
   6.0356492186157379E-002  0.10162618706920305        0.0000000000000000     
   6.2166336826857967E-002  0.10829207957589390        0.0000000000000000     
   4.9489409328237366E-002   8.1948613424888211E-002   0.0000000000000000     
   5.1288916774237969E-002   8.8181396770195791E-002   0.0000000000000000     
   5.3040753851968797E-002   9.4565607855045683E-002   0.0000000000000000     
   5.4744920561429843E-002  0.10110124667943789        0.0000000000000000     
   5.6401416902621120E-002  0.10778831324337235        0.0000000000000000     
   4.4489089445426386E-002   8.1409477294724697E-002   0.0000000000000000     
   4.6125139724503855E-002   8.7662741465992441E-002   0.0000000000000000     
   4.7717472066833314E-002   9.4067100387213429E-002   0.0000000000000000     
   4.9266086472414809E-002  0.10062255405838764        0.0000000000000000     
   5.0770982941248301E-002  0.10732910247951513        0.0000000000000000     
   3.9615351469596147E-002   8.0920740216234036E-002   0.0000000000000000     
   4.1090148182540601E-002   8.7193255672008280E-002   0.0000000000000000     
   4.2525027665712638E-002   9.3616378668614414E-002   0.0000000000000000     
   4.3919989919112286E-002  0.10019010920605238        0.0000000000000000     
   4.5275034942739524E-002  0.10691444728432221        0.0000000000000000     
   3.4868195400746628E-002   8.0482402189416213E-002   0.0000000000000000     
   3.6183942148348192E-002   8.6772939388243403E-002   0.0000000000000000     
   3.7463420648606735E-002   9.3213442699248708E-002   0.0000000000000000     
   3.8706630901522258E-002   9.9803912122432115E-002   0.0000000000000000     
   3.9913572907094769E-002  0.10654434765779361        0.0000000000000000     
   6.2166336826857967E-002  0.10829207957589390        0.0000000000000000     
   6.3909422423233719E-002  0.11510175477200105        0.0000000000000000     
   6.5570764455297637E-002  0.12204738883734184        0.0000000000000000     
   6.7150362923049683E-002  0.12912898177191626        0.0000000000000000     
   6.8648217826489874E-002  0.13634653357572429        0.0000000000000000     
   5.6401416902621120E-002  0.10778831324337235        0.0000000000000000     
   5.7996566689386964E-002  0.11461918415885761        0.0000000000000000     
   5.9516693735571696E-002  0.12158623603790199        0.0000000000000000     
   6.0961798041175339E-002  0.12868946888050561        0.0000000000000000     
   6.2331879606197869E-002  0.13592888268666845        0.0000000000000000     
   5.0770982941248301E-002  0.10732910247951513        0.0000000000000000     
   5.2219725871571636E-002  0.11417948062364502        0.0000000000000000     
   5.3599879661622621E-002  0.12116642346382656        0.0000000000000000     
   5.4911444311401263E-002  0.12828993100005970        0.0000000000000000     
   5.6154419820907540E-002  0.13555000323234445        0.0000000000000000     
   4.5275034942739524E-002  0.10691444728432221        0.0000000000000000     
   4.6578899969787764E-002  0.11378264416636340        0.0000000000000000     
   4.7820322233450403E-002  0.12078795111511546        0.0000000000000000     
   4.8999301733727449E-002  0.12793036813057840        0.0000000000000000     
   5.0115838470618894E-002  0.13520989521275223        0.0000000000000000     
   3.9913572907094769E-002  0.10654434765779361        0.0000000000000000     
   4.1074088984035334E-002  0.11342867478701268        0.0000000000000000     
   4.2178021451055044E-002  0.12045081899176875        0.0000000000000000     
   4.3225370308153911E-002  0.12761078027206182        0.0000000000000000     
   4.4216135555331923E-002  0.13490855862789189        0.0000000000000000     
   6.8648217826489874E-002  0.13634653357572429        0.0000000000000000     
   7.0070086394238576E-002  0.14368625422084638        0.0000000000000000     
   7.1421725854916143E-002  0.15113435367936301        0.0000000000000000     
   7.2703136208522590E-002  0.15869083195127423        0.0000000000000000     
   7.3914317455057887E-002  0.16635568903657993        0.0000000000000000     
   6.2331879606197869E-002  0.13592888268666845        0.0000000000000000     
   6.3631350314080071E-002  0.14329081121129650        0.0000000000000000     
   6.4864622048262682E-002  0.15076158820929583        0.0000000000000000     
   6.6031694808745711E-002  0.15834121368066650        0.0000000000000000     
   6.7132568595529185E-002  0.16602968762540840        0.0000000000000000     
   5.6154419820907540E-002  0.13555000323234445        0.0000000000000000     
   5.7332256477306602E-002  0.14293296049352117        0.0000000000000000     
   5.8448404567763582E-002  0.15042512311643028        0.0000000000000000     
   5.9502864092278465E-002  0.15802649110107173        0.0000000000000000     
   6.0495635050851274E-002  0.16573706444744554        0.0000000000000000     
   5.0115838470618894E-002  0.13520989521275223        0.0000000000000000     
   5.1172804883918205E-002  0.14261270206752041        0.0000000000000000     
   5.2173073413418848E-002  0.15012495840076631        0.0000000000000000     
   5.3116644059120852E-002  0.15774666421249001        0.0000000000000000     
   5.4003516821024181E-002  0.16547781950269147        0.0000000000000000     
   4.4216135555331923E-002  0.13490855862789189        0.0000000000000000     
   4.5152995533914858E-002  0.14233003593329419        0.0000000000000000     
   4.6038628585228489E-002  0.14986109406230400        0.0000000000000000     
   4.6873034709272843E-002  0.15750173301492132        0.0000000000000000     
   4.7656213906047899E-002  0.16525195279114607        0.0000000000000000     
   7.3914317455057887E-002  0.16635568903657993        0.0000000000000000     
   7.5052921987715918E-002  0.17411969442953218        0.0000000000000000     
   7.6116602199690450E-002  0.18197361762438294        0.0000000000000000     
   7.7105358090981554E-002  0.18991745862113227        0.0000000000000000     
   7.8019189661589189E-002  0.19795121741978011        0.0000000000000000     
   6.7132568595529185E-002  0.16602968762540840        0.0000000000000000     
   6.8165061553118411E-002  0.17381720421801794        0.0000000000000000     
   6.9126991826018794E-002  0.18169395763299145        0.0000000000000000     
   7.0018359414230333E-002  0.18965994787032897        0.0000000000000000     
   7.0839164317753001E-002  0.19771517493003046        0.0000000000000000     
   6.0495635050851274E-002  0.16573706444744554        0.0000000000000000     
   6.1424568001722663E-002  0.17354666002353303        0.0000000000000000     
   6.2287513503133302E-002  0.18144509469731540        0.0000000000000000     
   6.3084471555083232E-002  0.18943236846879269        0.0000000000000000     
   6.3815442157572400E-002  0.19750848133796481        0.0000000000000000     
   5.4003516821024181E-002  0.16547781950269147        0.0000000000000000     
   5.4831441333528630E-002  0.17330806184607747        0.0000000000000000     
   5.5598167231033981E-002  0.18122702881735478        0.0000000000000000     
   5.6303694513540246E-002  0.18923472041652339        0.0000000000000000     
   5.6948023181047414E-002  0.19733113664358332        0.0000000000000000     
   4.7656213906047899E-002  0.16525195279114607        0.0000000000000000     
   4.8385681548536334E-002  0.17310140968565124        0.0000000000000000     
   4.9058953009720838E-002  0.18103975999310956        0.0000000000000000     
   4.9676028289601395E-002  0.18906700371352114        0.0000000000000000     
   5.0236907388178001E-002  0.19718314084688582        0.0000000000000000     
   7.8019189661589189E-002  0.19795121741978011        0.0000000000000000     
   7.8858971920551607E-002  0.20606755598334719        0.0000000000000000     
   7.9625579876907132E-002  0.21425913627485410        0.0000000000000000     
   8.0319013530655681E-002  0.22252595829430091        0.0000000000000000     
   8.0939272881797364E-002  0.23086802204168766        0.0000000000000000     
   7.0839164317753001E-002  0.19771517493003046        0.0000000000000000     
   7.1587846959121029E-002  0.20585322852126539        0.0000000000000000     
   7.2262847760868623E-002  0.21406769835320325        0.0000000000000000     
   7.2864166722995768E-002  0.22235858442584402        0.0000000000000000     
   7.3391803845502465E-002  0.23072588673918767        0.0000000000000000     
   6.3815442157572400E-002  0.19750848133796481        0.0000000000000000     
   6.4477540492547863E-002  0.20566711258055503        0.0000000000000000     
   6.5067881741956546E-002  0.21390194147228639        0.0000000000000000     
   6.5586465905798530E-002  0.22221296801315887        0.0000000000000000     
   6.6033292984073746E-002  0.23060019220317246        0.0000000000000000     
   5.6948023181047414E-002  0.19733113664358332        0.0000000000000000     
   5.7528052520832117E-002  0.20550920816121618        0.0000000000000000     
   5.8040681820170983E-002  0.21376186563210359        0.0000000000000000     
   5.8485911079064007E-002  0.22208910905624554        0.0000000000000000     
   5.8863740297511187E-002  0.23049093843364205        0.0000000000000000     
   5.0236907388178001E-002  0.19718314084688582        0.0000000000000000     
   5.0739383043973782E-002  0.20537951526324877        0.0000000000000000     
   5.1181247995511846E-002  0.21364747083265476        0.0000000000000000     
   5.1562502242792178E-002  0.22198700755510400        0.0000000000000000     
   5.1883145785814794E-002  0.23039812543059640        0.0000000000000000     
   8.0939272881797364E-002  0.23086802204168766        0.0000000000000000     
   8.1475706990975422E-002  0.23930598433848480        0.0000000000000000     
   8.1917664918833233E-002  0.24786050200616291        0.0000000000000000     
   8.2265146665370825E-002  0.25653157504472202        0.0000000000000000     
   8.2518152230588157E-002  0.26531920345416204        0.0000000000000000     
   7.3391803845502465E-002  0.23072588673918767        0.0000000000000000     
   7.3842483928835065E-002  0.23918329566467694        0.0000000000000000     
   7.4212931773439850E-002  0.24774450157375438        0.0000000000000000     
   7.4503147379316806E-002  0.25640950446642002        0.0000000000000000     
   7.4713130746466003E-002  0.26517830434267392        0.0000000000000000     
   6.6033292984073746E-002  0.23060019220317246        0.0000000000000000     
   6.6410669724655813E-002  0.23907015092995840        0.0000000000000000     
   6.6720902875418292E-002  0.24762938108114765        0.0000000000000000     
   6.6963992436361169E-002  0.25627788265674029        0.0000000000000000     
   6.7139938407484473E-002  0.26501565565673635        0.0000000000000000     
   5.8863740297511187E-002  0.23049093843364205        0.0000000000000000     
   5.9180264378437666E-002  0.23896655013432910        0.0000000000000000     
   5.9441578224768560E-002  0.24751514052834261        0.0000000000000000     
   5.9647681836503853E-002  0.25613670961568274        0.0000000000000000     
   5.9798575213643568E-002  0.26483125739634933        0.0000000000000000     
   5.1883145785814794E-002  0.23039812543059640        0.0000000000000000     
   5.2151267890180653E-002  0.23887249327778914        0.0000000000000000     
   5.2374957821490681E-002  0.24740177991533946        0.0000000000000000     
   5.2554215579744899E-002  0.25598598534324740        0.0000000000000000     
   5.2689041164943301E-002  0.26462510956151286        0.0000000000000000     
   8.2518152230588157E-002  0.26531920345416204        0.0000000000000000     
   8.2715666693113601E-002  0.27424976954051439        0.0000000000000000     
   8.2896675131575503E-002  0.28334965560981040        0.0000000000000000     
   8.3061177545973891E-002  0.29261886166204992        0.0000000000000000     
   8.3209173936308722E-002  0.30205738769723312        0.0000000000000000     
   7.4713130746466003E-002  0.26517830434267392        0.0000000000000000     
   7.4883826896328540E-002  0.27404455483131251        0.0000000000000000     
   7.5056180850345655E-002  0.28300190956113253        0.0000000000000000     
   7.5230192608517293E-002  0.29205036853213390        0.0000000000000000     
   7.5405862170843524E-002  0.30118993174431652        0.0000000000000000     
   6.7139938407484473E-002  0.26501565565673635        0.0000000000000000     
   6.7288980225047951E-002  0.27381284115579546        0.0000000000000000     
   6.7451357325311351E-002  0.28263958022857727        0.0000000000000000     
   6.7627069708274701E-002  0.29149587287508194        0.0000000000000000     
   6.7816117373937987E-002  0.30038171909530931        0.0000000000000000     
   5.9798575213643568E-002  0.26483125739634933        0.0000000000000000     
   5.9931126679271793E-002  0.27355462851396317        0.0000000000000000     
   6.0082204556472625E-002  0.28226266761214480        0.0000000000000000     
   6.0251808845246078E-002  0.29095537469089428        0.0000000000000000     
   6.0439939545592146E-002  0.29963274975021159        0.0000000000000000     
   5.2689041164943301E-002  0.26462510956151286        0.0000000000000000     
   5.2810266259000087E-002  0.27326991690581548        0.0000000000000000     
   5.2948722543829464E-002  0.28187117171183479        0.0000000000000000     
   5.3104410019431433E-002  0.29042887397957068        0.0000000000000000     
   5.3277328685805994E-002  0.29894302370902326        0.0000000000000000     
   2.8944623071795864E-002   5.7180416505548740E-002   0.0000000000000000     
   3.0535775312257016E-002   6.2713369635187158E-002   0.0000000000000000     
   3.2053421447235858E-002   6.8441351625711216E-002   0.0000000000000000     
   3.3497561476732406E-002   7.4364362477120902E-002   0.0000000000000000     
   3.4868195400746628E-002   8.0482402189416213E-002   0.0000000000000000     
   2.5024503216350406E-002   5.6746044445207484E-002   0.0000000000000000     
   2.6425817439196860E-002   6.2287260411331834E-002   0.0000000000000000     
   2.7761692095860515E-002   6.8025878311088611E-002   0.0000000000000000     
   2.9032127186341371E-002   7.3961898144477789E-002   0.0000000000000000     
   3.0237122710639431E-002   8.0095319911499402E-002   0.0000000000000000     
   2.1229544881428204E-002   5.6370180240333835E-002   0.0000000000000000     
   2.2435261901087189E-002   6.1918657527013116E-002   0.0000000000000000     
   2.3584182572574844E-002   6.7666511595802517E-002   0.0000000000000000     
   2.4676306895891169E-002   7.3613742446702060E-002   0.0000000000000000     
   2.5711634871036171E-002   7.9760350079711745E-002   0.0000000000000000     
   1.7559748067029261E-002   5.6052823890927798E-002   0.0000000000000000     
   1.8564108697928003E-002   6.1607560982230969E-002   0.0000000000000000     
   1.9520892877378848E-002   6.7363251479852934E-002   0.0000000000000000     
   2.0430100605381793E-002   7.3319895383793673E-002   0.0000000000000000     
   2.1291731881936837E-002   7.9477492694053214E-002   0.0000000000000000     
   1.4015112773153569E-002   5.5793975396989361E-002   0.0000000000000000     
   1.4812357829719305E-002   6.1353970776985428E-002   0.0000000000000000     
   1.5571823010272528E-002   6.7116097963239849E-002   0.0000000000000000     
   1.6293508314813240E-002   7.3080356955752657E-002   0.0000000000000000     
   1.6977413743341441E-002   7.9246747754523839E-002   0.0000000000000000     
   3.4868195400746628E-002   8.0482402189416213E-002   0.0000000000000000     
   3.6183942148348192E-002   8.6772939388243403E-002   0.0000000000000000     
   3.7463420648606735E-002   9.3213442699248708E-002   0.0000000000000000     
   3.8706630901522258E-002   9.9803912122432115E-002   0.0000000000000000     
   3.9913572907094769E-002  0.10654434765779361        0.0000000000000000     
   3.0237122710639431E-002   8.0095319911499402E-002   0.0000000000000000     
   3.1393179621795241E-002   8.6402109905740557E-002   0.0000000000000000     
   3.2516798872849348E-002   9.2858234420788402E-002   0.0000000000000000     
   3.3607980463801757E-002   9.9463693456642924E-002   0.0000000000000000     
   3.4666724394652453E-002  0.10621848701330411        0.0000000000000000     
   2.5711634871036171E-002   7.9760350079711745E-002   0.0000000000000000     
   2.6704518602750346E-002   8.6081084515542583E-002   0.0000000000000000     
   2.7669310195774208E-002   9.2550695774905670E-002   0.0000000000000000     
   2.8606009650107758E-002   9.9169183857801005E-002   0.0000000000000000     
   2.9514616965750990E-002  0.10593654876422855        0.0000000000000000     
   2.1291731881936837E-002   7.9477492694053214E-002   0.0000000000000000     
   2.2117959091213505E-002   8.5809863217649524E-002   0.0000000000000000     
   2.2920954617381320E-002   9.2290826761600567E-002   0.0000000000000000     
   2.3700718460440272E-002   9.8920383325906344E-002   0.0000000000000000     
   2.4457250620390374E-002  0.10569853291056690        0.0000000000000000     
   1.6977413743341441E-002   7.9246747754523839E-002   0.0000000000000000     
   1.7633501087184721E-002   8.5588446012061309E-002   0.0000000000000000     
   1.8271732137670676E-002   9.2078627380873024E-002   0.0000000000000000     
   1.8892106894799306E-002   9.8717291860958956E-002   0.0000000000000000     
   1.9494625358570605E-002  0.10550443945231912        0.0000000000000000     
   3.9913572907094769E-002  0.10654434765779361        0.0000000000000000     
   4.1074088984035334E-002  0.11342867478701268        0.0000000000000000     
   4.2178021451055044E-002  0.12045081899176875        0.0000000000000000     
   4.3225370308153911E-002  0.12761078027206182        0.0000000000000000     
   4.4216135555331923E-002  0.13490855862789189        0.0000000000000000     
   3.4666724394652453E-002  0.10621848701330411        0.0000000000000000     
   3.5683946991271989E-002  0.11311722482788868        0.0000000000000000     
   3.6650564579530913E-002  0.12015451663751320        0.0000000000000000     
   3.7566577159429203E-002  0.12733036244217771        0.0000000000000000     
   3.8431984730966873E-002  0.13464476224188218        0.0000000000000000     
   2.9514616965750990E-002  0.10593654876422855        0.0000000000000000     
   3.0387128068455355E-002  0.11284794663128714        0.0000000000000000     
   3.1215538883972323E-002  0.11989853359607558        0.0000000000000000     
   3.1999849412301870E-002  0.12708830965859388        0.0000000000000000     
   3.2740059653444002E-002  0.13441727481884200        0.0000000000000000     
   2.4457250620390374E-002  0.10569853291056690        0.0000000000000000     
   2.5183632215585432E-002  0.11262084019720810        0.0000000000000000     
   2.5872944364379279E-002  0.11968286986745590        0.0000000000000000     
   2.6525187066771899E-002  0.12688462192131031        0.0000000000000000     
   2.7140360322763311E-002  0.13422609635877136        0.0000000000000000     
   1.9494625358570605E-002  0.10550443945231912        0.0000000000000000     
   2.0073459432662220E-002  0.11243590552565152        0.0000000000000000     
   2.0622781020751792E-002  0.11950752545165418        0.0000000000000000     
   2.1142590122839314E-002  0.12671929923032707        0.0000000000000000     
   2.1632886738924786E-002  0.13407122686167020        0.0000000000000000     
   4.4216135555331923E-002  0.13490855862789189        0.0000000000000000     
   4.5152995533914858E-002  0.14233003593329419        0.0000000000000000     
   4.6038628585228489E-002  0.14986109406230400        0.0000000000000000     
   4.6873034709272843E-002  0.15750173301492132        0.0000000000000000     
   4.7656213906047899E-002  0.16525195279114607        0.0000000000000000     
   3.8431984730966873E-002  0.13464476224188218        0.0000000000000000     
   3.9249379603706294E-002  0.14208327485887096        0.0000000000000000     
   4.0021354087209839E-002  0.14963145911538833        0.0000000000000000     
   4.0747908181477506E-002  0.15728931501143426        0.0000000000000000     
   4.1429041886509289E-002  0.16505684254700884        0.0000000000000000     
   3.2740059653444002E-002  0.13441727481884200        0.0000000000000000     
   3.3438508269702280E-002  0.14187073161227909        0.0000000000000000     
   3.4097533923380233E-002  0.14943398257436433        0.0000000000000000     
   3.4717136614477881E-002  0.15710702770509757        0.0000000000000000     
   3.5297316342995204E-002  0.16488986700447900        0.0000000000000000     
   2.7140360322763311E-002  0.13422609635877136        0.0000000000000000     
   2.7720381531902802E-002  0.14169240619351864        0.0000000000000000     
   2.8267168093739688E-002  0.14926866443923201        0.0000000000000000     
   2.8780720008273968E-002  0.15695487109591133        0.0000000000000000     
   2.9261037275505636E-002  0.16475102616355672        0.0000000000000000     
   2.1632886738924786E-002  0.13407122686167020        0.0000000000000000     
   2.2094999390307860E-002  0.14154829860258961        0.0000000000000000     
   2.2530256598288188E-002  0.14913550470999137        0.0000000000000000     
   2.2938658362865762E-002  0.15683284518387544        0.0000000000000000     
   2.3320204684040585E-002  0.16464032002424184        0.0000000000000000     
   4.7656213906047899E-002  0.16525195279114607        0.0000000000000000     
   4.8385681548536334E-002  0.17310140968565124        0.0000000000000000     
   4.9058953009720838E-002  0.18103975999310956        0.0000000000000000     
   4.9676028289601395E-002  0.18906700371352114        0.0000000000000000     
   5.0236907388178001E-002  0.19718314084688582        0.0000000000000000     
   4.1429041886509289E-002  0.16505684254700884        0.0000000000000000     
   4.2062088498073372E-002  0.17292375565782683        0.0000000000000000     
   4.2644381311937908E-002  0.18087976827960320        0.0000000000000000     
   4.3175920328102912E-002  0.18892488041233799        0.0000000000000000     
   4.3656705546568378E-002  0.19705909205603109        0.0000000000000000     
   3.5297316342995204E-002  0.16488986700447900        0.0000000000000000     
   3.5835462033467290E-002  0.17277215187817679        0.0000000000000000     
   3.6328962610429255E-002  0.18074353373185914        0.0000000000000000     
   3.6777818073881058E-002  0.18880401256552617        0.0000000000000000     
   3.7182028423822740E-002  0.19695358837917776        0.0000000000000000     
   2.9261037275505636E-002  0.16475102616355672        0.0000000000000000     
   2.9705802154718120E-002  0.17264659834670107        0.0000000000000000     
   3.0112696905194854E-002  0.18063105634987736        0.0000000000000000     
   3.0481721526935832E-002  0.18870440017308565        0.0000000000000000     
   3.0812876019941062E-002  0.19686662981632591        0.0000000000000000     
   2.3320204684040585E-002  0.16464032002424184        0.0000000000000000     
   2.3673108861825849E-002  0.17254709506339966        0.0000000000000000     
   2.3995584196234730E-002  0.18054233613365789        0.0000000000000000     
   2.4287630687267237E-002  0.18862604323501644        0.0000000000000000     
   2.4549248334923363E-002  0.19679821636747544        0.0000000000000000     
   5.0236907388178001E-002  0.19718314084688582        0.0000000000000000     
   5.0739383043973782E-002  0.20537951526324877        0.0000000000000000     
   5.1181247995511846E-002  0.21364747083265476        0.0000000000000000     
   5.1562502242792178E-002  0.22198700755510400        0.0000000000000000     
   5.1883145785814794E-002  0.23039812543059640        0.0000000000000000     
   4.3656705546568378E-002  0.19705909205603109        0.0000000000000000     
   4.4085794843658307E-002  0.20527180903840714        0.0000000000000000     
   4.4462246095696670E-002  0.21355243718719058        0.0000000000000000     
   4.4786059302683486E-002  0.22190097650238153        0.0000000000000000     
   4.5057234464618748E-002  0.23031742698397994        0.0000000000000000     
   3.7182028423822740E-002  0.19695358837917776        0.0000000000000000     
   3.7541550701571093E-002  0.20517986463844567        0.0000000000000000     
   3.7856341948442958E-002  0.21347044480896157        0.0000000000000000     
   3.8126402164438349E-002  0.22182532889072540        0.0000000000000000     
   3.8351731349557237E-002  0.23024451688373718        0.0000000000000000     
   3.0812876019941062E-002  0.19686662981632591        0.0000000000000000     
   3.1106650617712148E-002  0.20510368206336452        0.0000000000000000     
   3.1363535553750703E-002  0.21340149369796771        0.0000000000000000     
   3.1583530828056747E-002  0.22176006472013560        0.0000000000000000     
   3.1766636440630255E-002  0.23017939512986813        0.0000000000000000     
   2.4549248334923363E-002  0.19679821636747544        0.0000000000000000     
   2.4781094592081467E-002  0.20504326131316344        0.0000000000000000     
   2.4983826911619909E-002  0.21334558385420899        0.0000000000000000     
   2.5157445293538683E-002  0.22170518399061206        0.0000000000000000     
   2.5301949737837795E-002  0.23012206172237276        0.0000000000000000     
   5.1883145785814794E-002  0.23039812543059640        0.0000000000000000     
   5.2151267890180653E-002  0.23887249327778914        0.0000000000000000     
   5.2374957821490681E-002  0.24740177991533946        0.0000000000000000     
   5.2554215579744899E-002  0.25598598534324740        0.0000000000000000     
   5.2689041164943301E-002  0.26462510956151286        0.0000000000000000     
   4.5057234464618748E-002  0.23031742698397994        0.0000000000000000     
   4.5284570123365293E-002  0.23878654978376687        0.0000000000000000     
   4.5476864820785931E-002  0.24729310605352334        0.0000000000000000     
   4.5634118556880682E-002  0.25583709579324942        0.0000000000000000     
   4.5756331331649525E-002  0.26441851900294500        0.0000000000000000     
   3.8351731349557237E-002  0.23024451688373718        0.0000000000000000     
   3.8541060941472152E-002  0.23870728907569067        0.0000000000000000     
   3.8703122377855594E-002  0.24719292575427962        0.0000000000000000     
   3.8837915658707582E-002  0.25570142691950398        0.0000000000000000     
   3.8945440784028090E-002  0.26423279257136373        0.0000000000000000     
   3.1766636440630255E-002  0.23017939512986813        0.0000000000000000     
   3.1920740344501236E-002  0.23863471115356058        0.0000000000000000     
   3.2053730492699689E-002  0.24710123901760822        0.0000000000000000     
   3.2165606885225614E-002  0.25557897872201096        0.0000000000000000     
   3.2256369522079005E-002  0.26406793026676889        0.0000000000000000     
   2.5301949737837795E-002  0.23012206172237276        0.0000000000000000     
   2.5423608332452538E-002  0.23856881601737659        0.0000000000000000     
   2.5528689165318197E-002  0.24701804584350920        0.0000000000000000     
   2.5617192236434772E-002  0.25546975120077053        0.0000000000000000     
   2.5689117545802269E-002  0.26392393208916065        0.0000000000000000     
   5.2689041164943301E-002  0.26462510956151286        0.0000000000000000     
   5.2810266259000087E-002  0.27326991690581548        0.0000000000000000     
   5.2948722543829464E-002  0.28187117171183479        0.0000000000000000     
   5.3104410019431433E-002  0.29042887397957068        0.0000000000000000     
   5.3277328685805994E-002  0.29894302370902326        0.0000000000000000     
   4.5756331331649525E-002  0.26441851900294500        0.0000000000000000     
   4.5867642939343325E-002  0.27298741506647994        0.0000000000000000     
   4.5992193174212943E-002  0.28149382336772388        0.0000000000000000     
   4.6129982036258378E-002  0.28993774390667698        0.0000000000000000     
   4.6281009525479630E-002  0.29831917668333896        0.0000000000000000     
   3.8945440784028090E-002  0.26423279257136373        0.0000000000000000     
   3.9044500695411988E-002  0.27273583173108362        0.0000000000000000     
   3.9153898334454137E-002  0.28115935341988851        0.0000000000000000     
   3.9273633701154519E-002  0.28950335763777840        0.0000000000000000     
   3.9403706795513152E-002  0.29776784438475318        0.0000000000000000     
   3.2256369522079005E-002  0.26406793026676889        0.0000000000000000     
   3.2340839527206081E-002  0.27251516689962657        0.0000000000000000     
   3.2433838024553026E-002  0.28086776186832857        0.0000000000000000     
   3.2535365014119855E-002  0.28912571517287516        0.0000000000000000     
   3.2645420495906560E-002  0.29728902681326602        0.0000000000000000     
   2.5689117545802269E-002  0.26392393208916065        0.0000000000000000     
   2.5756659434725587E-002  0.27232542057210879        0.0000000000000000     
   2.5832012244509626E-002  0.28061904871304433        0.0000000000000000     
   2.5915175975154386E-002  0.28880481651196716        0.0000000000000000     
   2.6006150626659869E-002  0.29688272396887738        0.0000000000000000     
   1.4015112773153569E-002   5.5793975396989361E-002   0.0000000000000000     
   1.4812357829719305E-002   6.1353970776985428E-002   0.0000000000000000     
   1.5571823010272528E-002   6.7116097963239849E-002   0.0000000000000000     
   1.6293508314813240E-002   7.3080356955752657E-002   0.0000000000000000     
   1.6977413743341441E-002   7.9246747754523839E-002   0.0000000000000000     
   1.0527627324184666E-002   5.5593080153758884E-002   0.0000000000000000     
   1.1117548189390619E-002   6.1157238372075914E-002   0.0000000000000000     
   1.1679614106956277E-002   6.6924385273795073E-002   0.0000000000000000     
   1.2213825076881634E-002   7.2894520858916401E-002   0.0000000000000000     
   1.2720181099166696E-002   7.9067645127439856E-002   0.0000000000000000     
   7.0292800445060782E-003   5.5449583556476695E-002   0.0000000000000000     
   7.4172186698714801E-003   6.1016715228301863E-002   0.0000000000000000     
   7.7869073031304886E-003   6.6787447639350392E-002   0.0000000000000000     
   8.1383459442831048E-003   7.2761780789622268E-002   0.0000000000000000     
   8.4715345933293294E-003   7.8939714679117506E-002   0.0000000000000000     
   3.5200709341178119E-003   5.5363485605142822E-002   0.0000000000000000     
   3.7113692711618824E-003   6.0932401345663294E-002   0.0000000000000000     
   3.8937025987951608E-003   6.6705285059905778E-002   0.0000000000000000     
   4.0670709170176466E-003   7.2682136747870302E-002   0.0000000000000000     
   4.2314742258293403E-003   7.8862956409556789E-002   0.0000000000000000     
  -6.9801369545485770E-012   5.5334786299757251E-002   0.0000000000000000     
  -6.7381716525871660E-012   6.0904296724160208E-002   0.0000000000000000     
  -6.0497047909419122E-012   6.6677897535461259E-002   0.0000000000000000     
  -4.9147392427485725E-012   7.2655588733660431E-002   0.0000000000000000     
  -3.3332728938129108E-012   7.8837370318757719E-002   0.0000000000000000     
   1.6977413743341441E-002   7.9246747754523839E-002   0.0000000000000000     
   1.7633501087184721E-002   8.5588446012061309E-002   0.0000000000000000     
   1.8271732137670676E-002   9.2078627380873024E-002   0.0000000000000000     
   1.8892106894799306E-002   9.8717291860958956E-002   0.0000000000000000     
   1.9494625358570605E-002  0.10550443945231912        0.0000000000000000     
   1.2720181099166696E-002   7.9067645127439856E-002   0.0000000000000000     
   1.3206351831420802E-002   8.5416495247413585E-002   0.0000000000000000     
   1.3680006931253302E-002   9.1913808386885718E-002   0.0000000000000000     
   1.4141146398664192E-002   9.8559584545856213E-002   0.0000000000000000     
   1.4589770233653473E-002  0.10535382372432511        0.0000000000000000     
   8.4715345933293294E-003   7.8939714679117506E-002   0.0000000000000000     
   8.7917185646785648E-003   8.5293673272341886E-002   0.0000000000000000     
   9.1041431727402131E-003   9.1796080533801214E-002   0.0000000000000000     
   9.4088084175142795E-003   9.8446936463495491E-002   0.0000000000000000     
   9.7057142990007537E-003  0.10524624106142468        0.0000000000000000     
   4.2314742258293403E-003   7.8862956409556789E-002   0.0000000000000000     
   4.3896012869580068E-003   8.5219980086846253E-002   0.0000000000000000     
   4.5441408621314143E-003   9.1725443821619568E-002   0.0000000000000000     
   4.6950929513495604E-003   9.8379347613876747E-002   0.0000000000000000     
   4.8424575546124485E-003  0.10518169146361782        0.0000000000000000     
  -3.3332728938129108E-012   7.8837370318757719E-002   0.0000000000000000     
  -1.7408709022947999E-012   8.5195415690926646E-002   0.0000000000000000     
  -5.7309951055628527E-013   9.1701898250340752E-002   0.0000000000000000     
   1.7004328717665218E-013   9.8356817997000037E-002   0.0000000000000000     
   4.8855537670977611E-013  0.10516017493090453        0.0000000000000000     
   1.9494625358570605E-002  0.10550443945231912        0.0000000000000000     
   2.0073459432662220E-002  0.11243590552565152        0.0000000000000000     
   2.0622781020751792E-002  0.11950752545165418        0.0000000000000000     
   2.1142590122839314E-002  0.12671929923032707        0.0000000000000000     
   2.1632886738924786E-002  0.13407122686167020        0.0000000000000000     
   1.4589770233653473E-002  0.10535382372432511        0.0000000000000000     
   1.5021234782194373E-002  0.11229253783415737        0.0000000000000000     
   1.5430896390260112E-002  0.11937173878721796        0.0000000000000000     
   1.5818755057850690E-002  0.12659142658350686        0.0000000000000000     
   1.6184810784966114E-002  0.13395160122302410        0.0000000000000000     
   9.7057142990007537E-003  0.10524624106142468        0.0000000000000000     
   9.9915833266905306E-003  0.11219013234026556        0.0000000000000000     
   1.0263138010074491E-002  0.11927474831269484        0.0000000000000000     
   1.0520378349152634E-002  0.12650008897871251        0.0000000000000000     
   1.0763304343924964E-002  0.13386615433831858        0.0000000000000000     
   4.8424575546124485E-003  0.10518169146361782        0.0000000000000000     
   4.9845050661506962E-003  0.11212868904397605        0.0000000000000000     
   5.1195058801949272E-003  0.11921655402808477        0.0000000000000000     
   5.2474599967451390E-003  0.12644528641594394        0.0000000000000000     
   5.3683674158013350E-003  0.13381488620755361        0.0000000000000000     
   4.8855537670977611E-013  0.10516017493090453        0.0000000000000000     
   5.7487001270395410E-013  0.11210820794528888        0.0000000000000000     
   6.2142218454352971E-013  0.11919715593338777        0.0000000000000000     
   6.2820723015916125E-013  0.12642701889520125        0.0000000000000000     
   5.9522872741801791E-013  0.13379779683072923        0.0000000000000000     
   2.1632886738924786E-002  0.13407122686167020        0.0000000000000000     
   2.2094999390307860E-002  0.14154829860258961        0.0000000000000000     
   2.2530256598288188E-002  0.14913550470999137        0.0000000000000000     
   2.2938658362865762E-002  0.15683284518387544        0.0000000000000000     
   2.3320204684040585E-002  0.16464032002424184        0.0000000000000000     
   1.6184810784966114E-002  0.13395160122302410        0.0000000000000000     
   1.6529804545829918E-002  0.14143717476020015        0.0000000000000000     
   1.6854477314665654E-002  0.14903305924946550        0.0000000000000000     
   1.7158829091473312E-002  0.15673925469082012        0.0000000000000000     
   1.7442859876252905E-002  0.16455576108426406        0.0000000000000000     
   1.0763304343924964E-002  0.13386615433831858        0.0000000000000000     
   1.0992239699381430E-002  0.14135780058705844        0.0000000000000000     
   1.1207508120512001E-002  0.14895988392047740        0.0000000000000000     
   1.1409109607316665E-002  0.15667240433857554        0.0000000000000000     
   1.1597044159795428E-002  0.16449536184135283        0.0000000000000000     
   5.3683674158013350E-003  0.13381488620755361        0.0000000000000000     
   5.4823048509624007E-003  0.14131017608316448        0.0000000000000000     
   5.5893490158272262E-003  0.14891597872302717        0.0000000000000000     
   5.6894999103958141E-003  0.15663229412714175        0.0000000000000000     
   5.7827575346681591E-003  0.16445912229550813        0.0000000000000000     
   5.9522872741801791E-013  0.13379779683072923        0.0000000000000000     
   5.7282347268317046E-013  0.14129430124851830        0.0000000000000000     
   6.1133368332855209E-013  0.14890134365711477        0.0000000000000000     
   7.1075778726101269E-013  0.15661892405651870        0.0000000000000000     
   8.7109529658957463E-013  0.16444704244673009        0.0000000000000000     
   2.3320204684040585E-002  0.16464032002424184        0.0000000000000000     
   2.3673108861825849E-002  0.17254709506339966        0.0000000000000000     
   2.3995584196234730E-002  0.18054233613365789        0.0000000000000000     
   2.4287630687267237E-002  0.18862604323501644        0.0000000000000000     
   2.4549248334923363E-002  0.19679821636747544        0.0000000000000000     
   1.7442859876252905E-002  0.16455576108426406        0.0000000000000000     
   1.7705382058053953E-002  0.17247142667405735        0.0000000000000000     
   1.7945208025925991E-002  0.18047509970446010        0.0000000000000000     
   1.8162337779869024E-002  0.18856678017547227        0.0000000000000000     
   1.8356771319883041E-002  0.19674646808709387        0.0000000000000000     
   1.1597044159795428E-002  0.16449536184135283        0.0000000000000000     
   1.1770621646665917E-002  0.17241737782445893        0.0000000000000000     
   1.1929151936645756E-002  0.18042707368354360        0.0000000000000000     
   1.2072635029734949E-002  0.18852444941860685        0.0000000000000000     
   1.2201070925933491E-002  0.19670950502964857        0.0000000000000000     
   5.7827575346681591E-003  0.16445912229550813        0.0000000000000000     
   5.8688276276617386E-003  0.17238494851460440        0.0000000000000000     
   5.9474159283940259E-003  0.18039825807090840        0.0000000000000000     
   6.0185224368650208E-003  0.18849905096442010        0.0000000000000000     
   6.0821471530747226E-003  0.19668732719513957        0.0000000000000000     
   8.7109529658957463E-013  0.16444704244673009        0.0000000000000000     
   1.0414191210783574E-012  0.17237413874449375        0.0000000000000000     
   1.1707991347253976E-012  0.18038865286655442        0.0000000000000000     
   1.2592360964722160E-012  0.18849058481291214        0.0000000000000000     
   1.3067294642177263E-012  0.19667993458356689        0.0000000000000000     
   2.4549248334923363E-002  0.19679821636747544        0.0000000000000000     
   2.4781094592081467E-002  0.20504326131316344        0.0000000000000000     
   2.4983826911619909E-002  0.21334558385420899        0.0000000000000000     
   2.5157445293538683E-002  0.22170518399061206        0.0000000000000000     
   2.5301949737837795E-002  0.23012206172237276        0.0000000000000000     
   1.8356771319883041E-002  0.19674646808709387        0.0000000000000000     
   1.8529113182771971E-002  0.20499728895511743        0.0000000000000000     
   1.8679967905339750E-002  0.21330236829533547        0.0000000000000000     
   1.8809335487586367E-002  0.22166170610774802        0.0000000000000000     
   1.8917215929511830E-002  0.23007530239235505        0.0000000000000000     
   1.2201070925933491E-002  0.19670950502964857        0.0000000000000000     
   1.2314936947876585E-002  0.20496445155650128        0.0000000000000000     
   1.2414710418199417E-002  0.21327150003899720        0.0000000000000000     
   1.2500391336901992E-002  0.22163065047713648        0.0000000000000000     
   1.2571979703984307E-002  0.23004190287091902        0.0000000000000000     
   6.0821471530747226E-003  0.19668732719513957        0.0000000000000000     
   6.1385658873952965E-003  0.20494474911731489        0.0000000000000000     
   6.1880544501989043E-003  0.21325297908519419        0.0000000000000000     
   6.2306128414855505E-003  0.22161201709877743        0.0000000000000000     
   6.2662410612552306E-003  0.23002186315806458        0.0000000000000000     
   1.3067294642177263E-012  0.19667993458356689        0.0000000000000000     
   1.3281131836656579E-012  0.20493818163755839        0.0000000000000000     
   1.3382200078973505E-012  0.21324680543392641        0.0000000000000000     
   1.3370484461348170E-012  0.22160580597267085        0.0000000000000000     
   1.3246001517863704E-012  0.23001518325379186        0.0000000000000000     
   2.5301949737837795E-002  0.23012206172237276        0.0000000000000000     
   2.5423608332452538E-002  0.23856881601737659        0.0000000000000000     
   2.5528689165318197E-002  0.24701804584350920        0.0000000000000000     
   2.5617192236434772E-002  0.25546975120077053        0.0000000000000000     
   2.5689117545802269E-002  0.26392393208916065        0.0000000000000000     
   1.8917215929511830E-002  0.23007530239235505        0.0000000000000000     
   1.9007979522065371E-002  0.23851408149206799        0.0000000000000000     
   1.9085996556196239E-002  0.24694896774979821        0.0000000000000000     
   1.9151267031904427E-002  0.25537996116554579        0.0000000000000000     
   1.9203790949189937E-002  0.26380706173931057        0.0000000000000000     
   1.2571979703984307E-002  0.23004190287091902        0.0000000000000000     
   1.2632168530079058E-002  0.23847498540256407        0.0000000000000000     
   1.2683650825818934E-002  0.24689962625429104        0.0000000000000000     
   1.2726426591203936E-002  0.25531582542609976        0.0000000000000000     
   1.2760495826234061E-002  0.26372358291799031        0.0000000000000000     
   6.2662410612552306E-003  0.23002186315806458        0.0000000000000000     
   6.2961753564935927E-003  0.23845152774886494        0.0000000000000000     
   6.3216519741862830E-003  0.24687002135698757        0.0000000000000000     
   6.3426709143333000E-003  0.25527734398243268        0.0000000000000000     
   6.3592321769346443E-003  0.26367349562519993        0.0000000000000000     
   1.3246001517863704E-012  0.23001518325379186        0.0000000000000000     
   1.3089770153212887E-012  0.23844370853097049        0.0000000000000000     
   1.2982843966558022E-012  0.24686015305788794        0.0000000000000000     
   1.2925214284281727E-012  0.25526451683454432        0.0000000000000000     
   1.2916885443192694E-012  0.26365679986093943        0.0000000000000000     
   2.5689117545802269E-002  0.26392393208916065        0.0000000000000000     
   2.5756659434725587E-002  0.27232542057210879        0.0000000000000000     
   2.5832012244509626E-002  0.28061904871304433        0.0000000000000000     
   2.5915175975154386E-002  0.28880481651196716        0.0000000000000000     
   2.6006150626659869E-002  0.29688272396887738        0.0000000000000000     
   1.9203790949189937E-002  0.26380706173931057        0.0000000000000000     
   1.9253538554172660E-002  0.27217291938100530        0.0000000000000000     
   1.9310480092972482E-002  0.28042018400054275        0.0000000000000000     
   1.9374615565589406E-002  0.28854885559792265        0.0000000000000000     
   1.9445944972023430E-002  0.29655893417314527        0.0000000000000000     
   1.2760495826234061E-002  0.26372358291799031        0.0000000000000000     
   1.2793055021749425E-002  0.27206398995879133        0.0000000000000000     
   1.2831300668590140E-002  0.28027813777733113        0.0000000000000000     
   1.2875232766756207E-002  0.28836602637360986        0.0000000000000000     
   1.2924851316247623E-002  0.29632765574762759        0.0000000000000000     
   6.3592321769346443E-003  0.26367349562519993        0.0000000000000000     
   6.3752088374558879E-003  0.27199863230546661        0.0000000000000000     
   6.3944739713626053E-003  0.28019291004340952        0.0000000000000000     
   6.4170275786547895E-003  0.28825632883902885        0.0000000000000000     
   6.4428696593324484E-003  0.29618888869232435        0.0000000000000000     
   1.2916885443192694E-012  0.26365679986093943        0.0000000000000000     
   1.2920504510044450E-012  0.27197684642103137        0.0000000000000000     
   1.2898744572442666E-012  0.28016450079877803        0.0000000000000000     
   1.2851575272726512E-012  0.28821976299417951        0.0000000000000000     
   1.2779031305365507E-012  0.29614263300723564        0.0000000000000000     
  -6.9801369545485770E-012   5.5334786299757251E-002   0.0000000000000000     
  -6.7381716525871660E-012   6.0904296724160208E-002   0.0000000000000000     
  -6.0497047909419122E-012   6.6677897535461259E-002   0.0000000000000000     
  -4.9147392427485725E-012   7.2655588733660431E-002   0.0000000000000000     
  -3.3332728938129108E-012   7.8837370318757719E-002   0.0000000000000000     
  -3.5200709467261143E-003   5.5363485635058308E-002   0.0000000000000000     
  -3.7113692833610733E-003   6.0932401361091071E-002   0.0000000000000000     
  -3.8937026097507223E-003   6.6705285065119774E-002   0.0000000000000000     
  -4.0670709258950593E-003   7.2682136747144382E-002   0.0000000000000000     
  -4.2314742317940864E-003   7.8862956407164925E-002   0.0000000000000000     
  -7.0292800530584662E-003   5.5449583605784315E-002   0.0000000000000000     
  -7.4172186782392180E-003   6.1016715253754392E-002   0.0000000000000000     
  -7.7869073106545013E-003   6.6787447647984208E-002   0.0000000000000000     
  -8.1383459503043230E-003   7.2761780788473798E-002   0.0000000000000000     
  -8.4715345971886780E-003   7.8939714675223135E-002   0.0000000000000000     
  -1.0527627325977193E-002   5.5593080211935285E-002   0.0000000000000000     
  -1.1117548191372601E-002   6.1157238402150156E-002   0.0000000000000000     
  -1.1679614108761045E-002   6.6924385284054630E-002   0.0000000000000000     
  -1.2213825078142528E-002   7.2894520857648665E-002   0.0000000000000000     
  -1.2720181099517046E-002   7.9067645122932295E-002   0.0000000000000000     
  -1.4015112765482295E-002   5.5793975453511210E-002   0.0000000000000000     
  -1.4812357822761225E-002   6.1353970806278385E-002   0.0000000000000000     
  -1.5571823004070354E-002   6.7116097973330971E-002   0.0000000000000000     
  -1.6293508309409677E-002   7.3080356954668996E-002   0.0000000000000000     
  -1.6977413738779194E-002   7.9246747750292432E-002   0.0000000000000000     
  -3.3332728938129108E-012   7.8837370318757719E-002   0.0000000000000000     
  -1.7408709022947999E-012   8.5195415690926646E-002   0.0000000000000000     
  -5.7309951055628527E-013   9.1701898250340752E-002   0.0000000000000000     
   1.7004328717665218E-013   9.8356817997000037E-002   0.0000000000000000     
   4.8855537670977611E-013  0.10516017493090453        0.0000000000000000     
  -4.2314742317940864E-003   7.8862956407164925E-002   0.0000000000000000     
  -4.3896012899844131E-003   8.5219980084939681E-002   0.0000000000000000     
  -4.5441408630026523E-003   9.1725443820226890E-002   0.0000000000000000     
  -4.6950929508488030E-003   9.8379347613026552E-002   0.0000000000000000     
  -4.8424575535228661E-003  0.10518169146333867        0.0000000000000000     
  -8.4715345971886780E-003   7.8939714675223135E-002   0.0000000000000000     
  -8.7917185663389623E-003   8.5293673269241990E-002   0.0000000000000000     
  -9.1041431727865701E-003   9.1796080531540078E-002   0.0000000000000000     
  -9.4088084165315014E-003   9.8446936462117482E-002   0.0000000000000000     
  -9.7057142975737597E-003  0.10524624106097411        0.0000000000000000     
  -1.2720181099517046E-002   7.9067645122932295E-002   0.0000000000000000     
  -1.3206351830804515E-002   8.5416495243833518E-002   0.0000000000000000     
  -1.3680006929924852E-002   9.1913808384280371E-002   0.0000000000000000     
  -1.4141146396878057E-002   9.8559584544272785E-002   0.0000000000000000     
  -1.4589770231664126E-002  0.10535382372381083        0.0000000000000000     
  -1.6977413738779194E-002   7.9246747750292432E-002   0.0000000000000000     
  -1.7633501083381079E-002   8.5588446008714306E-002   0.0000000000000000     
  -1.8271732134417500E-002   9.2078627378447686E-002   0.0000000000000000     
  -1.8892106891888465E-002   9.8717291859492504E-002   0.0000000000000000     
  -1.9494625355793962E-002  0.10550443945184884        0.0000000000000000     
   4.8855537670977611E-013  0.10516017493090453        0.0000000000000000     
   5.7487001270395410E-013  0.11210820794528888        0.0000000000000000     
   6.2142218454352971E-013  0.11919715593338777        0.0000000000000000     
   6.2820723015916125E-013  0.12642701889520125        0.0000000000000000     
   5.9522872741801791E-013  0.13379779683072923        0.0000000000000000     
  -4.8424575535228661E-003  0.10518169146333867        0.0000000000000000     
  -4.9845050649002902E-003  0.11212868904416828        0.0000000000000000     
  -5.1195058788565230E-003  0.11921655402852041        0.0000000000000000     
  -5.2474599953915664E-003  0.12644528641639508        0.0000000000000000     
  -5.3683674145054185E-003  0.13381488620779222        0.0000000000000000     
  -9.7057142975737597E-003  0.10524624106097411        0.0000000000000000     
  -9.9915833251381283E-003  0.11219013234057851        0.0000000000000000     
  -1.0263138008449406E-002  0.11927474831339918        0.0000000000000000     
  -1.0520378347507584E-002  0.12650008897943610        0.0000000000000000     
  -1.0763304342312667E-002  0.13386615433868929        0.0000000000000000     
  -1.4589770231664126E-002  0.10535382372381083        0.0000000000000000     
  -1.5021234780138653E-002  0.11229253783451956        0.0000000000000000     
  -1.5430896388157223E-002  0.11937173878802408        0.0000000000000000     
  -1.5818755055719849E-002  0.12659142658432437        0.0000000000000000     
  -1.6184810782826523E-002  0.13395160122342048        0.0000000000000000     
  -1.9494625355793962E-002  0.10550443945184884        0.0000000000000000     
  -2.0073459429901852E-002  0.11243590552599146        0.0000000000000000     
  -2.0622781017979985E-002  0.11950752545239514        0.0000000000000000     
  -2.1142590120028362E-002  0.12671929923105993        0.0000000000000000     
  -2.1632886736046981E-002  0.13407122686198575        0.0000000000000000     
   5.9522872741801791E-013  0.13379779683072923        0.0000000000000000     
   5.7282347268317046E-013  0.14129430124851830        0.0000000000000000     
   6.1133368332855209E-013  0.14890134365711477        0.0000000000000000     
   7.1075778726101269E-013  0.15661892405651870        0.0000000000000000     
   8.7109529658957463E-013  0.16444704244673009        0.0000000000000000     
  -5.3683674145054185E-003  0.13381488620779222        0.0000000000000000     
  -5.4823048497047010E-003  0.14131017608311688        0.0000000000000000     
  -5.5893490144960419E-003  0.14891597872277409        0.0000000000000000     
  -5.6894999088794324E-003  0.15663229412676377        0.0000000000000000     
  -5.7827575328548795E-003  0.16445912229508600        0.0000000000000000     
  -1.0763304342312667E-002  0.13386615433868929        0.0000000000000000     
  -1.0992239697787584E-002  0.14135780058695741        0.0000000000000000     
  -1.1207508118855260E-002  0.14895988392003912        0.0000000000000000     
  -1.1409109605515689E-002  0.15667240433793436        0.0000000000000000     
  -1.1597044157768879E-002  0.16449536184064323        0.0000000000000000     
  -1.6184810782826523E-002  0.13395160122342048        0.0000000000000000     
  -1.6529804543675822E-002  0.14143717476003975        0.0000000000000000     
  -1.6854477312466320E-002  0.14903305924890980        0.0000000000000000     
  -1.7158829089198014E-002  0.15673925469003044        0.0000000000000000     
  -1.7442859873870908E-002  0.16455576108340181        0.0000000000000000     
  -2.1632886736046981E-002  0.13407122686198575        0.0000000000000000     
  -2.2094999387369411E-002  0.14154829860236406        0.0000000000000000     
  -2.2530256595329222E-002  0.14913550470938614        0.0000000000000000     
  -2.2938658359926402E-002  0.15683284518305207        0.0000000000000000     
  -2.3320204681160962E-002  0.16464032002336179        0.0000000000000000     
   8.7109529658957463E-013  0.16444704244673009        0.0000000000000000     
   1.0414191210783574E-012  0.17237413874449375        0.0000000000000000     
   1.1707991347253976E-012  0.18038865286655442        0.0000000000000000     
   1.2592360964722160E-012  0.18849058481291214        0.0000000000000000     
   1.3067294642177263E-012  0.19667993458356689        0.0000000000000000     
  -5.7827575328548795E-003  0.16445912229508600        0.0000000000000000     
  -5.8688276255337247E-003  0.17238494851419453        0.0000000000000000     
  -5.9474159260273184E-003  0.18039825807054338        0.0000000000000000     
  -6.0185224343356639E-003  0.18849905096413241        0.0000000000000000     
  -6.0821471504587526E-003  0.19668732719496168        0.0000000000000000     
  -1.1597044157768879E-002  0.16449536184064323        0.0000000000000000     
  -1.1770621644402375E-002  0.17241737782377448        0.0000000000000000     
  -1.1929151934203725E-002  0.18042707368293684        0.0000000000000000     
  -1.2072635027172929E-002  0.18852444941813043        0.0000000000000000     
  -1.2201070923309985E-002  0.19670950502935514        0.0000000000000000     
  -1.7442859873870908E-002  0.16455576108340181        0.0000000000000000     
  -1.7705382055564531E-002  0.17247142667323345        0.0000000000000000     
  -1.7945208023358417E-002  0.18047509970373490        0.0000000000000000     
  -1.8162337777252568E-002  0.18856678017490622        0.0000000000000000     
  -1.8356771317246980E-002  0.19674646808674726        0.0000000000000000     
  -2.3320204681160962E-002  0.16464032002336179        0.0000000000000000     
  -2.3673108859020194E-002  0.17254709506257154        0.0000000000000000     
  -2.3995584193491397E-002  0.18054233613293749        0.0000000000000000     
  -2.4287630684574575E-002  0.18862604323445967        0.0000000000000000     
  -2.4549248332269721E-002  0.19679821636713807        0.0000000000000000     
   1.3067294642177263E-012  0.19667993458356689        0.0000000000000000     
   1.3281131836656579E-012  0.20493818163755839        0.0000000000000000     
   1.3382200078973505E-012  0.21324680543392641        0.0000000000000000     
   1.3370484461348170E-012  0.22160580597267085        0.0000000000000000     
   1.3246001517863704E-012  0.23001518325379186        0.0000000000000000     
  -6.0821471504587526E-003  0.19668732719496168        0.0000000000000000     
  -6.1385658847410967E-003  0.20494474911724464        0.0000000000000000     
  -6.1880544475272064E-003  0.21325297908519486        0.0000000000000000     
  -6.2306128388170791E-003  0.22161201709881226        0.0000000000000000     
  -6.2662410586107132E-003  0.23002186315809686        0.0000000000000000     
  -1.2201070923309985E-002  0.19670950502935514        0.0000000000000000     
  -1.2314936945228469E-002  0.20496445155638665        0.0000000000000000     
  -1.2414710415541937E-002  0.21327150003900061        0.0000000000000000     
  -1.2500391334250394E-002  0.22163065047719699        0.0000000000000000     
  -1.2571979701353840E-002  0.23004190287097578        0.0000000000000000     
  -1.8356771317246980E-002  0.19674646808674726        0.0000000000000000     
  -1.8529113180133998E-002  0.20499728895498434        0.0000000000000000     
  -1.8679967902705975E-002  0.21330236829534363        0.0000000000000000     
  -1.8809335484962893E-002  0.22166170610782504        0.0000000000000000     
  -1.8917215926904776E-002  0.23007530239242863        0.0000000000000000     
  -2.4549248332269721E-002  0.19679821636713807        0.0000000000000000     
  -2.4781094589457688E-002  0.20504326131303777        0.0000000000000000     
  -2.4983826909019305E-002  0.21334558385422392        0.0000000000000000     
  -2.5157445290954584E-002  0.22170518399069644        0.0000000000000000     
  -2.5301949735263528E-002  0.23012206172245542        0.0000000000000000     
   1.3246001517863704E-012  0.23001518325379186        0.0000000000000000     
   1.3089770153212887E-012  0.23844370853097049        0.0000000000000000     
   1.2982843966558022E-012  0.24686015305788794        0.0000000000000000     
   1.2925214284281727E-012  0.25526451683454432        0.0000000000000000     
   1.2916885443192694E-012  0.26365679986093943        0.0000000000000000     
  -6.2662410586107132E-003  0.23002186315809686        0.0000000000000000     
  -6.2961753538788049E-003  0.23845152774888009        0.0000000000000000     
  -6.3216519715920448E-003  0.24687002135699337        0.0000000000000000     
  -6.3426709117504346E-003  0.25527734398243668        0.0000000000000000     
  -6.3592321743539742E-003  0.26367349562521003        0.0000000000000000     
  -1.2571979701353840E-002  0.23004190287097578        0.0000000000000000     
  -1.2632168527473774E-002  0.23847498540259318        0.0000000000000000     
  -1.2683650823231698E-002  0.24689962625430514        0.0000000000000000     
  -1.2726426588627607E-002  0.25531582542611181        0.0000000000000000     
  -1.2760495823661511E-002  0.26372358291801312        0.0000000000000000     
  -1.8917215926904776E-002  0.23007530239242863        0.0000000000000000     
  -1.9007979519475932E-002  0.23851408149210970        0.0000000000000000     
  -1.9085996553620668E-002  0.24694896774982336        0.0000000000000000     
  -1.9151267029339007E-002  0.25537996116556971        0.0000000000000000     
  -1.9203790946630918E-002  0.26380706173934865        0.0000000000000000     
  -2.5301949735263528E-002  0.23012206172245542        0.0000000000000000     
  -2.5423608329885269E-002  0.23856881601742969        0.0000000000000000     
  -2.5528689162758963E-002  0.24701804584354795        0.0000000000000000     
  -2.5617192233884603E-002  0.25546975120081034        0.0000000000000000     
  -2.5689117543262200E-002  0.26392393208921672        0.0000000000000000     
   1.2916885443192694E-012  0.26365679986093943        0.0000000000000000     
   1.2920504510044450E-012  0.27197684642103137        0.0000000000000000     
   1.2898744572442666E-012  0.28016450079877803        0.0000000000000000     
   1.2851575272726512E-012  0.28821976299417951        0.0000000000000000     
   1.2779031305365507E-012  0.29614263300723564        0.0000000000000000     
  -6.3592321743539742E-003  0.26367349562521003        0.0000000000000000     
  -6.3752088348751675E-003  0.27199863230548577        0.0000000000000000     
  -6.3944739687865218E-003  0.28019291004343599        0.0000000000000000     
  -6.4170275760880406E-003  0.28825632883906083        0.0000000000000000     
  -6.4428696567797187E-003  0.29618888869236037        0.0000000000000000     
  -1.2760495823661511E-002  0.26372358291801312        0.0000000000000000     
  -1.2793055019178842E-002  0.27206398995882991        0.0000000000000000     
  -1.2831300666025058E-002  0.28027813777738281        0.0000000000000000     
  -1.2875232764200148E-002  0.28836602637367209        0.0000000000000000     
  -1.2924851313704125E-002  0.29632765574769754        0.0000000000000000     
  -1.9203790946630918E-002  0.26380706173934865        0.0000000000000000     
  -1.9253538551618980E-002  0.27217291938106380        0.0000000000000000     
  -1.9310480090425731E-002  0.28042018400061863        0.0000000000000000     
  -1.9374615563051180E-002  0.28854885559801302        0.0000000000000000     
  -1.9445944969495310E-002  0.29655893417324714        0.0000000000000000     
  -2.5689117543262200E-002  0.26392393208921672        0.0000000000000000     
  -2.5756659432195565E-002  0.27232542057218756        0.0000000000000000     
  -2.5832012241988542E-002  0.28061904871314325        0.0000000000000000     
  -2.5915175972641112E-002  0.28880481651208384        0.0000000000000000     
  -2.6006150624153283E-002  0.29688272396900922        0.0000000000000000     
  -1.4015112765482295E-002   5.5793975453511210E-002   0.0000000000000000     
  -1.4812357822761225E-002   6.1353970806278385E-002   0.0000000000000000     
  -1.5571823004070354E-002   6.7116097973330971E-002   0.0000000000000000     
  -1.6293508309409677E-002   7.3080356954668996E-002   0.0000000000000000     
  -1.6977413738779194E-002   7.9246747750292432E-002   0.0000000000000000     
  -1.7559748050515144E-002   5.6052823937619033E-002   0.0000000000000000     
  -1.8564108682648815E-002   6.1607561006594945E-002   0.0000000000000000     
  -1.9520892863750160E-002   6.7363251488456635E-002   0.0000000000000000     
  -2.0430100593819171E-002   7.3319895383204131E-002   0.0000000000000000     
  -2.1291731872855855E-002   7.9477492690837412E-002   0.0000000000000000     
  -2.1229544860017102E-002   5.6370180271365741E-002   0.0000000000000000     
  -2.2435261881279086E-002   6.1918657543555716E-002   0.0000000000000000     
  -2.3584182554968188E-002   6.7666511602074944E-002   0.0000000000000000     
  -2.4676306881084419E-002   7.3613742446923425E-002   0.0000000000000000     
  -2.5711634859627772E-002   7.9760350078101172E-002   0.0000000000000000     
  -2.5024503193988180E-002   5.6746044454751308E-002   0.0000000000000000     
  -2.6425817418652037E-002   6.2287260417160720E-002   0.0000000000000000     
  -2.7761692077724456E-002   6.8025878314185925E-002   0.0000000000000000     
  -2.9032127171205419E-002   7.3961898145826904E-002   0.0000000000000000     
  -3.0237122699094943E-002   8.0095319912083671E-002   0.0000000000000000     
  -2.8944623052428363E-002   5.7180416487775741E-002   0.0000000000000000     
  -3.0535775294767670E-002   6.2713369627409948E-002   0.0000000000000000     
  -3.2053421432018940E-002   6.8441351624789537E-002   0.0000000000000000     
  -3.3497561464182174E-002   7.4364362479914528E-002   0.0000000000000000     
  -3.4868195391257364E-002   8.0482402192784935E-002   0.0000000000000000     
  -1.6977413738779194E-002   7.9246747750292432E-002   0.0000000000000000     
  -1.7633501083381079E-002   8.5588446008714306E-002   0.0000000000000000     
  -1.8271732134417500E-002   9.2078627378447686E-002   0.0000000000000000     
  -1.8892106891888465E-002   9.8717291859492504E-002   0.0000000000000000     
  -1.9494625355793962E-002  0.10550443945184884        0.0000000000000000     
  -2.1291731872855855E-002   7.9477492690837412E-002   0.0000000000000000     
  -2.2117959084500260E-002   8.5809863215104809E-002   0.0000000000000000     
  -2.2920954612392422E-002   9.2290826759754599E-002   0.0000000000000000     
  -2.3700718456532349E-002   9.8920383324786754E-002   0.0000000000000000     
  -2.4457250616920036E-002  0.10569853291020133        0.0000000000000000     
  -2.5711634859627772E-002   7.9760350078101172E-002   0.0000000000000000     
  -2.6704518594593669E-002   8.6081084514225470E-002   0.0000000000000000     
  -2.7669310189977522E-002   9.2550695773913602E-002   0.0000000000000000     
  -2.8606009645779338E-002   9.9169183857165624E-002   0.0000000000000000     
  -2.9514616961999116E-002  0.10593654876398148        0.0000000000000000     
  -3.0237122699094943E-002   8.0095319912083671E-002   0.0000000000000000     
  -3.1393179613661309E-002   8.6402109906076260E-002   0.0000000000000000     
  -3.2516798867172805E-002   9.2858234420924737E-002   0.0000000000000000     
  -3.3607980459629434E-002   9.9463693456629074E-002   0.0000000000000000     
  -3.4666724391031190E-002  0.10621848701318928        0.0000000000000000     
  -3.4868195391257364E-002   8.0482402192784935E-002   0.0000000000000000     
  -3.6183942141703174E-002   8.6772939390657236E-002   0.0000000000000000     
  -3.7463420643978271E-002   9.3213442700787963E-002   0.0000000000000000     
  -3.8706630898082635E-002   9.9803912123177144E-002   0.0000000000000000     
  -3.9913572904016273E-002  0.10654434765782475        0.0000000000000000     
  -1.9494625355793962E-002  0.10550443945184884        0.0000000000000000     
  -2.0073459429901852E-002  0.11243590552599146        0.0000000000000000     
  -2.0622781017979985E-002  0.11950752545239514        0.0000000000000000     
  -2.1142590120028362E-002  0.12671929923105993        0.0000000000000000     
  -2.1632886736046981E-002  0.13407122686198575        0.0000000000000000     
  -2.4457250616920036E-002  0.10569853291020133        0.0000000000000000     
  -2.5183632212196952E-002  0.11262084019745044        0.0000000000000000     
  -2.5872944361004565E-002  0.11968286986798625        0.0000000000000000     
  -2.6525187063342871E-002  0.12688462192180872        0.0000000000000000     
  -2.7140360319211871E-002  0.13422609635891788        0.0000000000000000     
  -2.9514616961999116E-002  0.10593654876398148        0.0000000000000000     
  -3.0387128064793174E-002  0.11284794663135285        0.0000000000000000     
  -3.1215538880317844E-002  0.11989853359627131        0.0000000000000000     
  -3.1999849408573131E-002  0.12708830965873685        0.0000000000000000     
  -3.2740059649559027E-002  0.13441727481874960        0.0000000000000000     
  -3.4666724391031190E-002  0.10621848701318928        0.0000000000000000     
  -3.5683946987690500E-002  0.11311722482769862        0.0000000000000000     
  -3.6650564575919829E-002  0.12015451663725031        0.0000000000000000     
  -3.7566577155719136E-002  0.12733036244184437        0.0000000000000000     
  -3.8431984727088433E-002  0.13464476224148084        0.0000000000000000     
  -3.9913572904016273E-002  0.10654434765782475        0.0000000000000000     
  -4.1074088980888969E-002  0.11342867478648780        0.0000000000000000     
  -4.2178021447810514E-002  0.12045081899092328        0.0000000000000000     
  -4.3225370304780887E-002  0.12761078027113124        0.0000000000000000     
  -4.4216135551800102E-002  0.13490855862711165        0.0000000000000000     
  -2.1632886736046981E-002  0.13407122686198575        0.0000000000000000     
  -2.2094999387369411E-002  0.14154829860236406        0.0000000000000000     
  -2.2530256595329222E-002  0.14913550470938614        0.0000000000000000     
  -2.2938658359926402E-002  0.15683284518305207        0.0000000000000000     
  -2.3320204681160962E-002  0.16464032002336179        0.0000000000000000     
  -2.7140360319211871E-002  0.13422609635891788        0.0000000000000000     
  -2.7720381528247965E-002  0.14169240619322274        0.0000000000000000     
  -2.8267168090087544E-002  0.14926866443863240        0.0000000000000000     
  -2.8780720004730601E-002  0.15695487109514680        0.0000000000000000     
  -2.9261037272177149E-002  0.16475102616276596        0.0000000000000000     
  -3.2740059649559027E-002  0.13441727481874960        0.0000000000000000     
  -3.3438508265691093E-002  0.14187073161190850        0.0000000000000000     
  -3.4097533919384873E-002  0.14943398257381274        0.0000000000000000     
  -3.4717136610640367E-002  0.15710702770446230        0.0000000000000000     
  -3.5297316339457589E-002  0.16488986700385722        0.0000000000000000     
  -3.8431984727088433E-002  0.13464476224148084        0.0000000000000000     
  -3.9249379599698771E-002  0.14208327485842123        0.0000000000000000     
  -4.0021354083221196E-002  0.14963145911492715        0.0000000000000000     
  -4.0747908177655695E-002  0.15728931501099860        0.0000000000000000     
  -4.1429041883002268E-002  0.16505684254663552        0.0000000000000000     
  -4.4216135551800102E-002  0.13490855862711165        0.0000000000000000     
  -4.5152995530271030E-002  0.14233003593276095        0.0000000000000000     
  -4.6038628581596519E-002  0.14986109406197559        0.0000000000000000     
  -4.6873034705776577E-002  0.15750173301475562        0.0000000000000000     
  -4.7656213902811190E-002  0.16525195279110094        0.0000000000000000     
  -2.3320204681160962E-002  0.16464032002336179        0.0000000000000000     
  -2.3673108859020194E-002  0.17254709506257154        0.0000000000000000     
  -2.3995584193491397E-002  0.18054233613293749        0.0000000000000000     
  -2.4287630684574575E-002  0.18862604323445967        0.0000000000000000     
  -2.4549248332269721E-002  0.19679821636713807        0.0000000000000000     
  -2.9261037272177149E-002  0.16475102616276596        0.0000000000000000     
  -2.9705802151632463E-002  0.17264659834597454        0.0000000000000000     
  -3.0112696902301828E-002  0.18063105634925719        0.0000000000000000     
  -3.0481721524185240E-002  0.18870440017261383        0.0000000000000000     
  -3.0812876017282703E-002  0.19686662981604461        0.0000000000000000     
  -3.5297316339457589E-002  0.16488986700385722        0.0000000000000000     
  -3.5835462030264442E-002  0.17277215187762834        0.0000000000000000     
  -3.6328962607488871E-002  0.18074353373140647        0.0000000000000000     
  -3.6777818071130848E-002  0.18880401256519178        0.0000000000000000     
  -3.7182028421190394E-002  0.19695358837898408        0.0000000000000000     
  -4.1429041883002268E-002  0.16505684254663552        0.0000000000000000     
  -4.2062088494916140E-002  0.17292375565753285        0.0000000000000000     
  -4.2644381309052515E-002  0.18087976827938551        0.0000000000000000     
  -4.3175920325411399E-002  0.18892488041219327        0.0000000000000000     
  -4.3656705543992806E-002  0.19705909205595640        0.0000000000000000     
  -4.7656213902811190E-002  0.16525195279110094        0.0000000000000000     
  -4.8385681545587540E-002  0.17310140968568821        0.0000000000000000     
  -4.9058953006992784E-002  0.18103975999319410        0.0000000000000000     
  -4.9676028287026906E-002  0.18906700371361854        0.0000000000000000     
  -5.0236907385689922E-002  0.19718314084696159        0.0000000000000000     
  -2.4549248332269721E-002  0.19679821636713807        0.0000000000000000     
  -2.4781094589457688E-002  0.20504326131303777        0.0000000000000000     
  -2.4983826909019305E-002  0.21334558385422392        0.0000000000000000     
  -2.5157445290954584E-002  0.22170518399069644        0.0000000000000000     
  -2.5301949735263528E-002  0.23012206172245542        0.0000000000000000     
  -3.0812876017282703E-002  0.19686662981604461        0.0000000000000000     
  -3.1106650615111805E-002  0.20510368206326476        0.0000000000000000     
  -3.1363535551190147E-002  0.21340149369798958        0.0000000000000000     
  -3.1583530825517750E-002  0.22176006472021917        0.0000000000000000     
  -3.1766636438094575E-002  0.23017939512995339        0.0000000000000000     
  -3.7182028421190394E-002  0.19695358837898408        0.0000000000000000     
  -3.7541550699008636E-002  0.20517986463838317        0.0000000000000000     
  -3.7856341945926714E-002  0.21347044480898886        0.0000000000000000     
  -3.8126402161944642E-002  0.22182532889080103        0.0000000000000000     
  -3.8351731347062407E-002  0.23024451688381978        0.0000000000000000     
  -4.3656705543992806E-002  0.19705909205595640        0.0000000000000000     
  -4.4085794841148170E-002  0.20527180903839307        0.0000000000000000     
  -4.4462246093229012E-002  0.21355243718722161        0.0000000000000000     
  -4.4786059300235298E-002  0.22190097650244217        0.0000000000000000     
  -4.5057234462167042E-002  0.23031742698405458        0.0000000000000000     
  -5.0236907385689922E-002  0.19718314084696159        0.0000000000000000     
  -5.0739383041530424E-002  0.20537951526329429        0.0000000000000000     
  -5.1181247993097000E-002  0.21364747083268792        0.0000000000000000     
  -5.1562502240389690E-002  0.22198700755514242        0.0000000000000000     
  -5.1883145783408448E-002  0.23039812543065780        0.0000000000000000     
  -2.5301949735263528E-002  0.23012206172245542        0.0000000000000000     
  -2.5423608329885269E-002  0.23856881601742969        0.0000000000000000     
  -2.5528689162758963E-002  0.24701804584354795        0.0000000000000000     
  -2.5617192233884603E-002  0.25546975120081034        0.0000000000000000     
  -2.5689117543262200E-002  0.26392393208921672        0.0000000000000000     
  -3.1766636438094575E-002  0.23017939512995339        0.0000000000000000     
  -3.1920740341962482E-002  0.23863471115362403        0.0000000000000000     
  -3.2053730490163281E-002  0.24710123901766276        0.0000000000000000     
  -3.2165606882696998E-002  0.25557897872206958        0.0000000000000000     
  -3.2256369519563607E-002  0.26406793026684450        0.0000000000000000     
  -3.8351731347062407E-002  0.23024451688381978        0.0000000000000000     
  -3.8541060938968245E-002  0.23870728907576375        0.0000000000000000     
  -3.8703122375350348E-002  0.24719292575435170        0.0000000000000000     
  -3.8837915656208727E-002  0.25570142691958353        0.0000000000000000     
  -3.8945440781543390E-002  0.26423279257145937        0.0000000000000000     
  -4.5057234462167042E-002  0.23031742698405458        0.0000000000000000     
  -4.5284570120902555E-002  0.23878654978384878        0.0000000000000000     
  -4.5476864818320133E-002  0.24729310605361465        0.0000000000000000     
  -4.5634118554419824E-002  0.25583709579335218        0.0000000000000000     
  -4.5756331329201573E-002  0.26441851900306129        0.0000000000000000     
  -5.1883145783408448E-002  0.23039812543065780        0.0000000000000000     
  -5.2151267887765418E-002  0.23887249327787918        0.0000000000000000     
  -5.2374957819072684E-002  0.24740177991545170        0.0000000000000000     
  -5.2554215577330247E-002  0.25598598534337541        0.0000000000000000     
  -5.2689041162538121E-002  0.26462510956165025        0.0000000000000000     
  -2.5689117543262200E-002  0.26392393208921672        0.0000000000000000     
  -2.5756659432195565E-002  0.27232542057218756        0.0000000000000000     
  -2.5832012241988542E-002  0.28061904871314325        0.0000000000000000     
  -2.5915175972641112E-002  0.28880481651208384        0.0000000000000000     
  -2.6006150624153283E-002  0.29688272396900922        0.0000000000000000     
  -3.2256369519563607E-002  0.26406793026684450        0.0000000000000000     
  -3.2340839524704817E-002  0.27251516689972499        0.0000000000000000     
  -3.2433838022062310E-002  0.28086776186844864        0.0000000000000000     
  -3.2535365011636085E-002  0.28912571517301533        0.0000000000000000     
  -3.2645420493426135E-002  0.29728902681342517        0.0000000000000000     
  -3.8945440781543390E-002  0.26423279257145937        0.0000000000000000     
  -3.9044500692942914E-002  0.27273583173120003        0.0000000000000000     
  -3.9153898331995847E-002  0.28115935342002640        0.0000000000000000     
  -3.9273633698702202E-002  0.28950335763793855        0.0000000000000000     
  -3.9403706793061967E-002  0.29776784438493642        0.0000000000000000     
  -4.5756331329201573E-002  0.26441851900306129        0.0000000000000000     
  -4.5867642936909862E-002  0.27298741506661256        0.0000000000000000     
  -4.5992193171789160E-002  0.28149382336787665        0.0000000000000000     
  -4.6129982033839459E-002  0.28993774390685340        0.0000000000000000     
  -4.6281009523060766E-002  0.29831917668354302        0.0000000000000000     
  -5.2689041162538121E-002  0.26462510956165025        0.0000000000000000     
  -5.2810266256605662E-002  0.27326991690596275        0.0000000000000000     
  -5.2948722541442242E-002  0.28187117171199932        0.0000000000000000     
  -5.3104410017047868E-002  0.29042887397976003        0.0000000000000000     
  -5.3277328683422547E-002  0.29894302370924486        0.0000000000000000     
  -2.8944623052428363E-002   5.7180416487775741E-002   0.0000000000000000     
  -3.0535775294767670E-002   6.2713369627409948E-002   0.0000000000000000     
  -3.2053421432018940E-002   6.8441351624789537E-002   0.0000000000000000     
  -3.3497561464182174E-002   7.4364362479914528E-002   0.0000000000000000     
  -3.4868195391257364E-002   8.0482402192784935E-002   0.0000000000000000     
  -3.2982806475299616E-002   5.7674558395275924E-002   0.0000000000000000     
  -3.4763478410087138E-002   6.3196854181715792E-002   0.0000000000000000     
  -3.6462459886351932E-002   6.8911983081663977E-002   0.0000000000000000     
  -3.8079750904093990E-002   7.4819945095120508E-002   0.0000000000000000     
  -3.9615351463313318E-002   8.0920740222085369E-002   0.0000000000000000     
  -3.7131955502563888E-002   5.8229732202088706E-002   0.0000000000000000     
  -3.9107269665071602E-002   6.3737583087490640E-002   0.0000000000000000     
  -4.0991896709223707E-002   6.9436824232587402E-002   0.0000000000000000     
  -4.2785836635020204E-002   7.5327455637378984E-002   0.0000000000000000     
  -4.4489089442461098E-002   8.1409477301865402E-002   0.0000000000000000     
  -4.1392070134221179E-002   5.8845937908214137E-002   0.0000000000000000     
  -4.3567149059721054E-002   6.4335556344734507E-002   0.0000000000000000     
  -4.5641731900634253E-002   7.0015875077559783E-002   0.0000000000000000     
  -4.7615818656960796E-002   7.5886894106689973E-002   0.0000000000000000     
  -4.9489409328700683E-002   8.1948613432125075E-002   0.0000000000000000     
  -4.5763150370271490E-002   5.9523175513652167E-002   0.0000000000000000     
  -4.8143116594035494E-002   6.4990773953447392E-002   0.0000000000000000     
  -5.0411965460583588E-002   7.0649135616581163E-002   0.0000000000000000     
  -5.2569696969915786E-002   7.6498260503053458E-002   0.0000000000000000     
  -5.4616311122032080E-002   8.2538148612864307E-002   0.0000000000000000     
  -3.4868195391257364E-002   8.0482402192784935E-002   0.0000000000000000     
  -3.6183942141703174E-002   8.6772939390657236E-002   0.0000000000000000     
  -3.7463420643978271E-002   9.3213442700787963E-002   0.0000000000000000     
  -3.8706630898082635E-002   9.9803912123177144E-002   0.0000000000000000     
  -3.9913572904016273E-002  0.10654434765782475        0.0000000000000000     
  -3.9615351463313318E-002   8.0920740222085369E-002   0.0000000000000000     
  -4.1090148178096947E-002   8.7193255676272910E-002   0.0000000000000000     
  -4.2525027662531877E-002   9.3616378671397479E-002   0.0000000000000000     
  -4.3919989916618135E-002  0.10019010920745908        0.0000000000000000     
  -4.5275034940355709E-002  0.10691444728445770        0.0000000000000000     
  -4.4489089442461098E-002   8.1409477301865402E-002   0.0000000000000000     
  -4.6125139722220265E-002   8.7662741471227837E-002   0.0000000000000000     
  -4.7717472064971622E-002   9.4067100390647418E-002   0.0000000000000000     
  -4.9266086470715141E-002  0.10062255406012413        0.0000000000000000     
  -5.0770982939450836E-002  0.10732910247965802        0.0000000000000000     
  -4.9489409328700683E-002   8.1948613432125075E-002   0.0000000000000000     
  -5.1288916774073157E-002   8.8181396775521989E-002   0.0000000000000000     
  -5.3040753851297473E-002   9.4565607858537751E-002   0.0000000000000000     
  -5.4744920560373639E-002  0.10110124668117229        0.0000000000000000     
  -5.6401416901301647E-002  0.10778831324342568        0.0000000000000000     
  -5.4616311122032080E-002   8.2538148612864307E-002   0.0000000000000000     
  -5.6581479333655593E-002   8.8749221589155422E-002   0.0000000000000000     
  -5.8494873021509457E-002   9.5111901075068533E-002   0.0000000000000000     
  -6.0356492185593649E-002  0.10162618707060360        0.0000000000000000     
  -6.2166336825908171E-002  0.10829207957576067        0.0000000000000000     
  -3.9913572904016273E-002  0.10654434765782475        0.0000000000000000     
  -4.1074088980888969E-002  0.11342867478648780        0.0000000000000000     
  -4.2178021447810514E-002  0.12045081899092328        0.0000000000000000     
  -4.3225370304780887E-002  0.12761078027113124        0.0000000000000000     
  -4.4216135551800102E-002  0.13490855862711165        0.0000000000000000     
  -4.5275034940355709E-002  0.10691444728445770        0.0000000000000000     
  -4.6578899967232523E-002  0.11378264416550489        0.0000000000000000     
  -4.7820322230736526E-002  0.12078795111371220        0.0000000000000000     
  -4.8999301730867702E-002  0.12793036812907960        0.0000000000000000     
  -5.0115838467626059E-002  0.13520989521160715        0.0000000000000000     
  -5.0770982939450836E-002  0.10732910247965802        0.0000000000000000     
  -5.2219725869565137E-002  0.11417948062253451        0.0000000000000000     
  -5.3599879659444488E-002  0.12116642346203907        0.0000000000000000     
  -5.4911444309088876E-002  0.12828993099817171        0.0000000000000000     
  -5.6154419818498322E-002  0.13555000323093244        0.0000000000000000     
  -5.6401416901301647E-002  0.10778831324342568        0.0000000000000000     
  -5.7996566687886809E-002  0.11461918415757660        0.0000000000000000     
  -5.9516693733934395E-002  0.12158623603590391        0.0000000000000000     
  -6.0961798039444418E-002  0.12868946887840751        0.0000000000000000     
  -6.2331879604416870E-002  0.13592888268508752        0.0000000000000000     
  -6.2166336825908171E-002  0.10829207957576067        0.0000000000000000     
  -6.3909422422197548E-002  0.11510175477063121        0.0000000000000000     
  -6.5570764454206260E-002  0.12204738883530668        0.0000000000000000     
  -6.7150362921934326E-002  0.12912898176978704        0.0000000000000000     
  -6.8648217825381733E-002  0.13634653357407239        0.0000000000000000     
  -4.4216135551800102E-002  0.13490855862711165        0.0000000000000000     
  -4.5152995530271030E-002  0.14233003593276095        0.0000000000000000     
  -4.6038628581596519E-002  0.14986109406197559        0.0000000000000000     
  -4.6873034705776577E-002  0.15750173301475562        0.0000000000000000     
  -4.7656213902811190E-002  0.16525195279110094        0.0000000000000000     
  -5.0115838467626059E-002  0.13520989521160715        0.0000000000000000     
  -5.1172804880839723E-002  0.14261270206689589        0.0000000000000000     
  -5.2173073410336820E-002  0.15012495840054699        0.0000000000000000     
  -5.3116644056117358E-002  0.15774666421256031        0.0000000000000000     
  -5.4003516818181330E-002  0.16547781950293600        0.0000000000000000     
  -5.6154419818498322E-002  0.13555000323093244        0.0000000000000000     
  -5.7332256474836737E-002  0.14293296049279422        0.0000000000000000     
  -5.8448404565268099E-002  0.15042512311622994        0.0000000000000000     
  -5.9502864089792405E-002  0.15802649110123967        0.0000000000000000     
  -6.0495635048409636E-002  0.16573706444782338        0.0000000000000000     
  -6.2331879604416870E-002  0.13592888268508752        0.0000000000000000     
  -6.3631350312262067E-002  0.14329081121045587        0.0000000000000000     
  -6.4864622046390347E-002  0.15076158820902458        0.0000000000000000     
  -6.6031694806801697E-002  0.15834121368079365        0.0000000000000000     
  -6.7132568593496103E-002  0.16602968762576306        0.0000000000000000     
  -6.8648217825381733E-002  0.13634653357407239        0.0000000000000000     
  -7.0070086393115738E-002  0.14368625421988090        0.0000000000000000     
  -7.1421725853703572E-002  0.15113435367893086        0.0000000000000000     
  -7.2703136207145247E-002  0.15869083195122224        0.0000000000000000     
  -7.3914317453440750E-002  0.16635568903675507        0.0000000000000000     
  -4.7656213902811190E-002  0.16525195279110094        0.0000000000000000     
  -4.8385681545587540E-002  0.17310140968568821        0.0000000000000000     
  -4.9058953006992784E-002  0.18103975999319410        0.0000000000000000     
  -4.9676028287026906E-002  0.18906700371361854        0.0000000000000000     
  -5.0236907385689922E-002  0.19718314084696159        0.0000000000000000     
  -5.4003516818181330E-002  0.16547781950293600        0.0000000000000000     
  -5.4831441330865184E-002  0.17330806184640724        0.0000000000000000     
  -5.5598167228505371E-002  0.18122702881770736        0.0000000000000000     
  -5.6303694511101905E-002  0.18923472041683626        0.0000000000000000     
  -5.6948023178654751E-002  0.19733113664379401        0.0000000000000000     
  -6.0495635048409636E-002  0.16573706444782338        0.0000000000000000     
  -6.1424567999335572E-002  0.17354666002400296        0.0000000000000000     
  -6.2287513500785999E-002  0.18144509469780032        0.0000000000000000     
  -6.3084471552760910E-002  0.18943236846921535        0.0000000000000000     
  -6.3815442155260318E-002  0.19750848133824811        0.0000000000000000     
  -6.7132568593496103E-002  0.16602968762576306        0.0000000000000000     
  -6.8165061550998718E-002  0.17381720421847535        0.0000000000000000     
  -6.9126991823834680E-002  0.18169395763347287        0.0000000000000000     
  -7.0018359412003961E-002  0.18965994787075577        0.0000000000000000     
  -7.0839164315506589E-002  0.19771517493032389        0.0000000000000000     
  -7.3914317453440750E-002  0.16635568903675507        0.0000000000000000     
  -7.5052921985854643E-002  0.17411969442982436        0.0000000000000000     
  -7.6116602197651401E-002  0.18197361762472516        0.0000000000000000     
  -7.7105358088831039E-002  0.18991745862145748        0.0000000000000000     
  -7.8019189659393598E-002  0.19795121742002131        0.0000000000000000     
  -5.0236907385689922E-002  0.19718314084696159        0.0000000000000000     
  -5.0739383041530424E-002  0.20537951526329429        0.0000000000000000     
  -5.1181247993097000E-002  0.21364747083268792        0.0000000000000000     
  -5.1562502240389690E-002  0.22198700755514242        0.0000000000000000     
  -5.1883145783408448E-002  0.23039812543065780        0.0000000000000000     
  -5.6948023178654751E-002  0.19733113664379401        0.0000000000000000     
  -5.7528052518459050E-002  0.20550920816131682        0.0000000000000000     
  -5.8040681817809921E-002  0.21376186563214089        0.0000000000000000     
  -5.8485911076707336E-002  0.22208910905626628        0.0000000000000000     
  -5.8863740295151318E-002  0.23049093843369295        0.0000000000000000     
  -6.3815442155260318E-002  0.19750848133824811        0.0000000000000000     
  -6.4477540490237795E-002  0.20566711258069031        0.0000000000000000     
  -6.5067881739646935E-002  0.21390194147233363        0.0000000000000000     
  -6.5586465903487781E-002  0.22221296801317808        0.0000000000000000     
  -6.6033292981760305E-002  0.23060019220322364        0.0000000000000000     
  -7.0839164315506589E-002  0.19771517493032389        0.0000000000000000     
  -7.1587846956866596E-002  0.20585322852141488        0.0000000000000000     
  -7.2262847758608070E-002  0.21406769835326614        0.0000000000000000     
  -7.2864166720731011E-002  0.22235858442587780        0.0000000000000000     
  -7.3391803843235404E-002  0.23072588673924982        0.0000000000000000     
  -7.8019189659393598E-002  0.19795121742002131        0.0000000000000000     
  -7.8858971918345511E-002  0.20606755598349036        0.0000000000000000     
  -7.9625579874693320E-002  0.21425913627493842        0.0000000000000000     
  -8.0319013528437025E-002  0.22252595829436544        0.0000000000000000     
  -8.0939272879576640E-002  0.23086802204177143        0.0000000000000000     
  -5.1883145783408448E-002  0.23039812543065780        0.0000000000000000     
  -5.2151267887765418E-002  0.23887249327787918        0.0000000000000000     
  -5.2374957819072684E-002  0.24740177991545170        0.0000000000000000     
  -5.2554215577330247E-002  0.25598598534337541        0.0000000000000000     
  -5.2689041162538121E-002  0.26462510956165025        0.0000000000000000     
  -5.8863740295151318E-002  0.23049093843369295        0.0000000000000000     
  -5.9180264376072496E-002  0.23896655013442669        0.0000000000000000     
  -5.9441578222401537E-002  0.24751514052847329        0.0000000000000000     
  -5.9647681834138405E-002  0.25613670961583268        0.0000000000000000     
  -5.9798575211283136E-002  0.26483125739650482        0.0000000000000000     
  -6.6033292981760305E-002  0.23060019220322364        0.0000000000000000     
  -6.6410669722339472E-002  0.23907015093006323        0.0000000000000000     
  -6.6720902873100271E-002  0.24762938108128976        0.0000000000000000     
  -6.6963992434042691E-002  0.25627788265690316        0.0000000000000000     
  -6.7139938405166730E-002  0.26501565565690349        0.0000000000000000     
  -7.3391803843235404E-002  0.23072588673924982        0.0000000000000000     
  -7.3842483926566338E-002  0.23918329566478871        0.0000000000000000     
  -7.4212931771168902E-002  0.24774450157390110        0.0000000000000000     
  -7.4503147377043083E-002  0.25640950446658689        0.0000000000000000     
  -7.4713130744188880E-002  0.26517830434284634        0.0000000000000000     
  -8.0939272879576640E-002  0.23086802204177143        0.0000000000000000     
  -8.1475706988753102E-002  0.23930598433860314        0.0000000000000000     
  -8.1917664916607416E-002  0.24786050200630741        0.0000000000000000     
  -8.2265146663139596E-002  0.25653157504488411        0.0000000000000000     
  -8.2518152228349628E-002  0.26531920345433324        0.0000000000000000     
  -5.2689041162538121E-002  0.26462510956165025        0.0000000000000000     
  -5.2810266256605662E-002  0.27326991690596275        0.0000000000000000     
  -5.2948722541442242E-002  0.28187117171199932        0.0000000000000000     
  -5.3104410017047868E-002  0.29042887397976003        0.0000000000000000     
  -5.3277328683422547E-002  0.29894302370924486        0.0000000000000000     
  -5.9798575211283136E-002  0.26483125739650482        0.0000000000000000     
  -5.9931126676917267E-002  0.27355462851412271        0.0000000000000000     
  -6.0082204554122304E-002  0.28226266761231900        0.0000000000000000     
  -6.0251808842898290E-002  0.29095537469109395        0.0000000000000000     
  -6.0439939543245197E-002  0.29963274975044729        0.0000000000000000     
  -6.7139938405166730E-002  0.26501565565690349        0.0000000000000000     
  -6.7288980222731623E-002  0.27381284115596460        0.0000000000000000     
  -6.7451357322996550E-002  0.28263958022876035        0.0000000000000000     
  -6.7627069705961551E-002  0.29149587287529061        0.0000000000000000     
  -6.7816117371626614E-002  0.30038171909555544        0.0000000000000000     
  -7.4713130744188880E-002  0.26517830434284634        0.0000000000000000     
  -7.4883826894048724E-002  0.27404455483148860        0.0000000000000000     
  -7.5056180848064979E-002  0.28300190956132315        0.0000000000000000     
  -7.5230192606237672E-002  0.29205036853235011        0.0000000000000000     
  -7.5405862168566790E-002  0.30118993174456937        0.0000000000000000     
  -8.2518152228349628E-002  0.26531920345433324        0.0000000000000000     
  -8.2715666690868592E-002  0.27424976954069452        0.0000000000000000     
  -8.2896675129327593E-002  0.28334965561000758        0.0000000000000000     
  -8.3061177543726647E-002  0.29261886166227247        0.0000000000000000     
  -8.3209173934065739E-002  0.30205738769748908        0.0000000000000000     
  -4.5763150370271490E-002   5.9523175513652167E-002   0.0000000000000000     
  -4.8143116594035494E-002   6.4990773953447392E-002   0.0000000000000000     
  -5.0411965460583588E-002   7.0649135616581163E-002   0.0000000000000000     
  -5.2569696969915786E-002   7.6498260503053458E-002   0.0000000000000000     
  -5.4616311122032080E-002   8.2538148612864307E-002   0.0000000000000000     
  -5.0305864626106069E-002   6.0258271510973647E-002   0.0000000000000000     
  -5.2887506279969160E-002   6.5702263056425847E-002   0.0000000000000000     
  -5.5348595061502581E-002   7.1336988987916392E-002   0.0000000000000000     
  -5.7689130970706333E-002   7.7162449305445274E-002   0.0000000000000000     
  -5.9909114007580394E-002   8.3178644009012523E-002   0.0000000000000000     
  -5.5080881317116165E-002   6.1048052392749394E-002   0.0000000000000000     
  -5.7852652129476316E-002   6.6469050796466450E-002   0.0000000000000000     
  -6.0497618375822126E-002   7.2079818329830417E-002   0.0000000000000000     
  -6.3015780056153603E-002   7.7880354992841280E-002   0.0000000000000000     
  -6.5407137170470725E-002   8.3870660785499040E-002   0.0000000000000000     
  -6.0088200443301779E-002   6.1892518158979400E-002   0.0000000000000000     
  -6.3038554142556935E-002   6.7291137173569188E-002   0.0000000000000000     
  -6.5859035403542224E-002   7.2877623642323211E-002   0.0000000000000000     
  -6.8549644226257589E-002   7.8651977565241449E-002   0.0000000000000000     
  -7.1110380610703058E-002   8.4614198942323873E-002   0.0000000000000000     
  -6.5327822004662903E-002   6.2791668809663678E-002   0.0000000000000000     
  -6.8445212319211052E-002   6.8168522187734101E-002   0.0000000000000000     
  -7.1432846144662859E-002   7.3730404925394802E-002   0.0000000000000000     
  -7.4290723481018311E-002   7.9477317022645766E-002   0.0000000000000000     
  -7.7018844328277422E-002   8.5409258479487021E-002   0.0000000000000000     
  -5.4616311122032080E-002   8.2538148612864307E-002   0.0000000000000000     
  -5.6581479333655593E-002   8.8749221589155422E-002   0.0000000000000000     
  -5.8494873021509457E-002   9.5111901075068533E-002   0.0000000000000000     
  -6.0356492185593649E-002  0.10162618707060360        0.0000000000000000     
  -6.2166336825908171E-002  0.10829207957576067        0.0000000000000000     
  -5.9909114007580394E-002   8.3178644009012523E-002   0.0000000000000000     
  -6.2040715701673285E-002   8.9366163834596751E-002   0.0000000000000000     
  -6.4116107582533499E-002   9.5705599518176629E-002   0.0000000000000000     
  -6.6135289650161008E-002  0.10219695105975216        0.0000000000000000     
  -6.8098261904555854E-002  0.10884021845932333        0.0000000000000000     
  -6.5407137170470725E-002   8.3870660785499040E-002   0.0000000000000000     
  -6.7704514178831915E-002   9.0032171434314648E-002   0.0000000000000000     
  -6.9940735541295526E-002   9.6346322665798970E-002   0.0000000000000000     
  -7.2115801257861614E-002  0.10281311447995208        0.0000000000000000     
  -7.4229711328530151E-002  0.10943254687677392        0.0000000000000000     
  -7.1110380610703058E-002   8.4614198942323873E-002   0.0000000000000000     
  -7.3572874765131455E-002   9.0747244388309056E-002   0.0000000000000000     
  -7.5968756897795600E-002   9.7034070517935569E-002   0.0000000000000000     
  -7.8298027008695453E-002  0.10347467733120334        0.0000000000000000     
  -8.0560685097831070E-002  0.11006906482811246        0.0000000000000000     
  -7.7018844328277422E-002   8.5409258479487021E-002   0.0000000000000000     
  -7.9645797460571946E-002   9.1511382696580060E-002   0.0000000000000000     
  -8.2200171652033652E-002   9.7768843074586373E-002   0.0000000000000000     
  -8.4681966902662539E-002  0.10418163961350600        0.0000000000000000     
  -8.7091183212458623E-002  0.11074977231333892        0.0000000000000000     
  -6.2166336825908171E-002  0.10829207957576067        0.0000000000000000     
  -6.3909422422197548E-002  0.11510175477063121        0.0000000000000000     
  -6.5570764454206260E-002  0.12204738883530668        0.0000000000000000     
  -6.7150362921934326E-002  0.12912898176978704        0.0000000000000000     
  -6.8648217825381733E-002  0.13634653357407239        0.0000000000000000     
  -6.8098261904555854E-002  0.10884021845932333        0.0000000000000000     
  -6.9988941676832686E-002  0.11562729148906593        0.0000000000000000     
  -7.1791246298106196E-002  0.12255005992115568        0.0000000000000000     
  -7.3505175768376396E-002  0.12960852375559262        0.0000000000000000     
  -7.5130730087643288E-002  0.13680268299237672        0.0000000000000000     
  -7.4229711328530151E-002  0.10943254687677392        0.0000000000000000     
  -7.6265773056127570E-002  0.11619589334024835        0.0000000000000000     
  -7.8207293743480344E-002  0.12309442735435923        0.0000000000000000     
  -8.0054273390588473E-002  0.13012814891910651        0.0000000000000000     
  -8.1806711997451945E-002  0.13729705803449019        0.0000000000000000     
  -8.0560685097831070E-002  0.11006906482811246        0.0000000000000000     
  -8.2739916560082213E-002  0.11680756032417854        0.0000000000000000     
  -8.4818906790328705E-002  0.12368049113491732        0.0000000000000000     
  -8.6797655788570530E-002  0.13068785726032872        0.0000000000000000     
  -8.8676163554807688E-002  0.13782965870041280        0.0000000000000000     
  -8.7091183212458623E-002  0.11074977231333892        0.0000000000000000     
  -8.9411372188696617E-002  0.11746229244085644        0.0000000000000000     
  -9.1626085438651264E-002  0.12430825126282988        0.0000000000000000     
  -9.3735322962322565E-002  0.13128764877925928        0.0000000000000000     
  -9.5739084759710519E-002  0.13840048499014454        0.0000000000000000     
  -6.8648217825381733E-002  0.13634653357407239        0.0000000000000000     
  -7.0070086393115738E-002  0.14368625421988090        0.0000000000000000     
  -7.1421725853703572E-002  0.15113435367893086        0.0000000000000000     
  -7.2703136207145247E-002  0.15869083195122224        0.0000000000000000     
  -7.3914317453440750E-002  0.16635568903675507        0.0000000000000000     
  -7.5130730087643288E-002  0.13680268299237672        0.0000000000000000     
  -7.6674930624343107E-002  0.14411874685135759        0.0000000000000000     
  -7.8144798746912075E-002  0.15154292455238477        0.0000000000000000     
  -7.9540334455350234E-002  0.15907521609545824        0.0000000000000000     
  -8.0861537749657542E-002  0.16671562148057803        0.0000000000000000     
  -8.1806711997451945E-002  0.13729705803449019        0.0000000000000000     
  -8.3472348912889585E-002  0.14458774643517416        0.0000000000000000     
  -8.5058923485720195E-002  0.15198680585582219        0.0000000000000000     
  -8.6566435715943843E-002  0.15949423629643433        0.0000000000000000     
  -8.7994885603560433E-002  0.16711003775701061        0.0000000000000000     
  -8.8676163554807688E-002  0.13782965870041280        0.0000000000000000     
  -9.0462341258755144E-002  0.14509325297133063        0.0000000000000000     
  -9.2164100070127958E-002  0.15246599758924320        0.0000000000000000     
  -9.3781439988926046E-002  0.15994789255415062        0.0000000000000000     
  -9.5314361015149437E-002  0.16753893786605281        0.0000000000000000     
  -9.5739084759710519E-002  0.13840048499014454        0.0000000000000000     
  -9.7644907661939867E-002  0.14563526645982700        0.0000000000000000     
  -9.9460328500135323E-002  0.15298049975264782        0.0000000000000000     
 -0.10118534727429690       0.16043618486860700        0.0000000000000000     
 -0.10281996398442456       0.16800232180770461        0.0000000000000000     
  -7.3914317453440750E-002  0.16635568903675507        0.0000000000000000     
  -7.5052921985854643E-002  0.17411969442982436        0.0000000000000000     
  -7.6116602197651401E-002  0.18197361762472516        0.0000000000000000     
  -7.7105358088831039E-002  0.18991745862145748        0.0000000000000000     
  -7.8019189659393598E-002  0.19795121742002131        0.0000000000000000     
  -8.0861537749657542E-002  0.16671562148057803        0.0000000000000000     
  -8.2106177840461064E-002  0.17445532827206361        0.0000000000000000     
  -8.3272023938387826E-002  0.18228552403423443        0.0000000000000000     
  -8.4359076043437828E-002  0.19020620876709052        0.0000000000000000     
  -8.5367334155611083E-002  0.19821738247063181        0.0000000000000000     
  -8.7994885603560433E-002  0.16711003775701061        0.0000000000000000     
  -8.9342857651375798E-002  0.17482530335920660        0.0000000000000000     
  -9.0608936362195636E-002  0.18263112622467792        0.0000000000000000     
  -9.1793121736019972E-002  0.19052750635342466        0.0000000000000000     
  -9.2895413772848837E-002  0.19851444374544677        0.0000000000000000     
  -9.5314361015149437E-002  0.16753893786605281        0.0000000000000000     
  -9.6762961418598817E-002  0.17522961969125331        0.0000000000000000     
  -9.8127339469074856E-002  0.18301042419605576        0.0000000000000000     
  -9.9407495166577528E-002  0.19088135138045997        0.0000000000000000     
 -0.10060342851110689       0.19884240124446614        0.0000000000000000     
 -0.10281996398442456       0.16800232180770461        0.0000000000000000     
 -0.10436648914213015       0.17566827726820378        0.0000000000000000     
 -0.10582723325902543       0.18342341794836775        0.0000000000000000     
 -0.10720219633511045       0.19126774384819650        0.0000000000000000     
 -0.10849137837038519       0.19920125496769003        0.0000000000000000     
  -7.8019189659393598E-002  0.19795121742002131        0.0000000000000000     
  -7.8858971918345511E-002  0.20606755598349036        0.0000000000000000     
  -7.9625579874693320E-002  0.21425913627493842        0.0000000000000000     
  -8.0319013528437025E-002  0.22252595829436544        0.0000000000000000     
  -8.0939272879576640E-002  0.23086802204177143        0.0000000000000000     
  -8.5367334155611083E-002  0.19821738247063181        0.0000000000000000     
  -8.6300180833454032E-002  0.20631092753189084        0.0000000000000000     
  -8.7160998635513104E-002  0.21447872633789994        0.0000000000000000     
  -8.7949787561788312E-002  0.22272077888865932        0.0000000000000000     
  -8.8666547612279656E-002  0.23103708518416874        0.0000000000000000     
  -9.2895413772848837E-002  0.19851444374544677        0.0000000000000000     
  -9.3920739160971628E-002  0.20658417573159002        0.0000000000000000     
  -9.4874024588677774E-002  0.21472893964270034        0.0000000000000000     
  -9.5755270055967318E-002  0.22294873547877764        0.0000000000000000     
  -9.6564475562840202E-002  0.23124356323982198        0.0000000000000000     
 -0.10060342851110689       0.19884240124446614        0.0000000000000000     
 -0.10172064690089835       0.20688730058258806        0.0000000000000000     
 -0.10276465773418739       0.21500977618933950        0.0000000000000000     
 -0.10373546101097403       0.22320982806472051        0.0000000000000000     
 -0.10463305673125824       0.23148745620873099        0.0000000000000000     
 -0.10849137837038519       0.19920125496769003        0.0000000000000000     
 -0.10969990405323417       0.20722030208488484        0.0000000000000000     
 -0.11083289807204194       0.21532123597781744        0.0000000000000000     
 -0.11189036042680846       0.22350405664648776        0.0000000000000000     
 -0.11287229111753377       0.23176876409089586        0.0000000000000000     
  -8.0939272879576640E-002  0.23086802204177143        0.0000000000000000     
  -8.1475706988753102E-002  0.23930598433860314        0.0000000000000000     
  -8.1917664916607416E-002  0.24786050200630741        0.0000000000000000     
  -8.2265146663139596E-002  0.25653157504488411        0.0000000000000000     
  -8.2518152228349628E-002  0.26531920345433324        0.0000000000000000     
  -8.8666547612279656E-002  0.23103708518416874        0.0000000000000000     
  -8.9296855666355868E-002  0.23945319405927387        0.0000000000000000     
  -8.9826288603385665E-002  0.24799465434882004        0.0000000000000000     
  -9.0254846423369062E-002  0.25666146605280737        0.0000000000000000     
  -9.0582529126306002E-002  0.26545362917123577        0.0000000000000000     
  -9.6564475562840202E-002  0.23124356323982198        0.0000000000000000     
  -9.7292446716830822E-002  0.23963990193456799        0.0000000000000000     
  -9.7929989125473516E-002  0.24816423057175063        0.0000000000000000     
  -9.8477102788768325E-002  0.25681654915136976        0.0000000000000000     
  -9.8933787706715196E-002  0.26559685767342545        0.0000000000000000     
 -0.10463305673125824       0.23148745620873099        0.0000000000000000     
 -0.10546248014017795       0.23986610796448565        0.0000000000000000     
 -0.10622876648287098       0.24836923067509908        0.0000000000000000     
 -0.10693191575933741       0.25699682434057119        0.0000000000000000     
 -0.10757192796957718       0.26574888896090221        0.0000000000000000     
 -0.11287229111753377       0.23176876409089586        0.0000000000000000     
 -0.11380695593639718       0.24013181214902674        0.0000000000000000     
 -0.11472262067557801       0.24860965465886539        0.0000000000000000     
 -0.11561928533507627       0.25720229162041186        0.0000000000000000     
 -0.11649694991489196       0.26590972303366617        0.0000000000000000     
  -8.2518152228349628E-002  0.26531920345433324        0.0000000000000000     
  -8.2715666690868592E-002  0.27424976954069452        0.0000000000000000     
  -8.2896675129327593E-002  0.28334965561000758        0.0000000000000000     
  -8.3061177543726647E-002  0.29261886166227247        0.0000000000000000     
  -8.3209173934065739E-002  0.30205738769748908        0.0000000000000000     
  -9.0582529126306002E-002  0.26545362917123577        0.0000000000000000     
  -9.0839686380406418E-002  0.27443417022919447        0.0000000000000000     
  -9.1056667853880113E-002  0.28366611575177270        0.0000000000000000     
  -9.1233473546727117E-002  0.29314946573897033        0.0000000000000000     
  -9.1370103458947402E-002  0.30288422019078753        0.0000000000000000     
  -9.8933787706715196E-002  0.26559685767342545        0.0000000000000000     
  -9.9311072729877409E-002  0.27460344184260038        0.0000000000000000     
  -9.9619986708818262E-002  0.28393458736357746        0.0000000000000000     
  -9.9860529643537685E-002  0.29359029423635663        0.0000000000000000     
 -0.10003270153403576       0.30357056246093778        0.0000000000000000     
 -0.10757192796957718       0.26574888896090221        0.0000000000000000     
 -0.10812982573928163       0.27475758438091236        0.0000000000000000     
 -0.10858663169414202       0.28415507044542199        0.0000000000000000     
 -0.10894234583415845       0.29394134715443115        0.0000000000000000     
 -0.10919696815933080       0.30411641450793986        0.0000000000000000     
 -0.11649694991489196       0.26590972303366617        0.0000000000000000     
 -0.11729594540861903       0.27489659784413029        0.0000000000000000     
 -0.11795660280985149       0.28432756499730627        0.0000000000000000     
 -0.11847892211858929       0.29420262449319406        0.0000000000000000     
 -0.11886290333483251       0.30452177633179367        0.0000000000000000     
 </DataArray>
 <DataArray  type="Float64" Name="stress" NumberOfComponents="3" format="ascii">
   6127797348.2691898        59472527.809516907       -52751334.688349284     
   5867608104.3584967        22616545.895996332       -35201141.512495831     
   5609511644.6930037       -7263488.5334963799       -18912139.355638981     
   5353507969.2727137       -30167575.478994131       -3884328.2177710626     
   5099597078.0976191       -46095714.940507889        9882291.9011053704     
   5810104521.4965458        69159651.895694494        133820252.23675102     
   5550059118.1650171        33525229.606110334        144939791.49964735     
   5291513776.4408321        2891012.6743137836        157149270.00613755     
   5034468496.3239775       -22742998.899703503        170448687.75623375     
   4778923277.8144531       -43376805.115953684        184838044.74992895     
   5464691563.8908834        70530736.731953859        321190827.66861635     
   5211507516.1745024        38133128.577113152        325188203.27438045     
   4959230807.4275818        8759983.6538054943        332626648.38633198     
   4707861437.6501293       -17588698.037943602        343506163.00447458     
   4457399406.8421392       -40912916.498143911        357826747.12880796     
   5091558475.4522066        63585782.318318129        509360391.60725605     
   4851953298.3869247        36440242.808985949        505544093.81172001     
   4612662737.6532507        10343424.404977083        507519995.78495187     
   4373686793.2511673       -14704672.893712759        515288097.52695966     
   4135025465.1806831       -38704049.087076902        528848399.03774357     
   4690705256.1805077        48324788.654772997        698328944.05267942     
   4471396464.8023024        28446572.301744938        686007463.11165071     
   4251809567.1178312        7641334.9278142452        681829312.20198417     
   4031944563.1270866       -14090923.467020988        685794491.32367873     
   3811801452.8300772       -36750202.882754803        697903000.47673976     
   5099597078.0976191       -46095714.940507889        9882291.9011053704     
   4966812900.3154268       -24204423.121399164        3388461.2438366096     
   4832912696.9228115       -6033216.6703593731        1489478.3114957835     
   4697896467.9197788        8417904.4126212597        4185343.1040816102     
   4561764213.3063250        19148940.127524137        11476055.621590247     
   4778923277.8144531       -43376805.115953684        184838044.74992895     
   4657174058.2539997       -22890595.811275482        176709521.06192532     
   4534571732.5826168       -5248073.5430316925        172798828.86135226     
   4411116300.8002872        9550761.6887340546        173105968.14820850     
   4286807762.9070315        21505909.884059906        177630938.92250681     
   4457399406.8421392       -40912916.498143911        357826747.12880796     
   4345607956.2534523       -22154946.482904673        348370269.82612896     
   4233226319.0533123       -5364265.1724834442        342754607.77339661     
   4120254495.2417240        9459127.4331114292        340979760.97060531     
   4006692484.8186941        22315231.333879232        343045729.41776031     
   4135025465.1806831       -38704049.087076902        528848399.03774357     
   4032114594.3137755       -21997475.136267185        518370707.53646421     
   3928876456.3349133       -6381791.5586369038        511356815.04763895     
   3825311051.2440863        8143001.6457664967        507806721.57126534     
   3721418379.0412955        21576904.476975441        507720427.10733920     
   3811801452.8300772       -36750202.882754803        697903000.47673976     
   3716693972.4349842       -22418181.771356106        686710834.19292116     
   3621522144.4274197       -8300652.7015304565        678605450.68407309     
   3526285968.8073802        5602384.3267133236        673586849.95018291     
   3430985445.5748644        19290929.313368320        671655031.99125242     
   4561764213.3063250        19148940.127524137        11476055.621590247     
   4356019428.0853567        8377637.5538904667        6740516.4079915332     
   4150982814.1190276       -33094.170957803726        5698500.0547319446     
   3946654371.4073253       -6083255.0470392704        8350006.5618127622     
   3743034099.9502544       -9772845.0743608475        14695035.929225018     
   4286807762.9070315        21505909.884059906        177630938.92250681     
   4091395476.5454955        11675506.797575474        171997725.46885017     
   3896536674.2676563        3690050.6567225456        170401934.54968458     
   3702231356.0735021       -2450458.5384969711        172843566.16503310     
   3508479521.9630270       -6746020.7881174088        179322620.31486756     
   4006692484.8186941        22315231.333879232        343045729.41776031     
   3822595267.8142023        13720498.883827686        336334373.35792994     
   3638896847.7224665        6455089.4762773514        334004339.50676554     
   3455597224.5434623        519003.11118769646        336055627.86426759     
   3272696398.2772083       -4087760.2114210129        342488238.43042922     
   3721418379.0412955        21576904.476975441        507720427.10733920     
   3549618801.8914714        14512613.812663555        499750460.07524568     
   3378063334.4834390        8262022.2876646519        496505714.92597330     
   3206751976.8172054        2825129.9019967318        497986191.65952915     
   3035684728.8927751       -1798063.3443371058        504191890.27591532     
   3430985445.5748644        19290929.313368320        671655031.99125242     
   3272466078.7772994        14051851.584048748        662245985.62077832     
   3114036134.5505915        9110849.0909137726        657906060.80729783     
   2955695612.8947315        4467921.8339464664        658635257.55081356     
   2797444513.8097339        123069.81317746639        664433575.85131896     
   3743034099.9502544       -9772845.0743608475        14695035.929225018     
   3571077163.4433517       -4389423.4634444714        8236761.4209262365     
   3398131183.9146976       -2302811.9250333309        6428196.9295237456     
   3224196161.3642850       -3513010.4591441154        9269342.4550233111     
   3049272095.7921066       -8020019.0658186674        16760197.997410199     
   3508479521.9630270       -6746020.7881174088        179322620.31486756     
   3348058557.5669675       -1201656.7120757103        171241896.84875613     
   3186979053.3144450        2147574.5091116428        167348147.49751171     
   3025241009.2054815        3301672.8754793406        167641372.26115033     
   2862844425.2400513        2260638.3869792223        172121571.13964954     
   3272696398.2772083       -4087760.2114210129        342488238.43042922     
   3122489303.4147515        1220915.5565268993        333170653.03269666     
   2971954171.8611526        5436135.6873304844        327577305.84781688     
   2821091003.6164250        8557900.1810399294        325708196.87578011     
   2669899798.6805468        10586209.037575722        327563326.11658496     
   3035684728.8927751       -1798063.3443371058        504191890.27591532     
   2894369400.9867182        2878293.3423926830        494023029.97275794     
   2753056539.5548296        7562871.6096607447        487115671.98042381     
   2611746144.5971141        12255671.457504272        483469816.29890376     
   2470438216.1135602        16956692.885897517        483085462.92821676     
   2797444513.8097339        123069.81317746639        664433575.85131896     
   2663698850.2828627        3770476.6454917192        653799027.66893268     
   2530286156.3954668        8527782.2760620117        645963245.89533341     
   2397206432.1475539        14394986.704906464        640926230.53053701     
   2264459677.5391140        21372089.931994796        638687981.57453895     
   3049272095.7921066       -8020019.0658186674        16760197.997410199     
   2883979626.7627316       -9996255.1679316759        11304640.995545546     
   2719439691.0023870       -9464047.0399440527        6715686.0697521642     
   2555652288.5110893       -6423394.6817947626        2993333.2200198057     
   2392617419.2888303       -874298.09352719784        137582.44635871856     
   2862844425.2400513        2260638.3869792223        172121571.13964954     
   2700750362.7203507        970155.80464494228        165361786.49749851     
   2539090529.3795867        1127103.8187773228        160037461.66677409     
   2377864925.2177467        2731482.4293298721        156148596.64746729     
   2217073550.2348456        5783291.6363209486        153695191.43959224     
   2669899798.6805468        10586209.037575722        327563326.11658496     
   2512629450.4858198        10469072.319623709        319127959.06235540     
   2355475027.3799052        10738352.564396143        312696909.55490971     
   2198436529.3628292        11394049.771955609        308270177.59422964     
   2041513956.4345801        12436163.942264795        305847763.18034166     
   2470438216.1135602        16956692.885897517        483085462.92821676     
   2319616890.0591149        18500494.376926541        472603158.69012105     
   2168593185.0033751        19369699.196992755        464694029.73415715     
   2017367100.9463603        19564307.346135855        459358076.06032717     
   1865938637.8880665        19084318.824331164        456595297.66863465     
   2264459677.5391140        21372089.931994796        638687981.57453895     
   2121712681.4402418        25064421.976572514        625787385.38078606     
   1978445002.2499745        27021143.716514826        616028822.20452595     
   1834656639.9683268        27242255.151853323        609412292.04574609     
   1690347594.5952833        25727756.282543004        605937794.90446532     
   2392617419.2888303       -874298.09352719784        137582.44635871856     
   2249940189.9097810        6937587.2897653580       -6602845.6342002675     
   2103975590.0146811        3791570.9528805017       -11199990.066745879     
   1954723619.6035657       -10312347.104051709       -13653850.851276837     
   1802184278.6764100       -35374166.881118298       -13964427.987807231     
   2217073550.2348456        5783291.6363209486        153695191.43959224     
   2078654576.3522966        12915073.714906216        143339096.36727956     
   1938066155.1863101        12815364.848666430        134272245.71458396     
   1795308286.7368934        5484165.0376704931        126494639.48151504     
   1650380971.0040212       -9078525.7181557417        120006277.66804908     
   2041513956.4345801        12436163.942264795        305847763.18034166     
   1904913125.9674320        18155809.091846228        293180244.88764280     
   1767260771.4494250        20370374.071897984        280947931.78616977     
   1628556892.8805802        19079858.882486999        269150823.87592363     
   1488801490.2608900        14284263.523597360        257788921.15689245     
   1865938637.8880665        19084318.824331164        456595297.66863465     
   1728715838.7551773        22659793.420562387        442920599.92690349     
   1591559438.8040323        26456598.622577488        428827068.14800709     
   1454469438.0346382        30474734.430434883        414314702.33194602     
   1317445836.4469838        34714200.844097972        399383502.47871041     
   1690347594.5952833        25727756.282543004        605937794.90446532     
   1550062714.7155428        26427026.701068044        592560161.48506808     
   1410962157.2501330        31074038.500708282        577909654.80010164     
   1273045922.1990647        39668791.681490839        561986274.84958005     
   1136314009.5623388        52211286.243403614        544790021.63349175     
   1802184278.6764100       -35374166.881118298       -13964427.987807231     
   1771313513.0908630       -16676208.836974263       -8308946.7023759270     
   1748516407.1765738        28933948.111362576       -41466738.217869148     
   1733792960.9335198        101456303.96381134       -113437802.53425741     
   1727143174.3617187        200890858.72044605       -224222139.65157276     
   1650380971.0040212       -9078525.7181557417        120006277.66804908     
   1527704637.1408701       -13922414.740088344        135605629.60134390     
   1409204458.5872507       -4845786.0635663867        124831320.36800481     
   1294880435.3432007        18151360.311506391        87683349.968049139     
   1184732567.4087024        55069024.385096431        24161718.401483923     
   1488801490.2608900        14284263.523597360        257788921.15689245     
   1309861335.6466732       -3438948.3065204024        278785055.31605452     
   1131199831.9803181       -20233323.643763304        285847139.94289827     
   952816979.26183128       -36098862.488113105        278975175.03743881     
   774712777.49120438       -51035564.839591026        258169160.59965917     
   1317445836.4469838        34714200.844097972        399383502.47871041     
   1117783608.6082897        14774190.463819861        421229330.44177288     
   914502527.35575843       -17228664.629242480        441580720.50681877     
   707602592.68940675       -61294364.435049266        460437672.67386460     
   497083804.60922831       -117422908.95359859        477800186.94287580     
   1136314009.5623388        52211286.243403614        544790021.63349175     
   951471456.02572131        40717001.570901394        562938454.97849929     
   759112544.71358061        4168190.9799829423        592032062.05977833     
   559237275.62592971       -57435145.529297113        632070842.87734520     
   351845648.76275957       -144093007.95698056        683054797.43119371     
   1727143174.3617187        200890858.72044605       -224222139.65157276     
   1456650767.0022235        184613292.81031346       -96651335.990243912     
   1153979644.3030896        61073342.434730887        60095367.604816854     
   819129806.26426697       -169728992.40650439        246017971.13360566     
   452101252.88580996       -507793711.71315360        461116474.59613919     
   1184732567.4087024        55069024.385096431        24161718.401483923     
   977677634.22892618        11873528.799670339        155560174.44238436     
   732793112.71626306       -157420594.56207913        312792617.53593028     
   450079002.87065971       -452813345.70024616        495859047.68212301     
   129535304.69216019       -874304724.61475587        704759464.88098419     
   774712777.49120438       -51035564.839591026        258169160.59965917     
   621546995.97378850       -124013486.85552505        386802583.86130482     
   424900753.13022739       -341926279.95862353        537928081.29452682     
   184774048.96048382       -704773944.14899147        711545652.89935875     
  -98833116.535417140       -1212556479.4265368        907655298.67576146     
   497083804.60922831       -117422908.95359859        477800186.94287580     
   388258852.23681617       -223047754.15525740        597075892.26650333     
   230302565.54499975       -492443713.75495297        735501758.88063502     
   23214944.533765018       -925610787.75268316        893077786.78527141     
  -233004010.79688895       -1522548976.1484857        1069803975.9804285     
   351845648.76275957       -144093007.95698056        683054797.43119371     
   277813203.01798570       -285229273.09960055        786380099.65799403     
   148998549.96056235       -608972895.95103550        905513650.29423952     
  -34598310.409523129       -1115323876.5113664        1040455449.3399110     
  -272977378.09228826       -1804282214.7806127        1191205496.7950096     
   4690705256.1805077        48324788.654772997        698328944.05267942     
   4471396464.8023024        28446572.301744938        686007463.11165071     
   4251809567.1178312        7641334.9278142452        681829312.20198417     
   4031944563.1270866       -14090923.467020988        685794491.32367873     
   3811801452.8300772       -36750202.882754803        697903000.47673976     
   4285841880.0993781        44046998.604251862        796556923.22646487     
   4086545418.2038937        22900401.167625189        787971770.31668317     
   3887447403.6368575        2415294.8257944584        786930090.30461442     
   3688547836.3982587       -17408320.421235800        793431883.19025922     
   3489846716.4880958       -36570444.573472977        807477148.97362006     
   3892643430.6900868        43268686.555282354        891709958.96138275     
   3711645420.7526193        20339544.777642250        887417113.32334244     
   3531322411.7782922       -339593.78950285912        890067883.44937050     
   3351674403.7671223       -18768729.146145821        899662269.33945870     
   3172701396.7190957       -34947861.292293429        916200270.99361384     
   3511109907.9526391        45989852.507865191        983788051.25742400     
   3346696472.4484572        20764003.131794214        984343492.13162589     
   3183434591.5421348       -623330.91807794571        991242691.63624477     
   3021324265.2336745       -18172149.641747952        1004485649.7712758     
   2860365493.5230713       -31882453.039221168        1024072366.5367186     
   3141241311.8870330        52210496.462001801        1072791200.1146021     
   2991698573.2914267        24173776.230085731        1078750906.7415404     
   2843783942.9283891        1564083.4400737286        1090454514.8652411     
   2697497420.7979193       -15618581.908043981        1107902024.4857078     
   2552839006.9000230       -27374219.814256191        1131093435.6029329     
   3811801452.8300772       -36750202.882754803        697903000.47673976     
   3716693972.4349842       -22418181.771356106        686710834.19292116     
   3621522144.4274197       -8300652.7015304565        678605450.68407309     
   3526285968.8073802        5602384.3267133236        673586849.95018291     
   3430985445.5748644        19290929.313368320        671655031.99125242     
   3489846716.4880958       -36570444.573472977        807477148.97362006     
   3402620295.1845002       -22234825.325573683        797780242.30833352     
   3315231910.3886147       -8439084.3852972984        791058075.67619145     
   3227681562.1004438        4816778.2473605871        787310649.07720125     
   3139969250.3199844        17532762.572379708        786537962.51135910     
   3172701396.7190957       -34947861.292293429        916200270.99361384     
   3093035912.3875270       -20704680.543742061        907884738.75373328     
   3013110848.6838608       -7326764.3688559532        902431903.80519354     
   2932926205.6080966        5185887.2323747873        899841766.14798987     
   2852481983.1602306        16833274.259935617        900114325.78212857     
   2860365493.5230713       -31882453.039221168        1024072366.5367186     
   2787940824.0440722       -17827747.425856590        1017024323.5291369     
   2715158959.3131599       -4963692.6521949768        1012726935.0710794     
   2642019899.3303399        6709711.2817727327        1011180201.1625494     
   2568523644.0956092        17192464.376032472        1012384121.8035470     
   2552839006.9000230       -27374219.814256191        1131093435.6029329     
   2487335030.1541286       -13604025.971913934        1125198996.6345363     
   2421376242.2765117       -1349869.2353192568        1121943169.4738533     
   2354962643.2671762        9388250.3955498934        1121325954.1208820     
   2288094233.1261125        18610332.920657158        1123347350.5756280     
   3430985445.5748644        19290929.313368320        671655031.99125242     
   3272466078.7772994        14051851.584048748        662245985.62077832     
   3114036134.5505915        9110849.0909137726        657906060.80729783     
   2955695612.8947315        4467921.8339464664        658635257.55081356     
   2797444513.8097339        123069.81317746639        664433575.85131896     
   3139969250.3199844        17532762.572379708        786537962.51135910     
   2994561324.0725474        12985214.799979210        778421997.36648333     
   2849345132.0268579        9076781.0333932638        775163050.32850182     
   2704320674.1828957        5807461.2725697756        776761121.39741862     
   2559487950.5406780        3177255.5175584555        783216210.57322752     
   2852481983.1602306        16833274.259935617        900114325.78212857     
   2719579487.6055112        12795453.487236738        893410805.43220603     
   2586971037.8834162        9737785.4899425507        891352199.73908424     
   2454656633.9939399        7660270.2680571079        893938508.70276654     
   2322636275.9370904        6562907.8215796947        901169732.32324541     
   2568523644.0956092        17192464.376032472        1012384121.8035470     
   2447520569.3761897        13482567.645802498        1007212409.8179519     
   2326913852.1202769        11093862.460594773        1006473509.0390579     
   2206703492.3278661        10026348.820404053        1010167419.4668654     
   2086889489.9989667        10280026.725243568        1018294141.1013854     
   2288094233.1261125        18610332.920657158        1123347350.5756280     
   2178384569.3845787        15046557.275683165        1119826810.5237164     
   2069173574.7374303        13145011.945326447        1120526978.2284143     
   1960461249.1846793        12905696.929625154        1125447853.6897249     
   1852247592.7263157        14328612.228549242        1134589436.9076385     
   2797444513.8097339        123069.81317746639        664433575.85131896     
   2663698850.2828627        3770476.6454917192        653799027.66893268     
   2530286156.3954668        8527782.2760620117        645963245.89533341     
   2397206432.1475539        14394986.704906464        640926230.53053701     
   2264459677.5391140        21372089.931994796        638687981.57453895     
   2559487950.5406780        3177255.5175584555        783216210.57322752     
   2433499066.9368768        6887741.8488606215        773492531.33369875     
   2307771772.2575722        11470191.261818409        766922282.66489470     
   2182306066.5027719        16924603.756456137        763505464.56680870     
   2057101949.6724694        23250979.332757592        763242077.03944993     
   2322636275.9370904        6562907.8215796947        901169732.32324541     
   2205417498.4332848        10640471.504934430        892273644.52577603     
   2088388929.1389973        15352062.553357482        886885651.46094978     
   1971550568.0542390        20697680.966873765        885005753.12877393     
   1854902415.1790013        26677326.745460033        886633949.52924359     
   2086889489.9989667        10280026.725243568        1018294141.1013854     
   1979454144.7720833        15028665.613722086        1010142367.2451702     
   1872137627.0397465        20173396.150700569        1005853352.2835162     
   1764939936.8019555        25714218.336159706        1005427096.2164410     
   1657861074.0587153        31651132.170120537        1008863599.0439360     
   1852247592.7263157        14328612.228549242        1134589436.9076385     
   1755609005.9532819        20052324.175239444        1127098699.4918609     
   1659017865.9598200        25934192.053832471        1123825385.1325848     
   1562474172.7459338        31974215.864343584        1124769493.8298042     
   1465977926.3116102        38172395.606735170        1129931025.5835176     
   2264459677.5391140        21372089.931994796        638687981.57453895     
   2121712681.4402418        25064421.976572514        625787385.38078606     
   1978445002.2499745        27021143.716514826        616028822.20452595     
   1834656639.9683268        27242255.151853323        609412292.04574609     
   1690347594.5952833        25727756.282543004        605937794.90446532     
   2057101949.6724694        23250979.332757592        763242077.03944993     
   1922650980.5959203        26682264.419597745        751722838.74085498     
   1787858619.4197550        28975575.841063976        743503368.27835524     
   1652724866.1439939        30130913.597197354        738583665.65193629     
   1517249720.7686126        30148277.687945545        736963730.86160481     
   1854902415.1790013        26677326.745460033        886633949.52924359     
   1729198144.0350559        29982766.147663593        876705241.94955683     
   1603331771.7832737        32747868.523761153        870234037.02455306     
   1477303298.4236600        34972633.873741090        867220334.75423169     
   1351112723.9562080        36657062.197601259        867664135.13858366     
   1657861074.0587153        31651132.170120537        1008863599.0439360     
   1541354171.7576466        34965927.160767496        1000734595.0068892     
   1424864459.3405190        38338021.764559567        996220828.44312215     
   1308391936.8073368        41767415.981491327        995322299.35263133     
   1191936604.1580918        45254109.811560154        998039007.73541296     
   1465977926.3116102        38172395.606735170        1129931025.5835176     
   1359119063.7636914        41631747.458907783        1123810897.9128509     
   1252456682.0914929        45746035.563479841        1121463742.5340593     
   1145990781.2950091        50515259.920432627        1122889559.4471407     
   1039721361.3742456        55939420.529786825        1128088348.6520948     
   1690347594.5952833        25727756.282543004        605937794.90446532     
   1550062714.7155428        26427026.701068044        592560161.48506808     
   1410962157.2501330        31074038.500708282        577909654.80010164     
   1273045922.1990647        39668791.681490839        561986274.84958005     
   1136314009.5623388        52211286.243403614        544790021.63349175     
   1517249720.7686126        30148277.687945545        736963730.86160481     
   1375174071.8536947        28126554.875690460        727787813.60087192     
   1233400956.2420225        27113276.407590032        719135176.47804952     
   1091930373.9336176        27108442.283705890        711005819.49314547     
   950762324.92845786        28112052.503986359        703399742.64615643     
   1351112723.9562080        36657062.197601259        867664135.13858366     
   1212378172.8731976        33453906.214709699        861661180.07358181     
   1073064365.9823531        28319897.539035857        857977658.54997456     
   933171303.28367496        21255036.170578539        856613570.56775522     
   792698984.77716029        12259322.109344095        857568916.12692606     
   1191936604.1580918        45254109.811560154        998039007.73541296     
   1061675017.7740602        42409080.718134463        994180260.90321457     
   929952386.47111297        34693901.894991279        994437101.01587248     
   796768710.24924278        22108573.342101216        998809528.07339764     
   662123989.10845327        4653095.0594856143        1007297542.0758016     
   1039721361.3742456        55939420.529786825        1128088348.6520948     
   923064606.55628204        54992078.385986865        1125345056.0897515     
   804065017.70830870        46235289.475485772        1128513503.8757472     
   682722594.83032238        29669053.798281163        1137593692.0100946     
   559037337.92233551        5293371.3543972671        1152585620.4927852     
   1136314009.5623388        52211286.243403614        544790021.63349175     
   951471456.02572131        40717001.570901394        562938454.97849929     
   759112544.71358061        4168190.9799829423        592032062.05977833     
   559237275.62592971       -57435145.529297113        632070842.87734520     
   351845648.76275957       -144093007.95698056        683054797.43119371     
   950762324.92845786        28112052.503986359        703399742.64615643     
   791607460.62007415        11082166.000666857        721320948.27584207     
   623817676.98691750       -34730784.918587804        749334187.69039226     
   447392974.02898574       -109326800.25374830        787439460.88979757     
   262333351.74627393       -212705880.00483945        835636767.87406039     
   792698984.77716029        12259322.109344095        857568916.12692606     
   656794266.97865689       -11037429.040317059        873957905.56717098     
   511136068.30612171       -66845783.103413343        899585788.84085751     
   355724388.75955534       -155165740.07994586        934452565.94795966     
   190559228.33895832       -275997299.96992058        978558236.88851035     
   662123989.10845327        4653095.0594856143        1007297542.0758016     
   547031875.10146058       -25641783.552042216        1020849326.8524755     
   421067718.67119575       -92176803.574483812        1042786865.5111467     
   284231519.81763685       -194951965.00789624        1073110158.0518395     
   136523278.54079738       -333967267.85225534        1111819204.4745295     
   559037337.92233551        5293371.3543972671        1152585620.4927852     
   462320284.98851120       -32730897.534456640        1161995212.1317475     
   353612628.08215410       -110723846.33175896        1178937417.7012932     
   232914367.20324084       -228685475.03757909        1203412237.2014289     
   100225502.35178795       -386615783.65186471        1235419670.6321354     
   351845648.76275957       -144093007.95698056        683054797.43119371     
   277813203.01798570       -285229273.09960055        786380099.65799403     
   148998549.96056235       -608972895.95103550        905513650.29423952     
  -34598310.409523129       -1115323876.5113664        1040455449.3399110     
  -272977378.09228826       -1804282214.7806127        1191205496.7950096     
   262333351.74627393       -212705880.00483945        835636767.87406039     
   223618379.03890166       -352365735.61854887        885016153.99124587     
   140669641.65504092       -639471473.48722529        945413868.75955415     
   13487139.594691992       -1074023093.6108613        1016829912.1789910     
  -157929127.14214724       -1656020595.9894726        1099264284.2495723     
   190559228.33895832       -275997299.96992058        978558236.88851035     
   173476243.64523733       -418286391.56191790        986298223.30494368     
   122707936.91121277       -672859889.95492542        1000266618.6142031     
   38254308.136876822       -1039717795.1489712        1020463422.8162891     
  -79884642.677771688       -1518860107.1440492        1046888635.9111909     
   136523278.54079738       -333967267.85225534        1111819204.4745295     
   127386796.83700481       -482991240.92963398        1090226307.5991042     
   95113435.729090065       -709138145.35409153        1070071899.8581843     
   39703195.217031181       -1012407981.1256940        1051355981.2517779     
  -38843924.699149489       -1392800748.2443583        1034078551.7799100     
   100225502.35178795       -386615783.65186471        1235419670.6321354     
   85350038.614195019       -546480283.72175002        1196800406.8737035     
   57886138.108652949       -748306239.68479359        1154829712.4914927     
   17833800.835164249       -992093651.54100358        1109507587.4854803     
  -34806973.206287146       -1277842519.2903950        1060834031.8556978     
   3141241311.8870330        52210496.462001801        1072791200.1146021     
   2991698573.2914267        24173776.230085731        1078750906.7415404     
   2843783942.9283891        1564083.4400737286        1090454514.8652411     
   2697497420.7979193       -15618581.908043981        1107902024.4857078     
   2552839006.9000230       -27374219.814256191        1131093435.6029329     
   2769227743.9766831        52941508.586700082        1170443744.5841115     
   2636070590.3028312        27897553.243762255        1173902937.1241689     
   2504289482.0275030        7440415.8959045410        1183531886.2098243     
   2373884419.1507001       -8429903.4568709135        1199330591.8410680     
   2244855401.6724148       -19713404.814578533        1221299054.0179074     
   2384454563.0298605        49844636.800457954        1267503744.7116048     
   2268899722.9887056        28158464.959780574        1268168349.8583956     
   2154468865.5120306        10218901.667361021        1275428566.5996115     
   2041161990.5998311       -3974053.0768024921        1289284394.9352515     
   1928979098.2521119       -14420399.272704601        1309735834.8653140     
   1986921769.0465462        42919881.103266716        1363971200.4970779     
   1890185971.3490436        24956511.378137708        1361547144.9442158     
   1794322093.3819678        9899540.7544410229        1366144556.0346057     
   1699330135.1453242       -2251030.7678221464        1377763433.7682517     
   1605210096.6391127       -11495203.188642025        1396403778.1451554     
   1576629362.0267642        32167241.495136917        1459846111.9405398     
   1499929335.3838503        18291692.498836935        1454039322.3816314     
   1423849165.6373208        6482333.1571434736        1455679854.5148094     
   1348388852.7871780       -3260836.5299293399        1464767708.3400738     
   1273548396.8334167       -10937816.562388480        1481302883.8574255     
   2552839006.9000230       -27374219.814256191        1131093435.6029329     
   2487335030.1541286       -13604025.971913934        1125198996.6345363     
   2421376242.2765117       -1349869.2353192568        1121943169.4738533     
   2354962643.2671762        9388250.3955498934        1121325954.1208820     
   2288094233.1261125        18610332.920657158        1123347350.5756280     
   2244855401.6724148       -19713404.814578533        1221299054.0179074     
   2185972431.1908641       -8388948.4355155230        1212365894.2859633     
   2126744718.8081985        1786368.2731602192        1206451605.4411719     
   2067172264.5244212        10812545.311467886        1203556187.4835324     
   2007255068.3395293        18689582.679392695        1203679640.4130440     
   1928979098.2521119       -14420399.272704601        1309735834.8653140     
   1877803588.5475817       -5215744.0031256676        1297892368.4722016     
   1826393406.1725447        3206669.0314378738        1289448032.0456803     
   1774748551.1270075        10846839.830998182        1284402825.5857468     
   1722869023.4109633        17704768.395533562        1282756749.0924022     
   1605210096.6391127       -11495203.188642025        1396403778.1451554     
   1562828502.2242799       -4084412.6747366786        1381778419.1932507     
   1520322304.3695505        2911033.0395132303        1370932449.2873750     
   1477691503.0749316        9491133.9541283846        1363865868.4275215     
   1434936098.3404114        15655890.069078445        1360578676.6137006     
   1273548396.8334167       -10937816.562388480        1481302883.8574255     
   1241047172.2209589       -4994954.4503584504        1464024046.4491088     
   1208531413.3992167        899460.29738670588        1450904857.1662557     
   1176001120.3681908        6745427.6808539033        1441945316.0088665     
   1143456293.1278756        12542947.700028300        1437145422.9769411     
   2288094233.1261125        18610332.920657158        1123347350.5756280     
   2178384569.3845787        15046557.275683165        1119826810.5237164     
   2069173574.7374303        13145011.945326447        1120526978.2284143     
   1960461249.1846793        12905696.929625154        1125447853.6897249     
   1852247592.7263157        14328612.228549242        1134589436.9076385     
   2007255068.3395293        18689582.679392695        1203679640.4130440     
   1909051503.9938028        15216421.701619983        1199656138.5707371     
   1811282162.0563619        13190668.751463175        1200241863.5838635     
   1713947042.5272059        12612323.828920841        1205436815.4524119     
   1617046145.4063392        13481386.934015751        1215240994.1763821     
   1722869023.4109633        17704768.395533562        1282756749.0924022     
   1637281613.0290899        14655238.455378056        1278155097.6592524     
   1552063978.3693945        12838294.255824387        1278551192.1803436     
   1467216119.4318852        12253935.796889246        1283945032.6556766     
   1382738036.2165620        12902163.078565478        1294336619.0852497     
   1434936098.3404114        15655890.069078445        1360578676.6137006     
   1363074896.4904325        13363007.536948085        1355323687.7892516     
   1291519023.6765373        12087888.458424926        1355454964.0178607     
   1220268479.8987181        11830532.833493650        1360972505.2995257     
   1149323265.1569781        12590940.662161648        1371876311.6342502     
   1143456293.1278756        12542947.700028300        1437145422.9769411     
   1086431354.3778396        11339728.946344256        1431161908.9607413     
   1029647297.9777797        10939451.359245360        1430953179.0964127     
   973104123.92769790        11342114.938741207        1436519233.3839576     
   916801832.22759199        12547719.684823692        1447860071.8233738     
   1852247592.7263157        14328612.228549242        1134589436.9076385     
   1755609005.9532819        20052324.175239444        1127098699.4918609     
   1659017865.9598200        25934192.053832471        1123825385.1325848     
   1562474172.7459338        31974215.864343584        1124769493.8298042     
   1465977926.3116102        38172395.606735170        1129931025.5835176     
   1617046145.4063392        13481386.934015751        1215240994.1763821     
   1531335096.1987963        18468380.685168922        1208200471.1237779     
   1445691567.1799297        23680441.731901944        1205518335.0332537     
   1360115558.3497305        29117570.074196637        1207194585.9048171     
   1274607069.7082069        34779765.712071657        1213229223.7384562     
   1382738036.2165620        12902163.078565478        1294336619.0852497     
   1308357278.5904646        17273264.838942945        1287769729.3731008     
   1234064114.5621510        21936345.258589149        1285702190.5286238     
   1159858544.1316080        26891404.337474108        1288134002.5518143     
   1085740567.2988431        32138442.075623333        1295065165.4426737     
   1149323265.1569781        12590940.662161648        1371876311.6342502     
   1086675553.1282945        16466976.636572897        1365806474.2398419     
   1024135508.1064910        20701902.633916438        1364376951.6186941     
   961703130.09156489        25295718.654188633        1367587743.7707987     
   899378419.08351862        30248424.697388351        1375438850.6961610     
   916801832.22759199        12547719.684823692        1447860071.8233738     
   866289919.81227458        16049516.078034490        1442310705.7239985     
   815905747.81294954        19977113.857884407        1441542618.3034644     
   765649316.22959518        24330513.024303168        1445555809.5617750     
   715520625.06223094        29109713.577357739        1454350279.4989290     
   1465977926.3116102        38172395.606735170        1129931025.5835176     
   1359119063.7636914        41631747.458907783        1123810897.9128509     
   1252456682.0914929        45746035.563479841        1121463742.5340593     
   1145990781.2950091        50515259.920432627        1122889559.4471407     
   1039721361.3742456        55939420.529786825        1128088348.6520948     
   1274607069.7082069        34779765.712071657        1213229223.7384562     
   1177911648.1965156        37285999.283474684        1208383834.1632133     
   1081280652.2947774        40006984.888046741        1207803454.2349102     
   984714082.00297010        42942722.525724888        1211488083.9535480     
   888211937.32112265        46093212.196605176        1219437723.3191321     
   1085740567.2988431        32138442.075623333        1295065165.4426737     
   1000614407.8378659        34113303.670596242        1291340449.4861147     
   915420618.72106421        35862733.079494447        1292372780.5315661     
   830159199.94843102        37386730.302287042        1298162158.5790324     
   744830151.51997733        38685295.339006901        1308708583.6285081     
   899378419.08351862        30248424.697388351        1375438850.6961610     
   827227342.68773675        32113660.620278865        1372680743.8815539     
   754876581.37035584        33313280.137836814        1375171721.4240274     
   682326135.13138008        33847283.250085622        1382911783.3235838     
   609576003.97080934        33715669.957006782        1395900929.5802209     
   715520625.06223094        29109713.577357739        1454350279.4989290     
   657750452.74613225        31287070.132515579        1452404717.3495343     
   599648540.24266589        32358626.063114673        1456200276.9122980     
   541214887.55182397        32324381.369128495        1465736958.1872132     
   482449494.67361712        31184336.050592780        1481014761.1742802     
   1039721361.3742456        55939420.529786825        1128088348.6520948     
   923064606.55628204        54992078.385986865        1125345056.0897515     
   804065017.70830870        46235289.475485772        1128513503.8757472     
   682722594.83032238        29669053.798281163        1137593692.0100946     
   559037337.92233551        5293371.3543972671        1152585620.4927852     
   888211937.32112265        46093212.196605176        1219437723.3191321     
   786614887.05481768        44319866.305521846        1216804722.0025146     
   682714709.71486509        34869430.168955445        1220034984.7035854     
   576511405.30127132        17741903.786915779        1229128511.4223411     
   468004973.81403202       -7062712.8406122327        1244085302.1587837     
   744830151.51997733        38685295.339006901        1308708583.6285081     
   658154302.00344384        36044394.560087383        1306232198.3400476     
   569215032.36963665        25858760.056915551        1309570600.7386124     
   478012342.61853814        8128391.8294455707        1318723790.8242009     
   384546232.75016218       -17146710.122288287        1333691768.5968208     
   609576003.97080934        33715669.957006782        1395900929.5802209     
   537682851.40216780        30165663.149690509        1393627485.1023376     
   463565985.67260695        19203279.139315680        1397120351.9808230     
   387225406.78212416        828517.92586450279        1406379530.2156715     
   308661114.73072875       -24958620.490628451        1421405019.8068871     
   482449494.67361712        31184336.050592780        1481014761.1742802     
   425200535.25097394        26683672.074301675        1478990582.2893932     
   365767569.62378681        14902987.416191995        1482684238.4302216     
   304150597.79203290       -4157717.9238030761        1492095729.5967529     
   240349619.75572529       -30498443.945646301        1507225055.7889931     
   559037337.92233551        5293371.3543972671        1152585620.4927852     
   462320284.98851120       -32730897.534456640        1161995212.1317475     
   353612628.08215410       -110723846.33175896        1178937417.7012932     
   232914367.20324084       -228685475.03757909        1203412237.2014289     
   100225502.35178795       -386615783.65186471        1235419670.6321354     
   468004973.81403202       -7062712.8406122327        1244085302.1587837     
   390402562.32542819       -41475265.316881374        1242635860.0005896     
   302655492.07640254       -109703346.99455938        1247523901.2359855     
   204763763.06695819       -211746957.87363029        1258749425.8649995     
   96727375.297090963       -347606097.95411372        1276312433.8876071     
   384546232.75016218       -17146710.122288287        1333691768.5968208     
   322643804.02969676       -48971943.789108947        1323536895.3889272     
   252442661.76093322       -108459555.95025681        1318524375.0376625     
   173942805.94387019       -195609546.60573679        1318654207.5430243     
   87144236.578512684       -310421915.75553036        1323926392.9050121     
   308661114.73072875       -24958620.490628451        1421405019.8068871     
   259044010.10131842       -55220932.951139808        1404698318.2967839     
   202974137.13574150       -106992473.19887012        1391938839.1063280     
   140451495.83398056       -180273241.23388359        1383126582.2355275     
   71476086.196050629       -275063237.05612391        1378261547.6843719     
   240349619.75572529       -30498443.945646301        1507225055.7889931     
   199603180.54030293       -60222232.802931756        1486120128.7241495     
   154249918.20082247       -105302098.74041662        1467767293.4419773     
   104289832.73729698       -165738041.75804734        1452166549.9424837     
   49722924.149716005       -241530061.85586587        1439317898.2256653     
   100225502.35178795       -386615783.65186471        1235419670.6321354     
   85350038.614195019       -546480283.72175002        1196800406.8737035     
   57886138.108652949       -748306239.68479359        1154829712.4914927     
   17833800.835164249       -992093651.54100358        1109507587.4854803     
  -34806973.206287146       -1277842519.2903950        1060834031.8556978     
   96727375.297090963       -347606097.95411372        1276312433.8876071     
   79792130.261656076       -488784128.66410315        1221983557.3627551     
   51474576.876847237       -667903187.20533872        1165109402.1495316     
   11774715.142660499       -884963273.57783580        1105689968.2479343     
  -39307454.940884650       -1139964387.7815301        1043725255.6579577     
   87144236.578512684       -310421915.75553036        1323926392.9050121     
   70452501.489266932       -432222489.73244458        1255295053.4354208     
   43584586.469231337       -587943663.47865951        1184924587.2128625     
   6540491.5184013247       -777585436.99418104        1112814994.2373457     
  -40679783.363210976       -1001147810.2789974        1038966274.5088713     
   71476086.196050629       -275063237.05612391        1378261547.6843719     
   57331152.297042280       -376795366.92672008        1296734895.0917099     
   34216166.885811448       -508427668.50471860        1214275267.6814988     
   2131129.9623793662       -669960141.79005539        1130882665.4537330     
  -38923958.473266840       -861392786.78277683        1046557088.4084343     
   49722924.149716005       -241530061.85586587        1439317898.2256653     
   40428082.684967846       -322502760.24697709        1346303082.3316133     
   23369318.126594096       -429355202.28350681        1253161443.5554240     
  -1453369.5254112482       -562087387.96548104        1159892981.8971043     
  -34039980.271043450       -720699317.29287243        1066497697.3566549     
   1576629362.0267642        32167241.495136917        1459846111.9405398     
   1499929335.3838503        18291692.498836935        1454039322.3816314     
   1423849165.6373208        6482333.1571434736        1455679854.5148094     
   1348388852.7871780       -3260836.5299293399        1464767708.3400738     
   1273548396.8334167       -10937816.562388480        1481302883.8574255     
   1165059297.6510715        18901622.403168917        1454582778.3080969     
   1108546937.8460269        8798754.6175952554        1453353585.3003225     
   1052499471.1112188        245530.39948058128        1459335426.3501978     
   996916897.44664824       -6758050.2511789799        1472528301.4577134     
   941799216.85231507       -12211987.334381044        1492932210.6228733     
   765097717.71679378        9118548.6436253190        1448531525.3022006     
   728097917.22263908        2585829.8106867373        1451699137.7150588     
   691408045.97257423       -2913791.5419538617        1461841496.5511215     
   655028103.96660161       -7380315.4142872989        1478958601.8103859     
   618958091.20471835       -10813741.806322128        1503050453.4928520     
   376744622.22392833        2818020.2165046483        1441692352.9228554     
   358582273.51368904       -347081.92188838124        1449075979.6258378     
   340574890.22139001       -2995632.6671441197        1463198065.1175857     
   322722472.34703630       -5127632.0192510188        1484058609.3980920     
   305025019.89062667       -6743079.9782117009        1511657612.4673574     
   11.172477595092973        37.121810021516438        1434065261.1700506     
   6.7191736606865273        19.419861918191039        1445484111.0326598     
   3.8576639135837230        7.0238972147686773        1463405132.0495865     
   2.5879550105476148       -6.6066062876811937E-002   1487828324.2208323     
   2.9100399745585079       -1.8500497836989629        1518753687.5463924     
   1273548396.8334167       -10937816.562388480        1481302883.8574255     
   1241047172.2209589       -4994954.4503584504        1464024046.4491088     
   1208531413.3992167        899460.29738670588        1450904857.1662557     
   1176001120.3681908        6745427.6808539033        1441945316.0088665     
   1143456293.1278756        12542947.700028300        1437145422.9769411     
   941799216.85231507       -12211987.334381044        1492932210.6228733     
   919272801.93840361       -7199989.5491253138        1478540579.7931168     
   896735486.37030077       -2224327.2778424621        1467877046.2198787     
   874187270.14800215        2714999.4794573188        1460941609.9031572     
   851628153.27151108        7617990.7227780819        1457734270.8429604     
   618958091.20471835       -10813741.806322128        1503050453.4928520     
   605173483.50665402       -7102509.0926512480        1491550268.3892603     
   591381608.70949173       -3415500.0426395535        1483346629.6732416     
   577582466.81322336        247285.34368371964        1478439537.3448014     
   563776057.81785655        3885847.0663475990        1476828991.4039309     
   305025019.89062667       -6743079.9782117009        1511657612.4673574     
   298749216.92571241       -4702513.0809276849        1503053112.2375400     
   292469780.41678983       -2674057.9970062375        1497313607.5263479     
   286186710.36385584       -657714.72645489872        1494439098.3337898     
   279900006.76691163        1346516.7307283431        1494429584.6598601     
   2.9100399745585079       -1.8500497836989629        1518753687.5463924     
   2.1955732104190089       -1.5139767644684481        1513049111.3379533     
   1.4921953782499715       -1.1409406386697261        1509777979.7791998     
  0.79988973320412970      -0.73099722246035415        1508940292.8701317     
  0.11867466716290727      -0.28408520956891697        1510536050.6107464     
   1143456293.1278756        12542947.700028300        1437145422.9769411     
   1086431354.3778396        11339728.946344256        1431161908.9607413     
   1029647297.9777797        10939451.359245360        1430953179.0964127     
   973104123.92769790        11342114.938741207        1436519233.3839576     
   916801832.22759199        12547719.684823692        1447860071.8233738     
   851628153.27151108        7617990.7227780819        1457734270.8429604     
   809558717.52880347        6925357.2881032228        1453306691.7862737     
   767669943.52722216        6834929.6571838856        1454490734.2789619     
   725961831.26677728        7346707.8300516605        1461286398.3210330     
   684434380.74746025        8460691.8066799641        1473693683.9124770     
   563776057.81785655        3885847.0663475990        1476828991.4039309     
   536195946.21820104        3563945.2913822830        1473887089.9297736     
   508736275.75083190        3643513.9573726654        1476393647.4024980     
   481397046.41575253        4124553.0643275380        1484348663.8221047     
   454178258.21295685        5007062.6122280657        1497752139.1885962     
   279900006.76691163        1346516.7307283431        1494429584.6598601     
   266343040.44603804        1255492.9561965466        1492903103.3912463     
   252846294.64861122        1365204.2598189265        1496661918.4670179     
   239409769.37462509        1675650.6415775865        1505706029.8871777     
   226033464.62408072        2186832.1014759988        1520035437.6517236     
  0.11867466716290727      -0.28408520956891697        1510536050.6107464     
  0.21231693143535307       0.28255001360588916        1510354732.1706879     
  0.22055562504546672       0.56450805568503559        1515295547.4725213     
  0.14339010747996475       0.56178539384546322        1525358496.5162482     
  -1.9178065728893065E-002  0.27438582541592399        1540543579.3018661     
   916801832.22759199        12547719.684823692        1447860071.8233738     
   866289919.81227458        16049516.078034490        1442310705.7239985     
   815905747.81294954        19977113.857884407        1441542618.3034644     
   765649316.22959518        24330513.024303168        1445555809.5617750     
   715520625.06223094        29109713.577357739        1454350279.4989290     
   684434380.74746025        8460691.8066799641        1473693683.9124770     
   646171912.13030255        10973478.729148418        1469057846.9593649     
   608005248.83257437        13805616.716381609        1469291613.3577082     
   569934390.85427332        16957105.768373907        1474394983.1074994     
   531959338.19540381        20427945.885134846        1484367956.2087448     
   454178258.21295685        5007062.6122280657        1497752139.1885962     
   428417589.60140830        6606546.9261756986        1493992573.7691023     
   402720791.21273685        8418931.9830443859        1495190936.3736713     
   377087863.04694223        10444217.782835439        1501347227.0023024     
   351518805.10402775        12682404.325560525        1512461445.6549942     
   226033464.62408072        2186832.1014759988        1520035437.6517236     
   213026952.22559434        2948720.6691253856        1517114886.1532068     
   200052374.95343560        3817059.6578658745        1519240587.3513615     
   187109732.80760533        4791849.0677018017        1526412541.2461853     
   174199025.78809884        5873088.8986170664        1538630747.8376822     
  -1.9178065728893065E-002  0.27438582541592399        1540543579.3018661     
   2.8620421051432383E-003  -4.1997106342012695E-002   1538424784.1116796     
   5.4670142039787983E-002 -0.25915270387519740        1541440566.2907751     
  0.13625645941210179      -0.37704896439493274        1549590925.8391528     
  0.24761593874224039      -0.39569927005374766        1562875862.7568040     
   715520625.06223094        29109713.577357739        1454350279.4989290     
   657750452.74613225        31287070.132515579        1452404717.3495343     
   599648540.24266589        32358626.063114673        1456200276.9122980     
   541214887.55182397        32324381.369128495        1465736958.1872132     
   482449494.67361712        31184336.050592780        1481014761.1742802     
   531959338.19540381        20427945.885134846        1484367956.2087448     
   488896328.42993337        22140349.145899445        1483145134.1671767     
   445584513.52699614        23023401.948440269        1487601689.2895737     
   402023893.48658538        23077104.292734683        1497737621.5759377     
   358214468.30871123        22301456.178819224        1513552931.0262544     
   351518805.10402775        12682404.325560525        1512461445.6549942     
   322986544.89435756        13876930.393475205        1512058121.2794702     
   294288414.59711969        14518556.169497207        1517272429.5197194     
   265424414.21231452        14607281.653627843        1528104370.3757429     
   236394543.73994485        14143106.845877551        1544553943.8475358     
   174199025.78809884        5873088.8986170664        1538630747.8376822     
   160021102.13940436        6496813.8752419353        1539143678.6864166     
   145760243.45303470        6844088.7262815461        1545212497.6027372     
   131416449.72901209        6914913.4518098459        1556837204.5866418     
   116989720.96731955        6709288.0517731979        1574017799.6381261     
  0.24761593874224039      -0.39569927005374766        1562875862.7568040     
  0.16506731878798481      -0.40882649829590345        1564401806.3880160     
   9.4760646216276667E-002 -0.38114584748412045        1571421893.5386267     
   3.6680457206415745E-002 -0.31271233313435109        1583936124.2086337     
  -9.1590654474646357E-003 -0.20347382204041845        1601944498.3980277     
   482449494.67361712        31184336.050592780        1481014761.1742802     
   425200535.25097394        26683672.074301675        1478990582.2893932     
   365767569.62378681        14902987.416191995        1482684238.4302216     
   304150597.79203290       -4157717.9238030761        1492095729.5967529     
   240349619.75572529       -30498443.945646301        1507225055.7889931     
   358214468.30871123        22301456.178819224        1513552931.0262544     
   316012650.68103075        19146428.808626473        1510058792.8751018     
   272172828.39651537        10531385.915653318        1512111012.6314259     
   226695001.45518371       -3543672.5000454932        1519709590.2952192     
   179579169.85702068       -23078746.438508630        1532854525.8664873     
   236394543.73994485        14143106.845877551        1544553943.8475358     
   208749933.28369126        12186735.694684058        1540226848.2358005     
   180013319.71834940        6590354.1798596084        1541274633.4133041     
   150184703.04391167       -2646037.6986147612        1547697299.3800540     
   119264083.26038325       -15522439.940727502        1559494846.1360371     
   116989720.96731955        6709288.0517731979        1574017799.6381261     
   103412383.05898064        5804592.7325511388        1569494748.3714938     
   89289043.589281589        3079892.2087920010        1570175100.7758718     
   74619702.558221146       -1464813.5195062608        1576058856.8512509     
   59404359.965797648       -7829524.4523424804        1587146016.5976477     
  -9.1590654474646357E-003 -0.20347382204041845        1601944498.3980277     
   6.8935699639458801E-003  -7.7788050726054492E-002   1597862493.2821777     
   9.3137494054148177E-003   2.4527312415522098E-003   1598812414.7191124     
  -1.8931513865718414E-003   3.7273034933230365E-002   1604794262.7088132     
  -2.6729168329236448E-002   2.6660175898420457E-002   1615808037.2512984     
   240349619.75572529       -30498443.945646301        1507225055.7889931     
   199603180.54030293       -60222232.802931756        1486120128.7241495     
   154249918.20082247       -105302098.74041662        1467767293.4419773     
   104289832.73729698       -165738041.75804734        1452166549.9424837     
   49722924.149716005       -241530061.85586587        1439317898.2256653     
   179579169.85702068       -23078746.438508630        1532854525.8664873     
   148358444.56158304       -45569856.851497605        1507283281.8718829     
   113682601.92380369       -79578025.072291017        1484618338.6997499     
   75551641.943705112       -125103251.10081297        1464859696.3500972     
   33965564.621276438       -182145534.93710756        1448007354.8229136     
   119264083.26038325       -15522439.940727502        1559494846.1360371     
   98009669.141493976       -30648692.732489191        1530800941.9570076     
   74451843.462001100       -53452984.059599727        1505167547.6402597     
   48590606.221911512       -83935313.922032237        1482594663.1857958     
   20425957.421212383       -122095682.31982997        1463082288.5935991     
   59404359.965797648       -7829524.4523424804        1587146016.5976477     
   48556854.280044071       -15458740.445884854        1556673108.9795380     
   36557642.815418795       -26926975.702332765        1529414920.2635217     
   23406725.571908411       -42234230.221731126        1505371450.4495795     
   9104102.5495261624       -61380504.004035689        1484542699.5377216     
  -2.6729168329236448E-002   2.6660175898420457E-002   1615808037.2512984     
  -2.2767410667379685E-002   8.3176597477717315E-003   1584899782.9394648     
  -1.5952303580654907E-002  -5.1577332148811973E-004   1557360456.5695176     
  -6.2958795686009770E-003   1.2462558457742830E-004   1533190058.1414554     
   6.2088612639510984E-003   1.0255944445351514E-002   1512388587.6552744     
   49722924.149716005       -241530061.85586587        1439317898.2256653     
   40428082.684967846       -322502760.24697709        1346303082.3316133     
   23369318.126594096       -429355202.28350681        1253161443.5554240     
  -1453369.5254112482       -562087387.96548104        1159892981.8971043     
  -34039980.271043450       -720699317.29287243        1066497697.3566549     
   33965564.621276438       -182145534.93710756        1448007354.8229136     
   29812704.830549359       -242029577.33564609        1347514282.4329774     
   19836902.719434217       -321323427.46881288        1246236790.5222824     
   4038158.2879355848       -420027085.33658582        1144174879.0908327     
  -17583528.463946730       -538140550.93898070        1041328548.1386383     
   20425957.421212383       -122095682.31982997        1463082288.5935991     
   19536231.765586577       -161454722.98749834        1357375437.2765594     
   14764544.562822998       -213753635.47895932        1250226569.8001559     
   6110895.8129211366       -278992419.79421180        1141635686.1643765     
  -6424714.4841217399       -357171075.93327039        1031602786.3692303     
   9104102.5495261624       -61380504.004035689        1484542699.5377216     
   9598663.4900887795       -80778197.202507764        1375886546.8623726     
   8152243.6567649916       -106645826.31393731        1265130781.3890197     
   4764843.0495470464       -138983391.33834597        1152275403.1176975     
  -563538.33156686276       -177790892.27574122        1037320412.0483682     
   6.2088612639510984E-003   1.0255944445351514E-002   1512388587.6552744     
   4.0629587606399037E-003   1.9351050066370026E-002   1403047611.1903939     
   1.2591118623918518E-003   2.6253701593656080E-002   1290949425.2889094     
  -2.1866208477582996E-003   3.1019509305496691E-002   1176094029.9508066     
  -6.2841673257038339E-003   3.3606359453505860E-002   1058481425.1760969     
   11.172477595092973        37.121810021516438        1434065261.1700506     
   6.7191736606865273        19.419861918191039        1445484111.0326598     
   3.8576639135837230        7.0238972147686773        1463405132.0495865     
   2.5879550105476148       -6.6066062876811937E-002   1487828324.2208323     
   2.9100399745585079       -1.8500497836989629        1518753687.5463924     
  -376744606.63607073       -2817968.2048358470        1441692342.6429327     
  -358582263.71483362        347109.29596824944        1449075972.3915365     
  -340574883.98463511        2995642.8266382217        1463198060.8425293     
  -322722467.44547415        5127632.3871854097        1484058607.9959104     
  -305025014.09735572        6743077.9775902331        1511657613.8516762     
  -765097709.07837129       -9118518.9216124117        1448531509.0815938     
  -728097911.50239146       -2585814.0339914262        1451699126.4695535     
  -691408041.90028906        2913797.6073740125        1461841490.1079702     
  -655028100.27206171        7380316.0024892390        1478958599.9968405     
  -618958086.61771011        10813741.151349276        1503050456.1361709     
  -1165059296.1544204       -18901615.028510988        1454582760.4860313     
  -1108546936.6435046       -8798750.5700206161        1453353573.2667036     
  -1052499469.8892995       -245528.63389950991        1459335419.8459020     
  -996916895.89180827        6758050.7798404694        1472528300.2236257     
  -941799214.65102744        12211987.671214461        1492932214.3998740     
  -1576629367.8642182       -32167256.525534272        1459846096.8562522     
  -1499929339.1381652       -18291700.312105715        1454039312.7829940     
  -1423849167.9516642       -6482335.8971784115        1455679850.0563323     
  -1348388854.3047097        3260836.7192578912        1464767708.6762631     
  -1273548398.1973038        10937817.537198663        1481302888.6427886     
   2.9100399745585079       -1.8500497836989629        1518753687.5463924     
   2.1955732104190089       -1.5139767644684481        1513049111.3379533     
   1.4921953782499715       -1.1409406386697261        1509777979.7791998     
  0.79988973320412970      -0.73099722246035415        1508940292.8701317     
  0.11867466716290727      -0.28408520956891697        1510536050.6107464     
  -305025014.09735572        6743077.9775902331        1511657613.8516762     
  -298749212.53341544        4702511.4226935208        1503053113.2789617     
  -292469777.41143423        2674056.7279334366        1497313608.3224843     
  -286186708.73141980        657713.89328370988        1494439098.9822412     
  -279900006.49336147       -1346517.0812189281        1494429585.2582369     
  -618958086.61771011        10813741.151349276        1503050456.1361709     
  -605173480.01379478        7102508.5339416564        1491550270.3372982     
  -591381606.30488133        3415499.5998589396        1483346631.1212122     
  -577582465.49097276       -247285.65090504289        1478439538.4879131     
  -563776057.57206702       -3885847.2183451951        1476828992.4374003     
  -941799214.65102744        12211987.671214461        1492932214.3998740     
  -919272800.24556136        7199989.8197776675        1478540582.5129595     
  -896735485.18814492        2224327.4748411775        1467877048.1753855     
  -874187269.47877073       -2714999.3635689616        1460941611.3871465     
  -851628153.11744606       -7617990.6954776049        1457734272.1482437     
  -1273548398.1973038        10937817.537198663        1481302888.6427886     
  -1241047173.2287209        4994955.2801842093        1464024049.8059518     
  -1208531414.0612240       -899459.64711880684        1450904859.4850030     
  -1176001120.6948152       -6745427.2447129488        1441945317.6799397     
  -1143456293.1294971       -12542947.512611628        1437145424.3907664     
  0.11867466716290727      -0.28408520956891697        1510536050.6107464     
  0.21231693143535307       0.28255001360588916        1510354732.1706879     
  0.22055562504546672       0.56450805568503559        1515295547.4725213     
  0.14339010747996475       0.56178539384546322        1525358496.5162482     
  -1.9178065728893065E-002  0.27438582541592399        1540543579.3018661     
  -279900006.49336147       -1346517.0812189281        1494429585.2582369     
  -266343040.08449948       -1255492.5472969562        1492903103.8038406     
  -252846294.31686059       -1365203.4841187745        1496661918.7037368     
  -239409769.19043642       -1675649.8916560411        1505706029.9579155     
  -226033464.70523465       -2186831.7699351758        1520035437.5663817     
  -563776057.57206702       -3885847.2183451951        1476828992.4374003     
  -536195945.95543653       -3563945.0493884981        1473887090.6535559     
  -508736275.53584224       -3643513.5372186005        1476393647.8363893     
  -481397046.31327856       -4124552.6818188131        1484348663.9859073     
  -454178258.28775066       -5007062.4832023382        1497752139.1021023     
  -851628153.11744606       -7617990.6954776049        1457734272.1482437     
  -809558717.40049303       -6925357.2237183154        1453306692.7198279     
  -767669943.43639112       -6834929.5947985053        1454490734.8704875     
  -725961831.22513378       -7346707.8086938262        1461286398.6002221     
  -684434380.76672208       -8460691.8654086590        1473693683.9090323     
  -1143456293.1294971       -12542947.512611628        1437145424.3907664     
  -1086431354.4196622       -11339729.070268631        1431161910.0026617     
  -1029647298.0184972       -10939451.656823993        1430953179.8060303     
  -973104123.92599070       -11342115.272239804        1436519233.8008671     
  -916801832.14214993       -12547719.916545212        1447860071.9871709     
  -1.9178065728893065E-002  0.27438582541592399        1540543579.3018661     
   2.8620421051432383E-003  -4.1997106342012695E-002   1538424784.1116796     
   5.4670142039787983E-002 -0.25915270387519740        1541440566.2907751     
  0.13625645941210179      -0.37704896439493274        1549590925.8391528     
  0.24761593874224039      -0.39569927005374766        1562875862.7568040     
  -226033464.70523465       -2186831.7699351758        1520035437.5663817     
  -213026952.22036400       -2948720.7645536959        1517114886.1371529     
  -200052374.81926584       -3817060.0384162664        1519240587.3896465     
  -187109732.50194797       -4791849.5915446058        1526412541.3238621     
  -174199025.26840335       -5873089.4239168391        1538630747.9397993     
  -454178258.28775066       -5007062.4832023382        1497752139.1021023     
  -428417589.59021401       -6606547.0310958177        1493992573.8013628     
  -402720791.08999813       -8418932.2367249578        1495190936.4947815     
  -377087862.78711003       -10444218.100110769        1501347227.1823611     
  -351518804.68154460       -12682404.621244341        1512461445.8641090     
  -684434380.76672208       -8460691.8654086590        1473693683.9090323     
  -646171912.10668910       -10973478.841622919        1469057847.1043012     
  -608005248.75752652       -13805616.854076028        1469291613.6061747     
  -569934390.71924043       -16957105.902782470        1474394983.4146512     
  -531959337.99182570       -20427945.987727135        1484367956.5297284     
  -916801832.14214993       -12547719.916545212        1447860071.9871709     
  -866289919.76978970       -16049516.196141034        1442310706.0459795     
  -815905747.82184482       -19977113.890450716        1441542618.7238293     
  -765649316.29832840       -24330512.999524802        1445555810.0207264     
  -715520625.19923532       -29109713.523341805        1454350279.9366636     
  0.24761593874224039      -0.39569927005374766        1562875862.7568040     
  0.16506731878798481      -0.40882649829590345        1564401806.3880160     
   9.4760646216276667E-002 -0.38114584748412045        1571421893.5386267     
   3.6680457206415745E-002 -0.31271233313435109        1583936124.2086337     
  -9.1590654474646357E-003 -0.20347382204041845        1601944498.3980277     
  -174199025.26840335       -5873089.4239168391        1538630747.9397993     
  -160021101.77219105       -6496814.4221581593        1539143678.7742479     
  -145760243.22166708       -6844089.2393594906        1545212497.6849189     
  -131416449.61682712       -6914913.8755062073        1556837204.6718051     
  -116989720.95766820       -6709288.3305907771        1574017799.7349083     
  -351518804.68154460       -12682404.621244341        1512461445.8641090     
  -322986544.58708757       -13876930.698784605        1512058121.4508905     
  -294288414.39623189       -14518556.455000117        1517272429.6707144     
  -265424414.10897496       -14607281.889875323        1528104370.5235798     
  -236394543.72532195       -14143107.003434464        1544553944.0094850     
  -531959337.99182570       -20427945.987727135        1484367956.5297284     
  -488896328.27962124       -22140349.238700539        1483145134.4179425     
  -445584513.42893714       -23023402.028076604        1487601689.4960165     
  -402023893.43977088       -23077104.355843917        1497737621.7639532     
  -358214468.31213057       -22301456.222032949        1513552931.2217622     
  -715520625.19923532       -29109713.523341805        1454350279.9366636     
  -657750452.84979093       -31287070.041907191        1452404717.6753981     
  -599648540.31978691       -32358625.958604813        1456200277.1608198     
  -541214887.60921395       -32324381.273408800        1465736958.3929279     
  -482449494.71808922       -31184335.986369774        1481014761.3717222     
  -9.1590654474646357E-003 -0.20347382204041845        1601944498.3980277     
   6.8935699639458801E-003  -7.7788050726054492E-002   1597862493.2821777     
   9.3137494054148177E-003   2.4527312415522098E-003   1598812414.7191124     
  -1.8931513865718414E-003   3.7273034933230365E-002   1604794262.7088132     
  -2.6729168329236448E-002   2.6660175898420457E-002   1615808037.2512984     
  -116989720.95766820       -6709288.3305907771        1574017799.7349083     
  -103412383.03646554       -5804592.8358310945        1569494748.4344373     
  -89289043.573154613       -3079892.2007098421        1570175100.8076713     
  -74619702.567748323        1464813.5747291446        1576058856.8546057     
  -59404360.020234331        7829524.4905295260        1587146016.5752540     
  -236394543.72532195       -14143107.003434464        1544553944.0094850     
  -208749933.26773658       -12186735.750221066        1540226848.3394074     
  -180013319.71231723       -6590354.1708931699        1541274633.4639606     
  -150184703.05905879        2646037.7345621958        1547697299.3831594     
  -119264083.30796468        15522439.966137990        1559494846.0969844     
  -358214468.31213057       -22301456.222032949        1513552931.2217622     
  -316012650.68693441       -19146428.821005717        1510058792.9970937     
  -272172828.40816772       -10531385.908079952        1512111012.6879995     
  -226695001.47582683        3543672.5167611986        1519709590.2944708     
  -179579169.88992110        23078746.453485280        1532854525.8165090     
  -482449494.71808922       -31184335.986369774        1481014761.3717222     
  -425200535.29405159       -26683672.048162863        1478990582.4074988     
  -365767569.66070729       -14902987.412270144        1482684238.4797704     
  -304150597.81805944        4157717.9213033617        1492095729.5885403     
  -240349619.76610929        30498443.952549741        1507225055.7338142     
  -2.6729168329236448E-002   2.6660175898420457E-002   1615808037.2512984     
  -2.2767410667379685E-002   8.3176597477717315E-003   1584899782.9394648     
  -1.5952303580654907E-002  -5.1577332148811973E-004   1557360456.5695176     
  -6.2958795686009770E-003   1.2462558457742830E-004   1533190058.1414554     
   6.2088612639510984E-003   1.0255944445351514E-002   1512388587.6552744     
  -59404360.020234331        7829524.4905295260        1587146016.5752540     
  -48556854.323893249        15458740.460618630        1556673108.9650779     
  -36557642.844621703        26926975.707143951        1529414920.2559769     
  -23406725.582407378        42234230.230145417        1505371450.4479508     
  -9104102.5372579992        61380504.029595301        1484542699.5410028     
  -119264083.30796468        15522439.966137990        1559494846.0969844     
  -98009669.178703845        30648692.746800855        1530800941.9319034     
  -74451843.486416325        53452984.070886090        1505167547.6270878     
  -48590606.231110789        83935313.938361973        1482594663.1825440     
  -20425957.412778676        122095682.34926522        1463082288.5982647     
  -179579169.88992110        23078746.453485280        1532854525.8165090     
  -148358444.58719540        45569856.866872117        1507283281.8399558     
  -113682601.94135201        79578025.090652615        1484618338.6828539     
  -75551641.952399954        125103251.12479618        1464859696.3452199     
  -33965564.620326877        182145534.96934021        1448007354.8270404     
  -240349619.76610929        30498443.952549741        1507225055.7338142     
  -199603180.54936072        60222232.820864573        1486120128.6892209     
  -154249918.20940039        105302098.76654363        1467767293.4232819     
  -104289832.74625817        165738041.78949916        1452166549.9359915     
  -49722924.159907117        241530061.88981891        1439317898.2273564     
   6.2088612639510984E-003   1.0255944445351514E-002   1512388587.6552744     
   4.0629587606399037E-003   1.9351050066370026E-002   1403047611.1903939     
   1.2591118623918518E-003   2.6253701593656080E-002   1290949425.2889094     
  -2.1866208477582996E-003   3.1019509305496691E-002   1176094029.9508066     
  -6.2841673257038339E-003   3.3606359453505860E-002   1058481425.1760969     
  -9104102.5372579992        61380504.029595301        1484542699.5410028     
  -9598663.4827317968        80778197.241718590        1375886546.8634043     
  -8152243.6551407427        106645826.36405736        1265130781.3883922     
  -4764843.0545126870        138983391.39651585        1152275403.1159608     
   563538.31916785240        177790892.33915448        1037320412.0461148     
  -20425957.412778676        122095682.34926522        1463082288.5982647     
  -19536231.761003710        161454723.02667630        1357375437.2772582     
  -14764544.562489673        213753635.52654803        1250226569.7980309     
  -6110895.8172306269        278992419.84890753        1141635686.1605716     
   6424714.4747748077        357171075.99374908        1031602786.3648927     
  -33965564.620326877        182145534.96934021        1448007354.8270404     
  -29812704.830772370        242029577.37415501        1347514282.4319482     
  -19836902.720780089        321323427.51376373        1246236790.5178192     
  -4038158.2903412879        420027085.38819492        1144174879.0846450     
   17583528.460526645        538140550.99738705        1041328548.1324528     
  -49722924.159907117        241530061.88981891        1439317898.2273564     
  -40428082.692024186        322502760.28420877        1346303082.3274832     
  -23369318.130010158        429355202.32570082        1253161443.5477507     
   1453369.5261444151        562087388.01432884        1159892981.8881896     
   34039980.276433468        720699317.35007167        1066497697.3487843     
  -1576629367.8642182       -32167256.525534272        1459846096.8562522     
  -1499929339.1381652       -18291700.312105715        1454039312.7829940     
  -1423849167.9516642       -6482335.8971784115        1455679850.0563323     
  -1348388854.3047097        3260836.7192578912        1464767708.6762631     
  -1273548398.1973038        10937817.537198663        1481302888.6427886     
  -1986921779.2808502       -42919908.643898726        1363971186.6576738     
  -1890185978.4282835       -24956525.742238879        1361547135.6257484     
  -1794322098.5112910       -9899545.9591681957        1366144551.0318847     
  -1699330139.5298812        2251030.7053011656        1377763432.8760777     
  -1605210101.4840500        11495204.251175761        1396403781.1583252     
  -2384454577.5372200       -49844676.814189553        1267503734.6132908     
  -2268899732.8682384       -28158485.717318535        1268168342.6606698     
  -2154468872.5308661       -10218909.059145927        1275428562.2375705     
  -2041161996.5251009        3974053.1603332758        1289284393.3439894     
  -1928979104.8509443        14420400.941120148        1309735835.9799292     
  -2769227762.6333122       -52941561.036396265        1170443740.7231200     
  -2636070602.4580297       -27897580.237354755        1173902933.8877614     
  -2504289490.0103765       -7440425.1971009970        1183531883.6733894     
  -2373884425.2903657        8429904.0843534470        1199330590.0800006     
  -2244855408.2979946        19713407.607013464        1221299053.1075916     
  -3141241334.5691438       -52210561.310521483        1072791204.9871480     
  -2991698587.1976557       -24173809.302334905        1078750909.3070230     
  -2843783950.9498334       -1564094.3730434179        1090454515.3393426     
  -2697497425.8256831        15618583.477352977        1107902023.0841091     
  -2552839011.8251972        27374224.248861194        1131093432.5413203     
  -1273548398.1973038        10937817.537198663        1481302888.6427886     
  -1241047173.2287209        4994955.2801842093        1464024049.8059518     
  -1208531414.0612240       -899459.64711880684        1450904859.4850030     
  -1176001120.6948152       -6745427.2447129488        1441945317.6799397     
  -1143456293.1294971       -12542947.512611628        1437145424.3907664     
  -1605210101.4840500        11495204.251175761        1396403781.1583252     
  -1562828505.8987832        4084413.5210685134        1381778421.3063066     
  -1520322306.8754032       -2911032.4153231978        1370932450.7527165     
  -1477691504.4139090       -9491133.5580014586        1363865869.4975545     
  -1434936098.5142970       -15655889.906955481        1360578677.5408230     
  -1928979104.8509443        14420400.941120148        1309735835.9799292     
  -1877803593.5560224        5215745.2657990456        1297892369.2251298     
  -1826393409.5837817       -3206668.1517937183        1289448032.5513020     
  -1774748552.9342179       -10846839.311647773        1284402825.9584439     
  -1722869023.6073368       -17704768.213771343        1282756749.4465613     
  -2244855408.2979946        19713407.607013464        1221299053.1075916     
  -2185972436.2004375        8388950.5143704414        1212365893.5624197     
  -2126744722.1863563       -1786366.8565216064        1206451604.8807621     
  -2067172266.2557468       -10812544.505653501        1203556187.0626173     
  -2007255068.4086194       -18689582.433061719        1203679640.1079891     
  -2552839011.8251972        27374224.248861194        1131093432.5413203     
  -2487335033.8320251        13604029.266805172        1125198994.3181803     
  -2421376244.6831279        1349871.4704923630        1121943167.7410951     
  -2354962644.3784981       -9388249.1400399208        1121325952.8100662     
  -2288094232.9181409       -18610332.564820290        1123347349.5250955     
  -1143456293.1294971       -12542947.512611628        1437145424.3907664     
  -1086431354.4196622       -11339729.070268631        1431161910.0026617     
  -1029647298.0184972       -10939451.656823993        1430953179.8060303     
  -973104123.92599070       -11342115.272239804        1436519233.8008671     
  -916801832.14214993       -12547719.916545212        1447860071.9871709     
  -1434936098.5142970       -15655889.906955481        1360578677.5408230     
  -1363074896.6780949       -13363007.856495798        1355323688.4530160     
  -1291519023.8063154       -12087889.020780146        1355454964.4383068     
  -1220268479.8989546       -11830533.399790049        1360972505.4966905     
  -1149323264.9560158       -12590940.993541241        1371876311.6281674     
  -1722869023.6073368       -17704768.213771343        1282756749.4465613     
  -1637281613.2686911       -14655238.942365408        1278155097.8940032     
  -1552063978.5502248       -12838295.071559370        1278551192.2961652     
  -1467216119.4519343       -12253936.601341605        1283945032.6530492     
  -1382738035.9738235       -12902163.531716585        1294336618.9646525     
  -2007255068.4086194       -18689582.433061719        1203679640.1079891     
  -1909051504.1914566       -15216422.327892423        1199656138.3256245     
  -1811282162.2502253       -13190669.809164762        1200241863.3796082     
  -1713947042.5849366       -12612324.876904845        1205436815.2699394     
  -1617046145.1955738       -13481387.531076312        1215240993.9966171     
  -2288094232.9181409       -18610332.564820290        1123347349.5250955     
  -2178384569.4463844       -15046558.013059855        1119826809.7478793     
  -2069173574.9063203       -13145013.233605146        1120526977.6886339     
  -1960461249.2979488       -12905698.226462960        1125447853.3473635     
  -1852247592.6212690       -14328612.991619587        1134589436.7240624     
  -916801832.14214993       -12547719.916545212        1447860071.9871709     
  -866289919.76978970       -16049516.196141034        1442310706.0459795     
  -815905747.82184482       -19977113.890450716        1441542618.7238293     
  -765649316.29832840       -24330512.999524802        1445555810.0207264     
  -715520625.19923532       -29109713.523341805        1454350279.9366636     
  -1149323264.9560158       -12590940.993541241        1371876311.6281674     
  -1086675553.0679629       -16466976.757734478        1365806474.3604362     
  -1024135508.2071204       -20701902.612625241        1364376951.8283296     
  -961703130.37348914       -25295718.558216333        1367587744.0318527     
  -899378419.56706834       -30248424.594519883        1375438850.9710011     
  -1382738035.9738235       -12902163.531716585        1294336618.9646525     
  -1308357278.5226965       -17273264.966291070        1287769729.3337924     
  -1234064114.7015693       -21936345.167531729        1285702190.5551417     
  -1159858544.5104406       -26891404.135434926        1288134002.6287029     
  -1085740567.9493139       -32138441.870011687        1295065165.5544727     
  -1617046145.1955738       -13481387.531076312        1215240993.9966171     
  -1531335096.1339889       -18468380.821811080        1208200470.9660399     
  -1445691567.3051989       -23680441.555199206        1205518334.9042602     
  -1360115558.7091959       -29117569.731203139        1207194585.8112748     
  -1274607070.3459780       -34779765.349834144        1213229223.6870818     
  -1852247592.6212690       -14328612.991619587        1134589436.7240624     
  -1755609005.9018459       -20052324.324313760        1127098699.2571883     
  -1659017866.0180089       -25934191.775620639        1123825384.8756905     
  -1562474172.9697437       -31974215.345504045        1124769493.5795660     
  -1465977926.7570567       -38172395.033980906        1129931025.3688252     
  -715520625.19923532       -29109713.523341805        1454350279.9366636     
  -657750452.84979093       -31287070.041907191        1452404717.6753981     
  -599648540.31978691       -32358625.958604813        1456200277.1608198     
  -541214887.60921395       -32324381.273408800        1465736958.3929279     
  -482449494.71808922       -31184335.986369774        1481014761.3717222     
  -899378419.56706834       -30248424.594519883        1375438850.9710011     
  -827227343.05860651       -32113660.463066280        1372680744.0911822     
  -754876581.63911021       -33313279.961489499        1375171721.5908396     
  -682326135.30857134       -33847283.089773983        1382911783.4699712     
  -609576004.06699502       -33715669.847934484        1395900929.7285752     
  -1085740567.9493139       -32138441.870011687        1295065165.5544727     
  -1000614408.3310179       -34113303.403297305        1291340449.5749927     
  -915420619.07120740       -35862732.798205584        1292372780.6077769     
  -830159200.16987491       -37386730.054702848        1298162158.6528258     
  -744830151.62702930       -38685295.172827780        1308708583.7101312     
  -1274607070.3459780       -34779765.349834144        1213229223.6870818     
  -1177911648.6670282       -37285998.862628102        1208383834.1268334     
  -1081280652.6160789       -40006984.468747675        1207803454.2116346     
  -984714082.19313681       -42942722.168232620        1211488083.9414799     
  -888211937.39820194       -46093211.961067557        1219437723.3163805     
  -1465977926.7570567       -38172395.033980906        1129931025.3688252     
  -1359119064.0666246       -41631746.840997994        1123810897.7466953     
  -1252456682.2737274       -45746034.973136127        1121463742.4024019     
  -1145990781.3783484       -50515259.430337250        1122889559.3359489     
  -1039721361.3805041       -55939420.212646246        1128088348.5473301     
  -482449494.71808922       -31184335.986369774        1481014761.3717222     
  -425200535.29405159       -26683672.048162863        1478990582.4074988     
  -365767569.66070729       -14902987.412270144        1482684238.4797704     
  -304150597.81805944        4157717.9213033617        1492095729.5885403     
  -240349619.76610929        30498443.952549741        1507225055.7338142     
  -609576004.06699502       -33715669.847934484        1395900929.7285752     
  -537682851.48536026       -30165663.114011765        1393627485.1916409     
  -463565985.73340499       -19203279.145680845        1397120352.0173466     
  -387225406.81112576       -828517.94294233620        1406379530.2056856     
  -308661114.71852416        24958620.494208232        1421405019.7566688     
  -744830151.62702930       -38685295.172827780        1308708583.7101312     
  -658154302.09882939       -36044394.506513745        1306232198.3883333     
  -569215032.43928587       -25858760.069051474        1309570600.7553270     
  -478012342.64840245       -8128391.8604573905        1318723790.8110967     
  -384546232.72617614        17146710.119278938        1333691768.5556481     
  -888211937.39820194       -46093211.961067557        1219437723.3163805     
  -786614887.13445508       -44319866.225660264        1216804721.9975855     
  -682714709.77835071       -34869430.182381481        1220034984.6937160     
  -576511405.32988095       -17741903.831223249        1229128511.4047682     
  -468004973.78905368        7062712.8277902901        1244085302.1307507     
  -1039721361.3805041       -55939420.212646246        1128088348.5473301     
  -923064606.59223819       -54992078.271450639        1125345056.0193923     
  -804065017.75059092       -46235289.485647410        1128513503.8325164     
  -682722594.85557067       -29669053.855268240        1137593691.9867070     
  -559037337.90716553       -5293371.3802753091        1152585620.4819658     
  -240349619.76610929        30498443.952549741        1507225055.7338142     
  -199603180.54936072        60222232.820864573        1486120128.6892209     
  -154249918.20940039        105302098.76654363        1467767293.4232819     
  -104289832.74625817        165738041.78949916        1452166549.9359915     
  -49722924.159907117        241530061.88981891        1439317898.2273564     
  -308661114.71852416        24958620.494208232        1421405019.7566688     
  -259044010.09423044        55220932.972438350        1404698318.2620606     
  -202974137.13589808        106992473.23079339        1391938839.0846155     
  -140451495.84353265        180273241.26925969        1383126582.2243433     
  -71476086.217141449        275063237.08781457        1378261547.6812425     
  -384546232.72617614        17146710.119278938        1333691768.5556481     
  -322643804.01284355        48971943.811910748        1323536895.3569803     
  -252442661.75464708        108459555.98742193        1318524375.0140040     
  -173942805.95159984        195609546.64576927        1318654207.5267172     
  -87144236.603684127        310421915.78701109        1323926392.8951168     
  -468004973.78905368        7062712.8277902901        1244085302.1307507     
  -390402562.30521601        41475265.339224488        1242635859.9739950     
  -302655492.06567073        109703347.03634764        1247523901.2114532     
  -204763763.07045007        211746957.91905710        1258749425.8431165     
  -96727375.319538057        347606097.98740417        1276312433.8689866     
  -559037337.90716553       -5293371.3802753091        1152585620.4819658     
  -462320284.97132570        32730897.554460406        1161995212.1130958     
  -353612628.06896693        110723846.37758161        1178937417.6769524     
  -232914367.20008835        228685475.08910608        1203412237.1735384     
  -100225502.36468714        386615783.68904209        1235419670.6028509     
  -49722924.159907117        241530061.88981891        1439317898.2273564     
  -40428082.692024186        322502760.28420877        1346303082.3274832     
  -23369318.130010158        429355202.32570082        1253161443.5477507     
   1453369.5261444151        562087388.01432884        1159892981.8881896     
   34039980.276433468        720699317.35007167        1066497697.3487843     
  -71476086.217141449        275063237.08781457        1378261547.6812425     
  -57331152.311165288        376795366.95861423        1296734895.0855777     
  -34216166.891943425        508427668.54023534        1214275267.6737413     
  -2131129.9594667852        669960141.83269811        1130882665.4457221     
   38923958.486260533        861392786.83600211        1046557088.4015238     
  -87144236.603684127        310421915.78701109        1323926392.8951168     
  -70452501.506290048        432222489.76020133        1255295053.4259732     
  -43584586.476521522        587943663.50796819        1184924587.2043171     
  -6540491.5143885016        777585437.03028393        1112814994.2301428     
   40679783.380109012        1001147810.3271523        1038966274.5034757     
  -96727375.319538057        347606097.98740417        1276312433.8689866     
  -79792130.277382314        488784128.68901646        1221983557.3486707     
  -51474576.883746922        667903187.22889757        1165109402.1394939     
  -11774715.138615310        884963273.60709333        1105689968.2414846     
   39307454.957981646        1139964387.8235099        1043725255.6546205     
  -100225502.36468714        386615783.68904209        1235419670.6028509     
  -85350038.624451280        546480283.74503863        1196800406.8536503     
  -57886138.113605589        748306239.70306528        1154829712.4792743     
  -17833800.832165956        992093651.56306612        1109507587.4797156     
   34806973.219866753        1277842519.3250577        1060834031.8549805     
  -3141241334.5691438       -52210561.310521483        1072791204.9871480     
  -2991698587.1976557       -24173809.302334905        1078750909.3070230     
  -2843783950.9498334       -1564094.3730434179        1090454515.3393426     
  -2697497425.8256831        15618583.477352977        1107902023.0841091     
  -2552839011.8251972        27374224.248861194        1131093432.5413203     
  -3511109922.2546582       -45989890.935944319        983788064.94863021     
  -3346696481.4362497       -20764022.753409147        984343501.32337356     
  -3183434596.9239540        623324.40875911713        991242696.44306040     
  -3021324268.7177739        18172150.550535560        1004485650.3076993     
  -2860365496.8177013        31882455.671950579        1024072362.9172856     
  -3892643435.0659189       -43268698.099091291        891709976.19229460     
  -3711645423.5648718       -20339550.571491957        887417125.24237871     
  -3531322413.5523825        339591.99425888062        890067890.06991863     
  -3351674405.0284491        18768729.598145962        899662270.67490721     
  -3172701397.9930720        34947862.240178227        916200267.05734777     
  -4285841873.0029430       -44046982.799967289        796556938.71812356     
  -4086545413.5835314       -22900392.756582260        787971781.06403732     
  -3887447400.8351226       -2415291.6165294647        786930096.21990800     
  -3688547834.7577133        17408320.620178223        793431884.18573213     
  -3489846715.3513055        36570443.953554630        807477144.96151018     
  -4690705236.0657167       -48324745.038567781        698328952.52612567     
  -4471396451.4922266       -28446549.308693647        686007468.78835213     
  -4251809558.7721667       -7641326.4236109257        681829314.89303470     
  -4031944557.9055662        14090923.616631031        685794490.84017277     
  -3811801448.8924065        36750200.812057495        697902996.62977087     
  -2552839011.8251972        27374224.248861194        1131093432.5413203     
  -2487335033.8320251        13604029.266805172        1125198994.3181803     
  -2421376244.6831279        1349871.4704923630        1121943167.7410951     
  -2354962644.3784981       -9388249.1400399208        1121325952.8100662     
  -2288094232.9181409       -18610332.564820290        1123347349.5250955     
  -2860365496.8177013        31882455.671950579        1024072362.9172856     
  -2787940826.4236083        17827749.420688510        1017024320.7858509     
  -2715158960.7701416        4963694.0340026617        1012726932.9942714     
  -2642019899.8572955       -6709710.4880830050        1011180199.5425456     
  -2568523643.6850739       -17192464.145586133        1012384120.4306694     
  -3172701397.9930720        34947862.240178227        916200267.05734777     
  -3093035913.2157803        20704681.314399362        907884735.80521023     
  -3013110849.0754662        7326764.9320260286        902431901.58672178     
  -2932926205.5721259       -5185886.9069294930        899841764.40188468     
  -2852481982.7057624       -16833274.202478528        900114324.25069582     
  -3489846715.3513055        36570443.953554630        807477144.96151018     
  -3402620294.2085376        22234824.947935820        797780239.37625659     
  -3315231909.5991006        8439084.1645500660        791058073.51844990     
  -3227681561.5229883       -4816778.3965870142        787310647.38809299     
  -3139969249.9802074       -17532762.735494494        786537960.98517895     
  -3811801448.8924065        36750200.812057495        697902996.62977087     
  -3716693969.4018850        22418180.321288586        686710831.49899018     
  -3621522142.3410459        8300651.7315840721        678605448.78945327     
  -3526285967.7098894       -5602384.9570589066        673586848.50116253     
  -3430985445.5084143       -19290929.744645834        671655030.63411498     
  -2288094232.9181409       -18610332.564820290        1123347349.5250955     
  -2178384569.4463844       -15046558.013059855        1119826809.7478793     
  -2069173574.9063203       -13145013.233605146        1120526977.6886339     
  -1960461249.2979488       -12905698.226462960        1125447853.3473635     
  -1852247592.6212690       -14328612.991619587        1134589436.7240624     
  -2568523643.6850739       -17192464.145586133        1012384120.4306694     
  -2447520569.2133260       -13482568.159143329        1007212408.8289255     
  -2326913852.0971622       -11093863.357981682        1006473508.4088933     
  -2206703492.3365870       -10026349.742107630        1010167419.1705697     
  -2086889489.9315920       -10280027.311512589        1018294141.1139529     
  -2852481982.7057624       -16833274.202478528        900114324.25069582     
  -2719579487.3376389       -12795453.812452316        893410804.32988966     
  -2586971037.7489901       -9737786.0206705332        891352199.05452633     
  -2454656633.9398212       -7660270.8271577358        893938508.42460787     
  -2322636275.9101229       -6562908.2318813801        901169732.44013774     
  -3139969249.9802074       -17532762.735494494        786537960.98517895     
  -2994561323.8193202       -12985214.972958088        778421996.25076342     
  -2849345131.8617959       -9076781.2216460705        775163049.62553132     
  -2704320674.1076431       -5807461.4815576077        776761121.10948086     
  -2559487950.5568581       -3177255.7527081966        783216210.70260763     
  -3430985445.5084143       -19290929.744645834        671655030.63411498     
  -3272466078.6583686       -14051851.640684128        662245984.59155416     
  -3114036134.4355826       -9110848.9609125853        657906060.12191272     
  -2955695612.8400645       -4467921.7053672075        658635257.22518361     
  -2797444513.8717937       -123069.87398838997        664433575.90137637     
  -1852247592.6212690       -14328612.991619587        1134589436.7240624     
  -1755609005.9018459       -20052324.324313760        1127098699.2571883     
  -1659017866.0180089       -25934191.775620639        1123825384.8756905     
  -1562474172.9697437       -31974215.345504045        1124769493.5795660     
  -1465977926.7570567       -38172395.033980906        1129931025.3688252     
  -2086889489.9315920       -10280027.311512589        1018294141.1139529     
  -1979454144.7393022       -15028665.789893866        1010142367.1535074     
  -1872137627.0783358       -20173396.039348125        1005853352.1204342     
  -1764939936.9486976       -25714218.059904933        1005427096.0147316     
  -1657861074.3503869       -31651131.851550162        1008863598.8364015     
  -2322636275.9101229       -6562908.2318813801        901169732.44013774     
  -2205417498.4106874       -10640471.705632567        892273644.50774527     
  -2088388929.1383290       -15352062.602982163        886885651.34471869     
  -1971550568.0930490       -20697680.923921704        885005752.95105970     
  -1854902415.2748499       -26677326.668465972        886633949.32676196     
  -2559487950.5568581       -3177255.7527081966        783216210.70260763     
  -2433499066.9160061       -6887742.0715545416        773492531.31989658     
  -2307771772.1979914       -11470191.466516972        766922282.54854739     
  -2182306066.4028010       -16924603.937570333        763505464.38855183     
  -2057101949.5304396       -23250979.484719753        763242076.83992171     
  -2797444513.8717937       -123069.87398838997        664433575.90137637     
  -2663698850.2552624       -3770476.8876581192        653799027.58996892     
  -2530286156.2573190       -8527782.6299499273        645963245.73191023     
  -2397206431.8779435       -14394987.100807548        640926230.32720983     
  -2264459677.1171637       -21372090.300307035        638687981.37586451     
  -1465977926.7570567       -38172395.033980906        1129931025.3688252     
  -1359119064.0666246       -41631746.840997994        1123810897.7466953     
  -1252456682.2737274       -45746034.973136127        1121463742.4024019     
  -1145990781.3783484       -50515259.430337250        1122889559.3359489     
  -1039721361.3805041       -55939420.212646246        1128088348.5473301     
  -1657861074.3503869       -31651131.851550162        1008863598.8364015     
  -1541354171.9521215       -34965926.803460836        1000734594.8393757     
  -1424864459.4512742       -38338021.413433552        996220828.29628754     
  -1308391936.8478303       -41767415.681414902        995322299.20712757     
  -1191936604.1417985       -45254109.607441604        998039007.57190561     
  -1854902415.2748499       -26677326.668465972        886633949.32676196     
  -1729198144.0941863       -29982766.042902350        876705241.78831530     
  -1603331771.8108199       -32747868.408317268        870234036.87989795     
  -1477303298.4247489       -34972633.764730215        867220334.60151052     
  -1351112723.9359694       -36657062.112113178        867664134.95315576     
  -2057101949.5304396       -23250979.484719753        763242076.83992171     
  -1922650980.4928162       -26682264.559295893        751722838.59351408     
  -1787858619.3523710       -28975575.957805872        743503368.15323508     
  -1652724866.1091106       -30130913.680261672        738583665.51908529     
  -1517249720.7630193       -30148277.726625264        736963730.69106078     
  -2264459677.1171637       -21372090.300307035        638687981.37586451     
  -2121712681.1480174       -25064422.352677464        625787385.25497007     
  -1978445002.0759282       -27021144.061904669        616028822.11630034     
  -1834656639.9009109       -27242255.428038597        609412291.95985520     
  -1690347594.6229544       -25727756.451036215        605937794.78563476     
  -1039721361.3805041       -55939420.212646246        1128088348.5473301     
  -923064606.59223819       -54992078.271450639        1125345056.0193923     
  -804065017.75059092       -46235289.485647410        1128513503.8325164     
  -682722594.85557067       -29669053.855268240        1137593691.9867070     
  -559037337.90716553       -5293371.3802753091        1152585620.4819658     
  -1191936604.1417985       -45254109.607441604        998039007.57190561     
  -1061675017.7790202       -42409080.633537054        994180260.78997982     
  -929952386.48393750       -34693901.885291934        994437100.94752121     
  -796768710.25656652       -22108573.362749249        998809528.04454160     
  -662123989.09689188       -4653095.0658493638        1007297542.0810285     
  -1351112723.9359694       -36657062.112113178        867664134.95315576     
  -1212378172.8603680       -33453906.164001584        861661179.94263911     
  -1073064365.9735447       -28319897.511829615        857977658.47000778     
  -933171303.27551198       -21255036.155608833        856613570.53525913     
  -792698984.76625335       -12259322.095323920        857568916.13839126     
  -1517249720.7630193       -30148277.726625264        736963730.69106078     
  -1375174071.8362815       -28126554.862825155        727787813.47736657     
  -1233400956.2194052       -27113276.365235865        719135176.39996505     
  -1091930373.9123890       -27108442.233854473        711005819.45885444     
  -950762324.91523755       -28112052.468677044        703399742.65403664     
  -1690347594.6229544       -25727756.451036215        605937794.78563476     
  -1550062714.7067635       -26427026.730035722        592560161.39416647     
  -1410962157.2215176       -31074038.445515931        577909654.73739934     
  -1273045922.1672196       -39668791.597485662        561986274.81533563     
  -1136314009.5438583       -52211286.185921073        544790021.62796795     
  -559037337.90716553       -5293371.3802753091        1152585620.4819658     
  -462320284.97132570        32730897.554460406        1161995212.1130958     
  -353612628.06896693        110723846.37758161        1178937417.6769524     
  -232914367.20008835        228685475.08910608        1203412237.1735384     
  -100225502.36468714        386615783.68904209        1235419670.6028509     
  -662123989.09689188       -4653095.0658493638        1007297542.0810285     
  -547031875.08922899        25641783.569922835        1020849326.8453796     
  -421067718.66145182        92176803.606081516        1042786865.4935414     
  -284231519.81356931        194951965.04258579        1073110158.0255227     
  -136523278.54558024        333967267.87945092        1111819204.4413257     
  -792698984.76625335       -12259322.095323920        857568916.13839126     
  -656794266.96935916        11037429.056708872        873957905.56513679     
  -511136068.29875684        66845783.121100456        899585788.82679439     
  -355724388.75445306        155165740.09783095        934452565.92336845     
  -190559228.33645093        275997299.98688984        978558236.85485339     
  -950762324.91523755       -28112052.468677044        703399742.65403664     
  -791607460.61169648       -11082165.985146433        721320948.27237272     
  -623817676.98086321        34730784.922689766        749334187.67672133     
  -447392974.02272654        109326800.25486606        787439460.86707568     
  -262333351.73730302        212705880.01134264        835636767.84343624     
  -1136314009.5438583       -52211286.185921073        544790021.62796795     
  -951471456.01626587       -40717001.555698037        562938454.96708536     
  -759112544.70777881       -4168190.9891653359        592032062.04331195     
  -559237275.61839771        57435145.513678074        632070842.85663617     
  -351845648.74814487        144093007.95277184        683054797.40706432     
  -100225502.36468714        386615783.68904209        1235419670.6028509     
  -85350038.624451280        546480283.74503863        1196800406.8536503     
  -57886138.113605589        748306239.70306528        1154829712.4792743     
  -17833800.832165956        992093651.56306612        1109507587.4797156     
   34806973.219866753        1277842519.3250577        1060834031.8549805     
  -136523278.54558024        333967267.87945092        1111819204.4413257     
  -127386796.84072331        482991240.94958830        1090226307.5772052     
  -95113435.730349362        709138145.37145710        1070071899.8462473     
  -39703195.214476168        1012407981.1449792        1051355981.2484504     
   38843924.706916690        1392800748.2702360        1034078551.7838210     
  -190559228.33645093        275997299.98688984        978558236.85485339     
  -173476243.64313206        418286391.57831681        986298223.28320539     
  -122707936.90939561        672859889.97115731        1000266618.6030636     
  -38254308.135230601        1039717795.1653889        1020463422.8144343     
   79884642.679339528        1518860107.1610131        1046888635.9173090     
  -262333351.73730302        212705880.01134264        835636767.84343624     
  -223618379.03169131        352365735.63120359        885016153.97165358     
  -140669641.65074942        639471473.50215888        945413868.74972260     
  -13487139.594467282        1074023093.6242518        1016829912.1776462     
   157929127.13714343        1656020595.9974174        1099264284.2554183     
  -351845648.74814487        144093007.95277184        683054797.40706432     
  -277813203.00638986        285229273.10822189        786380099.64254737     
  -148998549.95439041        608972895.96449780        905513650.28622544     
   34598310.407849193        1115323876.5215573        1040455449.3380983     
   272977378.08031982        1804282214.7794204        1191205496.7981660     
  -4690705236.0657167       -48324745.038567781        698328952.52612567     
  -4471396451.4922266       -28446549.308693647        686007468.78835213     
  -4251809558.7721667       -7641326.4236109257        681829314.89303470     
  -4031944557.9055662        14090923.616631031        685794490.84017277     
  -3811801448.8924065        36750200.812057495        697902996.62977087     
  -5091558452.3886013       -63585731.783242226        509360402.96173847     
  -4851953282.6276550       -36440215.489990950        505544101.47763276     
  -4612662727.1339436       -10343413.420891047        507520000.16525519     
  -4373686785.9074850        14704674.424058199        515288099.02460921     
  -4135025458.9482713        38704048.044859648        528848398.05569708     
  -5464691547.7797794       -70530682.248408556        321190840.83379108     
  -5211507506.1763029       -38133099.395268917        325188212.12057948     
  -4959230801.2538700       -8759972.1456053257        332626653.90837663     
  -4707861433.0124893        17588699.500559330        343506166.19717938     
  -4457399401.4521427        40912915.543260336        357826748.98698819     
  -5810104522.2392483       -69159596.434060097        133820266.14227214     
  -5550059122.1381798       -33525201.024511337        144939800.71719724     
  -5291513781.1319523       -2891002.5977714062        157149276.12240106     
  -5034468499.2205744        22742998.846144676        170448692.35788956     
  -4778923276.4040356        43376803.307257891        184838049.42364904     
  -6127797375.7670069       -59472474.340198517       -52751321.112813719     
  -5867608130.5132742       -22616520.377718925       -35201132.732521646     
  -5609511666.7681847        7263495.2226173878       -18912133.192675255     
  -5353507984.5317459        30167572.460793018       -3884322.4932735842     
  -5099597083.8039389        46095711.336838245        9882299.3656804822     
  -3811801448.8924065        36750200.812057495        697902996.62977087     
  -3716693969.4018850        22418180.321288586        686710831.49899018     
  -3621522142.3410459        8300651.7315840721        678605448.78945327     
  -3526285967.7098894       -5602384.9570589066        673586848.50116253     
  -3430985445.5084143       -19290929.744645834        671655030.63411498     
  -4135025458.9482713        38704048.044859648        528848398.05569708     
  -4032114589.6144195        21997474.468515158        518370706.70318800     
  -3928876453.2064247        6381791.1393072605        511356814.29020834     
  -3825311049.7242923       -8143001.9427618980        507806720.81675887     
  -3721418379.1680117       -21576904.777685404        507720426.28283912     
  -4457399401.4521427        40912915.543260336        357826748.98698819     
  -4345607952.2227163        22154945.897007704        348370270.83387989     
  -4233226316.4153309        5364264.8439652920        342754608.13858718     
  -4120254494.0299807       -9459127.6158468723        340979760.90110832     
  -4006692485.0666542       -22315231.482444763        343045729.12143964     
  -4778923276.4040356        43376803.307257891        184838049.42364904     
  -4657174057.2267962        22890594.606768131        176709523.89107323     
  -4534571731.9677696        5248072.8455753326        172798830.33459017     
  -4411116300.6269474       -9550761.9763054848        173105968.75420842     
  -4286807763.2043443       -21505909.858910799        177630939.14991483     
  -5099597083.8039389        46095711.336838245        9882299.3656804822     
  -4966812904.6266384        24204420.597806454        3388465.8747540540     
  -4832912699.8637390        6033215.1441111565        1489480.8782105730     
  -4697896469.5152159       -8417905.0241608620        4185344.3760526003     
  -4561764213.5810823       -19148939.907094002        11476056.368272450     
  -3430985445.5084143       -19290929.744645834        671655030.63411498     
  -3272466078.6583686       -14051851.640684128        662245984.59155416     
  -3114036134.4355826       -9110848.9609125853        657906060.12191272     
  -2955695612.8400645       -4467921.7053672075        658635257.22518361     
  -2797444513.8717937       -123069.87398838997        664433575.90137637     
  -3721418379.1680117       -21576904.777685404        507720426.28283912     
  -3549618801.9325285       -14512613.747291327        499750459.53316182     
  -3378063334.4998193       -8262022.0594935417        496505714.67788297     
  -3206751976.8698959       -2825129.7143062353        497986191.71700895     
  -3035684729.0427570        1798063.2882629633        504191890.65052766     
  -4006692485.0666542       -22315231.482444763        343045729.12143964     
  -3822595267.9557734       -13720498.678612232        336334373.29320544     
  -3638896847.8232074       -6455089.1358196735        334004339.68085068     
  -3455597224.6689358       -519002.85401797295        336055628.28437829     
  -3272696398.4929767        4087760.1667375565        342488239.10378546     
  -4286807763.2043443       -21505909.858910799        177630939.14991483     
  -4091395476.7281275       -11675506.434678555        171997725.87168020     
  -3896536674.4057417       -3690050.1898896694        170401935.13080674     
  -3702231356.2371769        2450458.8755052090        172843566.92728800     
  -3508479522.2224445        6746020.7614445686        179322621.26114219     
  -4561764213.5810823       -19148939.907094002        11476056.368272450     
  -4356019428.2495775       -8377637.0154733658        6740517.2685928671     
  -4150982814.2474313        33094.778283357620        5698501.0277491249     
  -3946654371.5746117        6083255.4742825031        8350007.6457657218     
  -3743034100.2311707        9772845.0723605156        14695037.122608872     
  -2797444513.8717937       -123069.87398838997        664433575.90137637     
  -2663698850.2552624       -3770476.8876581192        653799027.58996892     
  -2530286156.2573190       -8527782.6299499273        645963245.73191023     
  -2397206431.8779435       -14394987.100807548        640926230.32720983     
  -2264459677.1171637       -21372090.300307035        638687981.37586451     
  -3035684729.0427570        1798063.2882629633        504191890.65052766     
  -2894369400.9819617       -2878293.6130763292        494023030.24030882     
  -2753056539.3649793       -7562871.9937956333        487115672.15409553     
  -2611746144.1918249       -12255671.853923917        483469816.39188755     
  -2470438215.4624772       -16956693.193440437        483085462.95368457     
  -3272696398.4929767        4087760.1667375565        342488239.10378546     
  -3122489303.5003319       -1220915.8759759665        333170653.63197595     
  -2971954171.7767458       -5436136.1488806009        327577306.35483247     
  -2821091003.3222179       -8557900.6519908905        325708197.27233487     
  -2669899798.1367345       -10586209.385243416        327563326.38450336     
  -3508479522.2224445        6746020.7614445686        179322621.26114219     
  -3348058557.8103771        1201656.3236150742        171241897.76497650     
  -3186979053.4926009       -2147575.0951886177        167348148.33411053     
  -3025241009.2691183       -3301673.4949784279        167641372.96856222     
  -2862844425.1399288       -2260638.8757274151        172121571.66832167     
  -3743034100.2311707        9772845.0723605156        14695037.122608872     
  -3571077163.9120932        4389422.9857051373        8236762.6392952325     
  -3398131184.5125532        2302811.1672708988        6428198.0919477493     
  -3224196162.0325499        3513009.6170474291        9269343.4805526510     
  -3049272096.4720621        8020018.3350932598        16760198.805130756     
  -2264459677.1171637       -21372090.300307035        638687981.37586451     
  -2121712681.1480174       -25064422.352677464        625787385.25497007     
  -1978445002.0759282       -27021144.061904669        616028822.11630034     
  -1834656639.9009109       -27242255.428038597        609412291.95985520     
  -1690347594.6229544       -25727756.451036215        605937794.78563476     
  -2470438215.4624772       -16956693.193440437        483085462.95368457     
  -2319616889.5813069       -18500494.667457223        472603158.69608968     
  -2168593184.6937418       -19369699.453479171        464694029.71666789     
  -2017367100.7997541       -19564307.551438689        459358076.01541990     
  -1865938637.8993635       -19084318.961376667        456595297.59234756     
  -2669899798.1367345       -10586209.385243416        327563326.38450336     
  -2512629450.0694132       -10469072.598713398        319127959.21092570     
  -2355475027.0922041       -10738352.779227495        312696909.61147058     
  -2198436529.2051096       -11394049.926802039        308270177.58613515     
  -2041513956.4081423       -12436164.041454554        305847763.13492996     
  -2862844425.1399288       -2260638.8757274151        172121571.66832167     
  -2700750362.6123052       -970156.14638960361        165361786.79947540     
  -2539090529.2713280       -1127104.0391912460        160037461.80069661     
  -2377864925.1169910       -2731482.5541384220        156148596.67200261     
  -2217073550.1493053       -5783291.6912478209        153695191.41337553     
  -3049272096.4720621        8020018.3350932598        16760198.805130756     
  -2883979627.2099957        9996254.6895078421        11304641.461735453     
  -2719439691.2311077        9464046.7666516304        6715686.2843638258     
  -2555652288.5353818        6423394.5666034222        2993333.2730226000     
  -2392617419.1228371        874298.08926177025        137582.42769416148     
  -1690347594.6229544       -25727756.451036215        605937794.78563476     
  -1550062714.7067635       -26427026.730035722        592560161.39416647     
  -1410962157.2215176       -31074038.445515931        577909654.73739934     
  -1273045922.1672196       -39668791.597485662        561986274.81533563     
  -1136314009.5438583       -52211286.185921073        544790021.62796795     
  -1865938637.8993635       -19084318.961376667        456595297.59234756     
  -1728715838.7398157       -22659793.446272969        442920599.86783665     
  -1591559438.7752643       -26456598.581138253        428827068.10487109     
  -1454469438.0057139       -30474734.366020083        414314702.30345118     
  -1317445836.4311523       -34714200.800859392        399383502.46357989     
  -2041513956.4081423       -12436164.041454554        305847763.13492996     
  -1904913125.9285440       -18155809.109218121        293180244.85264641     
  -1767260771.4079947       -20370374.040476680        280947931.75875515     
  -1628556892.8464930       -19079858.835233569        269150823.85325444     
  -1488801490.2440424       -14284263.493493080        257788921.13614368     
  -2217073550.1493053       -5783291.6912478209        153695191.41337553     
  -2078654576.2729425       -12915073.718838573        143339096.34859657     
  -1938066155.1196887       -12815364.823457122        134272245.69905400     
  -1795308286.6895483       -5484165.0051199198        126494639.46473339     
  -1650380970.9825141        9078525.7361935377        120006277.64566620     
  -2392617419.1228371        874298.08926177025        137582.42769416148     
  -2249940189.7730250       -6937587.2752040625       -6602845.6443178151     
  -2103975589.9103861       -3791570.9302151203       -11199990.074248211     
  -1954723619.5348856        10312347.124285102       -13653850.862093344     
  -1802184278.6465569        35374166.888235688       -13964428.007865544     
  -1136314009.5438583       -52211286.185921073        544790021.62796795     
  -951471456.01626587       -40717001.555698037        562938454.96708536     
  -759112544.70777881       -4168190.9891653359        592032062.04331195     
  -559237275.61839771        57435145.513678074        632070842.85663617     
  -351845648.74814487        144093007.95277184        683054797.40706432     
  -1317445836.4311523       -34714200.800859392        399383502.46357989     
  -1117783608.5976818       -14774190.453035295        421229330.42716628     
  -914502527.34614837        17228664.621651351        441580720.49257582     
  -707602592.67651999        61294364.423315525        460437672.65980530     
  -497083804.58883512        117422908.95185953        477800186.92885530     
  -1488801490.2440424       -14284263.493493080        257788921.13614368     
  -1309861335.6340692        3438948.3130927086        278785055.30091727     
  -1131199831.9688447        20233323.637184143        285847139.93222958     
  -952816979.24835432        36098862.478826225        278975175.03008044     
  -774712777.47259986        51035564.838018119        258169160.59447360     
  -1650380970.9825141        9078525.7361935377        120006277.64566620     
  -1527704637.1254041        13922414.742758095        135605629.58834052     
  -1409204458.5758612        4845786.0574338436        124831320.36226700     
  -1294880435.3338835       -18151360.319771707        87683349.967466712     
  -1184732567.3994386       -55069024.388762116        24161718.403911788     
  -1802184278.6465569        35374166.888235688       -13964428.007865544     
  -1771313513.0716939        16676208.835923672       -8308946.7105757780     
  -1748516407.1672263       -28933948.117674470       -41466738.217292681     
  -1733792960.9331086       -101456303.97244835       -113437802.52804956     
  -1727143174.3693478       -200890858.72842348       -224222139.64281312     
  -351845648.74814487        144093007.95277184        683054797.40706432     
  -277813203.00638986        285229273.10822189        786380099.64254737     
  -148998549.95439041        608972895.96449780        905513650.28622544     
   34598310.407849193        1115323876.5215573        1040455449.3380983     
   272977378.08031982        1804282214.7794204        1191205496.7981660     
  -497083804.58883512        117422908.95185953        477800186.92885530     
  -388258852.22223920        223047754.16297454        597075892.25651002     
  -230302565.53818148        492443713.76562083        735501758.87453878     
  -23214944.536683619        925610787.75976169        893077786.78293967     
   233004010.78228885        1522548976.1454380        1069803975.9817262     
  -774712777.47259986        51035564.838018119        258169160.59447360     
  -621546995.96064043        124013486.86098826        386802583.85605001     
  -424900753.12402296        341926279.96615702        537928081.29017389     
  -184774048.96273437        704773944.15354788        711545652.89685249     
   98833116.523208559        1212556479.4231672        907655298.67608941     
  -1184732567.3994386       -55069024.388762116        24161718.403911788     
  -977677634.22161841       -11873528.797817707        155560174.44116274     
  -732793112.71193504        157420594.56599799        312792617.53313762     
  -450079002.87035000        452813345.70281935        495859047.67984235     
  -129535304.69688278        874304724.61258650        704759464.88129485     
  -1727143174.3693478       -200890858.72842348       -224222139.64281312     
  -1456650767.0051661       -184613292.81339455       -96651335.988154560     
  -1153979644.3018610       -61073342.434632063        60095367.603418611     
  -819129806.25947547        169728992.40772122        246017971.13191360     
  -452101252.87801838        507793711.71367913        461116474.59729725     
 </DataArray>
 <DataArray  type="Float64" Name="VM" NumberOfComponents="1" format="ascii">
   6098963013.0660038     
   5856649956.0398159     
   5613242492.6032581     
   5368659542.1421795     
   5122829074.4646893     
   5780484095.7922163     
   5539064522.0436544     
   5297066759.0671148     
   5054507637.8835869     
   4811421720.7085142     
   5458194792.6585932     
   5223004474.7338667     
   4988238729.2003269     
   4754057559.9911795     
   4520682303.7530956     
   5136399921.8709621     
   4912504131.0004406     
   4690605870.0124559     
   4471043669.7551689     
   4254294032.7607212     
   4820929753.4517555     
   4612896960.5261211     
   4409095952.3485155     
   4210051257.3490396     
   4016524762.0515180     
   5122829074.4646893     
   4978962695.8686123     
   4835932816.0001879     
   4693698775.1975718     
   4552263345.7953291     
   4811421720.7085142     
   4678683409.0097055     
   4547058874.9123907     
   4416537755.3339443     
   4287149385.1075492     
   4520682303.7530956     
   4398313494.6828918     
   4277310388.0390444     
   4157693370.1872249     
   4039518967.0534945     
   4254294032.7607212     
   4141648573.0227132     
   4030588242.9116030     
   3921163657.9565206     
   3813458236.5742373     
   4016524762.0515180     
   3913100240.2270303     
   3811439178.8509026     
   3711620433.7933350     
   3613752594.7402725     
   4552263345.7953291     
   4351852317.6236343     
   4151011095.6549206     
   3949725991.2926931     
   3748016502.9654026     
   4287149385.1075492     
   4096417190.6627526     
   3905860175.5013833     
   3715537629.7613797     
   3525565507.4172144     
   4039518967.0534945     
   3859965978.0373712     
   3681412667.4723268     
   3504020424.7384038     
   3328037109.7075577     
   3813458236.5742373     
   3646606857.7354698     
   3481813362.7604828     
   3319364016.2737064     
   3159663233.0614886     
   3613752594.7402725     
   3461062946.5585728     
   3311714615.7411165     
   3166125693.7958741     
   3024858256.5423422     
   3748016502.9654026     
   3573302376.9213910     
   3399301408.8481040     
   3225994052.2518835     
   3053428002.7434840     
   3525565507.4172144     
   3361769196.0667763     
   3199064242.9901099     
   3037501703.3281317     
   2877201585.4585257     
   3328037109.7075577     
   3174765612.9130874     
   3022963095.8711514     
   2872758702.3045764     
   2724354250.6964250     
   3159663233.0614886     
   3016824146.7135410     
   2875830580.4648209     
   2736893971.7202177     
   2600303201.6327372     
   3024858256.5423422     
   2892684198.6171408     
   2762724845.5143199     
   2635271795.8871737     
   2510698144.9342217     
   3053428002.7434840     
   2889057076.9149299     
   2724208877.3920460     
   2558875284.8118730     
   2393054699.9842086     
   2877201585.4585257     
   2715412837.0463362     
   2553616285.8829193     
   2391840529.8053279     
   2230133006.4164042     
   2724354250.6964250     
   2567613565.2119203     
   2411725951.9400415     
   2256833048.7550416     
   2103134292.6606910     
   2600303201.6327372     
   2451145030.9029427     
   2304124174.9149742     
   2159563362.8665066     
   2017899611.2977958     
   2510698144.9342217     
   2371485395.4806170     
   2236065618.8391967     
   2104964837.6713848     
   1978870862.6213894     
   2393054699.9842086     
   2246508540.9443297     
   2102171878.3172162     
   1960042817.1154594     
   1820289891.5179560     
   2230133006.4164042     
   2087046707.5463727     
   1945639930.3270376     
   1805912189.1739457     
   1667941040.6877782     
   2103134292.6606910     
   1962728300.0487640     
   1823299493.9317043     
   1684878469.3991516     
   1547524755.3367124     
   2017899611.2977958     
   1881046396.8575194     
   1744514864.5768876     
   1608432623.2265184     
   1472975245.7188756     
   1978870862.6213894     
   1848191519.6967793     
   1717519787.3668814     
   1587200383.9875965     
   1457736476.0948536     
   1820289891.5179560     
   1779768402.7550988     
   1735717081.6861715     
   1696770931.0549951     
   1681439891.9262078     
   1667941040.6877782     
   1552582136.2721119     
   1428095923.4958122     
   1294838245.4802525     
   1158936216.1005375     
   1547524755.3367124     
   1397646740.6366556     
   1244201005.3865116     
   1084914917.3160067     
   917756158.86167836     
   1472975245.7188756     
   1328701084.1116934     
   1198894471.9788089     
   1088043671.3366482     
   1002062139.0965680     
   1457736476.0948536     
   1348671143.5185761     
   1274602287.3101106     
   1243666214.0419750     
   1262912594.8550382     
   1681439891.9262078     
   1383842791.8537498     
   1129493664.5530498     
   1010141660.0672001     
   1153130252.4959219     
   1158936216.1005375     
   1008455728.9382867     
   985211338.69154966     
   1161482414.6293640     
   1544182367.9734645     
   917756158.86167836     
   963134954.19216192     
   1144918698.7476652     
   1476469893.1108484     
   1957481772.2086203     
   1002062139.0965680     
   1164729309.9144526     
   1425426127.6990736     
   1808741569.9594061     
   2334765058.1614299     
   1262912594.8550382     
   1446705690.6546960     
   1715706719.3908534     
   2110497262.9918740     
   2663519164.1845479     
   4820929753.4517555     
   4612896960.5261211     
   4409095952.3485155     
   4210051257.3490396     
   4016524762.0515180     
   4481641561.2818785     
   4297614790.3689909     
   4118329845.8444257     
   3944426710.3638477     
   3776777831.2018814     
   4167919797.9315333     
   4007962031.6688285     
   3853323217.4131842     
   3704747878.0277214     
   3563201291.5064068     
   3882273717.1459045     
   3746747114.2306323     
   3617171096.5258279     
   3494368149.0601048     
   3379360198.5559168     
   3627500520.2171907     
   3517049136.6228666     
   3413200080.8642945     
   3316806905.3389740     
   3228890738.2223639     
   4016524762.0515180     
   3913100240.2270303     
   3811439178.8509026     
   3711620433.7933350     
   3613752594.7402725     
   3776777831.2018814     
   3682843449.5134358     
   3591118209.8241158     
   3501710812.7013006     
   3414760292.4338031     
   3563201291.5064068     
   3479095321.5135498     
   3397663468.3491597     
   3319038838.0853477     
   3243383666.8310795     
   3379360198.5559168     
   3305397101.0680103     
   3234569146.3028793     
   3167024340.8643360     
   3102936491.4704938     
   3228890738.2223639     
   3165292520.1610756     
   3105254047.0453882     
   3048925039.6849012     
   2996475793.1376529     
   3613752594.7402725     
   3461062946.5585728     
   3311714615.7411165     
   3166125693.7958741     
   3024858256.5423422     
   3414760292.4338031     
   3278186012.9287682     
   3145730511.5490851     
   3017905286.2837267     
   2895365160.7727518     
   3243383666.8310795     
   3123463888.3753996     
   3008462869.6757016     
   2898960625.6975174     
   2795668033.5194678     
   3102936491.4704938     
   3000161724.1379876     
   2903067939.2554059     
   2812264265.2891679     
   2728466422.0202575     
   2996475793.1376529     
   2911158669.5901918     
   2832171408.8640442     
   2760103686.8147120     
   2695619759.4261260     
   3024858256.5423422     
   2892684198.6171408     
   2762724845.5143199     
   2635271795.8871737     
   2510698144.9342217     
   2895365160.7727518     
   2774901065.7129669     
   2657815060.8053632     
   2544530079.9806590     
   2435568682.8663812     
   2795668033.5194678     
   2688674329.5027285     
   2586356782.0393667     
   2489244676.7921066     
   2397967909.1184640     
   2728466422.0202575     
   2636262282.8385386     
   2550051329.9522667     
   2470413141.1722760     
   2398009432.7378464     
   2695619759.4261260     
   2618857665.4269481     
   2549301485.2582712     
   2487510451.6859527     
   2434095497.4269185     
   2510698144.9342217     
   2371485395.4806170     
   2236065618.8391967     
   2104964837.6713848     
   1978870862.6213894     
   2435568682.8663812     
   2311116555.5687537     
   2191772244.0829740     
   2078250884.3945463     
   1971435971.5021586     
   2397967909.1184640     
   2290199835.7807260     
   2188872160.0012112     
   2094802200.7604861     
   2008941179.8518765     
   2398009432.7378464     
   2308139859.2999291     
   2225859354.0074644     
   2151972412.8841872     
   2087358703.1696866     
   2434095497.4269185     
   2362458070.1160059     
   2299236458.0051847     
   2245127953.6499958     
   2200849446.1669197     
   1978870862.6213894     
   1848191519.6967793     
   1717519787.3668814     
   1587200383.9875965     
   1457736476.0948536     
   1971435971.5021586     
   1855327794.9920435     
   1743570392.5315607     
   1637080970.4170444     
   1536985686.1617775     
   2008941179.8518765     
   1912537889.8065541     
   1824899193.0934186     
   1747222451.7423761     
   1680796643.5522532     
   2087358703.1696866     
   2012240265.3451831     
   1949478616.1174822     
   1900151353.7849658     
   1865286550.9620473     
   2200849446.1669197     
   2145580490.4873598     
   2105257765.9597976     
   2080647227.4639173     
   2072426696.0356417     
   1457736476.0948536     
   1348671143.5185761     
   1274602287.3101106     
   1243666214.0419750     
   1262912594.8550382     
   1536985686.1617775     
   1476111171.9959817     
   1447938387.3753471     
   1456436602.9697504     
   1504901607.6587522     
   1680796643.5522532     
   1652318709.0273426     
   1651562746.0843730     
   1680897760.0435600     
   1742931390.0864770     
   1865286550.9620473     
   1854812198.2517869     
   1867303029.4698749     
   1904967598.8756461     
   1970835578.6893682     
   2072426696.0356417     
   2068971274.4484017     
   2084738668.4539108     
   2122360318.0393860     
   2185646578.1041760     
   1262912594.8550382     
   1446705690.6546960     
   1715706719.3908534     
   2110497262.9918740     
   2663519164.1845479     
   1504901607.6587522     
   1613295702.6491539     
   1788879002.6829853     
   2066403208.1956191     
   2476077106.2645335     
   1742931390.0864770     
   1787728396.6908116     
   1884665180.6513298     
   2060652072.1532059     
   2340921064.9384670     
   1970835578.6893682     
   1968962886.2040610     
   2003630118.7749019     
   2093511474.4402585     
   2257267436.7837019     
   2185646578.1041760     
   2156284091.8081231     
   2146514520.3873749     
   2166859921.2997494     
   2228389940.8741412     
   3627500520.2171907     
   3517049136.6228666     
   3413200080.8642945     
   3316806905.3389740     
   3228890738.2223639     
   3410957883.7422762     
   3318169800.9980545     
   3233439560.4894819     
   3157624347.6397724     
   3091719954.0168042     
   3223189880.8298740     
   3147945839.6751013     
   3082203481.0221310     
   3026752798.6485763     
   2982483667.9494548     
   3073381540.5465565     
   3014578788.1164031     
   2966644511.0536480     
   2930230273.8962502     
   2906047891.0582352     
   2971452686.9592628     
   2926666602.8235579     
   2893988617.6336012     
   2873881230.1817222     
   2866836182.0705733     
   3228890738.2223639     
   3165292520.1610756     
   3105254047.0453882     
   3048925039.6849012     
   2996475793.1376529     
   3091719954.0168042     
   3034201219.3116789     
   2980909856.0027146     
   2931997472.3502140     
   2887635967.4570684     
   2982483667.9494548     
   2930791951.7374206     
   2884076143.1871843     
   2842476299.9021316     
   2806150880.7695961     
   2906047891.0582352     
   2859504790.2703371     
   2818746178.0631137     
   2783887140.8643160     
   2755057987.9868507     
   2866836182.0705733     
   2824273576.1762276     
   2788339411.5177112     
   2759114058.6194544     
   2736689278.6174116     
   2996475793.1376529     
   2911158669.5901918     
   2832171408.8640442     
   2760103686.8147120     
   2695619759.4261260     
   2887635967.4570684     
   2816590989.8469243     
   2752955981.2333283     
   2697293166.9209232     
   2650217346.0248857     
   2806150880.7695961     
   2749173051.1076918     
   2700596418.1584768     
   2660909368.7270060     
   2630629673.9543257     
   2755057987.9868507     
   2711207085.2934823     
   2676626654.2249823     
   2651697037.5154352     
   2636809678.7318959     
   2736689278.6174116     
   2704221712.2733941     
   2681773751.7534862     
   2669604042.6253338     
   2667972195.3553019     
   2695619759.4261260     
   2618857665.4269481     
   2549301485.2582712     
   2487510451.6859527     
   2434095497.4269185     
   2650217346.0248857     
   2587719481.2601514     
   2533016704.2719865     
   2486587060.5282416     
   2448933998.0883064     
   2630629673.9543257     
   2581579005.1847720     
   2540750864.1729131     
   2508519960.1614275     
   2485267147.9813499     
   2636809678.7318959     
   2599908197.1038399     
   2571508108.5793619     
   2551876666.8353720     
   2541276809.7039070     
   2667972195.3553019     
   2641513352.9241538     
   2623725822.8569846     
   2614780488.7446470     
   2614840864.4304891     
   2434095497.4269185     
   2362458070.1160059     
   2299236458.0051847     
   2245127953.6499958     
   2200849446.1669197     
   2448933998.0883064     
   2392806084.0423136     
   2346034352.1219163     
   2309183779.9981537     
   2282803007.6353693     
   2485267147.9813499     
   2443550514.5065656     
   2411873498.1494370     
   2390648467.8105645     
   2380253978.6519837     
   2541276809.7039070     
   2512275530.1557603     
   2493810899.5918722     
   2486152591.5895939     
   2489535218.3214550     
   2614840864.4304891     
   2596434833.2353730     
   2588972651.2752519     
   2592608430.8083367     
   2607469899.9230523     
   2200849446.1669197     
   2145580490.4873598     
   2105257765.9597976     
   2080647227.4639173     
   2072426696.0356417     
   2282803007.6353693     
   2242254615.0962095     
   2215618530.0786037     
   2203343472.6527357     
   2205817000.4122972     
   2380253978.6519837     
   2351482761.6257010     
   2335568604.9784713     
   2332760962.5262794     
   2343280759.6275549     
   2489535218.3214550     
   2469895940.6919279     
   2462152723.8855453     
   2466441470.6085415     
   2482896506.7241611     
   2607469899.9230523     
   2594687077.3537960     
   2592993373.9219780     
   2602467760.4132118     
   2623206147.1793838     
   2072426696.0356417     
   2068971274.4484017     
   2084738668.4539108     
   2122360318.0393860     
   2185646578.1041760     
   2205817000.4122972     
   2191519575.5079212     
   2192210104.9301920     
   2209858237.1031547     
   2247382810.4369392     
   2343280759.6275549     
   2318953968.9608684     
   2306163518.5859523     
   2306315421.8540239     
   2321497500.7756028     
   2482896506.7241611     
   2450304042.1131425     
   2426281885.9383974     
   2411775722.9967937     
   2408161900.7855034     
   2623206147.1793838     
   2584791637.0975685     
   2552282682.7127013     
   2526260740.0398889     
   2507533999.2450495     
   2185646578.1041760     
   2156284091.8081231     
   2146514520.3873749     
   2166859921.2997494     
   2228389940.8741412     
   2247382810.4369392     
   2182661054.4801998     
   2134376745.1955407     
   2112195480.4441609     
   2127050072.4035437     
   2321497500.7756028     
   2224753470.5527453     
   2141341047.3782642     
   2079624801.4987264     
   2049775125.5844474     
   2408161900.7855034     
   2282855204.9073911     
   2168054234.3865271     
   2070498904.7341356     
   1998956980.1515341     
   2507533999.2450495     
   2357175554.9769101     
   2214986808.9699378     
   2085948851.6440225     
   1976938454.0400856     
   2971452686.9592628     
   2926666602.8235579     
   2893988617.6336012     
   2873881230.1817222     
   2866836182.0705733     
   2771846334.9007435     
   2748801526.2507286     
   2737969400.1506147     
   2739643221.6492820     
   2754119803.8850665     
   2621681106.5062137     
   2617353947.3308225     
   2625073309.1191235     
   2644977549.5570822     
   2677200273.7752113     
   2525136293.1690283     
   2535383483.6084456     
   2557316210.4485016     
   2590969076.8583565     
   2636374167.6747785     
   2483873893.7160592     
   2503651921.8420992     
   2534692040.7669258     
   2576994250.4905419     
   2630558551.0129395     
   2866836182.0705733     
   2824273576.1762276     
   2788339411.5177112     
   2759114058.6194544     
   2736689278.6174116     
   2754119803.8850665     
   2722127810.5711422     
   2696316595.2477741     
   2676730935.1458683     
   2663420444.2833633     
   2677200273.7752113     
   2654194840.3123031     
   2636800221.4728036     
   2625035073.3264899     
   2618919511.0176969     
   2636374167.6747785     
   2620722048.3989477     
   2610013778.1339622     
   2604253472.8550525     
   2603445464.6435957     
   2630558551.0129395     
   2620677935.1842742     
   2615012169.1262712     
   2613561252.8389301     
   2616325186.3222456     
   2736689278.6174116     
   2704221712.2733941     
   2681773751.7534862     
   2669604042.6253338     
   2667972195.3553019     
   2663420444.2833633     
   2643128414.4944892     
   2632631150.9029565     
   2632074265.4522948     
   2641599977.0041242     
   2618919511.0176969     
   2608186588.9951315     
   2606949729.4748163     
   2615271964.4320436     
   2633213487.9772706     
   2603445464.6435957     
   2599400859.4272323     
   2604530403.0150604     
   2618849102.8807387     
   2642371057.8341107     
   2616325186.3222456     
   2616011133.5717154     
   2624568876.7053046     
   2641998415.7230163     
   2668299750.6248460     
   2667972195.3553019     
   2641513352.9241538     
   2623725822.8569846     
   2614780488.7446470     
   2614840864.4304891     
   2641599977.0041242     
   2623920859.4519520     
   2614941801.5481415     
   2614760029.9464216     
   2623466388.2258162     
   2633213487.9772706     
   2622364648.1876140     
   2620238966.9233031     
   2626879601.0590181     
   2642326074.4815841     
   2642371057.8341107     
   2636223388.4316354     
   2638853500.5919094     
   2650272089.9090762     
   2670488802.0676785     
   2668299750.6248460     
   2664629889.7046103     
   2669853377.6633644     
   2683970214.5011086     
   2706980400.2178283     
   2614840864.4304891     
   2596434833.2353730     
   2588972651.2752519     
   2592608430.8083367     
   2607469899.9230523     
   2623466388.2258162     
   2613014341.0659466     
   2612985480.6919646     
   2623458054.8600984     
   2644494976.5579591     
   2642326074.4815841     
   2637989784.2789335     
   2643651015.6796393     
   2659341133.3346176     
   2685084674.8019524     
   2670488802.0676785     
   2670486683.2330012     
   2680175420.0660243     
   2699562114.6154151     
   2728652193.3647118     
   2706980400.2178283     
   2709623412.1165738     
   2721782559.7349925     
   2743457843.0730815     
   2774649262.1308241     
   2607469899.9230523     
   2594687077.3537960     
   2592993373.9219780     
   2602467760.4132118     
   2623206147.1793838     
   2644494976.5579591     
   2633441235.5748353     
   2632633993.7558303     
   2642112456.0941563     
   2661926888.8004041     
   2685084674.8019524     
   2675458335.1248040     
   2675414802.1045532     
   2684969391.3441243     
   2704142870.2348061     
   2728652193.3647118     
   2720306755.3121033     
   2721039610.0940876     
   2730854099.0714736     
   2749755029.3308616     
   2774649262.1308241     
   2767579021.8734155     
   2769224334.0653853     
   2779585198.7067008     
   2798661615.7973943     
   2623206147.1793838     
   2584791637.0975685     
   2552282682.7127013     
   2526260740.0398889     
   2507533999.2450495     
   2661926888.8004041     
   2616592476.5692883     
   2576931871.0069857     
   2543275922.9077449     
   2516086888.4596782     
   2704142870.2348061     
   2653978838.9388399     
   2609399933.1474142     
   2570553531.3710375     
   2537646123.1178288     
   2749755029.3308616     
   2696857592.3138752     
   2649599197.0489693     
   2608016445.7930427     
   2572160637.5983315     
   2798661615.7973943     
   2745126948.9560385     
   2697427436.4770684     
   2655563078.3604817     
   2619533874.6062717     
   2507533999.2450495     
   2357175554.9769101     
   2214986808.9699378     
   2085948851.6440225     
   1976938454.0400856     
   2516086888.4596782     
   2348205036.6410813     
   2183880656.8756952     
   2026214119.1942375     
   1879770586.7601731     
   2537646123.1178288     
   2357330639.0872903     
   2176755386.1276898     
   1997392081.3731697     
   1821518778.0500517     
   2572160637.5983315     
   2384655946.6151419     
   2194077682.3444252     
   2000804122.0303333     
   1805439181.6744878     
   2619533874.6062717     
   2430149748.0199060     
   2235989994.6022339     
   2037054614.3532298     
   1833343607.2729149     
   2483873893.7160592     
   2503651921.8420992     
   2534692040.7669258     
   2576994250.4905419     
   2630558551.0129395     
   2525136277.0664730     
   2535383471.7573304     
   2557316202.9645939     
   2590969073.8571963     
   2636374169.2574878     
   2621681081.3471918     
   2617353929.2094359     
   2625073298.0856686     
   2644977545.6692791     
   2677200277.0791759     
   2771846307.7188659     
   2748801507.4835596     
   2737969389.6197944     
   2739643219.1891446     
   2754119809.3287420     
   2971452663.9678826     
   2926666588.4760833     
   2893988611.3738990     
   2873881231.4532695     
   2866836190.3171377     
   2630558551.0129395     
   2620677935.1842742     
   2615012169.1262712     
   2613561252.8389301     
   2616325186.3222456     
   2636374169.2574878     
   2620722049.5886650     
   2610013779.0934315     
   2604253473.7457976     
   2603445465.6260376     
   2677200277.0791759     
   2654194842.7302008     
   2636800223.3254051     
   2625035074.9332767     
   2618919512.6971774     
   2754119809.3287420     
   2722127814.4755387     
   2696316598.0807877     
   2676730937.3763056     
   2663420446.3818178     
   2866836190.3171377     
   2824273582.0240197     
   2788339415.5649061     
   2759114061.4701190     
   2736689280.8837495     
   2616325186.3222456     
   2616011133.5717154     
   2624568876.7053046     
   2641998415.7230163     
   2668299750.6248460     
   2603445465.6260376     
   2599400860.1219172     
   2604530403.4282699     
   2618849103.0197701     
   2642371057.7076454     
   2618919512.6971774     
   2608186590.1928644     
   2606949730.2105975     
   2615271964.7267714     
   2633213487.8533902     
   2663420446.3818178     
   2643128416.0049748     
   2632631151.8659501     
   2632074265.9087572     
   2641599976.9958992     
   2736689280.8837495     
   2704221713.9199896     
   2681773752.8490462     
   2669604043.2383690     
   2667972195.5540876     
   2668299750.6248460     
   2664629889.7046103     
   2669853377.6633644     
   2683970214.5011086     
   2706980400.2178283     
   2642371057.7076454     
   2636223388.3997507     
   2638853500.6340852     
   2650272090.0044413     
   2670488802.1948795     
   2633213487.8533902     
   2622364648.2326303     
   2620238967.0932841     
   2626879601.3094535     
   2642326074.7672353     
   2641599976.9958992     
   2623920859.6762443     
   2614941801.9344368     
   2614760030.4232345     
   2623466388.7205682     
   2667972195.5540876     
   2641513353.4191222     
   2623725823.5477791     
   2614780489.5290308     
   2614840865.2043967     
   2706980400.2178283     
   2709623412.1165738     
   2721782559.7349925     
   2743457843.0730815     
   2774649262.1308241     
   2670488802.1948795     
   2670486683.3482533     
   2680175420.1832371     
   2699562114.7482109     
   2728652193.5265040     
   2642326074.7672353     
   2637989784.5198035     
   2643651015.9034872     
   2659341133.5689440     
   2685084675.0740738     
   2623466388.7205682     
   2613014341.4575682     
   2612985481.0221767     
   2623458055.1708651     
   2644494976.8915367     
   2614840865.2043967     
   2596434833.8182421     
   2588972651.7227821     
   2592608431.1776609     
   2607469900.2726235     
   2774649262.1308241     
   2767579021.8734155     
   2769224334.0653853     
   2779585198.7067008     
   2798661615.7973943     
   2728652193.5265040     
   2720306755.4184752     
   2721039610.1487403     
   2730854099.0783286     
   2749755029.2938590     
   2685084675.0740738     
   2675458335.3006177     
   2675414802.1919823     
   2684969391.3513899     
   2704142870.1701813     
   2644494976.8915367     
   2633441235.7847257     
   2632633993.8548560     
   2642112456.0953898     
   2661926888.7170620     
   2607469900.2726235     
   2594687077.5644698     
   2592993374.0123305     
   2602467760.4019985     
   2623206147.0856786     
   2798661615.7973943     
   2745126948.9560385     
   2697427436.4770684     
   2655563078.3604817     
   2619533874.6062717     
   2749755029.2938590     
   2696857592.2899675     
   2649599197.0365376     
   2608016445.7905755     
   2572160637.6044779     
   2704142870.1701813     
   2653978838.8974180     
   2609399933.1259594     
   2570553531.3664227     
   2537646123.1271629     
   2661926888.7170620     
   2616592476.5164924     
   2576931870.9798002     
   2543275922.9013252     
   2516086888.4693069     
   2623206147.0856786     
   2584791637.0392370     
   2552282682.6830101     
   2526260740.0320697     
   2507533999.2522616     
   2619533874.6062717     
   2430149748.0199060     
   2235989994.6022339     
   2037054614.3532298     
   1833343607.2729149     
   2572160637.6044779     
   2384655946.6181803     
   2194077682.3458238     
   2000804122.0316269     
   1805439181.6774449     
   2537646123.1271629     
   2357330639.0911484     
   2176755386.1288438     
   1997392081.3746831     
   1821518778.0553179     
   2516086888.4693069     
   2348205036.6435370     
   2183880656.8749838     
   2026214119.1947594     
   1879770586.7667983     
   2507533999.2522616     
   2357175554.9758506     
   2214986808.9656825     
   2085948851.6421988     
   1976938454.0468178     
   2971452663.9678826     
   2926666588.4760833     
   2893988611.3738990     
   2873881231.4532695     
   2866836190.3171377     
   3073381520.1478486     
   3014578775.5153766     
   2966644505.6795607     
   2930230275.1640234     
   2906047898.3853006     
   3223189865.3547196     
   3147945830.7578273     
   3082203477.9426579     
   3026752800.6431308     
   2982483674.2493625     
   3410957874.2926049     
   3318169796.6731625     
   3233439560.2973127     
   3157624350.4946103     
   3091719958.8014636     
   3627500516.8740864     
   3517049136.9259887     
   3413200083.4505877     
   3316806908.6808195     
   3228890740.7103667     
   2866836190.3171377     
   2824273582.0240197     
   2788339415.5649061     
   2759114061.4701190     
   2736689280.8837495     
   2906047898.3853006     
   2859504795.5769343     
   2818746181.7191281     
   2783887143.2492199     
   2755057989.4917927     
   2982483674.2493625     
   2930791956.3579130     
   2884076146.3012414     
   2842476301.6924181     
   2806150881.4298763     
   3091719958.8014636     
   3034201222.8150072     
   2980909858.2359333     
   2931997473.3304224     
   2887635967.2074151     
   3228890740.7103667     
   3165292521.8976188     
   3105254047.9167800     
   3048925039.5763059     
   2996475791.9316392     
   2736689280.8837495     
   2704221713.9199896     
   2681773752.8490462     
   2669604043.2383690     
   2667972195.5540876     
   2755057989.4917927     
   2711207086.3040571     
   2676626654.7929230     
   2651697037.6913519     
   2636809678.5646491     
   2806150881.4298763     
   2749173051.4347544     
   2700596418.1959448     
   2660909368.5161304     
   2630629673.5324473     
   2887635967.2074151     
   2816590989.4583020     
   2752955980.7503743     
   2697293166.3847671     
   2650217345.4704185     
   2996475791.9316392     
   2911158668.4688897     
   2832171407.8817363     
   2760103686.0216026     
   2695619758.8643126     
   2667972195.5540876     
   2641513353.4191222     
   2623725823.5477791     
   2614780489.5290308     
   2614840865.2043967     
   2636809678.5646491     
   2599908197.2443161     
   2571508108.9567842     
   2551876667.3770614     
   2541276810.3354030     
   2630629673.5324473     
   2581579005.0604110     
   2540750864.3016124     
   2508519960.4975471     
   2485267148.4783444     
   2650217345.4704185     
   2587719480.9616337     
   2533016704.2074981     
   2486587060.6763067     
   2448933998.4284902     
   2695619758.8643126     
   2618857665.0408444     
   2549301485.0437942     
   2487510451.6419268     
   2434095497.5562105     
   2614840865.2043967     
   2596434833.8182421     
   2588972651.7227821     
   2592608431.1776609     
   2607469900.2726235     
   2541276810.3354030     
   2512275530.6429977     
   2493810899.9717212     
   2486152591.9011164     
   2489535218.6057816     
   2485267148.4783444     
   2443550514.8969693     
   2411873498.4514384     
   2390648468.0450583     
   2380253978.8425460     
   2448933998.4284902     
   2392806084.3121796     
   2346034352.3207917     
   2309183780.1280603     
   2282803007.7012386     
   2434095497.5562105     
   2362458070.2173476     
   2299236458.0590329     
   2245127953.6388154     
   2200849446.0755501     
   2607469900.2726235     
   2594687077.5644698     
   2592993374.0123305     
   2602467760.4019985     
   2623206147.0856786     
   2489535218.6057816     
   2469895940.8641448     
   2462152723.9583802     
   2466441470.5946727     
   2482896506.6365943     
   2380253978.8425460     
   2351482761.7388105     
   2335568605.0218320     
   2332760962.5070539     
   2343280759.5529613     
   2282803007.7012386     
   2242254615.1277657     
   2215618530.0795054     
   2203343472.6252575     
   2205817000.3581243     
   2200849446.0755501     
   2145580490.4133608     
   2105257765.9042437     
   2080647227.4251232     
   2072426696.0100932     
   2623206147.0856786     
   2584791637.0392370     
   2552282682.6830101     
   2526260740.0320697     
   2507533999.2522616     
   2482896506.6365943     
   2450304042.0542011     
   2426281885.9037881     
   2411775722.9821386     
   2408161900.7860503     
   2343280759.5529613     
   2318953968.9057126     
   2306163518.5483189     
   2306315421.8318682     
   2321497500.7661014     
   2205817000.3581243     
   2191519575.4613028     
   2192210104.8915358     
   2209858237.0727086     
   2247382810.4137826     
   2072426696.0100932     
   2068971274.4155509     
   2084738668.4163489     
   2122360317.9998069     
   2185646578.0636787     
   2507533999.2522616     
   2357175554.9758506     
   2214986808.9656825     
   2085948851.6421988     
   1976938454.0468178     
   2408161900.7860503     
   2282855204.9041262     
   2168054234.3829179     
   2070498904.7343552     
   1998956980.1605513     
   2321497500.7661014     
   2224753470.5447779     
   2141341047.3735731     
   2079624801.4999566     
   2049775125.5954931     
   2247382810.4137826     
   2182661054.4649143     
   2134376745.1880050     
   2112195480.4455018     
   2127050072.4164762     
   2185646578.0636787     
   2156284091.7828016     
   2146514520.3752673     
   2166859921.3003750     
   2228389940.8890414     
   3627500516.8740864     
   3517049136.9259887     
   3413200083.4505877     
   3316806908.6808195     
   3228890740.7103667     
   3882273723.4822745     
   3746747120.8238831     
   3617171102.3490133     
   3494368152.9418149     
   3379360199.2086744     
   4167919807.7842493     
   4007962039.5297914     
   3853323222.8041143     
   3704747880.3516889     
   3563201290.0419335     
   4481641570.1922855     
   4297614795.8536282     
   4118329848.1042562     
   3944426709.5207286     
   3776777827.2801647     
   4820929758.4451618     
   4612896961.2000828     
   4409095949.6419201     
   4210051252.1755381     
   4016524755.2896900     
   3228890740.7103667     
   3165292521.8976188     
   3105254047.9167800     
   3048925039.5763059     
   2996475791.9316392     
   3379360199.2086744     
   3305397101.4012690     
   3234569146.1583805     
   3167024340.0810323     
   3102936489.8821306     
   3563201290.0419335     
   3479095320.2912278     
   3397663467.1800909     
   3319038836.7766867     
   3243383665.1825080     
   3776777827.2801647     
   3682843446.5266089     
   3591118207.5659819     
   3501710810.9615459     
   3414760290.9934869     
   4016524755.2896900     
   3913100235.2222538     
   3811439175.3913174     
   3711620431.6640835     
   3613752593.7182140     
   2996475791.9316392     
   2911158668.4688897     
   2832171407.8817363     
   2760103686.0216026     
   2695619758.8643126     
   3102936489.8821306     
   3000161722.8023000     
   2903067938.2252874     
   2812264264.6183753     
   2728466421.7609258     
   3243383665.1825080     
   3123463887.0565705     
   3008462868.7253928     
   2898960625.1592135     
   2795668033.4406581     
   3414760290.9934869     
   3278186011.8248301     
   3145730510.7954259     
   3017905285.9007998     
   2895365160.7883630     
   3613752593.7182140     
   3461062945.8290186     
   3311714615.2854180     
   3166125693.6014962     
   3024858256.6046047     
   2695619758.8643126     
   2618857665.0408444     
   2549301485.0437942     
   2487510451.6419268     
   2434095497.5562105     
   2728466421.7609258     
   2636262282.6435146     
   2550051329.8274584     
   2470413141.1258764     
   2398009432.7815504     
   2795668033.4406581     
   2688674329.3847675     
   2586356781.8995185     
   2489244676.6497869     
   2397967908.9963956     
   2895365160.7883630     
   2774901065.5860534     
   2657815060.5650544     
   2544530079.6583285     
   2435568682.4967952     
   3024858256.6046047     
   2892684198.4270186     
   2762724845.1124115     
   2635271795.3163958     
   2510698144.2408705     
   2434095497.5562105     
   2362458070.2173476     
   2299236458.0590329     
   2245127953.6388154     
   2200849446.0755501     
   2398009432.7815504     
   2308139859.3243299     
   2225859353.9865918     
   2151972412.7919192     
   2087358702.9798765     
   2397967908.9963956     
   2290199835.6779895     
   2188872159.8892035     
   2094802200.6081901     
   2008941179.6253777     
   2435568682.4967952     
   2311116555.2833056     
   2191772243.8550510     
   2078250884.1935935     
   1971435971.2923453     
   2510698144.2408705     
   2371485394.9568429     
   2236065618.4647117     
   2104964837.4216778     
   1978870862.4659142     
   2200849446.0755501     
   2145580490.4133608     
   2105257765.9042437     
   2080647227.4251232     
   2072426696.0100932     
   2087358702.9798765     
   2012240265.2004454     
   1949478616.0210276     
   1900151353.7384009     
   1865286550.9653120     
   2008941179.6253777     
   1912537889.6367369     
   1824899192.9830949     
   1747222451.6940858     
   1680796643.5679021     
   1971435971.2923453     
   1855327794.8384998     
   1743570392.4334412     
   1637080970.3741817     
   1536985686.1748145     
   1978870862.4659142     
   1848191519.5903118     
   1717519787.3020103     
   1587200383.9576669     
   1457736476.0949311     
   2072426696.0100932     
   2068971274.4155509     
   2084738668.4163489     
   2122360317.9998069     
   2185646578.0636787     
   1865286550.9653120     
   1854812198.2392626     
   1867303029.4430645     
   1904967598.8364947     
   1970835578.6394608     
   1680796643.5679021     
   1652318709.0237551     
   1651562746.0624175     
   1680897760.0047753     
   1742931390.0329297     
   1536985686.1748145     
   1476111171.9904795     
   1447938387.3524234     
   1456436602.9309938     
   1504901607.6070256     
   1457736476.0949311     
   1348671143.5026593     
   1274602287.2810154     
   1243666214.0026062     
   1262912594.8099148     
   2185646578.0636787     
   2156284091.7828016     
   2146514520.3752673     
   2166859921.3003750     
   2228389940.8890414     
   1970835578.6394608     
   1968962886.1739211     
   2003630118.7626173     
   2093511474.4440882     
   2257267436.8025589     
   1742931390.0329297     
   1787728396.6590142     
   1884665180.6394742     
   2060652072.1584406     
   2340921064.9569373     
   1504901607.6070256     
   1613295702.6187642     
   1788879002.6722183     
   2066403208.2005775     
   2476077106.2787337     
   1262912594.8099148     
   1446705690.6286647     
   1715706719.3818958     
   2110497262.9949098     
   2663519164.1908631     
   4820929758.4451618     
   4612896961.2000828     
   4409095949.6419201     
   4210051252.1755381     
   4016524755.2896900     
   5136399926.9507790     
   4912504131.1490412     
   4690605866.4779425     
   4471043663.8306751     
   4254294025.7924700     
   5458194805.5267067     
   5223004480.7922354     
   4988238729.8730335     
   4754057556.8117085     
   4520682298.3760052     
   5780484124.7093897     
   5539064540.8824387     
   5297066769.3238850     
   5054507641.2138348     
   4811421718.9253645     
   6098963066.5471621     
   5856649994.7191830     
   5613242517.9667501     
   5368659555.8667917     
   5122829078.3879128     
   4016524755.2896900     
   3913100235.2222538     
   3811439175.3913174     
   3711620431.6640835     
   3613752593.7182140     
   4254294025.7924700     
   4141648567.7936878     
   4030588239.3662639     
   3921163656.0380697     
   3813458236.2231927     
   4520682298.3760052     
   4398313490.6373739     
   4277310385.3514109     
   4157693368.8805432     
   4039518967.1504035     
   4811421718.9253645     
   4678683407.6998968     
   4547058874.1182613     
   4416537755.0892744     
   4287149385.4448066     
   5122829078.3879128     
   4978962698.9182529     
   4835932818.1789331     
   4693698776.4914618     
   4552263346.1852474     
   3613752593.7182140     
   3461062945.8290186     
   3311714615.2854180     
   3166125693.6014962     
   3024858256.6046047     
   3813458236.2231927     
   3646606857.5840397     
   3481813362.7803679     
   3319364016.4409585     
   3159663233.3579917     
   4039518967.1504035     
   3859965978.2612858     
   3681412667.7868643     
   3504020425.1097765     
   3328037110.1057305     
   4287149385.4448066     
   4096417191.0758338     
   3905860175.9475503     
   3715537630.1990237     
   3525565507.8066926     
   4552263346.1852474     
   4351852318.0602837     
   4151011096.0909963     
   3949725991.6809664     
   3748016503.2593446     
   3024858256.6046047     
   2892684198.4270186     
   2762724845.1124115     
   2635271795.3163958     
   2510698144.2408705     
   3159663233.3579917     
   3016824146.7108297     
   2875830580.1887178     
   2736893971.1962729     
   2600303200.8864012     
   3328037110.1057305     
   3174765613.0289412     
   3022963095.7270193     
   2872758701.9211435     
   2724354250.0921702     
   3525565507.8066926     
   3361769196.2556710     
   3199064243.0072861     
   3037501703.2007780     
   2877201585.2110505     
   3748016503.2593446     
   3573302377.1592460     
   3399301409.0732870     
   3225994052.5072489     
   3053428003.0699229     
   2510698144.2408705     
   2371485394.9568429     
   2236065618.4647117     
   2104964837.4216778     
   1978870862.4659142     
   2600303200.8864012     
   2451145030.3207517     
   2304124174.4957299     
   2159563362.6075292     
   2017899611.1943369     
   2724354250.0921702     
   2567613564.7252584     
   2411725951.5777383     
   2256833048.5238461     
   2103134292.5677388     
   2877201585.2110505     
   2715412836.8242350     
   2553616285.6909966     
   2391840529.6481261     
   2230133006.2988954     
   3053428003.0699229     
   2889057077.1272073     
   2724208877.4849944     
   2558875284.7785387     
   2393054699.8160787     
   1978870862.4659142     
   1848191519.5903118     
   1717519787.3020103     
   1587200383.9576669     
   1457736476.0949311     
   2017899611.1943369     
   1881046396.7902653     
   1744514864.5373242     
   1608432623.2065208     
   1472975245.7109125     
   2103134292.5677388     
   1962728299.9872494     
   1823299493.8939826     
   1684878469.3778348     
   1547524755.3244157     
   2230133006.2988954     
   2087046707.4617999     
   1945639930.2700691     
   1805912189.1395047     
   1667941040.6706297     
   2393054699.8160787     
   2246508540.8149118     
   2102171878.2243471     
   1960042817.0572071     
   1820289891.4922333     
   1457736476.0949311     
   1348671143.5026593     
   1274602287.2810154     
   1243666214.0026062     
   1262912594.8099148     
   1472975245.7109125     
   1328701084.0933530     
   1198894471.9526670     
   1088043671.3055789     
   1002062139.0645661     
   1547524755.3244157     
   1397646740.6188655     
   1244201005.3655357     
   1084914917.2938831     
   917756158.84032881     
   1667941040.6706297     
   1552582136.2547543     
   1428095923.4800029     
   1294838245.4668651     
   1158936216.0897400     
   1820289891.4922333     
   1779768402.7355130     
   1735717081.6737175     
   1696770931.0494459     
   1681439891.9269404     
   1262912594.8099148     
   1446705690.6286647     
   1715706719.3818958     
   2110497262.9949098     
   2663519164.1908631     
   1002062139.0645661     
   1164729309.8955932     
   1425426127.6919045     
   1808741569.9604044     
   2334765058.1646819     
   917756158.84032881     
   963134954.17896569     
   1144918698.7419484     
   1476469893.1105037     
   1957481772.2102389     
   1158936216.0897400     
   1008455728.9315557     
   985211338.68740833     
   1161482414.6277645     
   1544182367.9743035     
   1681439891.9269404     
   1383842791.8550024     
   1129493664.5516500     
   1010141660.0623736     
   1153130252.4928753     
 </DataArray>
 <DataArray  type="Float64" Name="strain" NumberOfComponents="3" format="ascii">
  0.10183259316543891       -2.9647777944520670E-002  -2.2858911698284690E-003
   9.7680385676494952E-002  -2.8961098090192539E-002  -1.5253827988748192E-003
   9.3528178187550881E-002  -2.8168616365689958E-002  -8.1952603874435592E-004
   8.9375970698606866E-002  -2.7270332771013470E-002  -1.6832088943674606E-004
   8.5223763209662851E-002  -2.6266247306163226E-002   4.2823264904789937E-004
   9.6489277098797288E-002  -2.7897861742554486E-002   5.7988775969258777E-003
   9.2333359154719741E-002  -2.7191541764056582E-002   6.2807242983180522E-003
   8.8177441210642304E-002  -2.6409385337632263E-002   6.8098017002659605E-003
   8.4021523266564813E-002  -2.5551392463281614E-002   7.3861098027701300E-003
   7.9865605322487321E-002  -2.4617563141004828E-002   8.0096486058302552E-003
   9.0725539047854964E-002  -2.6147945540588524E-002   1.3918269198973376E-002
   8.6667792960022805E-002  -2.5421985437920624E-002   1.4091488808556485E-002
   8.2610046872190673E-002  -2.4650154309574485E-002   1.4413821430074386E-002
   7.8552300784358542E-002  -2.3832452155549709E-002   1.4885267063527233E-002
   7.4494554696526383E-002  -2.2968878975846430E-002   1.5505825708915011E-002
   8.4541379012611856E-002  -2.4398029338622396E-002   2.2072283636314430E-002
   8.0683687092403825E-002  -2.3652429111784862E-002   2.1906910731841200E-002
   7.6825995172195960E-002  -2.2890923281516637E-002   2.1992533150681247E-002
   7.2968303251988026E-002  -2.2113511847817718E-002   2.2329150892834920E-002
   6.9110611331780106E-002  -2.1320194810688031E-002   2.2916763958302222E-002
   7.7936796993067936E-002  -2.2648113136656323E-002   3.0260920908949440E-002
   7.4381041551862981E-002  -2.1882872785649099E-002   2.9726990068171533E-002
   7.0825286110658109E-002  -2.1131692253458914E-002   2.9545936862085981E-002
   6.7269530669453223E-002  -2.0394571540085785E-002   2.9717761290692743E-002
   6.3713775228248393E-002  -1.9671510645529633E-002   3.0242463353992055E-002
   8.5223763209662851E-002  -2.6266247306163226E-002   4.2823264904789937E-004
   8.2901237120864113E-002  -2.5237471553600455E-002   1.4683332056625309E-004
   8.0578711032065320E-002  -2.4265117095786715E-002   6.4544060164817285E-005
   7.8256184943266527E-002  -2.3349183932721868E-002   1.8136486784353645E-004
   7.5933658854467789E-002  -2.2489672064406219E-002   4.9729574360224404E-004
   7.9865605322487321E-002  -2.4617563141004828E-002   8.0096486058302552E-003
   7.7734020616623045E-002  -2.3667380221457923E-002   7.6574125793500980E-003
   7.5602435910758770E-002  -2.2760326555296945E-002   7.4879492506585987E-003
   7.3470851204894452E-002  -2.1896402142522538E-002   7.5012586197557019E-003
   7.1339266499030218E-002  -2.1075606983134154E-002   7.6973406866419625E-003
   7.4494554696526383E-002  -2.2968878975846430E-002   1.5505825708915011E-002
   7.2537574003305391E-002  -2.2097288889315669E-002   1.5096045025798921E-002
   7.0580593310084289E-002  -2.1255536014807952E-002   1.4852699670180519E-002
   6.8623612616863186E-002  -2.0443620352323430E-002   1.4775789642059563E-002
   6.6666631923642167E-002  -1.9661541901862145E-002   1.4865314941436281E-002
   6.9110611331780106E-002  -2.1320194810688031E-002   2.2916763958302222E-002
   6.7311897280910929E-002  -2.0527197557173332E-002   2.2462730659913450E-002
   6.5513183230041738E-002  -1.9750745474318515E-002   2.2158795318731023E-002
   6.3714469179172603E-002  -1.8990838562124322E-002   2.2004957934754831E-002
   6.1915755128303385E-002  -1.8247476820590219E-002   2.2001218507984699E-002
   6.3713775228248393E-002  -1.9671510645529633E-002   3.0242463353992055E-002
   6.2056990449439853E-002  -1.8957106225030856E-002   2.9757469481693249E-002
   6.0400205670631313E-002  -1.8245954933829273E-002   2.9406236196309832E-002
   5.8743420891822773E-002  -1.7538056771925013E-002   2.9188763497841261E-002
   5.7086636113014233E-002  -1.6833411739318183E-002   2.9105051386287606E-002
   7.5933658854467789E-002  -2.2489672064406219E-002   4.9729574360224404E-004
   7.2558435613653161E-002  -2.1640469847861943E-002   2.9208904434629979E-004
   6.9183212372838587E-002  -2.0755465640111104E-002   2.4693500237171762E-004
   6.5807989132023959E-002  -1.9834659441153951E-002   3.6183361767855304E-004
   6.2432765891209385E-002  -1.8878051250990624E-002   6.3678489026641749E-004
   7.1339266499030218E-002  -2.1075606983134154E-002   7.6973406866419625E-003
   6.8131547075103716E-002  -2.0262385602767885E-002   7.4532347703168411E-003
   6.4923827651177324E-002  -1.9421182527059572E-002   7.3840838304863321E-003
   6.1716108227250849E-002  -1.8551997756009124E-002   7.4898878671514346E-003
   5.8508388803324374E-002  -1.7654831289617090E-002   7.7706468803109274E-003
   6.6666631923642167E-002  -1.9661541901862145E-002   1.4865314941436281E-002
   6.3641318635817568E-002  -1.8884301357673883E-002   1.4574489512176964E-002
   6.0616005347993052E-002  -1.8086899414007707E-002   1.4473521378626508E-002
   5.7590692060168439E-002  -1.7269336070864186E-002   1.4562410540784929E-002
   5.4565378772343909E-002  -1.6431611328243056E-002   1.4841156998651933E-002
   6.1915755128303385E-002  -1.8247476820590219E-002   2.2001218507984699E-002
   5.9087750295794536E-002  -1.7506217112579631E-002   2.1655853269927312E-002
   5.6259745463285660E-002  -1.6752616300956119E-002   2.1515247646792177E-002
   5.3431740630776769E-002  -1.5986674385719414E-002   2.1579401638579597E-002
   5.0603735798267942E-002  -1.5208391366869495E-002   2.1848315245289664E-002
   5.7086636113014233E-002  -1.6833411739318183E-002   2.9105051386287606E-002
   5.4470842055034746E-002  -1.6128132867485684E-002   2.8697326043567062E-002
   5.1855047997055287E-002  -1.5418333187904393E-002   2.8509262634982907E-002
   4.9239253939075800E-002  -1.4704012700574552E-002   2.8540861160535252E-002
   4.6623459881096341E-002  -1.3985171405495711E-002   2.8792121620223821E-002
   6.2432765891209385E-002  -1.8878051250990624E-002   6.3678489026641749E-004
   5.9539899841373090E-002  -1.7928542874940834E-002   3.5692632824013693E-004
   5.6647033791536794E-002  -1.7029036118324042E-002   2.7855520027936231E-004
   5.3754167741700470E-002  -1.6179530981140493E-002   4.0167150638434346E-004
   5.0861301691864202E-002  -1.5380027463390844E-002   7.2627524655444198E-004
   5.8508388803324374E-002  -1.7654831289617090E-002   7.7706468803109274E-003
   5.5806984243009838E-002  -1.6760320399702766E-002   7.4204821967794321E-003
   5.3105579682695192E-002  -1.5899102358087031E-002   7.2517530582255074E-003
   5.0404175122380629E-002  -1.5071177164769418E-002   7.2644594646498473E-003
   4.7702770562065955E-002  -1.4276544819750603E-002   7.4586014160514802E-003
   5.4565378772343909E-002  -1.6431611328243056E-002   1.4841156998651933E-002
   5.2035383812463226E-002  -1.5592097924464976E-002   1.4437394964750189E-002
   4.9505388852582558E-002  -1.4769168597850255E-002   1.4195016586738732E-002
   4.6975393892701882E-002  -1.3962823348398126E-002   1.4114021864617139E-002
   4.4445398932821234E-002  -1.3173062176109807E-002   1.4194410798385348E-002
   5.0603735798267942E-002  -1.5208391366869495E-002   2.1848315245289664E-002
   4.8225098549733343E-002  -1.4423875449227047E-002   2.1407664632152844E-002
   4.5846461301198863E-002  -1.3639234837613139E-002   2.1108345785818366E-002
   4.3467824052664375E-002  -1.2854469532027164E-002   2.0950358706285831E-002
   4.1089186804129853E-002  -1.2069579532469510E-002   2.0933703393556061E-002
   4.6623459881096341E-002  -1.3985171405495711E-002   2.8792121620223821E-002
   4.4376128454820252E-002  -1.3255652973989451E-002   2.8331291198987085E-002
   4.2128797028544135E-002  -1.2509301077376300E-002   2.7991740655464448E-002
   3.9881465602268032E-002  -1.1746115715655994E-002   2.7773469989656602E-002
   3.7634134175991929E-002  -1.0966096888828991E-002   2.7676479201563353E-002
   5.0861301691864202E-002  -1.5380027463390844E-002   7.2627524655444198E-004
   4.8116308388551854E-002  -1.4586502386612521E-002   4.8986777647364033E-004
   4.5371315085239505E-002  -1.3754932572344336E-002   2.9101306302259378E-004
   4.2626321781927129E-002  -1.2885318020585360E-002   1.2971110620085824E-004
   3.9881328478614808E-002  -1.1977658731336271E-002   5.9619060088778042E-006
   4.7702770562065955E-002  -1.4276544819750603E-002   7.4586014160514802E-003
   4.5007655266315949E-002  -1.3487582550191002E-002   7.1656774148916025E-003
   4.2312539970565888E-002  -1.2676667583251644E-002   6.9349566722268774E-003
   3.9617424674815799E-002  -1.1843799918933237E-002   6.7664391880569164E-003
   3.6922309379065821E-002  -1.0988979557235545E-002   6.6601249623823300E-003
   4.4445398932821234E-002  -1.3173062176109807E-002   1.4194410798385348E-002
   4.1824812146498885E-002  -1.2388662713768706E-002   1.3828878226035402E-002
   3.9204225360176440E-002  -1.1598402594159590E-002   1.3550199414046088E-002
   3.6583638573854042E-002  -1.0802281817281552E-002   1.3358374362416617E-002
   3.3963051787531673E-002  -1.0000300383135152E-002   1.3253403071148140E-002
   4.1089186804129853E-002  -1.2069579532469510E-002   2.0933703393556061E-002
   3.8567779029100614E-002  -1.1289742877346798E-002   2.0479470209905246E-002
   3.6046371254071286E-002  -1.0520137605066995E-002   2.0136741288480142E-002
   3.3524963479041991E-002  -9.7607637156295370E-003   1.9905516629280844E-002
   3.1003555704012788E-002  -9.0116212090348147E-003   1.9785796232307501E-002
   3.7634134175991929E-002  -1.0966096888828991E-002   2.7676479201563353E-002
   3.5236555914121170E-002  -1.0190823040925001E-002   2.7117453366500732E-002
   3.2838977652250328E-002  -9.4418726159746225E-003   2.6694582295529456E-002
   3.0441399390379514E-002  -8.7192456139774110E-003   2.6407865988648999E-002
   2.8043821128508672E-002  -8.0229420349340330E-003   2.6257304445860163E-002
   3.9881328478614808E-002  -1.1977658731336271E-002   5.9619060088778042E-006
   3.7464315228714185E-002  -1.1134074494719481E-002  -2.8612331081534492E-004
   3.5047301978813616E-002  -1.0456685100858731E-002  -4.8533290289232145E-004
   3.2630288728913021E-002  -9.9454905497520230E-003  -5.9166687022199627E-004
   3.0213275479012425E-002  -9.6004908414006884E-003  -6.0512521280497999E-004
   3.6922309379065821E-002  -1.0988979557235545E-002   6.6601249623823300E-003
   3.4579667570630412E-002  -1.0178021653179714E-002   6.2113608425821143E-003
   3.2237025762195171E-002  -9.4767413617871110E-003   5.8184639809653049E-003
   2.9894383953759873E-002  -8.8851386830566259E-003   5.4814343775323182E-003
   2.7551742145324465E-002  -8.4032136169893690E-003   5.2002720322821272E-003
   3.3963051787531673E-002  -1.0000300383135152E-002   1.3253403071148140E-002
   3.1657773053997973E-002  -9.2219688116397247E-003   1.2704477278464521E-002
   2.9352494320464259E-002  -8.4967976227154907E-003   1.2174410377400691E-002
   2.7047215586930566E-002  -7.8247868163614509E-003   1.1663202367956690E-002
   2.4741936853396845E-002  -7.2059363925778275E-003   1.1170853250132007E-002
   3.1003555704012788E-002  -9.0116212090348147E-003   1.9785796232307501E-002
   2.8698631678816811E-002  -8.2659159700998464E-003   1.9193225996832486E-002
   2.6393707653620983E-002  -7.5168538836438703E-003   1.8582506286413641E-002
   2.4088783628425127E-002  -6.7644349496659428E-003   1.7953637101050995E-002
   2.1783859603229240E-002  -6.0086591681666190E-003   1.7306618440744118E-002
   2.8043821128508672E-002  -8.0229420349340330E-003   2.6257304445860163E-002
   2.5702243445087036E-002  -7.3098631285599125E-003   2.5677606997686286E-002
   2.3360665761665345E-002  -6.5369101445721944E-003   2.5042751708004407E-002
   2.1019088078243625E-002  -5.7040830829704764E-003   2.4352738576815136E-002
   1.8677510394821961E-002  -4.8113819437549665E-003   2.3607567604117974E-002
   3.0213275479012425E-002  -9.6004908414006884E-003  -6.0512521280497999E-004
   2.9605272929032589E-002  -9.1345043794038849E-003  -3.6005435710295686E-004
   2.8997270379052753E-002  -8.2603495673601590E-003  -1.7968919894409963E-003
   2.8389267829072945E-002  -6.9780264052707458E-003  -4.9156381098178215E-003
   2.7781265279093081E-002  -5.2875348931344934E-003  -9.7162927182348202E-003
   2.7551742145324465E-002  -8.4032136169893690E-003   5.2002720322821272E-003
   2.5531356026048280E-002  -7.8705634313724904E-003   5.8762439493915686E-003
   2.3510969906772011E-002  -7.1267853939956938E-003   5.4093572159468750E-003
   2.1490583787495812E-002  -6.1718795048575636E-003   3.7996118319487959E-003
   1.9470197668219558E-002  -5.0058457639585718E-003   1.0470077973976366E-003
   2.4741936853396845E-002  -7.2059363925778275E-003   1.1170853250132007E-002
   2.1848217002310488E-002  -6.6066224833420395E-003   1.2080685730362362E-002
   1.8954497151224117E-002  -5.9932212206309787E-003   1.2386709397525592E-002
   1.6060777300137753E-002  -5.3657326044443746E-003   1.2088924251622349E-002
   1.3167057449051361E-002  -4.7241566347825392E-003   1.1187330292651898E-002
   2.1783859603229240E-002  -6.0086591681666190E-003   1.7306618440744118E-002
   1.8555855857819062E-002  -5.3426815353111168E-003   1.8253270985810158E-002
   1.5327852112408853E-002  -4.8596570472661665E-003   1.9135164555295479E-002
   1.2099848366998693E-002  -4.5595857040311889E-003   1.9952299149200801E-002
   8.8718446215884650E-003  -4.4424675056061180E-003   2.0704674767524620E-002
   1.8677510394821961E-002  -4.8113819437549665E-003   2.3607567604117974E-002
   1.5654272592574181E-002  -4.0787405872802496E-003   2.4393999715734971E-002
   1.2631034790326429E-002  -3.7260928739015209E-003   2.5654722689257059E-002
   9.6077969880786485E-003  -3.7534388036179339E-003   2.7389736524684960E-002
   6.5845591858308961E-003  -4.1607783764301409E-003   2.9599041222018396E-002
   2.7781265279093081E-002  -5.2875348931344934E-003  -9.7162927182348202E-003
   2.3354446319318822E-002  -4.2063656215058920E-003  -4.1882245595772361E-003
   1.8927627359544508E-002  -4.7520091809366005E-003   2.6041325962087303E-003
   1.4500808399770304E-002  -6.9244655714297415E-003   1.0660778749122912E-002
   1.0073989439995934E-002  -1.0723734792981610E-002   1.9981713899166031E-002
   1.9470197668219558E-002  -5.0058457639585718E-003   1.0470077973976366E-003
   1.6235259593150420E-002  -4.6904960244834593E-003   6.7409408925033221E-003
   1.3000321518081448E-002  -6.2876421396159676E-003   1.3554346759890312E-002
   9.7653834430122266E-003  -9.7972841093574015E-003   2.1487225399558663E-002
   6.5304453679431163E-003  -1.5219421933706734E-002   3.0539576811509317E-002
   1.3167057449051361E-002  -4.7241566347825392E-003   1.1187330292651898E-002
   1.0979184033840766E-002  -5.1746264274610265E-003   1.6761445300656541E-002
   8.7913106186302409E-003  -7.8232750982948629E-003   2.3310216856096161E-002
   6.6034372034196875E-003  -1.2670102647285610E-002   3.0833644958972214E-002
   4.4155637882090648E-003  -1.9715109074431858E-002   3.9331729609282995E-002
   8.8718446215884650E-003  -4.4424675056061180E-003   2.0704674767524620E-002
   7.5862196413898908E-003  -5.6587568304383717E-003   2.5873288664881811E-002
   6.3005946611914276E-003  -9.3589080569742161E-003   3.1871742884827518E-002
   5.0149696809928326E-003  -1.5542921185213544E-002   3.8700037427361764E-002
   3.7293447007942793E-003  -2.4210796215156982E-002   4.6358172292485234E-002
   6.5845591858308961E-003  -4.1607783764301409E-003   2.9599041222018396E-002
   6.0563664157977648E-003  -6.1428872334166051E-003   3.4076470985179741E-002
   5.5281736457645503E-003  -1.0894541015653403E-002   3.9238924846083711E-002
   4.9999808757314468E-003  -1.8415739723141825E-002   4.5086402804729475E-002
   4.4717881056982600E-003  -2.8706483355882106E-002   5.1618904861117088E-002
   7.7936796993067936E-002  -2.2648113136656323E-002   3.0260920908949440E-002
   7.4381041551862981E-002  -2.1882872785649099E-002   2.9726990068171533E-002
   7.0825286110658109E-002  -2.1131692253458914E-002   2.9545936862085981E-002
   6.7269530669453223E-002  -2.0394571540085785E-002   2.9717761290692743E-002
   6.3713775228248393E-002  -1.9671510645529633E-002   3.0242463353992055E-002
   7.1210463008635039E-002  -2.0695092757092692E-002   3.4517466673146813E-002
   6.7994588297560110E-002  -2.0051053738225716E-002   3.4145443380389606E-002
   6.4778713586485320E-002  -1.9396982104421048E-002   3.4100303913199959E-002
   6.1562838875410489E-002  -1.8732877855678554E-002   3.4382048271577897E-002
   5.8346964164335630E-002  -1.8058740991998362E-002   3.4990676455523534E-002
   6.4661047078725040E-002  -1.8742072377529062E-002   3.8640764888326587E-002
   6.1759059288655438E-002  -1.8219234690802388E-002   3.8454741577344839E-002
   5.8857071498585718E-002  -1.7662271955383176E-002   3.8569608282806055E-002
   5.5955083708516096E-002  -1.7071184171271375E-002   3.8985365004709879E-002
   5.3053095918446397E-002  -1.6445971338467036E-002   3.9702011743056598E-002
   5.8288549203337994E-002  -1.6789051997965446E-002   4.2630815554488374E-002
   5.5674454525148645E-002  -1.6387415643379047E-002   4.2654884659037121E-002
   5.3060359846959303E-002  -1.5927561806345306E-002   4.2953849970903943E-002
   5.0446265168769981E-002  -1.5409490486864172E-002   4.3527711490088619E-002
   4.7832170490580625E-002  -1.4833201684935710E-002   4.4376469216591143E-002
   5.2092969382473875E-002  -1.4836031618401802E-002   4.6487618671632758E-002
   4.9740774007040023E-002  -1.4555596595955705E-002   4.6745872625466756E-002
   4.7388578631606115E-002  -1.4192851657307382E-002   4.7253028977493783E-002
   4.5036383256172208E-002  -1.3747796802456996E-002   4.8009087727714006E-002
   4.2684187880738328E-002  -1.3220432031404383E-002   4.9014048876127092E-002
   6.3713775228248393E-002  -1.9671510645529633E-002   3.0242463353992055E-002
   6.2056990449439853E-002  -1.8957106225030856E-002   2.9757469481693249E-002
   6.0400205670631313E-002  -1.8245954933829273E-002   2.9406236196309832E-002
   5.8743420891822773E-002  -1.7538056771925013E-002   2.9188763497841261E-002
   5.7086636113014233E-002  -1.6833411739318183E-002   2.9105051386287606E-002
   5.8346964164335630E-002  -1.8058740991998362E-002   3.4990676455523534E-002
   5.6821512379702871E-002  -1.7383681898015396E-002   3.4570477166694452E-002
   5.5296060595070071E-002  -1.6716810958364699E-002   3.4279183279301628E-002
   5.3770608810437256E-002  -1.6058128173046207E-002   3.4116794793345388E-002
   5.2245157025804512E-002  -1.5407633542060262E-002   3.4083311708825559E-002
   5.3053095918446397E-002  -1.6445971338467036E-002   3.9702011743056598E-002
   5.1654121942510831E-002  -1.5810257571000005E-002   3.9341672012661776E-002
   5.0255147966575292E-002  -1.5187666982900236E-002   3.9105382498225053E-002
   4.8856173990639740E-002  -1.4578199574167571E-002   3.8993143199746227E-002
   4.7457200014704173E-002  -1.3981855344802230E-002   3.9004954117225571E-002
   4.7832170490580625E-002  -1.4833201684935710E-002   4.4376469216591143E-002
   4.6554819137863815E-002  -1.4236833243984635E-002   4.4071054019595934E-002
   4.5277467785146977E-002  -1.3658523007435718E-002   4.3884833853080105E-002
   4.4000116432430139E-002  -1.3098270975288822E-002   4.3817808717043806E-002
   4.2722765079713322E-002  -1.2556077147544170E-002   4.3869978611487039E-002
   4.2684187880738328E-002  -1.3220432031404383E-002   4.9014048876127092E-002
   4.1523603965761713E-002  -1.2663408916969210E-002   4.8758623187496575E-002
   4.0363020050785126E-002  -1.2129379031971213E-002   4.8617537343866979E-002
   3.9202436135808517E-002  -1.1618342376410049E-002   4.8590791345238221E-002
   3.8041852220831923E-002  -1.1130298950286277E-002   4.8678385191610551E-002
   5.7086636113014233E-002  -1.6833411739318183E-002   2.9105051386287606E-002
   5.4470842055034746E-002  -1.6128132867485684E-002   2.8697326043567062E-002
   5.1855047997055287E-002  -1.5418333187904393E-002   2.8509262634982907E-002
   4.9239253939075800E-002  -1.4704012700574552E-002   2.8540861160535252E-002
   4.6623459881096341E-002  -1.3985171405495711E-002   2.8792121620223821E-002
   5.2245157025804512E-002  -1.5407633542060262E-002   3.4083311708825559E-002
   4.9844429327209228E-002  -1.4756386373696417E-002   3.3731619885880942E-002
   4.7443701628613999E-002  -1.4095445976244403E-002   3.3590398847568412E-002
   4.5042973930018743E-002  -1.3424812349704981E-002   3.3659648593888140E-002
   4.2642246231423514E-002  -1.2744485494077418E-002   3.3939369124839858E-002
   4.7457200014704173E-002  -1.3981855344802230E-002   3.9004954117225571E-002
   4.5262347525989004E-002  -1.3384639879906943E-002   3.8714468235395594E-002
   4.3067495037273890E-002  -1.2772558764584704E-002   3.8625261988693649E-002
   4.0872642548558713E-002  -1.2145611998835414E-002   3.8737335377119882E-002
   3.8677790059843606E-002  -1.1503799582659124E-002   3.9050688400673966E-002
   4.2722765079713322E-002  -1.2556077147544170E-002   4.3869978611487039E-002
   4.0724596651374144E-002  -1.2012893386117572E-002   4.3645871092111252E-002
   3.8726428223034973E-002  -1.1449671552924805E-002   4.3613852058359173E-002
   3.6728259794695746E-002  -1.0866411647965929E-002   4.3773921510230837E-002
   3.4730091366356561E-002  -1.0263113671240776E-002   4.4126079447726702E-002
   3.8041852220831923E-002  -1.1130298950286277E-002   4.8678385191610551E-002
   3.6231176703364565E-002  -1.0641146892328174E-002   4.8525828456027709E-002
   3.4420501185897207E-002  -1.0126784341265044E-002   4.8556169056564624E-002
   3.2609825668429862E-002  -9.5872112970963111E-003   4.8769406993221409E-002
   3.0799150150962518E-002  -9.0224277598224267E-003   4.9165542265997675E-002
   4.6623459881096341E-002  -1.3985171405495711E-002   2.8792121620223821E-002
   4.4376128454820252E-002  -1.3255652973989451E-002   2.8331291198987085E-002
   4.2128797028544135E-002  -1.2509301077376300E-002   2.7991740655464448E-002
   3.9881465602268032E-002  -1.1746115715655994E-002   2.7773469989656602E-002
   3.7634134175991929E-002  -1.0966096888828991E-002   2.7676479201563353E-002
   4.2642246231423514E-002  -1.2744485494077418E-002   3.3939369124839858E-002
   4.0523879073036978E-002  -1.2052699637203373E-002   3.3518009691126949E-002
   3.8405511914650442E-002  -1.1347689006924219E-002   3.3233298915478771E-002
   3.6287144756263920E-002  -1.0629453603239591E-002   3.3085236797895046E-002
   3.4168777597877370E-002  -9.8979934261497204E-003   3.3073823338376163E-002
   3.8677790059843606E-002  -1.1503799582659124E-002   3.9050688400673966E-002
   3.6703755949696742E-002  -1.0849746300417518E-002   3.8665191262783630E-002
   3.4729721839549831E-002  -1.0186076936472360E-002   3.8431711563307824E-002
   3.2755687729402946E-002  -9.5127914908232983E-003   3.8350249302246869E-002
   3.0781653619256055E-002  -8.8298899634706718E-003   3.8420804479600557E-002
   3.4730091366356561E-002  -1.0263113671240776E-002   4.4126079447726702E-002
   3.2915759084799448E-002  -9.6467929636317173E-003   4.3772835913957378E-002
   3.1101426803242273E-002  -9.0244648660203902E-003   4.3586978598952365E-002
   2.9287094521685129E-002  -8.3961293784071168E-003   4.3568507502712447E-002
   2.7472762240127985E-002  -7.7617865007915676E-003   4.3717422625237229E-002
   3.0799150150962518E-002  -9.0224277598224267E-003   4.9165542265997675E-002
   2.9159888478345164E-002  -8.4438396268457505E-003   4.8840943644647306E-002
   2.7520626805727838E-002  -7.8628527955685590E-003   4.8699100022412012E-002
   2.5881365133110512E-002  -7.2794672659906093E-003   4.8740011399291516E-002
   2.4242103460493158E-002  -6.6936830381124635E-003   4.8963677775285763E-002
   3.7634134175991929E-002  -1.0966096888828991E-002   2.7676479201563353E-002
   3.5236555914121170E-002  -1.0190823040925001E-002   2.7117453366500732E-002
   3.2838977652250328E-002  -9.4418726159746225E-003   2.6694582295529456E-002
   3.0441399390379514E-002  -8.7192456139774110E-003   2.6407865988648999E-002
   2.8043821128508672E-002  -8.0229420349340330E-003   2.6257304445860163E-002
   3.4168777597877370E-002  -9.8979934261497204E-003   3.3073823338376163E-002
   3.1910771687834016E-002  -9.1685504959863051E-003   3.2574656345437047E-002
   2.9652765777790593E-002  -8.4563668330810415E-003   3.2218479292062063E-002
   2.7394759867747247E-002  -7.7614424374333468E-003   3.2005292178250572E-002
   2.5136753957703817E-002  -7.0837773090439704E-003   3.1935095004002878E-002
   3.0781653619256055E-002  -8.8298899634706718E-003   3.8420804479600557E-002
   2.8670055236512615E-002  -8.1462779510475536E-003   3.7990560484480795E-002
   2.6558456853769091E-002  -7.4708610501870165E-003   3.7710141604397299E-002
   2.4446858471025630E-002  -6.8036392608892826E-003   3.7579547839350039E-002
   2.2335260088282127E-002  -6.1446125831543519E-003   3.7598779189338627E-002
   2.7472762240127985E-002  -7.7617865007915676E-003   4.3717422625237229E-002
   2.5514406560156938E-002  -7.1240054061087743E-003   4.3365165783631865E-002
   2.3556050880185853E-002  -6.4853552672932691E-003   4.3169569232535294E-002
   2.1597695200214824E-002  -5.8458360843451629E-003   4.3130632971947358E-002
   1.9639339520243729E-002  -5.2054478572644558E-003   4.3248357001867896E-002
   2.4242103460493158E-002  -6.6936830381124635E-003   4.8963677775285763E-002
   2.2443825658766986E-002  -6.1017328611699950E-003   4.8698472242890201E-002
   2.0645547857040814E-002  -5.4998494843994661E-003   4.8596762176475905E-002
   1.8847270055314655E-002  -4.8880329078011681E-003   4.8658547576042765E-002
   1.7048992253588496E-002  -4.2662831313747818E-003   4.8883828441590782E-002
   2.8043821128508672E-002  -8.0229420349340330E-003   2.6257304445860163E-002
   2.5702243445087036E-002  -7.3098631285599125E-003   2.5677606997686286E-002
   2.3360665761665345E-002  -6.5369101445721944E-003   2.5042751708004407E-002
   2.1019088078243625E-002  -5.7040830829704764E-003   2.4352738576815136E-002
   1.8677510394821961E-002  -4.8113819437549665E-003   2.3607567604117974E-002
   2.5136753957703817E-002  -7.0837773090439704E-003   3.1935095004002878E-002
   2.2778935089849794E-002  -6.4070944446736333E-003   3.1537471922704452E-002
   2.0421116221995758E-002  -5.7151168410836117E-003   3.1162524314048812E-002
   1.8063297354141764E-002  -5.0078444982729897E-003   3.0810252178036304E-002
   1.5705478486287699E-002  -4.2852774162425167E-003   3.0480655514666777E-002
   2.2335260088282127E-002  -6.1446125831543519E-003   3.7598779189338627E-002
   2.0039033350146410E-002  -5.5043257607874929E-003   3.7338651136521878E-002
   1.7742806612010706E-002  -4.8933235375945017E-003   3.7179031870498896E-002
   1.5446579873875023E-002  -4.3116059135753990E-003   3.7119921391269392E-002
   1.3150353135739284E-002  -3.7591728887300668E-003   3.7161319698833462E-002
   1.9639339520243729E-002  -5.2054478572644558E-003   4.3248357001867896E-002
   1.7482538225977000E-002  -4.6015570769013941E-003   4.3081144639139299E-002
   1.5325736931710261E-002  -4.0715302341057108E-003   4.3092274377354474E-002
   1.3168935637443540E-002  -3.6153673288778602E-003   4.3281746216513900E-002
   1.1012134343176792E-002  -3.2330683612175060E-003   4.3649560156618070E-002
   1.7048992253588496E-002  -4.2662831313747818E-003   4.8883828441590782E-002
   1.5109449717341433E-002  -3.6987883930149623E-003   4.8764952430555897E-002
   1.3169907181094384E-002  -3.2497369306167811E-003   4.8902251834615718E-002
   1.1230364644847300E-002  -2.9191287441802591E-003   4.9295726653770772E-002
   9.2908221086002718E-003  -2.7069638337050561E-003   4.9945376888020698E-002
   1.8677510394821961E-002  -4.8113819437549665E-003   2.3607567604117974E-002
   1.5654272592574181E-002  -4.0787405872802496E-003   2.4393999715734971E-002
   1.2631034790326429E-002  -3.7260928739015209E-003   2.5654722689257059E-002
   9.6077969880786485E-003  -3.7534388036179339E-003   2.7389736524684960E-002
   6.5845591858308961E-003  -4.1607783764301409E-003   2.9599041222018396E-002
   1.5705478486287699E-002  -4.2852774162425167E-003   3.0480655514666777E-002
   1.3138046846997903E-002  -3.7733345364225901E-003   3.1257241091953158E-002
   1.0570615207708231E-002  -3.6979348002443846E-003   3.2471148133250333E-002
   8.0031835684185038E-003  -4.0590782077074006E-003   3.4122376638557897E-002
   5.4357519291287626E-003  -4.8567647588120266E-003   3.6210926607875948E-002
   1.3150353135739284E-002  -3.7591728887300668E-003   3.7161319698833462E-002
   1.1001758261512534E-002  -3.4679284855652359E-003   3.7871509241244078E-002
   8.8531633872857632E-003  -3.6697767265874981E-003   3.8982050849770494E-002
   6.7045685130589852E-003  -4.3647176117968742E-003   4.0492944524411587E-002
   4.5559736388322419E-003  -5.5527511411934682E-003   4.2404190265168784E-002
   1.1012134343176792E-002  -3.2330683612175060E-003   4.3649560156618070E-002
   9.2454068361178879E-003  -3.1625224347080066E-003   4.4236804163607271E-002
   7.4786793290590146E-003  -3.6416186529307087E-003   4.5187430838816357E-002
   5.7119518220000946E-003  -4.6703570158864553E-003   4.6501440182246376E-002
   3.9452243149412335E-003  -6.2487375235749099E-003   4.8178832193896279E-002
   9.2908221086002718E-003  -2.7069638337050561E-003   4.9945376888020698E-002
   7.8689925708141373E-003  -2.8571163838501668E-003   5.0353125859042391E-002
   6.4471630330280305E-003  -3.6134605792734198E-003   5.1087288100389372E-002
   5.0253334952419099E-003  -4.9759964199758561E-003   5.2147863612061918E-002
   3.6035039574557892E-003  -6.9447239059566845E-003   5.3534852394059196E-002
   6.5845591858308961E-003  -4.1607783764301409E-003   2.9599041222018396E-002
   6.0563664157977648E-003  -6.1428872334166051E-003   3.4076470985179741E-002
   5.5281736457645503E-003  -1.0894541015653403E-002   3.9238924846083711E-002
   4.9999808757314468E-003  -1.8415739723141825E-002   4.5086402804729475E-002
   4.4717881056982600E-003  -2.8706483355882106E-002   5.1618904861117088E-002
   5.4357519291287626E-003  -4.8567647588120266E-003   3.6210926607875948E-002
   5.4888016620744384E-003  -6.9908541555036563E-003   3.8350700006287319E-002
   5.5418513950201420E-003  -1.1361206099728960E-002   4.0967934312914012E-002
   5.5949011279658387E-003  -1.7967820591487813E-002   4.4062629527756275E-002
   5.6479508609115769E-003  -2.6810697630780478E-002   4.7634785650814804E-002
   4.5559736388322419E-003  -5.5527511411934682E-003   4.2404190265168784E-002
   4.9827026852302114E-003  -7.8388210775914846E-003   4.2739589676547562E-002
   5.4094317316281740E-003  -1.1827871183804822E-002   4.3344886806615468E-002
   5.8361607780261365E-003  -1.7519901459833905E-002   4.4220081655372528E-002
   6.2628898244240505E-003  -2.4914911905678627E-002   4.5365174222818272E-002
   3.9452243149412335E-003  -6.2487375235749099E-003   4.8178832193896279E-002
   4.5380694852649173E-003  -8.6867879996789243E-003   4.7243139995961178E-002
   5.1309146555886254E-003  -1.2294536267880310E-002   4.6369782327187990E-002
   5.7237598259123230E-003  -1.7071982328180055E-002   4.5558759187577041E-002
   6.3166049962359652E-003  -2.3019126180576888E-002   4.4810070577129435E-002
   3.6035039574557892E-003  -6.9447239059566845E-003   5.3534852394059196E-002
   4.1549020621786670E-003  -9.5347549217668082E-003   5.1861350964527153E-002
   4.7063001669015170E-003  -1.2761201351956492E-002   5.0042620874631349E-002
   5.2576982716244225E-003  -1.6624063196525880E-002   4.8078662124370813E-002
   5.8090963763471892E-003  -2.1123340455475148E-002   4.5969474713746905E-002
   5.2092969382473875E-002  -1.4836031618401802E-002   4.6487618671632758E-002
   4.9740774007040023E-002  -1.4555596595955705E-002   4.6745872625466756E-002
   4.7388578631606115E-002  -1.4192851657307382E-002   4.7253028977493783E-002
   4.5036383256172208E-002  -1.3747796802456996E-002   4.8009087727714006E-002
   4.2684187880738328E-002  -1.3220432031404383E-002   4.9014048876127092E-002
   4.5889088190011224E-002  -1.2963780243438416E-002   5.0719228931978166E-002
   4.3795022072161710E-002  -1.2715393730784785E-002   5.0869127275380649E-002
   4.1700955954312197E-002  -1.2397440478539107E-002   5.1286381735759057E-002
   3.9606889836462683E-002  -1.2009920486701346E-002   5.1970992313112946E-002
   3.7512823718613142E-002  -1.1552833755271719E-002   5.2922959007442649E-002
   3.9491686199828721E-002  -1.1091528868475004E-002   5.4925162270836214E-002
   3.7674203058346192E-002  -1.0875190865613851E-002   5.4953961827197140E-002
   3.5856719916863705E-002  -1.0602029299770804E-002   5.5268571219316498E-002
   3.4039236775381197E-002  -1.0272044170945863E-002   5.5868990447194233E-002
   3.2221753633898724E-002  -9.8852354791389707E-003   5.6755219510830276E-002
   3.2900763411926104E-002  -9.2192774935116184E-003   5.9105418688206707E-002
   3.1378316965593372E-002  -9.0349880004429242E-003   5.9000376280916013E-002
   2.9855870519260592E-002  -8.8066181210024880E-003   5.9199597428166245E-002
   2.8333424072927851E-002  -8.5341678551903236E-003   5.9703082129957570E-002
   2.6810977626595088E-002  -8.2176372030062644E-003   6.0510830386290071E-002
   2.6116319826303719E-002  -7.3470261185482055E-003   6.3259998184090060E-002
   2.4907363793903320E-002  -7.1947851352719694E-003   6.3008370636537359E-002
   2.3698407761502963E-002  -7.0112069422342133E-003   6.3079460362308409E-002
   2.2489451729102612E-002  -6.7962915394347116E-003   6.3473267361403199E-002
   2.1280495696702220E-002  -6.5500389268735582E-003   6.4189791633821769E-002
   4.2684187880738328E-002  -1.3220432031404383E-002   4.9014048876127092E-002
   4.1523603965761713E-002  -1.2663408916969210E-002   4.8758623187496575E-002
   4.0363020050785126E-002  -1.2129379031971213E-002   4.8617537343866979E-002
   3.9202436135808517E-002  -1.1618342376410049E-002   4.8590791345238221E-002
   3.8041852220831923E-002  -1.1130298950286277E-002   4.8678385191610551E-002
   3.7512823718613142E-002  -1.1552833755271719E-002   5.2922959007442649E-002
   3.6474818595358643E-002  -1.1069677963212912E-002   5.2535855419058405E-002
   3.5436813472104173E-002  -1.0603950789488323E-002   5.2279569569117446E-002
   3.4398808348849681E-002  -1.0155652234097642E-002   5.2154101457619742E-002
   3.3360803225595190E-002  -9.7247822970411013E-003   5.2159451084565239E-002
   3.2221753633898724E-002  -9.8852354791389707E-003   5.6755219510830276E-002
   3.1322805195808656E-002  -9.4759470094566700E-003   5.6242002633795404E-002
   3.0423856757718557E-002  -9.0785225470054257E-003   5.5876081388646144E-002
   2.9524908319628465E-002  -8.6929620917850659E-003   5.5657455775382364E-002
   2.8625959881538390E-002  -8.3192656437959256E-003   5.5586125794004099E-002
   2.6810977626595088E-002  -8.2176372030062644E-003   6.0510830386290071E-002
   2.6067563767111682E-002  -7.8822160557003446E-003   5.9877064831707530E-002
   2.5324149907628275E-002  -7.5530943045225320E-003   5.9407072802452915E-002
   2.4580736048144886E-002  -7.2302719494725188E-003   5.9100854298525927E-002
   2.3837322188661466E-002  -6.9137489905507499E-003   5.8958409319927026E-002
   2.1280495696702220E-002  -6.5500389268735582E-003   6.4189791633821769E-002
   2.0709094309267775E-002  -6.2884851019441024E-003   6.3441042012794713E-002
   2.0137692921833344E-002  -6.0276660620396383E-003   6.2872543810537751E-002
   1.9566291534398907E-002  -5.7675818071600549E-003   6.2484297027050884E-002
   1.8994890146964455E-002  -5.5082323373055742E-003   6.2276301662334110E-002
   3.8041852220831923E-002  -1.1130298950286277E-002   4.8678385191610551E-002
   3.6231176703364565E-002  -1.0641146892328174E-002   4.8525828456027709E-002
   3.4420501185897207E-002  -1.0126784341265044E-002   4.8556169056564624E-002
   3.2609825668429862E-002  -9.5872112970963111E-003   4.8769406993221409E-002
   3.0799150150962518E-002  -9.0224277598224267E-003   4.9165542265997675E-002
   3.3360803225595190E-002  -9.7247822970411013E-003   5.2159451084565239E-002
   3.1741442958055283E-002  -9.2916504916086828E-003   5.1985099338065277E-002
   3.0122082690515382E-002  -8.8365663310907561E-003   5.2010480755300750E-002
   2.8502722422975493E-002  -8.3595298154873487E-003   5.2235595336271180E-002
   2.6883362155435575E-002  -7.8605409447981001E-003   5.2660443080976560E-002
   2.8625959881538390E-002  -8.3192656437959256E-003   5.5586125794004099E-002
   2.7214750691541278E-002  -7.9421540908891503E-003   5.5386720898567610E-002
   2.5803541501544118E-002  -7.5463483209165655E-003   5.5403884994481553E-002
   2.4392332311546975E-002  -7.1318483338779388E-003   5.5637618081745992E-002
   2.2981123121549873E-002  -6.6986541297733848E-003   5.6087920160360821E-002
   2.3837322188661466E-002  -6.9137489905507499E-003   5.8958409319927026E-002
   2.2651099903822469E-002  -6.5926576901696940E-003   5.8730693137534234E-002
   2.1464877618983497E-002  -6.2561303107422708E-003   5.8736381774107296E-002
   2.0278655334144503E-002  -5.9041668522686972E-003   5.8975475229646114E-002
   1.9092433049305496E-002  -5.5367673147488639E-003   5.9447973504150840E-002
   1.8994890146964455E-002  -5.5082323373055742E-003   6.2276301662334110E-002
   1.8050490594898938E-002  -5.2431612894501267E-003   6.2017016054965457E-002
   1.7106091042833435E-002  -4.9659123005681427E-003   6.2007971094177883E-002
   1.6161691490767925E-002  -4.6764853706594695E-003   6.2249166779971499E-002
   1.5217291938702415E-002  -4.3748804997242319E-003   6.2740603112346194E-002
   3.0799150150962518E-002  -9.0224277598224267E-003   4.9165542265997675E-002
   2.9159888478345164E-002  -8.4438396268457505E-003   4.8840943644647306E-002
   2.7520626805727838E-002  -7.8628527955685590E-003   4.8699100022412012E-002
   2.5881365133110512E-002  -7.2794672659906093E-003   4.8740011399291516E-002
   2.4242103460493158E-002  -6.6936830381124635E-003   4.8963677775285763E-002
   2.6883362155435575E-002  -7.8605409447981001E-003   5.2660443080976560E-002
   2.5429909699887426E-002  -7.3488691362411651E-003   5.2355353748697042E-002
   2.3976457244339319E-002  -6.8337838070346157E-003   5.2239127851440997E-002
   2.2523004788791191E-002  -6.3152849571787087E-003   5.2311765389208745E-002
   2.1069552333243091E-002  -5.7933725866731733E-003   5.2573266361999771E-002
   2.2981123121549873E-002  -6.6986541297733848E-003   5.6087920160360821E-002
   2.1719588318979695E-002  -6.2538986456366075E-003   5.5803354939501032E-002
   2.0458053516409572E-002  -5.8047148185009362E-003   5.5713761589573696E-002
   1.9196518713839428E-002  -5.3511026483668046E-003   5.5819140110578626E-002
   1.7934983911269270E-002  -4.8930621352338277E-003   5.6119490502515856E-002
   1.9092433049305496E-002  -5.5367673147488639E-003   5.9447973504150840E-002
   1.8028924335622046E-002  -5.1589281550319249E-003   5.9184947217059823E-002
   1.6965415621938599E-002  -4.7756458299671803E-003   5.9123001236810080E-002
   1.5901906908255138E-002  -4.3869203395546803E-003   5.9262135563401278E-002
   1.4838398194571702E-002  -3.9927516837944543E-003   5.9602350196833645E-002
   1.5217291938702415E-002  -4.3748804997242319E-003   6.2740603112346194E-002
   1.4357917749814403E-002  -4.0639576644274644E-003   6.2500130581373270E-002
   1.3498543560926404E-002  -3.7465768414333411E-003   6.2466846793150121E-002
   1.2639169372038406E-002  -3.4227380307429237E-003   6.2640751747676915E-002
   1.1779795183150393E-002  -3.0924412323551920E-003   6.3021845444953595E-002
   2.4242103460493158E-002  -6.6936830381124635E-003   4.8963677775285763E-002
   2.2443825658766986E-002  -6.1017328611699950E-003   4.8698472242890201E-002
   2.0645547857040814E-002  -5.4998494843994661E-003   4.8596762176475905E-002
   1.8847270055314655E-002  -4.8880329078011681E-003   4.8658547576042765E-002
   1.7048992253588496E-002  -4.2662831313747818E-003   4.8883828441590782E-002
   2.1069552333243091E-002  -5.7933725866731733E-003   5.2573266361999771E-002
   1.9445430806857886E-002  -5.2681249195913327E-003   5.2363299480405912E-002
   1.7821309280472722E-002  -4.7396201800064403E-003   5.2338149683512775E-002
   1.6197187754087544E-002  -4.2078583679194363E-003   5.2497816971320416E-002
   1.4573066227702353E-002  -3.6728394833288602E-003   5.2842301343829057E-002
   1.7934983911269270E-002  -4.8930621352338277E-003   5.6119490502515856E-002
   1.6506340278944785E-002  -4.4345169780127258E-003   5.5958086144398303E-002
   1.5077696646620266E-002  -3.9793908756137475E-003   5.6002820489701205E-002
   1.3649053014295750E-002  -3.5276838280373715E-003   5.6253693538424743E-002
   1.2220409381971255E-002  -3.0793958352831052E-003   5.6710705290568680E-002
   1.4838398194571702E-002  -3.9927516837944543E-003   5.9602350196833645E-002
   1.3626554075027551E-002  -3.6009090364340357E-003   5.9482832234867333E-002
   1.2414709955483414E-002  -3.2191615712211658E-003   5.9590774595041189E-002
   1.1202865835939239E-002  -2.8475092881554732E-003   5.9926177277355303E-002
   9.9910217163951213E-003  -2.4859521872372670E-003   6.0489040281809577E-002
   1.1779795183150393E-002  -3.0924412323551920E-003   6.3021845444953595E-002
   1.0806072195106292E-002  -2.7673010948554011E-003   6.2937537751813155E-002
   9.8323492070621910E-003  -2.4589322668280844E-003   6.3102011999532914E-002
   8.8586262190180898E-003  -2.1673347482736444E-003   6.3515268188112567E-002
   7.8849032309739886E-003  -1.8925085391915397E-003   6.4177306317552141E-002
   1.7048992253588496E-002  -4.2662831313747818E-003   4.8883828441590782E-002
   1.5109449717341433E-002  -3.6987883930149623E-003   4.8764952430555897E-002
   1.3169907181094384E-002  -3.2497369306167811E-003   4.8902251834615718E-002
   1.1230364644847300E-002  -2.9191287441802591E-003   4.9295726653770772E-002
   9.2908221086002718E-003  -2.7069638337050561E-003   4.9945376888020698E-002
   1.4573066227702353E-002  -3.6728394833288602E-003   5.2842301343829057E-002
   1.2888648786052684E-002  -3.1944099968487238E-003   5.2728204620108965E-002
   1.1204231344402973E-002  -2.8324163790917345E-003   5.2868182670488706E-002
   9.5198139027532769E-003  -2.5868586300577603E-003   5.3262235494968113E-002
   7.8353964611035942E-003  -2.4577367497470304E-003   5.3910363093547298E-002
   1.2220409381971255E-002  -3.0793958352831052E-003   5.6710705290568680E-002
   1.0789016393923628E-002  -2.6900316006824299E-003   5.6603395261402067E-002
   9.3576234058760331E-003  -2.4150958275662576E-003   5.6748059365339873E-002
   7.9262304178284084E-003  -2.2545885159352651E-003   5.7144697602382034E-002
   6.4948374297808115E-003  -2.2085096657889491E-003   5.7793309972528906E-002
   9.9910217163951213E-003  -2.4859521872372670E-003   6.0489040281809577E-002
   8.8105525409543448E-003  -2.1856532045159971E-003   6.0390524354434628E-002
   7.6300833655135380E-003  -1.9977752760411069E-003   6.0541881919168997E-002
   6.4496141900727468E-003  -1.9223184018128791E-003   6.0943112976012431E-002
   5.2691450146319548E-003  -1.9592825818307846E-003   6.1594217524965106E-002
   7.8849032309739886E-003  -1.8925085391915397E-003   6.4177306317552141E-002
   6.9532572271447241E-003  -1.6812748083498419E-003   6.4089591899207043E-002
   6.0216112233154873E-003  -1.5804547245157341E-003   6.4249650331976271E-002
   5.0899652194862297E-003  -1.5900482876902156E-003   6.4657481615859297E-002
   4.1583192156569859E-003  -1.7100554978727311E-003   6.5313085750856370E-002
   9.2908221086002718E-003  -2.7069638337050561E-003   4.9945376888020698E-002
   7.8689925708141373E-003  -2.8571163838501668E-003   5.0353125859042391E-002
   6.4471630330280305E-003  -3.6134605792734198E-003   5.1087288100389372E-002
   5.0253334952419099E-003  -4.9759964199758561E-003   5.2147863612061918E-002
   3.6035039574557892E-003  -6.9447239059566845E-003   5.3534852394059196E-002
   7.8353964611035942E-003  -2.4577367497470304E-003   5.3910363093547298E-002
   6.7140856986748765E-003  -2.6432672335751639E-003   5.3847553933358883E-002
   5.5927749362461726E-003  -3.3416665769580023E-003   5.4059369053559375E-002
   4.4714641738174549E-003  -4.5529347798952957E-003   5.4545808454149983E-002
   3.3501534113887510E-003  -6.2770718423873495E-003   5.5306872135129637E-002
   6.4948374297808115E-003  -2.2085096657889491E-003   5.7793309972528906E-002
   5.6222564527738245E-003  -2.4294180833002998E-003   5.7353265466853515E-002
   4.7496754757668375E-003  -3.0698725746422795E-003   5.7136056251632039E-002
   3.8770944987598539E-003  -4.1298731398149643E-003   5.7141682326864382E-002
   3.0045135217528635E-003  -5.6094197788180700E-003   5.7370143692550529E-002
   5.2691450146319548E-003  -1.9592825818307846E-003   6.1594217524965106E-002
   4.5935048331110055E-003  -2.2155689330255884E-003   6.0870260459527301E-002
   3.9178646515900424E-003  -2.7980785723265428E-003   6.0317349694607551E-002
   3.2422244700690940E-003  -3.7068114997346295E-003   5.9935485230206198E-002
   2.5665842885481301E-003  -4.9417677152489847E-003   5.9724667066322783E-002
   4.1583192156569859E-003  -1.7100554978727311E-003   6.5313085750856370E-002
   3.6278308396863745E-003  -2.0017197827503774E-003   6.4398538911379810E-002
   3.0973424637157909E-003  -2.5262845700110559E-003   6.3603249382485683E-002
   2.5668540877451865E-003  -3.2837498596539408E-003   6.2927217164174293E-002
   2.0363657117745959E-003  -4.2741156516796774E-003   6.2370442256445502E-002
   3.6035039574557892E-003  -6.9447239059566845E-003   5.3534852394059196E-002
   4.1549020621786670E-003  -9.5347549217668082E-003   5.1861350964527153E-002
   4.7063001669015170E-003  -1.2761201351956492E-002   5.0042620874631349E-002
   5.2576982716244225E-003  -1.6624063196525880E-002   4.8078662124370813E-002
   5.8090963763471892E-003  -2.1123340455475148E-002   4.5969474713746905E-002
   3.3501534113887510E-003  -6.2770718423873495E-003   5.5306872135129637E-002
   3.7737894810147832E-003  -8.5453627957099987E-003   5.2952620819052720E-002
   4.1974255506408154E-003  -1.1389092671139883E-002   5.0488074093146373E-002
   4.6210616202668545E-003  -1.4808261468677232E-002   4.7913231957410485E-002
   5.0446976898929075E-003  -1.8802869188321081E-002   4.5228094411844832E-002
   3.0045135217528635E-003  -5.6094197788180700E-003   5.7370143692550529E-002
   3.3353208068166718E-003  -7.5559706696537443E-003   5.4396118982201563E-002
   3.6661280918804870E-003  -1.0016983990323816E-002   5.1346732112557372E-002
   3.9969353769442606E-003  -1.2992459740828358E-002   4.8221983083618310E-002
   4.3277426620081383E-003  -1.6482397921167236E-002   4.5021871895384424E-002
   2.5665842885481301E-003  -4.9417677152489847E-003   5.9724667066322783E-002
   2.8394960395843050E-003  -6.5665785435972124E-003   5.6191845453974092E-002
   3.1124077906204504E-003  -8.6448753095077005E-003   5.2618594932864943E-002
   3.3853195416565993E-003  -1.1176658012979486E-002   4.9004915502995100E-002
   3.6582312926927707E-003  -1.4161926654013279E-002   4.5350807164365486E-002
   2.0363657117745959E-003  -4.2741156516796774E-003   6.2370442256445502E-002
   2.2863151793176828E-003  -5.5771864175411245E-003   5.8339800234369910E-002
   2.5362646468607697E-003  -7.2727666286914183E-003   5.4303662554068377E-002
   2.7862141144038843E-003  -9.3608562851309612E-003   5.0262029215541182E-002
   3.0361635819469712E-003  -1.1841455386859323E-002   4.6214900218788380E-002
   2.6116319826303719E-002  -7.3470261185482055E-003   6.3259998184090060E-002
   2.4907363793903320E-002  -7.1947851352719694E-003   6.3008370636537359E-002
   2.3698407761502963E-002  -7.0112069422342133E-003   6.3079460362308409E-002
   2.2489451729102612E-002  -6.7962915394347116E-003   6.3473267361403199E-002
   2.1280495696702220E-002  -6.5500389268735582E-003   6.4189791633821769E-002
   1.9323146848835349E-002  -5.5102694482025427E-003   6.3031920393350871E-002
   1.8431788524345807E-002  -5.3960887789368805E-003   6.2978655363013974E-002
   1.7540430199856245E-002  -5.2584051822314182E-003   6.3237868475175235E-002
   1.6649071875366701E-002  -5.0972186580862250E-003   6.3809559729834250E-002
   1.5757713550877156E-002  -4.9125292065012593E-003   6.4693729126991173E-002
   1.2706035885395102E-002  -3.6735127778568799E-003   6.2769699429762030E-002
   1.2122036137990552E-002  -3.5973924226017501E-003   6.2906962634319219E-002
   1.1538036390586006E-002  -3.5056034222287688E-003   6.3346464850548595E-002
   1.0954036643181462E-002  -3.3981457767377956E-003   6.4088206078450061E-002
   1.0370036895776917E-002  -3.2750194861289605E-003   6.5132186318023588E-002
   6.2649869359829493E-003  -1.8367561075112310E-003   6.2473335293323731E-002
   5.9781066348375926E-003  -1.7986960662665849E-003   6.2793292450452967E-002
   5.6912263336922212E-003  -1.7528016622260188E-003   6.3405249488428711E-002
   5.4043460325468601E-003  -1.6990728953893653E-003   6.4309206407250658E-002
   5.1174657314015035E-003  -1.6375097657566617E-003   6.5505163206918821E-002
   5.9890981063404070E-013   5.6283444571647578E-010   6.2142827984035531E-002
   1.4886918087153589E-011   2.9006849699975135E-010   6.2637644811415261E-002
   2.9174912485885329E-011   9.7776634011559338E-011   6.3414222388815417E-002
   4.3462913823510974E-011  -1.4040876100684940E-011   6.4472560716236069E-002
   5.7750915161136618E-011  -4.5384362934441924E-011   6.5812659793677009E-002
   2.1280495696702220E-002  -6.5500389268735582E-003   6.4189791633821769E-002
   2.0709094309267775E-002  -6.2884851019441024E-003   6.3441042012794713E-002
   2.0137692921833344E-002  -6.0276660620396383E-003   6.2872543810537751E-002
   1.9566291534398907E-002  -5.7675818071600549E-003   6.2484297027050884E-002
   1.8994890146964455E-002  -5.5082323373055742E-003   6.2276301662334110E-002
   1.5757713550877156E-002  -4.9125292065012593E-003   6.4693729126991173E-002
   1.5357213313385687E-002  -4.7163638355107729E-003   6.4070091791035066E-002
   1.4956713075894225E-002  -4.5207495531488784E-003   6.3608005336194748E-002
   1.4556212838402749E-002  -4.3256863594157216E-003   6.3307469762470148E-002
   1.4155712600911294E-002  -4.1311742543112540E-003   6.3168485069861613E-002
   1.0370036895776917E-002  -3.2750194861289605E-003   6.5132186318023588E-002
   1.0121737270574156E-002  -3.1442425690774572E-003   6.4633844963534609E-002
   9.8734376453713940E-003  -3.0138330442581185E-003   6.4278353952507139E-002
   9.6251380201686377E-003  -2.8837909116713883E-003   6.4065713284941400E-002
   9.3768383949658710E-003  -2.7541161713168227E-003   6.3995922960837004E-002
   5.1174657314015035E-003  -1.6375097657566617E-003   6.5505163206918821E-002
   5.0026661808331794E-003  -1.5721213026440237E-003   6.5132301530293396E-002
   4.8878666302648614E-003  -1.5069165353673863E-003   6.4883589659475077E-002
   4.7730670796965382E-003  -1.4418954639268608E-003   6.4759027594464225E-002
   4.6582675291282193E-003  -1.3770580883224193E-003   6.4758615335260603E-002
   5.7750915161136618E-011  -4.5384362934441924E-011   6.5812659793677009E-002
   4.4162770662659057E-011  -3.6210812126569181E-011   6.5565461491311317E-002
   3.0574626164181495E-011  -2.6476654202411964E-011   6.5423712457098659E-002
   1.6986481665703934E-011  -1.6182735707026552E-011   6.5387412691039037E-002
   3.3983371672263729E-012  -5.3281268286298200E-012   6.5456562193132339E-002
   1.8994890146964455E-002  -5.5082323373055742E-003   6.2276301662334110E-002
   1.8050490594898938E-002  -5.2431612894501267E-003   6.2017016054965457E-002
   1.7106091042833435E-002  -4.9659123005681427E-003   6.2007971094177883E-002
   1.6161691490767925E-002  -4.6764853706594695E-003   6.2249166779971499E-002
   1.5217291938702415E-002  -4.3748804997242319E-003   6.2740603112346194E-002
   1.4155712600911294E-002  -4.1311742543112540E-003   6.3168485069861613E-002
   1.3458018505706208E-002  -3.9323709661756301E-003   6.2976623310738528E-002
   1.2760324410501116E-002  -3.7244342233497124E-003   6.3027931818755017E-002
   1.2062630315296030E-002  -3.5073640258330256E-003   6.3322410593911430E-002
   1.1364936220090938E-002  -3.2811603736259687E-003   6.3860059636207334E-002
   9.3768383949658710E-003  -2.7541161713168227E-003   6.3995922960837004E-002
   8.9187793771797717E-003  -2.6215806429013000E-003   6.3868440563623521E-002
   8.4607203593936690E-003  -2.4829561461312821E-003   6.3977058054108249E-002
   8.0026613416075715E-003  -2.3382426810066373E-003   6.4321775432291201E-002
   7.5446023238214741E-003  -2.1874402475276500E-003   6.4902592698172501E-002
   4.6582675291282193E-003  -1.3770580883224193E-003   6.4758615335260603E-002
   4.4327732093196511E-003  -1.3107903196269144E-003   6.4692467813620674E-002
   4.2072788895110924E-003  -1.2414780689127408E-003   6.4855349800237438E-002
   3.9817845697025303E-003  -1.1691213361801657E-003   6.5247261295111034E-002
   3.7562902498939656E-003  -1.0937201214291370E-003   6.5868202298241363E-002
   3.3983371672263729E-012  -5.3281268286298200E-012   6.5456562193132339E-002
   2.1258654558931056E-012   3.6475822362547206E-012   6.5448705060729806E-002
   8.5338680566593439E-013   8.3056894695232586E-012   6.5662807057142586E-002
  -4.1909184456123683E-013   8.6461393600245628E-012   6.6098868182370762E-002
  -1.6915635558945041E-012   4.6689874189098646E-012   6.6756888436414197E-002
   1.5217291938702415E-002  -4.3748804997242319E-003   6.2740603112346194E-002
   1.4357917749814403E-002  -4.0639576644274644E-003   6.2500130581373270E-002
   1.3498543560926404E-002  -3.7465768414333411E-003   6.2466846793150121E-002
   1.2639169372038406E-002  -3.4227380307429237E-003   6.2640751747676915E-002
   1.1779795183150393E-002  -3.0924412323551920E-003   6.3021845444953595E-002
   1.1364936220090938E-002  -3.2811603736259687E-003   6.3860059636207334E-002
   1.0714664475192634E-002  -3.0479682484990389E-003   6.3659173368239147E-002
   1.0064392730294330E-002  -2.8099326322231777E-003   6.3669303245500686E-002
   9.4141209853960198E-003  -2.5670535247984683E-003   6.3890449267991645E-002
   8.7638492404977231E-003  -2.3193309262247719E-003   6.4322611435712274E-002
   7.5446023238214741E-003  -2.1874402475276500E-003   6.4902592698172501E-002
   7.1072604253925933E-003  -2.0319788325707799E-003   6.4739678196661099E-002
   6.6699185269637265E-003  -1.8732884230129448E-003   6.4791607242859095E-002
   6.2325766285348597E-003  -1.7113690188541204E-003   6.5058379836766433E-002
   5.7952347301059928E-003  -1.5462206200941297E-003   6.5539995978383087E-002
   3.7562902498939656E-003  -1.0937201214291370E-003   6.5868202298241363E-002
   3.5357056004142792E-003  -1.0159894166425487E-003   6.5741645066638960E-002
   3.3151209509345971E-003  -9.3664421380274671E-004   6.5833758785225668E-002
   3.0945363014549133E-003  -8.5568451290966331E-004   6.6144543454001364E-002
   2.8739516519752286E-003  -7.7311031396354313E-004   6.6673999072966228E-002
  -1.6915635558945041E-012   4.6689874189098646E-012   6.6756888436414197E-002
   2.5768623346245079E-013  -7.1426198289259446E-013   6.6665073978172784E-002
   2.2069325533724538E-012  -4.5925624414522304E-012   6.6795757872600253E-002
   4.1561858121763606E-012  -6.9654317036427216E-012   6.7148940119696618E-002
   6.1054286626394116E-012  -7.8330675279403295E-012   6.7724620719461504E-002
   1.1779795183150393E-002  -3.0924412323551920E-003   6.3021845444953595E-002
   1.0806072195106292E-002  -2.7673010948554011E-003   6.2937537751813155E-002
   9.8323492070621910E-003  -2.4589322668280844E-003   6.3102011999532914E-002
   8.8586262190180898E-003  -2.1673347482736444E-003   6.3515268188112567E-002
   7.8849032309739886E-003  -1.8925085391915397E-003   6.4177306317552141E-002
   8.7638492404977231E-003  -2.3193309262247719E-003   6.4322611435712274E-002
   8.0375703947693916E-003  -2.0754758230513426E-003   6.4269622480577659E-002
   7.3112915490410671E-003  -1.8441992018276426E-003   6.4462739869214858E-002
   6.5850127033127495E-003  -1.6255010625540155E-003   6.4901963601623966E-002
   5.8587338575844250E-003  -1.4193814052299025E-003   6.5587293677804359E-002
   5.7952347301059928E-003  -1.5462206200941297E-003   6.5539995978383087E-002
   5.3137244296052495E-003  -1.3836505512472008E-003   6.5522518588777043E-002
   4.8322141291045097E-003  -1.2294661368273119E-003   6.5748471945854509E-002
   4.3507038286037698E-003  -1.0836673768344421E-003   6.6217856049615526E-002
   3.8691935281030265E-003  -9.4625427126843187E-004   6.6930670900059885E-002
   2.8739516519752286E-003  -7.7311031396354313E-004   6.6673999072966228E-002
   2.6345342996138632E-003  -6.9182527944298966E-004   6.6696226076411388E-002
   2.3951169472525040E-003  -6.1473307182714765E-004   6.6959208229451950E-002
   2.1556995948911525E-003  -5.4183369111489646E-004   6.7462945532087815E-002
   1.9162822425297932E-003  -4.7312713730704448E-004   6.8207437984318803E-002
   6.1054286626394116E-012  -7.8330675279403295E-012   6.7724620719461504E-002
   4.7952544712792644E-012  -7.6391115655383146E-012   6.7790744943480696E-002
   3.4850733410252133E-012  -6.8262340224833906E-012   6.8094948720007153E-002
   2.1749026191120180E-012  -5.3952745049379303E-012   6.8637232049040792E-002
   8.6471801941101489E-013  -3.3454350401029842E-012   6.9417594930581195E-002
   7.8849032309739886E-003  -1.8925085391915397E-003   6.4177306317552141E-002
   6.9532572271447241E-003  -1.6812748083498419E-003   6.4089591899207043E-002
   6.0216112233154873E-003  -1.5804547245157341E-003   6.4249650331976271E-002
   5.0899652194862297E-003  -1.5900482876902156E-003   6.4657481615859297E-002
   4.1583192156569859E-003  -1.7100554978727311E-003   6.5313085750856370E-002
   5.8587338575844250E-003  -1.4193814052299025E-003   6.5587293677804359E-002
   5.1711453673073809E-003  -1.2609561065947128E-003   6.5435881024587750E-002
   4.4835568770303230E-003  -1.1853410433883549E-003   6.5524810547361784E-002
   3.7959683867532894E-003  -1.1925362156100100E-003   6.5854082246126169E-002
   3.1083798964762210E-003  -1.2825416232602471E-003   6.6423696120881115E-002
   3.8691935281030265E-003  -9.4625427126843187E-004   6.6930670900059885E-002
   3.4182318762547674E-003  -8.4063740484038862E-004   6.6743163423551355E-002
   2.9672702244065256E-003  -7.9022736226075363E-004   6.6788567447909841E-002
   2.5163085725582682E-003  -7.9502414352980444E-004   6.7066882973135677E-002
   2.0653469207100247E-003  -8.5502774864737452E-004   6.7578109999228281E-002
   1.9162822425297932E-003  -4.7312713730704448E-004   6.8207437984318803E-002
   1.6945167539869216E-003  -4.2031870308571750E-004   6.8011439096098067E-002
   1.4727512654440665E-003  -3.9511368113320788E-004   6.8040921033621110E-002
   1.2509857769012170E-003  -3.9751207144954337E-004   6.8295883796887544E-002
   1.0292202883583398E-003  -4.2751387403469621E-004   6.8776327385898062E-002
   8.6471801941101489E-013  -3.3454350401029842E-012   6.9417594930581195E-002
   5.0383308636270385E-013  -1.3309353619206377E-012   6.9240708042227705E-002
   1.4296550054915258E-013  -5.6898930012039273E-015   6.9281871304494869E-002
  -2.1791769777568248E-013   6.3068300582003189E-013   6.9541084717381907E-002
  -5.7878701831270973E-013   5.7798210661985649E-013   7.0018348280889597E-002
   4.1583192156569859E-003  -1.7100554978727311E-003   6.5313085750856370E-002
   3.6278308396863745E-003  -2.0017197827503774E-003   6.4398538911379810E-002
   3.0973424637157909E-003  -2.5262845700110559E-003   6.3603249382485683E-002
   2.5668540877451865E-003  -3.2837498596539408E-003   6.2927217164174293E-002
   2.0363657117745959E-003  -4.2741156516796774E-003   6.2370442256445502E-002
   3.1083798964762210E-003  -1.2825416232602471E-003   6.6423696120881115E-002
   2.7004900269505389E-003  -1.5012898369995420E-003   6.5315608881114928E-002
   2.2926001574248497E-003  -1.8947134274905353E-003   6.4333461343655834E-002
   1.8847102878991502E-003  -2.4628123947320751E-003   6.3477253508504208E-002
   1.4768204183734784E-003  -3.2055867387248416E-003   6.2746985375659592E-002
   2.0653469207100247E-003  -8.5502774864737452E-004   6.7578109999228281E-002
   1.7867379493540121E-003  -1.0008598912489564E-003   6.6334707484803662E-002
   1.5081289779980168E-003  -1.2631422849700008E-003   6.5223927064411255E-002
   1.2295200066420198E-003  -1.6418749298100950E-003   6.4245768738051157E-002
   9.5091103528602283E-004  -2.1370578257698947E-003   6.3400232505722631E-002
   1.0292202883583398E-003  -4.2751387403469621E-004   6.8776327385898062E-002
   8.8657460689682555E-004  -5.0042994549830133E-004   6.7455834722446650E-002
   7.4392892543531045E-004  -6.3157114244930673E-004   6.6274646544752611E-002
   6.0128324397379579E-004  -8.2093746488839416E-004   6.5232762852815110E-002
   4.5863756251228113E-004  -1.0685289128148923E-003   6.4330183646634606E-002
  -5.7878701831270973E-013   5.7798210661985649E-013   7.0018348280889597E-002
  -4.2104514319518671E-013   2.5246471579976060E-013   6.8678990594043476E-002
  -2.6329285973680783E-013   7.1165295878472534E-014   6.7485619784679096E-002
  -1.0555445406623676E-013   3.3556490919295356E-014   6.6438235852796401E-002
   5.2201298839094079E-014   1.3988810110276972E-013   6.5536838798395225E-002
   2.0363657117745959E-003  -4.2741156516796774E-003   6.2370442256445502E-002
   2.2863151793176828E-003  -5.5771864175411245E-003   5.8339800234369910E-002
   2.5362646468607697E-003  -7.2727666286914183E-003   5.4303662554068377E-002
   2.7862141144038843E-003  -9.3608562851309612E-003   5.0262029215541182E-002
   3.0361635819469712E-003  -1.1841455386859323E-002   4.6214900218788380E-002
   1.4768204183734784E-003  -3.2055867387248416E-003   6.2746985375659592E-002
   1.7070263005207198E-003  -4.1828898130801817E-003   5.8392285572095692E-002
   1.9372321826679681E-003  -5.4545749714107195E-003   5.4003594255965570E-002
   2.1674380648151886E-003  -7.0206422137161079E-003   4.9580911427269420E-002
   2.3976439469624578E-003  -8.8810915399966106E-003   4.5124237086007657E-002
   9.5091103528602283E-004  -2.1370578257698947E-003   6.3400232505722631E-002
   1.1328774776972680E-003  -2.7885932086195719E-003   5.8819602281984240E-002
   1.3148439201085133E-003  -3.6363833141301038E-003   5.4176484691340093E-002
   1.4968103625197446E-003  -4.6804281423014696E-003   4.9470879733789649E-002
   1.6787768049309898E-003  -5.9207276931338981E-003   4.4702787409333311E-002
   4.5863756251228113E-004  -1.0685289128148923E-003   6.4330183646634606E-002
   5.6386871084735182E-004  -1.3942966041589067E-003   5.9621750364036150E-002
   6.6909985918243639E-004  -1.8181916568494466E-003   5.4822333860190857E-002
   7.7433100751751402E-004  -2.3402140708868348E-003   4.9931934135100220E-002
   8.7956215585259165E-004  -2.9603638462711857E-003   4.4950551188762622E-002
   5.2201298839094079E-014   1.3988810110276972E-013   6.5536838798395225E-002
  -2.9039270987851751E-014   3.0220270730296761E-013   6.0798729818250408E-002
  -1.1028331026174953E-013   4.3126613391564206E-013   5.5941141762519409E-002
  -1.9154122732345513E-013   5.2792492599706975E-013   5.0964074631201617E-002
  -2.7276791936259315E-013   5.9152682752028340E-013   4.5867528424297532E-002
   5.9890981063404070E-013   5.6283444571647578E-010   6.2142827984035531E-002
   1.4886918087153589E-011   2.9006849699975135E-010   6.2637644811415261E-002
   2.9174912485885329E-011   9.7776634011559338E-011   6.3414222388815417E-002
   4.3462913823510974E-011  -1.4040876100684940E-011   6.4472560716236069E-002
   5.7750915161136618E-011  -4.5384362934441924E-011   6.5812659793677009E-002
  -6.2649869362436661E-003   1.8367568964330894E-003   6.2473334847860412E-002
  -5.9781066083937351E-003   1.7986964735069721E-003   6.2793292136966578E-002
  -5.6912262805437763E-003   1.7528018003671458E-003   6.3405249303176273E-002
  -5.4043459526938297E-003   1.6990728770137943E-003   6.4309206346489456E-002
  -5.1174656248438796E-003   1.6375097034466157E-003   6.5505163266905975E-002
  -1.2706035890031459E-002   3.6735132300316498E-003   6.2769698726869064E-002
  -1.2122036121536566E-002   3.5973926569454334E-003   6.2906962147013981E-002
  -1.1538036353041688E-002   3.5056035029576785E-003   6.3346464571345379E-002
  -1.0954036584546809E-002   3.3981457680684630E-003   6.4088205999863090E-002
  -1.0370036816051916E-002   3.2750194522777054E-003   6.5132186432567407E-002
  -1.9323146860764452E-002   5.5102695636302518E-003   6.3031919621061361E-002
  -1.8431788524541640E-002   5.3960888403838461E-003   6.2978654841557152E-002
  -1.7540430188318828E-002   5.2584052055481730E-003   6.3237868193322416E-002
  -1.6649071852096006E-002   5.0972186591230493E-003   6.3809559676357111E-002
  -1.5757713515873198E-002   4.9125292011087118E-003   6.4693729290661209E-002
  -2.6116319848442635E-002   7.3470258972288538E-003   6.3259997530437595E-002
  -2.4907363817408892E-002   7.1947850238223976E-003   6.3008370220596410E-002
  -2.3698407786375178E-002   7.0112069081386813E-003   6.3079460169107732E-002
  -2.2489451755341453E-002   6.7962915501778472E-003   6.3473267375971407E-002
  -2.1280495724307721E-002   6.5500389499398293E-003   6.4189791841187505E-002
   5.7750915161136618E-011  -4.5384362934441924E-011   6.5812659793677009E-002
   4.4162770662659057E-011  -3.6210812126569181E-011   6.5565461491311317E-002
   3.0574626164181495E-011  -2.6476654202411964E-011   6.5423712457098659E-002
   1.6986481665703934E-011  -1.6182735707026552E-011   6.5387412691039037E-002
   3.3983371672263729E-012  -5.3281268286298200E-012   6.5456562193132339E-002
  -5.1174656248438796E-003   1.6375097034466157E-003   6.5505163266905975E-002
  -5.0026660993370588E-003   1.5721212530453027E-003   6.5132301575421672E-002
  -4.8878665738302379E-003   1.5069164991893952E-003   6.4883589693974314E-002
  -4.7730670483234153E-003   1.4418954418784942E-003   6.4759027622563789E-002
  -4.6582675228165962E-003   1.3770580811131583E-003   6.4758615361190264E-002
  -1.0370036816051916E-002   3.2750194522777054E-003   6.5132186432567407E-002
  -1.0121737209566287E-002   3.1442425423013343E-003   6.4633845047949584E-002
  -9.8734376030806502E-003   3.0138330248553891E-003   6.4278354015252531E-002
  -9.6251379965950207E-003   2.8837908999397796E-003   6.4065713334476235E-002
  -9.3768383901093912E-003   2.7541161675545822E-003   6.3995923005620681E-002
  -1.5757713515873198E-002   4.9125292011087118E-003   6.4693729290661209E-002
  -1.5357213286524913E-002   4.7163638315574352E-003   6.4070091908894913E-002
  -1.4956713057176621E-002   4.5207495505214107E-003   6.3608005420933367E-002
  -1.4556212827828333E-002   4.3256863580010373E-003   6.3307469826776347E-002
  -1.4155712598480046E-002   4.1311742539959367E-003   6.3168485126423896E-002
  -2.1280495724307721E-002   6.5500389499398293E-003   6.4189791841187505E-002
  -2.0709094330212938E-002   6.2884851208133419E-003   6.3441042158257910E-002
  -2.0137692936118140E-002   6.0276660761874740E-003   6.2872543911016793E-002
  -1.9566291542023356E-002   5.7675818160621943E-003   6.2484297099464056E-002
  -1.8994890147928559E-002   5.5082323404372913E-003   6.2276301723599881E-002
   3.3983371672263729E-012  -5.3281268286298200E-012   6.5456562193132339E-002
   2.1258654558931056E-012   3.6475822362547206E-012   6.5448705060729806E-002
   8.5338680566593439E-013   8.3056894695232586E-012   6.5662807057142586E-002
  -4.1909184456123683E-013   8.6461393600245628E-012   6.6098868182370762E-002
  -1.6915635558945041E-012   4.6689874189098646E-012   6.6756888436414197E-002
  -4.6582675228165962E-003   1.3770580811131583E-003   6.4758615361190264E-002
  -4.4327732053385058E-003   1.3107903246342145E-003   6.4692467831499761E-002
  -4.2072788878604155E-003   1.2414780801823233E-003   6.4855349810495261E-002
  -3.9817845703823268E-003   1.1691213477579149E-003   6.5247261298176346E-002
  -3.7562902529042347E-003   1.0937201273605868E-003   6.5868202294543210E-002
  -9.3768383901093912E-003   2.7541161675545822E-003   6.3995923005620681E-002
  -8.9187793740103331E-003   2.6215806456207080E-003   6.3868440594987419E-002
  -8.4607203579112784E-003   2.4829561520589016E-003   6.3977058072910209E-002
  -8.0026613418122151E-003   2.3382426868694128E-003   6.4321775439389314E-002
  -7.5446023257131657E-003   2.1874402500520473E-003   6.4902592694424430E-002
  -1.4155712598480046E-002   4.1311742539959367E-003   6.3168485126423896E-002
  -1.3458018503889625E-002   3.9323709666071599E-003   6.2976623351192543E-002
  -1.2760324409299192E-002   3.7244342239353134E-003   6.3027931844387791E-002
  -1.2062630314708760E-002   3.5073640259807720E-003   6.3322410606009627E-002
  -1.1364936220118325E-002   3.2811603727434663E-003   6.3860059636058064E-002
  -1.8994890147928559E-002   5.5082323404372913E-003   6.2276301723599881E-002
  -1.8050490594976359E-002   5.2431612875938338E-003   6.2017016100115341E-002
  -1.7106091042024166E-002   4.9659122958120860E-003   6.2007971124927980E-002
  -1.6161691489071980E-002   4.6764853650926239E-003   6.2249166798037575E-002
  -1.5217291936119773E-002   4.3748804954349962E-003   6.2740603119444072E-002
  -1.6915635558945041E-012   4.6689874189098646E-012   6.6756888436414197E-002
   2.5768623346245079E-013  -7.1426198289259446E-013   6.6665073978172784E-002
   2.2069325533724538E-012  -4.5925624414522304E-012   6.6795757872600253E-002
   4.1561858121763606E-012  -6.9654317036427216E-012   6.7148940119696618E-002
   6.1054286626394116E-012  -7.8330675279403295E-012   6.7724620719461504E-002
  -3.7562902529042347E-003   1.0937201273605868E-003   6.5868202294543210E-002
  -3.5357055998499649E-003   1.0159894150259252E-003   6.5741645065943294E-002
  -3.3151209467956830E-003   9.3664420678939153E-004   6.5833758786884689E-002
  -3.0945362937414098E-003   8.5568450265066306E-004   6.6144543457367352E-002
  -2.8739516406871383E-003   7.7311030261006941E-004   6.6673999077391299E-002
  -7.5446023257131657E-003   2.1874402500520473E-003   6.4902592694424430E-002
  -7.1072604246814218E-003   2.0319788307661402E-003   6.4739678198059050E-002
  -6.6699185236496769E-003   1.8732884181712414E-003   6.4791607248107203E-002
  -6.2325766226179460E-003   1.7113690122670371E-003   6.5058379844568984E-002
  -5.7952347215861882E-003   1.5462206130536504E-003   6.5539995987444727E-002
  -1.1364936220118325E-002   3.2811603727434663E-003   6.3860059636058064E-002
  -1.0714664474236704E-002   3.0479682465063968E-003   6.3659173374519720E-002
  -1.0064392728355062E-002   2.8099326295530323E-003   6.3669303256267573E-002
  -9.4141209824734270E-003   2.5670535218831605E-003   6.3890449281301553E-002
  -8.7638492365917919E-003   2.3193309234970094E-003   6.4322611449621564E-002
  -1.5217291936119773E-002   4.3748804954349962E-003   6.2740603119444072E-002
  -1.4357917748515789E-002   4.0639576622465978E-003   6.2500130595325776E-002
  -1.3498543560911826E-002   3.7465768409350453E-003   6.2466846811365939E-002
  -1.2639169373307849E-002   3.4227380314995615E-003   6.2640751767564812E-002
  -1.1779795185703879E-002   3.0924412339404794E-003   6.3021845463922088E-002
   6.1054286626394116E-012  -7.8330675279403295E-012   6.7724620719461504E-002
   4.7952544712792644E-012  -7.6391115655383146E-012   6.7790744943480696E-002
   3.4850733410252133E-012  -6.8262340224833906E-012   6.8094948720007153E-002
   2.1749026191120180E-012  -5.3952745049379303E-012   6.8637232049040792E-002
   8.6471801941101489E-013  -3.3454350401029842E-012   6.9417594930581195E-002
  -2.8739516406871383E-003   7.7311030261006941E-004   6.6673999077391299E-002
  -2.6345342907590601E-003   6.9182526849165260E-004   6.6696226080217413E-002
  -2.3951169408309870E-003   6.1473306211901058E-004   6.6959208233013157E-002
  -2.1556995909029208E-003   5.4183368349236538E-004   6.7462945535778224E-002
  -1.9162822409748495E-003   4.7312713261182804E-004   6.8207437988512698E-002
  -5.7952347215861882E-003   1.5462206130536504E-003   6.5539995987444727E-002
  -5.3137244229575368E-003   1.3836505446223613E-003   6.5522518596205254E-002
  -4.8322141243288645E-003   1.2294661310644911E-003   6.5748471952397622E-002
  -4.3507038257002062E-003   1.0836673723802863E-003   6.6217856056021790E-002
  -3.8691935270715270E-003   9.4625426856936867E-004   6.6930670907077688E-002
  -8.7638492365917919E-003   2.3193309234970094E-003   6.4322611449621564E-002
  -8.0375703918001851E-003   2.0754758207530977E-003   6.4269622491444175E-002
  -7.3112915470085688E-003   1.8441992000100757E-003   6.4462739878160716E-002
  -6.5850127022169611E-003   1.6255010612681222E-003   6.4901963609771310E-002
  -5.8587338574253457E-003   1.4193814045267705E-003   6.5587293686276360E-002
  -1.1779795185703879E-002   3.0924412339404794E-003   6.3021845463922088E-002
  -1.0806072197286978E-002   2.7673010968838341E-003   6.2937537765933915E-002
  -9.8323492088700920E-003   2.4589322689555215E-003   6.3102012010302189E-002
  -8.8586262204531883E-003   2.1673347501559234E-003   6.3515268197026881E-002
  -7.8849032320363055E-003   1.8925085404842834E-003   6.4177306326107963E-002
   8.6471801941101489E-013  -3.3454350401029842E-012   6.9417594930581195E-002
   5.0383308636270385E-013  -1.3309353619206377E-012   6.9240708042227705E-002
   1.4296550054915258E-013  -5.6898930012039273E-015   6.9281871304494869E-002
  -2.1791769777568248E-013   6.3068300582003189E-013   6.9541084717381907E-002
  -5.7878701831270973E-013   5.7798210661985649E-013   7.0018348280889597E-002
  -1.9162822409748495E-003   4.7312713261182804E-004   6.8207437988512698E-002
  -1.6945167530952703E-003   4.2031870125180948E-004   6.8011439098825621E-002
  -1.4727512652156945E-003   3.9511368118727574E-004   6.8040921034999091E-002
  -1.2509857773361178E-003   3.9751207241756070E-004   6.8295883797032914E-002
  -1.0292202894565533E-003   4.2751387494333049E-004   6.8776327384927671E-002
  -3.8691935270715270E-003   9.4625426856936867E-004   6.6930670907077688E-002
  -3.4182318757111710E-003   8.4063740383499841E-004   6.6743163428040986E-002
  -2.9672702243508211E-003   7.9022736238003322E-004   6.6788567450104960E-002
  -2.5163085729904577E-003   7.9502414420466391E-004   6.7066882973270237E-002
  -2.0653469216301013E-003   8.5502774930878989E-004   6.7578109997535996E-002
  -5.8587338574253457E-003   1.4193814045267705E-003   6.5587293686276360E-002
  -5.1711453673438778E-003   1.2609561064179098E-003   6.5435881029874063E-002
  -4.4835568772623952E-003   1.1853410435728393E-003   6.5524810549813309E-002
  -3.7959683871809200E-003   1.1925362159918209E-003   6.5854082246093737E-002
  -3.1083798970994447E-003   1.2825416236743603E-003   6.6423696118715389E-002
  -7.8849032320363055E-003   1.8925085404842834E-003   6.4177306326107963E-002
  -6.9532572279933785E-003   1.6812748090008767E-003   6.4089591904324950E-002
  -6.0216112239504377E-003   1.5804547247657008E-003   6.4249650334123387E-002
  -5.0899652199075072E-003   1.5900482877786865E-003   6.4657481615503415E-002
  -4.1583192158645699E-003   1.7100554980397087E-003   6.5313085748465283E-002
  -5.7878701831270973E-013   5.7798210661985649E-013   7.0018348280889597E-002
  -4.2104514319518671E-013   2.5246471579976060E-013   6.8678990594043476E-002
  -2.6329285973680783E-013   7.1165295878472534E-014   6.7485619784679096E-002
  -1.0555445406623676E-013   3.3556490919295356E-014   6.6438235852796401E-002
   5.2201298839094079E-014   1.3988810110276972E-013   6.5536838798395225E-002
  -1.0292202894565533E-003   4.2751387494333049E-004   6.8776327384927671E-002
  -8.8657460770131397E-004   5.0042994596311008E-004   6.7455834721820040E-002
  -7.4392892594608157E-004   6.3157114267550774E-004   6.6274646544425664E-002
  -6.0128324419085003E-004   8.2093746508112714E-004   6.5232762852744541E-002
  -4.5863756243560982E-004   1.0685289131795450E-003   6.4330183646776784E-002
  -2.0653469216301013E-003   8.5502774930878989E-004   6.7578109997535996E-002
  -1.7867379500457348E-003   1.0008598916735334E-003   6.6334707483715810E-002
  -1.5081289784613693E-003   1.2631422852801832E-003   6.5223927063840476E-002
  -1.2295200068769899E-003   1.6418749301282537E-003   6.4245768737910242E-002
  -9.5091103529263733E-004   2.1370578262183137E-003   6.3400232505924803E-002
  -3.1083798970994447E-003   1.2825416236743603E-003   6.6423696118715389E-002
  -2.7004900274542839E-003   1.5012898373838457E-003   6.5315608879731424E-002
  -2.2926001578091300E-003   1.8947134278843036E-003   6.4333461342923670E-002
  -1.8847102881639800E-003   2.4628123951752692E-003   6.3477253508292864E-002
  -1.4768204185188157E-003   3.2055867392573045E-003   6.2746985375838421E-002
  -4.1583192158645699E-003   1.7100554980397087E-003   6.5313085748465283E-002
  -3.6278308399270015E-003   2.0017197830945466E-003   6.4398538909866243E-002
  -3.0973424639893915E-003   2.5262845704893955E-003   6.3603249381675553E-002
  -2.5668540880517988E-003   3.2837498602229440E-003   6.2927217163892962E-002
  -2.0363657121142131E-003   4.2741156522965174E-003   6.2370442256518777E-002
   5.2201298839094079E-014   1.3988810110276972E-013   6.5536838798395225E-002
  -2.9039270987851751E-014   3.0220270730296761E-013   6.0798729818250408E-002
  -1.1028331026174953E-013   4.3126613391564206E-013   5.5941141762519409E-002
  -1.9154122732345513E-013   5.2792492599706975E-013   5.0964074631201617E-002
  -2.7276791936259315E-013   5.9152682752028340E-013   4.5867528424297532E-002
  -4.5863756243560982E-004   1.0685289131795450E-003   6.4330183646776784E-002
  -5.6386871092078961E-004   1.3942966047756356E-003   5.9621750364080850E-002
  -6.6909985940596592E-004   1.8181916576766599E-003   5.4822333860163663E-002
  -7.7433100789112402E-004   2.3402140718811609E-003   4.9931934135024975E-002
  -8.7956215637630814E-004   2.9603638473900684E-003   4.4950551188664978E-002
  -9.5091103529263733E-004   2.1370578262183137E-003   6.3400232505924803E-002
  -1.1328774778167766E-003   2.7885932092496235E-003   5.8819602282014521E-002
  -1.3148439203409011E-003   3.6363833149215818E-003   5.4176484691248000E-002
  -1.4968103628650482E-003   4.6804281432346120E-003   4.9470879733624767E-002
  -1.6787768053891650E-003   5.9207276941886100E-003   4.4702787409145350E-002
  -1.4768204185188157E-003   3.2055867392573045E-003   6.2746985375838421E-002
  -1.7070263007169812E-003   4.1828898137231119E-003   5.8392285572051089E-002
  -1.9372321829151534E-003   5.4545749721666287E-003   5.4003594255772162E-002
  -2.1674380651133295E-003   7.0206422145882887E-003   4.9580911427001287E-002
  -2.3976439473114911E-003   8.8810915409871516E-003   4.5124237085739621E-002
  -2.0363657121142131E-003   4.2741156522965174E-003   6.2370442256518777E-002
  -2.2863151796214468E-003   5.5771864181969333E-003   5.8339800234190942E-002
  -2.5362646471286734E-003   7.2727666294117310E-003   5.4303662553735865E-002
  -2.7862141146359036E-003   9.3608562859414240E-003   5.0262029215154880E-002
  -3.0361635821431338E-003   1.1841455387785693E-002   4.6214900218447319E-002
  -2.6116319848442635E-002   7.3470258972288538E-003   6.3259997530437595E-002
  -2.4907363817408892E-002   7.1947850238223976E-003   6.3008370220596410E-002
  -2.3698407786375178E-002   7.0112069081386813E-003   6.3079460169107732E-002
  -2.2489451755341453E-002   6.7962915501778472E-003   6.3473267375971407E-002
  -2.1280495724307721E-002   6.5500389499398293E-003   6.4189791841187505E-002
  -3.2900763444794673E-002   9.2192770856726058E-003   5.9105418088499201E-002
  -3.1378317011760200E-002   9.0349877964374381E-003   5.9000375877115763E-002
  -2.9855870578725678E-002   8.8066180599036537E-003   5.9199597211381669E-002
  -2.8333424145691195E-002   8.5341678760710929E-003   5.9703082091296704E-002
  -2.6810977712656711E-002   8.2176372449398460E-003   6.0510830516860764E-002
  -3.9491686241549390E-002   1.1091528274116275E-002   5.4925161833242600E-002
  -3.7674203119217375E-002   1.0875190569052548E-002   5.4953961515295691E-002
  -3.5856719996885368E-002   1.0602029211668564E-002   5.5268571030294721E-002
  -3.4039236874553347E-002   1.0272044201964392E-002   5.5868990378239544E-002
  -3.2221753752221340E-002   9.8852355399400571E-003   5.6755219559130266E-002
  -4.5889088238706556E-002   1.2963779462559957E-002   5.0719228764668528E-002
  -4.3795022139780385E-002   1.2715393341667568E-002   5.0869127135136326E-002
  -4.1700956040854102E-002   1.2397440363433532E-002   5.1286381625846873E-002
  -3.9606889941927861E-002   1.2009920527857720E-002   5.1970992236800032E-002
  -3.7512823843001648E-002   1.1552833834940199E-002   5.2922958967995634E-002
  -5.2092969436266456E-002   1.4836030651003695E-002   4.6487618882776416E-002
  -4.9740774073449262E-002   1.4555596114282698E-002   4.6745872736637661E-002
  -4.7388578710632012E-002   1.4192851515198446E-002   4.7253028998038182E-002
  -4.5036383347814818E-002   1.3747796853750965E-002   4.8009087666978062E-002
  -4.2684187984997596E-002   1.3220432129940340E-002   4.9014048743457217E-002
  -2.1280495724307721E-002   6.5500389499398293E-003   6.4189791841187505E-002
  -2.0709094330212938E-002   6.2884851208133419E-003   6.3441042158257910E-002
  -2.0137692936118140E-002   6.0276660761874740E-003   6.2872543911016793E-002
  -1.9566291542023356E-002   5.7675818160621943E-003   6.2484297099464056E-002
  -1.8994890147928559E-002   5.5082323404372913E-003   6.2276301723599881E-002
  -2.6810977712656711E-002   8.2176372449398460E-003   6.0510830516860764E-002
  -2.6067563832585065E-002   7.8822160881783926E-003   5.9877064923273285E-002
  -2.5324149952513437E-002   7.5530943274549622E-003   5.9407072865951052E-002
  -2.4580736072441808E-002   7.2302719627695203E-003   5.9100854344894031E-002
  -2.3837322192370169E-002   6.9137489941222263E-003   5.8958409360102326E-002
  -3.2221753752221340E-002   9.8852355399400571E-003   5.6755219559130266E-002
  -3.1322805285596035E-002   9.4759470555434294E-003   5.6242002666422292E-002
  -3.0423856818970727E-002   9.0785225787223464E-003   5.5876081410556423E-002
  -2.9524908352345391E-002   8.6929621094769590E-003   5.5657455791532570E-002
  -2.8625959885720090E-002   8.3192656478071614E-003   5.5586125809350989E-002
  -3.7512823843001648E-002   1.1552833834940199E-002   5.2922958967995634E-002
  -3.6474818689245812E-002   1.1069678022908362E-002   5.2535855387704854E-002
  -3.5436813535489997E-002   1.0603950829989755E-002   5.2279569544833024E-002
  -3.4398808381734182E-002   1.0155652256184509E-002   5.2154101439380082E-002
  -3.3360803227978346E-002   9.7247823014920687E-003   5.2159451071346195E-002
  -4.2684187984997596E-002   1.3220432129940340E-002   4.9014048743457217E-002
  -4.1523604043534446E-002   1.2663408990273545E-002   4.8758623087121145E-002
  -4.0363020102071254E-002   1.2129379081257177E-002   4.8617537268780792E-002
  -3.9202436160608103E-002   1.1618342402891824E-002   4.8590791288436200E-002
  -3.8041852219144912E-002   1.1130298955177031E-002   4.8678385146087466E-002
  -1.8994890147928559E-002   5.5082323404372913E-003   6.2276301723599881E-002
  -1.8050490594976359E-002   5.2431612875938338E-003   6.2017016100115341E-002
  -1.7106091042024166E-002   4.9659122958120860E-003   6.2007971124927980E-002
  -1.6161691489071980E-002   4.6764853650926239E-003   6.2249166798037575E-002
  -1.5217291936119773E-002   4.3748804954349962E-003   6.2740603119444072E-002
  -2.3837322192370169E-002   6.9137489941222263E-003   5.8958409360102326E-002
  -2.2651099905352433E-002   6.5926576857822106E-003   5.8730693166297365E-002
  -2.1464877618334693E-002   6.2561303020185755E-003   5.8736381792326625E-002
  -2.0278655331316960E-002   5.9041668428316055E-003   5.8975475238189926E-002
  -1.9092433044299223E-002   5.5367673082210578E-003   5.9447973503887253E-002
  -2.8625959885720090E-002   8.3192656478071614E-003   5.5586125809350989E-002
  -2.7214750693099688E-002   7.9421540839706983E-003   5.5386720908740139E-002
  -2.5803541500479282E-002   7.5463483082251342E-003   5.5403884999500497E-002
  -2.4392332307858866E-002   7.1318483205706461E-003   5.5637618081632138E-002
  -2.2981123115238478E-002   6.6986541210071748E-003   5.6087920155134946E-002
  -3.3360803227978346E-002   9.7247823014920687E-003   5.2159451071346195E-002
  -3.1741442958218145E-002   9.2916504821590751E-003   5.1985099327443725E-002
  -3.0122082688457931E-002   8.8365663144317139E-003   5.2010480746449692E-002
  -2.8502722418697751E-002   8.3595297983096017E-003   5.2235595328364040E-002
  -2.6883362148937516E-002   7.8605409337932641E-003   5.2660443073186736E-002
  -3.8041852219144912E-002   1.1130298955177031E-002   4.8678385146087466E-002
  -3.6231176700707773E-002   1.0641146880347591E-002   4.8525828422408102E-002
  -3.4420501182270649E-002   1.0126784320638182E-002   4.8556169033174140E-002
  -3.2609825663833504E-002   9.5872112760486961E-003   4.8769406978385749E-002
  -3.0799150145396387E-002   9.0224277465793534E-003   4.9165542258042705E-002
  -1.5217291936119773E-002   4.3748804954349962E-003   6.2740603119444072E-002
  -1.4357917748515789E-002   4.0639576622465978E-003   6.2500130595325776E-002
  -1.3498543560911826E-002   3.7465768409350453E-003   6.2466846811365939E-002
  -1.2639169373307849E-002   3.4227380314995615E-003   6.2640751767564812E-002
  -1.1779795185703879E-002   3.0924412339404794E-003   6.3021845463922088E-002
  -1.9092433044299223E-002   5.5367673082210578E-003   5.9447973503887253E-002
  -1.8028924334010710E-002   5.1589281527109065E-003   5.9184947222285567E-002
  -1.6965415623722214E-002   4.7756458308251815E-003   5.9123001245894286E-002
  -1.5901906913433739E-002   4.3869203425638409E-003   5.9262135574713617E-002
  -1.4838398203145205E-002   3.9927516879266767E-003   5.9602350208743382E-002
  -2.2981123115238478E-002   6.6986541210071748E-003   5.6087920155134946E-002
  -2.1719588317213490E-002   6.2538986431752985E-003   5.5803354937797672E-002
  -2.0458053519188495E-002   5.8047148207156507E-003   5.5713761590722805E-002
  -1.9196518721163500E-002   5.3511026536282869E-003   5.5819140113910454E-002
  -1.7934983923138505E-002   4.8930621419130405E-003   5.6119490507360481E-002
  -2.6883362148937516E-002   7.8605409337932641E-003   5.2660443073186736E-002
  -2.5429909698124094E-002   7.3488691336397599E-003   5.2355353741861732E-002
  -2.3976457247310654E-002   6.8337838106060089E-003   5.2239127845851274E-002
  -2.2523004796497249E-002   6.3152849646925940E-003   5.2311765385155244E-002
  -2.1069552345683796E-002   5.7933725958993210E-003   5.2573266359773545E-002
  -3.0799150145396387E-002   9.0224277465793534E-003   4.9165542258042705E-002
  -2.9159888476742529E-002   8.4438396241039992E-003   4.8840943634478162E-002
  -2.7520626808088713E-002   7.8628528004963671E-003   4.8699100011279917E-002
  -2.5881365139434877E-002   7.2794672757569845E-003   4.8740011388447857E-002
  -2.4242103470781040E-002   6.6936830498856015E-003   4.8963677765982427E-002
  -1.1779795185703879E-002   3.0924412339404794E-003   6.3021845463922088E-002
  -1.0806072197286978E-002   2.7673010968838341E-003   6.2937537765933915E-002
  -9.8323492088700920E-003   2.4589322689555215E-003   6.3102012010302189E-002
  -8.8586262204531883E-003   2.1673347501559234E-003   6.3515268197026881E-002
  -7.8849032320363055E-003   1.8925085404842834E-003   6.4177306326107963E-002
  -1.4838398203145205E-002   3.9927516879266767E-003   5.9602350208743382E-002
  -1.3626554081994778E-002   3.6009090409085953E-003   5.9482832243951234E-002
  -1.2414709960844390E-002   3.2191615755040592E-003   5.9590774602269719E-002
  -1.1202865839693986E-002   2.8475092917132905E-003   5.9926177283698756E-002
  -9.9910217185435780E-003   2.4859521895360670E-003   6.0489040288238261E-002
  -1.7934983923138505E-002   4.8930621419130405E-003   5.6119490507360481E-002
  -1.6506340288500478E-002   4.4345169849334676E-003   5.5958086148249681E-002
  -1.5077696653862429E-002   3.9793908820526108E-003   5.6002820493003660E-002
  -1.3649053019224401E-002   3.5276838332709941E-003   5.6253693541622456E-002
  -1.2220409384586350E-002   3.0793958385880171E-003   5.6710705294105684E-002
  -2.1069552345683796E-002   5.7933725958993210E-003   5.2573266359773545E-002
  -1.9445430816803999E-002   5.2681249289580068E-003   5.2363299478829450E-002
  -1.7821309287924244E-002   4.7396201886012665E-003   5.2338149682504165E-002
  -1.6197187759044451E-002   4.2078583748284739E-003   5.2497816970797459E-002
  -1.4573066230164695E-002   3.6728394876398840E-003   5.2842301343709819E-002
  -2.4242103470781040E-002   6.6936830498856015E-003   4.8963677765982427E-002
  -2.2443825666905420E-002   6.1017328729831566E-003   4.8698472235690127E-002
  -2.0645547863029773E-002   5.4998494951497001E-003   4.8596762170770746E-002
  -1.8847270059154118E-002   4.8880329163861203E-003   4.8658547571224453E-002
  -1.7048992255278506E-002   4.2662831366917509E-003   4.8883828437050969E-002
  -7.8849032320363055E-003   1.8925085404842834E-003   6.4177306326107963E-002
  -6.9532572279933785E-003   1.6812748090008767E-003   6.4089591904324950E-002
  -6.0216112239504377E-003   1.5804547247657008E-003   6.4249650334123387E-002
  -5.0899652199075072E-003   1.5900482877786865E-003   6.4657481615503415E-002
  -4.1583192158645699E-003   1.7100554980397087E-003   6.5313085748465283E-002
  -9.9910217185435780E-003   2.4859521895360670E-003   6.0489040288238261E-002
  -8.8105525425192788E-003   2.1856532055266054E-003   6.0390524358304443E-002
  -7.6300833664950125E-003   1.9977752762390111E-003   6.0541881920751689E-002
  -6.4496141904707175E-003   1.9223184016732564E-003   6.0943112975579708E-002
  -5.2691450144464434E-003   1.9592825818294246E-003   6.1594217522788985E-002
  -1.2220409384586350E-002   3.0793958385880171E-003   5.6710705294105684E-002
  -1.0789016395781253E-002   2.6900316020522508E-003   5.6603395263494449E-002
  -9.3576234069761739E-003   2.4150958277122381E-003   5.6748059366064169E-002
  -7.9262304181710874E-003   2.2545885155677223E-003   5.7144697601814190E-002
  -6.4948374293659974E-003   2.2085096656188630E-003   5.7793309970744750E-002
  -1.4573066230164695E-002   3.6728394876398840E-003   5.2842301343709819E-002
  -1.2888648787779284E-002   3.1944099985779378E-003   5.2728204619895372E-002
  -1.1204231345393938E-002   2.8324163791853957E-003   5.2868182670061027E-002
  -9.5198139030085675E-003   2.5868586294623512E-003   5.3262235494206625E-002
  -7.8353964606231799E-003   2.4577367494084401E-003   5.3910363092332526E-002
  -1.7048992255278506E-002   4.2662831366917509E-003   4.8883828437050969E-002
  -1.5109449718513385E-002   3.6987883951036804E-003   4.8764952427507002E-002
  -1.3169907181748278E-002   3.2497369306588308E-003   4.8902251832742383E-002
  -1.1230364644983171E-002   2.9191287433567165E-003   4.9295726652757305E-002
  -9.2908221082180498E-003   2.7069638331979062E-003   4.9945376887551851E-002
  -4.1583192158645699E-003   1.7100554980397087E-003   6.5313085748465283E-002
  -3.6278308399270015E-003   2.0017197830945466E-003   6.4398538909866243E-002
  -3.0973424639893915E-003   2.5262845704893955E-003   6.3603249381675553E-002
  -2.5668540880517988E-003   3.2837498602229440E-003   6.2927217163892962E-002
  -2.0363657121142131E-003   4.2741156522965174E-003   6.2370442256518777E-002
  -5.2691450144464434E-003   1.9592825818294246E-003   6.1594217522788985E-002
  -4.5935048330993655E-003   2.2155689333451245E-003   6.0870260458022629E-002
  -3.9178646517522685E-003   2.7980785728593804E-003   6.0317349693666672E-002
  -3.2422244704051759E-003   3.7068115003719912E-003   5.9935485229721544E-002
  -2.5665842890580971E-003   4.9417677158826168E-003   5.9724667066187176E-002
  -6.4948374293659974E-003   2.2085096656188630E-003   5.7793309970744750E-002
  -5.6222564526069458E-003   2.4294180835960633E-003   5.7353265465469150E-002
  -4.7496754758478942E-003   3.0698725752302675E-003   5.7136056250606845E-002
  -3.8770944990888434E-003   4.1298731405208199E-003   5.7141682326157746E-002
  -3.0045135223297909E-003   5.6094197794686051E-003   5.7370143692121733E-002
  -7.8353964606231799E-003   2.4577367494084401E-003   5.3910363092332526E-002
  -6.7140856984497232E-003   2.6432672338464885E-003   5.3847553932206450E-002
  -5.5927749362762510E-003   3.3416665776008145E-003   5.4059369052496309E-002
  -4.4714641741027865E-003   4.5529347806698688E-003   5.4545808453201713E-002
  -3.3501534119293221E-003   6.2770718430544270E-003   5.5306872134322754E-002
  -9.2908221082180498E-003   2.7069638331979062E-003   4.9945376887551851E-002
  -7.8689925706277308E-003   2.8571163840976355E-003   5.0353125858234149E-002
  -6.4471630330373564E-003   3.6134605799711950E-003   5.1087288099334605E-002
  -5.0253334954470028E-003   4.9759964208188762E-003   5.2147863610853329E-002
  -3.6035039578566630E-003   6.9447239066408040E-003   5.3534852392790211E-002
  -2.0363657121142131E-003   4.2741156522965174E-003   6.2370442256518777E-002
  -2.2863151796214468E-003   5.5771864181969333E-003   5.8339800234190942E-002
  -2.5362646471286734E-003   7.2727666294117310E-003   5.4303662553735865E-002
  -2.7862141146359036E-003   9.3608562859414240E-003   5.0262029215154880E-002
  -3.0361635821431338E-003   1.1841455387785693E-002   4.6214900218447319E-002
  -2.5665842890580971E-003   4.9417677158826168E-003   5.9724667066187176E-002
  -2.8394960399791593E-003   6.5665785441993973E-003   5.6191845453708367E-002
  -3.1124077909002335E-003   8.6448753101303066E-003   5.2618594932528795E-002
  -3.3853195418212705E-003   1.1176658013675636E-002   4.9004915502647961E-002
  -3.6582312927423352E-003   1.4161926654835399E-002   4.5350807164066032E-002
  -3.0045135223297909E-003   5.6094197794686051E-003   5.7370143692121733E-002
  -3.3353208072391741E-003   7.5559706702014728E-003   5.4396118981792169E-002
  -3.6661280921485330E-003   1.0016983990848743E-002   5.1346732112187071E-002
  -3.9969353770578945E-003   1.2992459741410008E-002   4.8221983083306191E-002
  -4.3277426619672786E-003   1.6482397921885328E-002   4.5021871895150611E-002
  -3.3501534119293221E-003   6.2770718430544270E-003   5.5306872134322754E-002
  -3.7737894814014548E-003   8.5453627962038536E-003   5.2952620818442403E-002
  -4.1974255508736031E-003   1.1389092671567028E-002   5.0488074092711409E-002
  -4.6210616203457219E-003   1.4808261469144633E-002   4.7913231957131000E-002
  -5.0446976898178546E-003   1.8802869188935256E-002   4.5228094411700226E-002
  -3.6035039578566630E-003   6.9447239066408040E-003   5.3534852392790211E-002
  -4.1549020624660482E-003   9.5347549222062344E-003   5.1861350963658182E-002
  -4.7063001670754195E-003   1.2761201352285784E-002   5.0042620874101884E-002
  -5.2576982716847631E-003   1.6624063196878598E-002   4.8078662124121013E-002
  -5.8090963762941761E-003   2.1123340455984962E-002   4.5969474713715819E-002
  -5.2092969436266456E-002   1.4836030651003695E-002   4.6487618882776416E-002
  -4.9740774073449262E-002   1.4555596114282698E-002   4.6745872736637661E-002
  -4.7388578710632012E-002   1.4192851515198446E-002   4.7253028998038182E-002
  -4.5036383347814818E-002   1.3747796853750965E-002   4.8009087666978062E-002
  -4.2684187984997596E-002   1.3220432129940340E-002   4.9014048743457217E-002
  -5.8288549249564586E-002   1.6789051429007551E-002   4.2630816147773976E-002
  -5.5674454576837118E-002   1.6387415361291097E-002   4.2654885057346187E-002
  -5.3060359904109691E-002   1.5927561724765754E-002   4.2953850179199282E-002
  -5.0446265231382244E-002   1.5409490519431128E-002   4.3527711513333636E-002
  -4.7832170558654775E-002   1.4833201745287683E-002   4.4376469059749041E-002
  -6.4661047093936524E-002   1.8742072207011407E-002   3.8640765634999436E-002
  -6.1759059306557069E-002   1.8219234608299495E-002   3.8454742093836411E-002
  -5.8857071519177670E-002   1.7662271934332896E-002   3.8569608569696476E-002
  -5.5955083731798215E-002   1.7071184185111346E-002   3.8985365062579311E-002
  -5.3053095944418760E-002   1.6445971360634998E-002   3.9702011572485069E-002
  -7.1210462969382549E-002   2.0695092985015262E-002   3.4517467344452019E-002
  -6.7994588262609276E-002   2.0051053855307949E-002   3.4145443846108285E-002
  -6.4778713555836059E-002   1.9396982143900121E-002   3.4100304169529347E-002
  -6.1562838849062780E-002   1.8732877850791536E-002   3.4382048314715058E-002
  -5.8346964142289535E-002   1.8058740975982437E-002   3.4990676281665439E-002
  -7.7936796875902437E-002   2.2648113763019118E-002   3.0260921276132113E-002
  -7.4381041444993634E-002   2.1882873102316236E-002   2.9726990314161927E-002
  -7.0825286014084721E-002   2.1131692353467318E-002   2.9545936978698173E-002
  -6.7269530583175918E-002   2.0394571516471678E-002   2.9717761269740822E-002
  -6.3713775152267060E-002   1.9671510591329655E-002   3.0242463187290070E-002
  -4.2684187984997596E-002   1.3220432129940340E-002   4.9014048743457217E-002
  -4.1523604043534446E-002   1.2663408990273545E-002   4.8758623087121145E-002
  -4.0363020102071254E-002   1.2129379081257177E-002   4.8617537268780792E-002
  -3.9202436160608103E-002   1.1618342402891824E-002   4.8590791288436200E-002
  -3.8041852219144912E-002   1.1130298955177031E-002   4.8678385146087466E-002
  -4.7832170558654775E-002   1.4833201745287683E-002   4.4376469059749041E-002
  -4.6554819187496911E-002   1.4236833289129516E-002   4.4071053900720206E-002
  -4.5277467816339040E-002   1.3658523037750753E-002   4.3884833763085093E-002
  -4.4000116445181175E-002   1.3098270991151760E-002   4.3817808646843641E-002
  -4.2722765074023304E-002   1.2556077149332268E-002   4.3869978551995675E-002
  -5.3053095944418760E-002   1.6445971360634998E-002   3.9702011572485069E-002
  -5.1654121960168338E-002   1.5810257587985557E-002   3.9341671884892446E-002
  -5.0255147975917902E-002   1.5187666994244432E-002   3.9105382402091278E-002
  -4.8856173991667452E-002   1.4578199579411805E-002   3.8993143124081669E-002
  -4.7457200007416982E-002   1.3981855343487504E-002   3.9004954050863488E-002
  -5.8346964142289535E-002   1.8058740975982437E-002   3.4990676281665439E-002
  -5.6821512361548643E-002   1.7383681886841619E-002   3.4570477039637788E-002
  -5.5296060580807757E-002   1.6716810950738004E-002   3.4279183185799499E-002
  -5.3770608800066864E-002   1.6058128167671822E-002   3.4116794720150695E-002
  -5.2245157019325986E-002   1.5407633537642795E-002   3.4083311642691086E-002
  -6.3713775152267060E-002   1.9671510591329655E-002   3.0242463187290070E-002
  -6.2056990391637867E-002   1.8957106185697570E-002   2.9757469364956241E-002
  -6.0400205631008688E-002   1.8245954907231632E-002   2.9406236114209644E-002
  -5.8743420870379530E-002   1.7538056755931800E-002   2.9188763435050377E-002
  -5.7086636109750344E-002   1.6833411731797976E-002   2.9105051327478315E-002
  -3.8041852219144912E-002   1.1130298955177031E-002   4.8678385146087466E-002
  -3.6231176700707773E-002   1.0641146880347591E-002   4.8525828422408102E-002
  -3.4420501182270649E-002   1.0126784320638182E-002   4.8556169033174140E-002
  -3.2609825663833504E-002   9.5872112760486961E-003   4.8769406978385749E-002
  -3.0799150145396387E-002   9.0224277465793534E-003   4.9165542258042705E-002
  -4.2722765074023304E-002   1.2556077149332268E-002   4.3869978551995675E-002
  -4.0724596646093049E-002   1.2012893376747574E-002   4.3645871049253437E-002
  -3.8726428218162801E-002   1.1449671537852785E-002   4.3613852031052044E-002
  -3.6728259790232580E-002   1.0866411632647809E-002   4.3773921497391351E-002
  -3.4730091362302304E-002   1.0263113661132750E-002   4.4126079448271294E-002
  -4.7457200007416982E-002   1.3981855343487504E-002   3.9004954050863488E-002
  -4.5262347519898383E-002   1.3384639873147322E-002   3.8714468187628553E-002
  -4.3067495032379818E-002   1.2772558755067109E-002   3.8625261959029475E-002
  -4.0872642544861233E-002   1.2145611989246477E-002   3.8737335365066343E-002
  -3.8677790057342641E-002   1.1503799575685925E-002   3.9050688405739303E-002
  -5.2245157019325986E-002   1.5407633537642795E-002   3.4083311642691086E-002
  -4.9844429322123879E-002   1.4756386369547299E-002   3.3731619837533082E-002
  -4.7443701624921703E-002   1.4095445972281545E-002   3.3590398817106355E-002
  -4.5042973927719596E-002   1.3424812345845590E-002   3.3659648581410836E-002
  -4.2642246230517426E-002   1.2744485490239155E-002   3.3939369130446331E-002
  -5.7086636109750344E-002   1.6833411731797976E-002   2.9105051327478315E-002
  -5.4470842052769392E-002   1.6128132865947109E-002   2.8697325998967349E-002
  -5.1855047995788481E-002   1.5418333189496036E-002   2.8509262605282887E-002
  -4.9239253938807577E-002   1.4704012702444202E-002   2.8540861146424623E-002
  -4.6623459881826618E-002   1.3985171404792496E-002   2.8792121622392974E-002
  -3.0799150145396387E-002   9.0224277465793534E-003   4.9165542258042705E-002
  -2.9159888476742529E-002   8.4438396241039992E-003   4.8840943634478162E-002
  -2.7520626808088713E-002   7.8628528004963671E-003   4.8699100011279917E-002
  -2.5881365139434877E-002   7.2794672757569845E-003   4.8740011388447857E-002
  -2.4242103470781040E-002   6.6936830498856015E-003   4.8963677765982427E-002
  -3.4730091362302304E-002   1.0263113661132750E-002   4.4126079448271294E-002
  -3.2915759083372235E-002   9.6467929605316138E-003   4.3772835909985319E-002
  -3.1101426804442188E-002   9.0244648680692097E-003   4.3586978591885484E-002
  -2.9287094525512102E-002   8.3961293837450726E-003   4.3568507493971703E-002
  -2.7472762246582030E-002   7.7617865075594317E-003   4.3717422616244062E-002
  -3.8677790057342641E-002   1.1503799575685925E-002   3.9050688405739303E-002
  -3.6703755948316624E-002   1.0849746296959561E-002   3.8665191262002296E-002
  -3.4729721839290573E-002   1.0186076935641941E-002   3.8431711558271145E-002
  -3.2755687730264542E-002   9.5127914917332163E-003   3.8350249294545918E-002
  -3.0781653621238504E-002   8.8298899652331508E-003   3.8420804470826353E-002
  -4.2642246230517426E-002   1.2744485490239155E-002   3.3939369130446331E-002
  -4.0523879071575661E-002   1.2052699633387454E-002   3.3518009690528851E-002
  -3.8405511912633937E-002   1.1347689003214673E-002   3.3233298910437054E-002
  -3.6287144753692165E-002   1.0629453599721166E-002   3.3085236790170579E-002
  -3.4168777594750399E-002   9.8979934229068700E-003   3.3073823329729940E-002
  -4.6623459881826618E-002   1.3985171404792496E-002   2.8792121622392974E-002
  -4.4376128453149422E-002   1.3255652969815346E-002   2.8331291195565322E-002
  -4.2128797024472239E-002   1.2509301070787432E-002   2.7991740648382779E-002
  -3.9881465595795022E-002   1.1746115707709594E-002   2.7773469980845761E-002
  -3.7634134167117861E-002   1.0966096880580700E-002   2.7676479192954129E-002
  -2.4242103470781040E-002   6.6936830498856015E-003   4.8963677765982427E-002
  -2.2443825666905420E-002   6.1017328729831566E-003   4.8698472235690127E-002
  -2.0645547863029773E-002   5.4998494951497001E-003   4.8596762170770746E-002
  -1.8847270059154118E-002   4.8880329163861203E-003   4.8658547571224453E-002
  -1.7048992255278506E-002   4.2662831366917509E-003   4.8883828437050969E-002
  -2.7472762246582030E-002   7.7617865075594317E-003   4.3717422616244062E-002
  -2.5514406565184722E-002   7.1240054130362607E-003   4.3365165776372949E-002
  -2.3556050883787399E-002   6.4853552736991449E-003   4.3169569226172461E-002
  -2.1597695202390098E-002   5.8458360895489031E-003   4.3130632965642193E-002
  -1.9639339520992768E-002   5.2054478605849663E-003   4.3248356994782577E-002
  -3.0781653621238504E-002   8.8298899652331508E-003   3.8420804470826353E-002
  -2.8670055238021928E-002   8.1462779530892260E-003   3.7990560477493662E-002
  -2.6558456854805412E-002   7.4708610522488117E-003   3.7710141598128910E-002
  -2.4446858471588832E-002   6.8036392627115749E-003   3.7579547832732124E-002
  -2.2335260088372257E-002   6.1446125844779598E-003   3.7598779181303416E-002
  -3.4168777594750399E-002   9.8979934229068700E-003   3.3073823329729940E-002
  -3.1910771685417123E-002   9.1685504931424827E-003   3.2574656339052280E-002
  -2.9652765776083820E-002   8.4563668307984230E-003   3.2218479286640185E-002
  -2.7394759866750534E-002   7.7614424358745243E-003   3.2005292172493698E-002
  -2.5136753957417195E-002   7.0837773083713418E-003   3.1935094996612637E-002
  -3.7634134167117861E-002   1.0966096880580700E-002   2.7676479192954129E-002
  -3.5236555907370237E-002   1.0190823033195462E-002   2.7117453361048705E-002
  -3.2838977647622614E-002   9.4418726093478955E-003   2.6694582291706348E-002
  -3.0441399387874990E-002   8.7192456090372447E-003   2.6407865984927059E-002
  -2.8043821128127394E-002   8.0229420322641687E-003   2.6257304440710838E-002
  -1.7048992255278506E-002   4.2662831366917509E-003   4.8883828437050969E-002
  -1.5109449718513385E-002   3.6987883951036804E-003   4.8764952427507002E-002
  -1.3169907181748278E-002   3.2497369306588308E-003   4.8902251832742383E-002
  -1.1230364644983171E-002   2.9191287433567165E-003   4.9295726652757305E-002
  -9.2908221082180498E-003   2.7069638331979062E-003   4.9945376887551851E-002
  -1.9639339520992768E-002   5.2054478605849663E-003   4.3248356994782577E-002
  -1.7482538226482651E-002   4.6015570783361492E-003   4.3081144634232460E-002
  -1.5325736931972499E-002   4.0715302343314885E-003   4.3092274374392586E-002
  -1.3168935637462364E-002   3.6153673285703458E-003   4.3281746215263470E-002
  -1.1012134342952284E-002   3.2330683610536370E-003   4.3649560156844569E-002
  -2.2335260088372257E-002   6.1446125844779598E-003   3.7598779181303416E-002
  -2.0039033350186124E-002   5.5043257615684793E-003   3.7338651130847694E-002
  -1.7742806611999930E-002   4.8933235380038964E-003   3.7179031867033668E-002
  -1.5446579873813822E-002   4.3116059137840793E-003   3.7119921389861227E-002
  -1.3150353135627603E-002   3.7591728889092013E-003   3.7161319699330286E-002
  -2.5136753957417195E-002   7.0837773083713418E-003   3.1935094996612637E-002
  -2.2778935089623902E-002   6.4070944448009898E-003   3.1537471917352553E-002
  -2.0421116221830578E-002   5.7151168416764292E-003   3.1162524310665150E-002
  -1.8063297354037215E-002   5.0078444989977051E-003   3.0810252176550357E-002
  -1.5705478486243908E-002   4.2852774167649044E-003   3.0480655515008254E-002
  -2.8043821128127394E-002   8.0229420322641687E-003   2.6257304440710838E-002
  -2.5702243444795880E-002   7.3098631280332227E-003   2.5677606993747215E-002
  -2.3360665761464380E-002   6.5369101453489897E-003   2.5042751705287303E-002
  -2.1019088078132901E-002   5.7040830842113380E-003   2.4352738575331212E-002
  -1.8677510394801367E-002   4.8113819446206074E-003   2.3607567603878610E-002
  -9.2908221082180498E-003   2.7069638331979062E-003   4.9945376887551851E-002
  -7.8689925706277308E-003   2.8571163840976355E-003   5.0353125858234149E-002
  -6.4471630330373564E-003   3.6134605799711950E-003   5.1087288099334605E-002
  -5.0253334954470028E-003   4.9759964208188762E-003   5.2147863610853329E-002
  -3.6035039578566630E-003   6.9447239066408040E-003   5.3534852392790211E-002
  -1.1012134342952284E-002   3.2330683610536370E-003   4.3649560156844569E-002
  -9.2454068360034308E-003   3.1625224349448589E-003   4.4236804163299781E-002
  -7.4786793290546050E-003   3.6416186534086181E-003   4.5187430838053461E-002
  -5.7119518221057514E-003   4.6703570164442765E-003   4.6501440181105982E-002
  -3.9452243151569255E-003   6.2487375240520837E-003   4.8178832192457444E-002
  -1.3150353135627603E-002   3.7591728889092013E-003   3.7161319699330286E-002
  -1.1001758261439530E-002   3.4679284857919435E-003   3.7871509241155926E-002
  -8.8531633872514504E-003   3.6697767268454584E-003   3.8982050849161093E-002
  -6.7045685130633723E-003   4.3647176120694478E-003   4.0492944523345967E-002
  -4.5559736388752978E-003   5.5527511414637520E-003   4.2404190263710312E-002
  -1.5705478486243908E-002   4.2852774167649044E-003   3.0480655515008254E-002
  -1.3138046846935876E-002   3.7733345366393750E-003   3.1257241091802820E-002
  -1.0570615207627837E-002   3.6979348002824791E-003   3.2471148132657925E-002
  -8.0031835683197720E-003   4.0590782076947336E-003   3.4122376637573282E-002
  -5.4357519290117642E-003   4.8567647588755591E-003   3.6210926606548906E-002
  -1.8677510394801367E-002   4.8113819446206074E-003   2.3607567603878610E-002
  -1.5654272592492607E-002   4.0787405874863625E-003   2.4393999715240366E-002
  -1.2631034790183820E-002   3.7260928737194721E-003   2.5654722688543519E-002
  -9.6077969878750197E-003   3.7534388033199570E-003   2.7389736523787567E-002
  -6.5845591855662744E-003   4.1607783762869222E-003   2.9599041220972788E-002
  -3.6035039578566630E-003   6.9447239066408040E-003   5.3534852392790211E-002
  -4.1549020624660482E-003   9.5347549222062344E-003   5.1861350963658182E-002
  -4.7063001670754195E-003   1.2761201352285784E-002   5.0042620874101884E-002
  -5.2576982716847631E-003   1.6624063196878598E-002   4.8078662124121013E-002
  -5.8090963762941761E-003   2.1123340455984962E-002   4.5969474713715819E-002
  -3.9452243151569255E-003   6.2487375240520837E-003   4.8178832192457444E-002
  -4.5380694854266629E-003   8.6867880000300879E-003   4.7243139995012229E-002
  -5.1309146556964419E-003   1.2294536268176032E-002   4.6369782326670717E-002
  -5.7237598259661654E-003   1.7071982328488701E-002   4.5558759187432851E-002
  -6.3166049962359028E-003   2.3019126180969351E-002   4.4810070577298911E-002
  -4.5559736388752978E-003   5.5527511414637520E-003   4.2404190263710312E-002
  -4.9827026852771183E-003   7.8388210778542744E-003   4.2739589675605566E-002
  -5.4094317316790465E-003   1.1827871184066266E-002   4.3344886806132757E-002
  -5.8361607780807873E-003   1.7519901460099300E-002   4.4220081655292155E-002
  -6.2628898244827397E-003   2.4914911905953518E-002   4.5365174223083393E-002
  -5.4357519290117642E-003   4.8567647588755591E-003   3.6210926606548906E-002
  -5.4888016620175395E-003   6.9908541556785164E-003   3.8350700005438325E-002
  -5.5418513950232853E-003   1.1361206099956396E-002   4.0967934312487977E-002
  -5.5949011280290485E-003   1.7967820591709871E-002   4.4062629527698002E-002
  -5.6479508610346972E-003   2.6810697630937907E-002   4.7634785651068129E-002
  -6.5845591855662744E-003   4.1607783762869222E-003   2.9599041220972788E-002
  -6.0563664156476071E-003   6.1428872335023144E-003   3.4076470984510387E-002
  -5.5281736457289954E-003   1.0894541015846915E-002   3.9238924845736434E-002
  -4.9999808758103004E-003   1.8415739723320043E-002   4.5086402804650927E-002
  -4.4717881058917719E-003   2.8706483355922074E-002   5.1618904861253867E-002
  -7.7936796875902437E-002   2.2648113763019118E-002   3.0260921276132113E-002
  -7.4381041444993634E-002   2.1882873102316236E-002   2.9726990314161927E-002
  -7.0825286014084721E-002   2.1131692353467318E-002   2.9545936978698173E-002
  -6.7269530583175918E-002   2.0394571516471678E-002   2.9717761269740822E-002
  -6.3713775152267060E-002   1.9671510591329655E-002   3.0242463187290070E-002
  -8.4541378880893803E-002   2.4398030065555631E-002   2.2072284128342001E-002
  -8.0683686966344301E-002   2.3652429488305093E-002   2.1906911064030754E-002
  -7.6825995051794604E-002   2.2890923411988201E-002   2.1992533340494391E-002
  -7.2968303137245033E-002   2.2113511836605058E-002   2.2329150957733065E-002
  -6.9110611222695489E-002   2.1320194762155686E-002   2.2916763915746874E-002
  -9.0725539051754289E-002   2.6147946368092090E-002   1.3918269769464281E-002
  -8.6667792939295371E-002   2.5421985874293701E-002   1.4091489191891779E-002
  -8.2610046826836481E-002   2.4650154470509264E-002   1.4413821669362989E-002
  -7.8552300714377618E-002   2.3832452156738435E-002   1.4885267201877772E-002
  -7.4494554601918672E-002   2.2968878932981718E-002   1.5505825789436156E-002
  -9.6489277388483841E-002   2.7897862670628576E-002   5.7988781994984598E-003
  -9.2333359363847109E-002   2.7191542260282378E-002   6.2807246977452137E-003
  -8.8177441339210350E-002   2.6409385529030237E-002   6.8098019653040458E-003
  -8.4021523314573632E-002   2.5551392476871951E-002   7.3861100021752144E-003
  -7.9865605289936872E-002   2.4617563103807805E-002   8.0096488083581246E-003
 -0.10183259389108246        2.9647778973165062E-002  -2.2858905815552610E-003
  -9.7680386239999306E-002   2.8961098646271055E-002  -1.5253824184092712E-003
  -9.3528178588916155E-002   2.8168616587551210E-002  -8.1952577168259433E-004
  -8.9375970937833060E-002   2.7270332797005276E-002  -1.6832064137518865E-004
  -8.5223763286749854E-002   2.6266247274633669E-002   4.2823297251282089E-004
  -6.3713775152267060E-002   1.9671510591329655E-002   3.0242463187290070E-002
  -6.2056990391637867E-002   1.8957106185697570E-002   2.9757469364956241E-002
  -6.0400205631008688E-002   1.8245954907231632E-002   2.9406236114209644E-002
  -5.8743420870379530E-002   1.7538056755931800E-002   2.9188763435050377E-002
  -5.7086636109750344E-002   1.6833411731797976E-002   2.9105051327478315E-002
  -6.9110611222695489E-002   2.1320194762155686E-002   2.2916763915746874E-002
  -6.7311897199249571E-002   2.0527197522547350E-002   2.2462730623804814E-002
  -6.5513183175803610E-002   1.9750745451687243E-002   2.2158795285909028E-002
  -6.3714469152357733E-002   1.8990838549575433E-002   2.2004957902059551E-002
  -6.1915755128911773E-002   1.8247476816211972E-002   2.2001218472256362E-002
  -7.4494554601918672E-002   2.2968878932981718E-002   1.5505825789436156E-002
  -7.2537573933196986E-002   2.2097288859397046E-002   1.5096045069468128E-002
  -7.0580593264475341E-002   2.1255535996142744E-002   1.4852699686005444E-002
  -6.8623612595753780E-002   2.0443620343219122E-002   1.4775789639048027E-002
  -6.6666631927032011E-002   1.9661541900625856E-002   1.4865314928595719E-002
  -7.9865605289936872E-002   2.4617563103807805E-002   8.0096488083581246E-003
  -7.7734020593480446E-002   2.3667380196246784E-002   7.6574127019465067E-003
  -7.5602435897024034E-002   2.2760326540598438E-002   7.4879493144989068E-003
  -7.3470851200567594E-002   2.1896402136862978E-002   7.5012586460156978E-003
  -7.1339266504111196E-002   2.1075606985039880E-002   7.6973406964963090E-003
  -8.5223763286749854E-002   2.6266247274633669E-002   4.2823297251282089E-004
  -8.2901237180099674E-002   2.5237471533096634E-002   1.4683352123934235E-004
  -8.0578711073449549E-002   2.4265117085053883E-002   6.4544171389124827E-005
  -7.8256184966799452E-002   2.3349183930506730E-002   1.8136492296227935E-004
  -7.5933658860149245E-002   2.2489672069453848E-002   4.9729577595847285E-004
  -5.7086636109750344E-002   1.6833411731797976E-002   2.9105051327478315E-002
  -5.4470842052769392E-002   1.6128132865947109E-002   2.8697325998967349E-002
  -5.1855047995788481E-002   1.5418333189496036E-002   2.8509262605282887E-002
  -4.9239253938807577E-002   1.4704012702444202E-002   2.8540861146424623E-002
  -4.6623459881826618E-002   1.3985171404792496E-002   2.8792121622392974E-002
  -6.1915755128911773E-002   1.8247476816211972E-002   2.2001218472256362E-002
  -5.9087750296805686E-002   1.7506217113874456E-002   2.1655853246437012E-002
  -5.6259745464699522E-002   1.6752616304840873E-002   2.1515247636041596E-002
  -5.3431740632593400E-002   1.5986674389111041E-002   2.1579401641070389E-002
  -5.0603735800487271E-002   1.5208391366684837E-002   2.1848315261522866E-002
  -6.6666631927032011E-002   1.9661541900625856E-002   1.4865314928595719E-002
  -6.3641318639203165E-002   1.8884301361801997E-002   1.4574489509372235E-002
  -6.0616005351374361E-002   1.8086899420185709E-002   1.4473521386170196E-002
  -5.7590692063545508E-002   1.7269336075777714E-002   1.4562410558989727E-002
  -5.4565378775716634E-002   1.6431611328577178E-002   1.4841157027830704E-002
  -7.1339266504111196E-002   2.1075606985039880E-002   7.6973406964963090E-003
  -6.8131547079962065E-002   2.0262385609729330E-002   7.4532347877728083E-003
  -6.4923827655812907E-002   1.9421182535530546E-002   7.3840838556682928E-003
  -6.1716108231663805E-002   1.8551997762444303E-002   7.4898879001824795E-003
  -5.8508388807514633E-002   1.7654831290469630E-002   7.7706469213161614E-003
  -7.5933658860149245E-002   2.2489672069453848E-002   4.9729577595847285E-004
  -7.2558435619082262E-002   2.1640469857656663E-002   2.9208908163902425E-004
  -6.9183212378015280E-002   2.0755465650875216E-002   2.4693504453579540E-004
  -6.5807989136948269E-002   1.9834659449111100E-002   3.6183366464984795E-004
  -6.2432765895881315E-002   1.8878051252361860E-002   6.3678494197971780E-004
  -4.6623459881826618E-002   1.3985171404792496E-002   2.8792121622392974E-002
  -4.4376128453149422E-002   1.3255652969815346E-002   2.8331291195565322E-002
  -4.2128797024472239E-002   1.2509301070787432E-002   2.7991740648382779E-002
  -3.9881465595795022E-002   1.1746115707709594E-002   2.7773469980845761E-002
  -3.7634134167117861E-002   1.0966096880580700E-002   2.7676479192954129E-002
  -5.0603735800487271E-002   1.5208391366684837E-002   2.1848315261522866E-002
  -4.8225098548300649E-002   1.4423875444691869E-002   2.1407664643746716E-002
  -4.5846461296114013E-002   1.3639234830261637E-002   2.1108345793344141E-002
  -4.3467824043927461E-002   1.2854469523393725E-002   2.0950358710315128E-002
  -4.1089186791740756E-002   1.2069579524088381E-002   2.0933703394659664E-002
  -5.4565378775716634E-002   1.6431611328577178E-002   1.4841157027830704E-002
  -5.2035383812292314E-002   1.5592097919568726E-002   1.4437394990718957E-002
  -4.9505388848868029E-002   1.4769168589735718E-002   1.4195016608709407E-002
  -4.6975393885443674E-002   1.3962823339077907E-002   1.4114021881801178E-002
  -4.4445398922019361E-002   1.3173062167596283E-002   1.4194410809995145E-002
  -5.8508388807514633E-002   1.7654831290469630E-002   7.7706469213161614E-003
  -5.5806984245124362E-002   1.6760320394445472E-002   7.4204822364823154E-003
  -5.3105579682734071E-002   1.5899102349209861E-002   7.2517530944781229E-003
  -5.0404175120343751E-002   1.5071177154762619E-002   7.2644594953043626E-003
  -4.7702770557953508E-002   1.4276544811104186E-002   7.4586014389606062E-003
  -6.2432765895881315E-002   1.8878051252361860E-002   6.3678494197971780E-004
  -5.9539899846796751E-002   1.7928542869322217E-002   3.5692638103612673E-004
  -5.6647033797712243E-002   1.7029036108683948E-002   2.7855525065106912E-004
  -5.3754167748627735E-002   1.6179530970446873E-002   4.0167155082394823E-004
  -5.0861301699543171E-002   1.5380027454611866E-002   7.2627528155566612E-004
  -3.7634134167117861E-002   1.0966096880580700E-002   2.7676479192954129E-002
  -3.5236555907370237E-002   1.0190823033195462E-002   2.7117453361048705E-002
  -3.2838977647622614E-002   9.4418726093478955E-003   2.6694582291706348E-002
  -3.0441399387874990E-002   8.7192456090372447E-003   2.6407865984927059E-002
  -2.8043821128127394E-002   8.0229420322641687E-003   2.6257304440710838E-002
  -4.1089186791740756E-002   1.2069579524088381E-002   2.0933703394659664E-002
  -3.8567779019684501E-002   1.1289742870115582E-002   2.0479470210163886E-002
  -3.6046371247628300E-002   1.0520137599244056E-002   2.0136741287722276E-002
  -3.3524963475572045E-002   9.7607637114747944E-003   1.9905516627334863E-002
  -3.1003555703515845E-002   9.0116212068072077E-003   1.9785796229001729E-002
  -4.4445398922019361E-002   1.3173062167596283E-002   1.4194410809995145E-002
  -4.1824812138163317E-002   1.2388662707035175E-002   1.3828878232473446E-002
  -3.9204225354307266E-002   1.1598402589140563E-002   1.3550199416497058E-002
  -3.6583638570451146E-002   1.0802281813912181E-002   1.3358374362065856E-002
  -3.3963051786595096E-002   1.0000300381349803E-002   1.3253403069180297E-002
  -4.7702770557953508E-002   1.4276544811104186E-002   7.4586014389606062E-003
  -4.5007655262806472E-002   1.3487582543955032E-002   7.1656774279772670E-003
  -4.2312539967659511E-002   1.2676667579036786E-002   6.9349566780301866E-003
  -3.9617424672512495E-002   1.1843799916349316E-002   6.7664391891201128E-003
  -3.6922309377365521E-002   1.0988979555892397E-002   6.6601249612462735E-003
  -5.0861301699543171E-002   1.5380027454611866E-002   7.2627528155566612E-004
  -4.8116308393614138E-002   1.4586502380875110E-002   4.8986779667520297E-004
  -4.5371315087685049E-002   1.3754932568933065E-002   2.9101307232243245E-004
  -4.2626321781756044E-002   1.2885318018786965E-002   1.2971110849764600E-004
  -3.9881328475826927E-002   1.1977658730435214E-002   5.9619052000803308E-006
  -2.8043821128127394E-002   8.0229420322641687E-003   2.6257304440710838E-002
  -2.5702243444795880E-002   7.3098631280332227E-003   2.5677606993747215E-002
  -2.3360665761464380E-002   6.5369101453489897E-003   2.5042751705287303E-002
  -2.1019088078132901E-002   5.7040830842113380E-003   2.4352738575331212E-002
  -1.8677510394801367E-002   4.8113819446206074E-003   2.3607567603878610E-002
  -3.1003555703515845E-002   9.0116212068072077E-003   1.9785796229001729E-002
  -2.8698631678432229E-002   8.2659159695945283E-003   1.9193225994272922E-002
  -2.6393707653348711E-002   7.5168538841906829E-003   1.8582506284544414E-002
  -2.4088783628265130E-002   6.7644349505949011E-003   1.7953637099816219E-002
  -2.1783859603181577E-002   6.0086591688081059E-003   1.7306618440088462E-002
  -3.3963051786595096E-002   1.0000300381349803E-002   1.3253403069180297E-002
  -3.1657773053262978E-002   9.2219688111557507E-003   1.2704477276948012E-002
  -2.9352494319930863E-002   8.4967976230320291E-003   1.2174410376212724E-002
  -2.7047215586598713E-002   7.8247868169785718E-003   1.1663202366974358E-002
  -2.4741936853266575E-002   7.2059363929953268E-003   1.1170853249232893E-002
  -3.6922309377365521E-002   1.0988979555892397E-002   6.6601249612462735E-003
  -3.4579667569288181E-002   1.0178021652717403E-002   6.2113608417725188E-003
  -3.2237025761210861E-002   9.4767413618741594E-003   5.8184639802923398E-003
  -2.9894383953133541E-002   8.8851386833624108E-003   5.4814343768051135E-003
  -2.7551742145056204E-002   8.4032136171824645E-003   5.2002720313122017E-003
  -3.9881328475826927E-002   1.1977658730435214E-002   5.9619052000803308E-006
  -3.7464315226507727E-002   1.1134074494278390E-002  -2.8612331125377199E-004
  -3.5047301977188694E-002   1.0456685100715013E-002  -4.8533290321742251E-004
  -3.2630288727869522E-002   9.9454905497458473E-003  -5.9166687069071161E-004
  -3.0213275478550461E-002   9.6004908413700463E-003  -6.0512521367417360E-004
  -1.8677510394801367E-002   4.8113819446206074E-003   2.3607567603878610E-002
  -1.5654272592492607E-002   4.0787405874863625E-003   2.4393999715240366E-002
  -1.2631034790183820E-002   3.7260928737194721E-003   2.5654722688543519E-002
  -9.6077969878750197E-003   3.7534388033199570E-003   2.7389736523787567E-002
  -6.5845591855662744E-003   4.1607783762869222E-003   2.9599041220972788E-002
  -2.1783859603181577E-002   6.0086591688081059E-003   1.7306618440088462E-002
  -1.8555855857696188E-002   5.3426815354378210E-003   1.8253270985177206E-002
  -1.5327852112210730E-002   4.8596570470915978E-003   1.9135164554678286E-002
  -1.2099848366725244E-002   4.5595857037711920E-003   1.9952299148591562E-002
  -8.8718446212398827E-003   4.4424675054751672E-003   2.0704674766917064E-002
  -2.4741936853266575E-002   7.2059363929953268E-003   1.1170853249232893E-002
  -2.1848217002133283E-002   6.6066224833885578E-003   1.2080685729706414E-002
  -1.8954497150999998E-002   5.9932212204639596E-003   1.2386709397063281E-002
  -1.6060777299866703E-002   5.3657326042222085E-003   1.2088924251303486E-002
  -1.3167057448733421E-002   4.7241566346633013E-003   1.1187330292427189E-002
  -2.7551742145056204E-002   8.4032136171824645E-003   5.2002720313122017E-003
  -2.5531356025803861E-002   7.8705634313396555E-003   5.8762439488280888E-003
  -2.3510969906551521E-002   7.1267853938365364E-003   5.4093572156982371E-003
  -2.1490583787299202E-002   6.1718795046732233E-003   3.7996118319235574E-003
  -1.9470197668046835E-002   5.0058457638511578E-003   1.0470077975028441E-003
  -3.0213275478550461E-002   9.6004908413700463E-003  -6.0512521367417360E-004
  -2.9605272928707849E-002   9.1345043792905312E-003  -3.6005435745828374E-004
  -2.8997270378865403E-002   8.2603495672082250E-003  -1.7968919894160162E-003
  -2.8389267829022902E-002   6.9780264051247376E-003  -4.9156381095488144E-003
  -2.7781265279180345E-002   5.2875348930396804E-003  -9.7162927178552350E-003
  -6.5845591855662744E-003   4.1607783762869222E-003   2.9599041220972788E-002
  -6.0563664156476071E-003   6.1428872335023144E-003   3.4076470984510387E-002
  -5.5281736457289954E-003   1.0894541015846915E-002   3.9238924845736434E-002
  -4.9999808758103004E-003   1.8415739723320043E-002   4.5086402804650927E-002
  -4.4717881058917719E-003   2.8706483355922074E-002   5.1618904861253867E-002
  -8.8718446212398827E-003   4.4424675054751672E-003   2.0704674766917064E-002
  -7.5862196411855265E-003   5.6587568304941049E-003   2.5873288664448768E-002
  -6.3005946611311286E-003   9.3589080571179206E-003   3.1871742884563348E-002
  -5.0149696810768696E-003   1.5542921185346115E-002   3.8700037427260719E-002
  -3.7293447010223746E-003   2.4210796215179187E-002   4.6358172292541466E-002
  -1.3167057448733421E-002   4.7241566346633013E-003   1.1187330292427189E-002
  -1.0979184033648948E-002   5.1746264274863396E-003   1.6761445300428834E-002
  -8.7913106185645018E-003   7.8232750983893984E-003   2.3310216855907534E-002
  -6.6034372034799796E-003   1.2670102647372804E-002   3.0833644958863607E-002
  -4.4155637883956933E-003   1.9715109074436743E-002   3.9331729609297206E-002
  -1.9470197668046835E-002   5.0058457638511578E-003   1.0470077975028441E-003
  -1.6235259593037885E-002   4.6904960244777971E-003   6.7409408924503852E-003
  -1.3000321518028907E-002   6.2876421396596410E-003   1.3554346759769298E-002
  -9.7653834430199305E-003   9.7972841093987399E-003   2.1487225399459835E-002
  -6.5304453680109786E-003   1.5219421933694188E-002   3.0539576811522778E-002
  -2.7781265279180345E-002   5.2875348930396804E-003  -9.7162927178552350E-003
  -2.3354446319352462E-002   4.2063656214692546E-003  -4.1882245594866974E-003
  -1.8927627359524524E-002   4.7520091809321041E-003   2.6041325961481399E-003
  -1.4500808399696530E-002   6.9244655714260639E-003   1.0660778749049589E-002
  -1.0073989439868702E-002   1.0723734792951412E-002   1.9981713899216214E-002
 </DataArray>
 </PointData>
 </Piece>
 </UnstructuredGrid>
 </VTKFile>
